Image X[Pixel],Image Y[Pixel],X[mm],Y[mm],Z[mm],Horizontal Displacement U[mm],Vertical Displacement V[mm],Out-Of-Plane: W[mm],Horizontal: u[Pixel],Vertical: v[Pixel],Horizontal: q[Pixel],Vertical: r[Pixel],Correlation Value 2D,Correlation Value Persp,Sigma,Epipolar Distance,Strain-global frame: Exx,Strain-global frame: Eyy,Strain-global frame: Exy,Maximum Principal Strain: EI,Minimum Principal Strain: EII,Shear Angle Gamma,Von Mises Equivalent Strain,
2011,1993,-5.28197237473933,-14.2515018399676,0.0214033533889051,0.002690,0.000733,-0.009012,0.148018,-0.046901,332.474284,24.961800,0.998901,0.983632,0.005131,0.264892,0.000002,-0.000121,0.000010,0.000003,-0.000121,4.778332,0.000138,
2026,2068,-4.96609668173826,-12.6085525646942,0.0232558784497883,0.002529,-0.000183,-0.005731,0.131697,-0.053948,331.180552,24.751407,0.999713,0.993094,0.003513,0.332322,0.000031,-0.000058,0.000028,0.000038,-0.000066,15.926258,0.000067,
2056,2218,-4.33566469008306,-9.32085212324509,0.00324853697856042,0.002791,0.000275,-0.007307,0.148795,-0.040603,328.449462,24.632343,0.998472,0.983323,0.005227,0.253457,-0.000027,0.000022,0.000002,0.000022,-0.000027,87.268885,0.000029,
2041,2143,-4.65104801725291,-10.9643382038503,0.0133760800858909,0.002368,-0.000024,-0.005822,0.124837,-0.056622,329.799894,24.663944,0.998164,0.982563,0.005790,0.301674,-0.000014,-0.000006,0.000014,0.000005,-0.000025,53.628041,0.000027,
2086,2368,-3.7065170915781,-6.04174992618357,-0.0122070972072947,0.002852,-0.000348,-0.006573,0.149884,-0.049309,325.750368,24.358272,0.998541,0.982109,0.005340,0.386875,-0.000046,-0.000024,-0.000022,-0.000011,-0.000059,-58.190065,0.000076,
2071,2293,-4.02138069091056,-7.68066707574327,-0.00675318283617798,0.002629,-0.000049,-0.005212,0.135572,-0.038051,327.066278,24.455366,0.999789,0.993765,0.003703,0.356961,-0.000053,0.000004,-0.000002,0.000004,-0.000053,-87.888022,0.000059,
2116,2518,-3.07892113044286,-2.76567499651962,-0.0257476917995518,0.002512,-0.000465,-0.004567,0.128818,-0.050393,323.052688,24.352385,0.999184,0.988407,0.004337,0.340129,-0.000035,-0.000018,-0.000024,-0.000001,-0.000052,-54.847400,0.000061,
2146,2668,-2.45093952872054,0.503639304583238,-0.0247043416682686,0.002614,-0.000051,-0.004058,0.132498,-0.026646,320.510805,24.334662,0.999595,0.992614,0.003530,0.410975,-0.000034,-0.000020,-0.000017,-0.000008,-0.000045,-56.473136,0.000057,
2101,2443,-3.39203813048774,-4.40370070245884,-0.0108623339212386,0.002944,-0.000478,-0.001728,0.140188,-0.037756,324.468903,24.354904,0.999359,0.988767,0.004328,0.365568,-0.000056,-0.000042,-0.000034,-0.000015,-0.000083,-50.668139,0.000106,
2266,3268,0.0527693669298621,13.5404286723414,0.0110553561620463,0.002487,-0.000655,-0.001193,0.118297,-0.041512,310.672715,25.291463,0.999642,0.993697,0.003281,0.386582,-0.000019,-0.000011,-0.000015,0.000000,-0.000031,-52.190145,0.000035,
2011,2008,-5.2851904291792,-13.921226257503,0.0155156900527231,0.002473,-0.000429,-0.000581,0.114925,-0.035360,332.152119,24.991950,0.998957,0.985173,0.004951,0.238546,0.000011,-0.000090,0.000007,0.000012,-0.000091,3.746836,0.000099,
2026,2083,-4.96864017818185,-12.2788041573312,0.0177878546911643,0.002519,-0.000037,-0.005392,0.130396,-0.057862,330.893226,24.783113,0.999214,0.987515,0.004584,0.290697,0.000021,-0.000022,0.000028,0.000035,-0.000035,25.916794,0.000041,
2191,2893,-1.51050173418407,5.40043137177847,-0.0183594097895252,0.002702,-0.000300,-0.005316,0.140993,-0.031794,316.758028,24.596499,0.999789,0.995568,0.003006,0.342811,-0.000032,-0.000008,-0.000004,-0.000008,-0.000033,-81.225030,0.000043,
2176,2818,-1.82494752325732,3.77068548628799,-0.0359078349173387,0.002595,-0.000530,-0.003662,0.130611,-0.044621,317.869705,24.526204,0.999432,0.991274,0.003796,0.313505,-0.000039,-0.000010,-0.000014,-0.000005,-0.000044,-67.910997,0.000054,
2326,2173,1.55839685452662,-10.3084583316979,0.00636611828241485,0.002670,-0.000155,-0.002644,0.131322,-0.016551,328.388908,23.230030,0.998787,0.980310,0.005401,0.263299,-0.000046,-0.000019,-0.000017,-0.000011,-0.000054,-63.778357,0.000069,
2221,3043,-0.883998750190177,8.65823580231133,0.00347420635051776,0.002656,-0.000994,-0.000619,0.123985,-0.046270,314.393421,24.822528,0.999719,0.994281,0.003118,0.338247,-0.000028,-0.000012,-0.000010,-0.000008,-0.000033,-64.531555,0.000043,
2296,2023,0.932062356785163,-13.6027563467006,0.0253365628155393,0.002664,-0.000655,-0.001689,0.127399,-0.041764,330.977919,22.867760,0.999127,0.983517,0.005258,0.427317,-0.000047,0.000027,-0.000039,0.000043,-0.000064,-66.821122,0.000065,
2401,2548,3.12161494359728,-2.10541407219728,-0.0200590315143927,0.002868,-0.000394,-0.006302,0.154236,-0.049100,322.150287,23.856911,0.999411,0.990776,0.004319,0.388230,-0.000015,-0.000038,-0.000015,-0.000008,-0.000045,-26.059659,0.000057,
2161,2743,-2.13774552090885,2.13742933562551,-0.0337260527397802,0.002919,-0.000743,-0.003593,0.145002,-0.071492,319.174349,24.404024,0.999353,0.990067,0.004098,0.342677,-0.000046,-0.000019,-0.000020,-0.000008,-0.000057,-62.457213,0.000071,
2041,2158,-4.65430190540991,-10.6328657438817,-0.00368087989221522,0.002622,-0.000532,-0.001970,0.125684,-0.040607,329.417223,24.739367,0.999246,0.988094,0.004655,0.238392,-0.000016,-0.000013,-0.000010,-0.000004,-0.000025,-48.835438,0.000031,
2371,2398,2.49670364971658,-5.3833363708687,-0.00868619782227142,0.002427,-0.000007,-0.003876,0.125041,-0.019054,324.625397,23.504946,0.999483,0.988700,0.004431,0.395404,-0.000020,-0.000011,0.000007,-0.000007,-0.000024,61.331767,0.000032,
2131,2593,-2.76486035424311,-1.13017232446478,-0.0293620297627513,0.002864,-0.000540,-0.002912,0.140293,-0.024980,321.755569,24.311771,0.999485,0.991310,0.003981,0.410596,-0.000037,-0.000004,-0.000012,0.000000,-0.000041,-72.408680,0.000048,
2416,2623,3.43249545606417,-0.467869030543355,-0.0273809523854993,0.002450,-0.000958,-0.001911,0.119038,-0.054974,320.852604,24.069350,0.999371,0.989434,0.004039,0.388206,-0.000017,-0.000008,-0.000020,0.000007,-0.000032,-50.793861,0.000034,
2491,2998,4.99227344573891,7.70018213600142,-0.000580189986749247,0.002195,-0.000949,0.000218,0.099502,-0.068000,315.089367,25.534277,0.999361,0.988865,0.004061,0.312277,-0.000013,-0.000027,0.000011,-0.000007,-0.000033,28.081167,0.000042,
2056,2233,-4.33834749669905,-8.99206599599898,-0.00483132498874284,0.002927,0.000072,-0.006336,0.152256,-0.036536,328.144574,24.600614,0.999184,0.988944,0.004512,0.286674,-0.000035,0.000025,0.000005,0.000026,-0.000035,85.107991,0.000036,
2341,2248,1.87061183979047,-8.6657087199011,-0.00235827997937577,0.002246,-0.000390,-0.000597,0.104854,-0.028384,327.077061,23.255460,0.999057,0.983778,0.005010,0.342325,-0.000044,-0.000037,-0.000023,-0.000017,-0.000064,-49.245272,0.000085,
2311,2098,1.24538025680467,-11.9544308380834,0.0149446016262686,0.002801,-0.000624,-0.001521,0.133208,-0.043691,329.678415,23.088611,0.999351,0.982811,0.005307,0.280944,-0.000041,-0.000009,-0.000023,0.000003,-0.000054,-62.230248,0.000060,
2461,2848,4.36716131373393,4.4383542400011,-0.036388318600018,0.002537,-0.000557,-0.001123,0.120449,-0.043593,317.189099,24.916048,0.999700,0.993680,0.003298,0.332013,-0.000043,0.000015,-0.000011,0.000017,-0.000045,-79.909335,0.000046,
2446,2773,4.05575895108757,2.8034854109368,-0.0380883967288241,0.002427,-0.000505,-0.006248,0.134469,-0.066498,318.383414,24.549573,0.999521,0.989370,0.004177,0.395231,-0.000026,0.000006,-0.000020,0.000016,-0.000035,-64.236171,0.000035,
2251,3193,-0.25730424832156,11.9127987103857,0.0326138250879922,0.002686,-0.000673,-0.002374,0.131258,-0.045048,312.123746,25.159912,0.999486,0.993290,0.003350,0.322588,-0.000023,-0.000020,-0.000015,-0.000006,-0.000037,-48.344547,0.000046,
2011,2023,-5.28697895590763,-13.593126573335,0.0138794719216548,0.002732,0.000069,-0.003666,0.135326,-0.044402,331.919380,24.898652,0.998892,0.984855,0.005006,0.314395,0.000011,-0.000166,-0.000012,0.000012,-0.000167,-3.739588,0.000187,
2431,2698,3.74425502043657,1.16965057970015,-0.0269471830276871,0.002262,-0.000684,-0.000811,0.106499,-0.044606,319.644088,24.450235,0.999729,0.992711,0.003587,0.256735,-0.000013,0.000018,-0.000029,0.000036,-0.000030,-59.078404,0.000038,
2476,2923,4.67956098111803,6.0703818731228,-0.0232544702163864,0.002317,-0.000836,-0.002938,0.117195,-0.067161,316.104946,25.257834,0.999161,0.987506,0.004423,0.267831,-0.000039,-0.000014,-0.000002,-0.000014,-0.000039,-85.672587,0.000055,
2101,2458,-3.39454890212602,-4.07588122939918,-0.0172991504044262,0.003096,-0.000422,-0.003600,0.152675,-0.042699,324.185508,24.345281,0.999349,0.988907,0.004280,0.373117,-0.000054,-0.000034,-0.000032,-0.000010,-0.000078,-53.441960,0.000097,
2356,2323,2.1836445999389,-7.02535504837924,-0.000819230609351962,0.002140,-0.000947,0.001758,0.091538,-0.047273,325.866603,23.308511,0.999698,0.994802,0.003534,0.406732,-0.000043,-0.000011,-0.000007,-0.000009,-0.000044,-78.249429,0.000057,
2236,3118,-0.570909437166666,10.2865668729279,0.0124992874136183,0.002634,-0.000363,-0.002495,0.129336,-0.024114,313.212248,24.986914,0.999582,0.992731,0.003545,0.345953,-0.000035,-0.000013,-0.000016,-0.000005,-0.000043,-62.933523,0.000053,
2026,2098,-4.97036705961602,-11.9499365087403,0.0170585571399897,0.002845,0.000003,-0.008347,0.153448,-0.072952,330.669697,24.803594,0.998842,0.981826,0.005399,0.248467,0.000013,-0.000016,0.000032,0.000034,-0.000037,33.082402,0.000041,
2086,2383,-3.70877927535758,-5.7125542908187,-0.0182613783688339,0.003221,-0.000063,-0.008023,0.171123,-0.060882,325.478701,24.457454,0.998605,0.982090,0.005277,0.276846,-0.000044,-0.000028,-0.000022,-0.000012,-0.000059,-54.903709,0.000076,
2326,2188,1.55673829691945,-9.98219874596298,0.0163443367421223,0.002874,-0.000239,-0.004563,0.147249,-0.055246,328.247237,23.187240,0.999115,0.983123,0.005133,0.303770,-0.000048,-0.000015,-0.000019,-0.000006,-0.000056,-65.127096,0.000069,
2266,3283,0.0493400563320101,13.8656503029211,0.000215281823670921,0.002415,-0.000812,-0.003229,0.121695,-0.051074,310.339170,25.287151,0.999542,0.993606,0.003237,0.405235,-0.000027,-0.000013,-0.000019,0.000000,-0.000040,-55.445929,0.000047,
2206,2968,-1.19641321146137,7.02973308974275,-0.00401542034131808,0.003108,-0.000415,-0.003817,0.155068,-0.037136,315.625655,24.718683,0.999379,0.992057,0.003660,0.322837,-0.000029,-0.000016,-0.000010,-0.000010,-0.000034,-61.756484,0.000046,
2386,2473,2.80892606599962,-3.74385248431354,-0.0100996632271517,0.002511,-0.001043,0.001870,0.108035,-0.038949,323.390669,23.709247,0.999398,0.989771,0.004328,0.348324,-0.000018,-0.000028,0.000003,-0.000017,-0.000029,16.578039,0.000047,
2011,2038,-5.28898321866008,-13.262751401677,0.0036700888643395,0.003185,0.000869,-0.008658,0.169851,-0.033906,331.628427,24.902589,0.998603,0.981654,0.005351,0.313020,0.000011,-0.000175,-0.000004,0.000011,-0.000175,-1.294652,0.000196,
2056,2248,-4.34050801778836,-8.66434509546033,-0.00484767275503373,0.002903,0.000278,-0.008329,0.156822,-0.047081,327.908103,24.575121,0.999025,0.986862,0.004743,0.298553,-0.000044,0.000035,0.000008,0.000036,-0.000045,84.163198,0.000048,
2041,2173,-4.655942512313,-10.3062255413597,0.00482125239949482,0.002625,-0.000296,-0.002829,0.128287,-0.036497,329.250328,24.664336,0.999170,0.989570,0.004397,0.312161,-0.000028,-0.000006,-0.000010,-0.000002,-0.000031,-69.118092,0.000037,
2146,2683,-2.45380522587189,0.831240022950482,-0.033284931728474,0.002916,-0.000671,-0.002244,0.140693,-0.059121,320.203960,24.394649,0.999314,0.991448,0.003757,0.326970,-0.000036,-0.000012,-0.000018,-0.000003,-0.000046,-61.709473,0.000055,
2476,2938,4.67681395942316,6.39617401502583,-0.0206174358253293,0.002241,-0.000626,-0.004796,0.120883,-0.052997,315.885579,25.274152,0.999414,0.990124,0.003909,0.321689,-0.000043,-0.000024,-0.000003,-0.000023,-0.000043,-81.110663,0.000067,
2191,2908,-1.51335235394516,5.72435097750359,-0.00999042423796936,0.002144,-0.000786,-0.000947,0.101374,-0.044377,316.545166,24.496164,0.999792,0.995376,0.003065,0.444444,-0.000029,-0.000022,-0.000003,-0.000020,-0.000030,-69.830933,0.000050,
2071,2308,-4.02440895827127,-7.35116734352271,-0.0200705130881715,0.002651,0.000182,-0.006515,0.140405,-0.037060,326.718397,24.469337,0.999808,0.993433,0.003821,0.343341,-0.000060,-0.000018,-0.000014,-0.000014,-0.000064,-73.050239,0.000083,
2116,2533,-3.08182186317107,-2.43795923817484,-0.0310415606411425,0.002086,0.000500,-0.008745,0.121937,-0.022939,322.758859,24.339129,0.999174,0.986499,0.004645,0.385605,-0.000042,-0.000008,-0.000018,0.000000,-0.000050,-66.634684,0.000058,
2491,3013,4.98911442291337,8.02697661535428,-0.00628612699892983,0.002406,-0.000800,-0.001954,0.117568,-0.075696,314.813731,25.627332,0.999622,0.993102,0.003394,0.269788,-0.000015,-0.000016,0.000013,-0.000002,-0.000029,44.176302,0.000035,
2296,2038,0.92956727024378,-13.27147800848,0.0287925284420112,0.002390,0.000045,-0.005097,0.126609,-0.040385,330.763496,23.120810,0.999268,0.985522,0.004876,0.209001,-0.000055,0.000019,-0.000042,0.000039,-0.000074,-65.512018,0.000074,
2461,2863,4.36427785737918,4.76470769396664,-0.0332111818644876,0.002113,-0.000141,-0.004761,0.114913,-0.028119,316.965133,24.967060,0.999472,0.991898,0.003608,0.350586,-0.000045,0.000014,-0.000014,0.000017,-0.000049,-77.344387,0.000049,
2161,2758,-2.14029947827544,2.4633311497138,-0.0269954977809448,0.002685,-0.000956,0.000355,0.122104,-0.058777,318.964204,24.410478,0.999071,0.987838,0.004295,0.358939,-0.000045,-0.000018,-0.000018,-0.000009,-0.000054,-63.060102,0.000068,
2401,2563,3.11761804440771,-1.77754563952691,-0.0233900976867858,0.002329,-0.000466,-0.002892,0.117094,-0.058259,321.841519,23.925984,0.999303,0.988797,0.004318,0.356529,-0.000017,-0.000021,-0.000015,-0.000004,-0.000034,-40.791774,0.000042,
2416,2638,3.42997063286916,-0.140244589140167,-0.0256721551931491,0.002612,-0.000829,-0.003503,0.132297,-0.072143,320.636025,24.191905,0.999426,0.989852,0.004038,0.296742,-0.000018,-0.000001,-0.000024,0.000016,-0.000035,-54.946299,0.000036,
2176,2833,-1.82747051104955,4.09692864541559,-0.0393166929720792,0.003050,-0.000408,-0.000592,0.142051,-0.032819,317.608620,24.508580,0.999662,0.994633,0.003253,0.355147,-0.000039,-0.000009,-0.000009,-0.000006,-0.000041,-74.978122,0.000052,
2011,2053,-5.2912697101155,-12.934353539612,0.00923741693998181,0.003121,-0.000568,-0.001948,0.148365,-0.053385,331.413267,24.939182,0.999428,0.991532,0.003847,0.248149,0.000008,-0.000133,-0.000009,0.000009,-0.000133,-3.726201,0.000149,
2221,3058,-0.885775328714484,8.98307690039607,0.0116055458205437,0.002779,-0.000511,-0.002926,0.137189,-0.036049,314.229851,24.816925,0.999764,0.994920,0.002904,0.372189,-0.000028,-0.000019,-0.000012,-0.000011,-0.000036,-56.039807,0.000049,
2431,2713,3.74209224123164,1.49427170336513,-0.0159011127475424,0.002358,-0.000897,0.001546,0.102135,-0.049101,319.488880,24.382542,0.999704,0.992433,0.003602,0.369949,-0.000016,0.000021,-0.000030,0.000037,-0.000032,-60.880321,0.000041,
2251,3208,-0.2601054643143,12.2375536289878,0.0317851560960207,0.002437,-0.000915,-0.005142,0.128844,-0.056330,311.868979,25.147903,0.999727,0.995815,0.002924,0.345283,-0.000020,-0.000019,-0.000015,-0.000005,-0.000034,-46.550137,0.000043,
2026,2113,-4.97344377219212,-11.6209567558651,0.0120783877648591,0.002664,-0.000656,-0.001530,0.126278,-0.053669,330.360795,24.759638,0.998276,0.979457,0.005913,0.305487,0.000005,-0.000013,0.000032,0.000029,-0.000037,36.941680,0.000039,
2101,2473,-3.39768401591204,-3.74836738059172,-0.0166265338753533,0.002519,-0.000783,-0.000045,0.115691,-0.040486,323.911947,24.371978,0.999274,0.989485,0.004248,0.351273,-0.000050,-0.000030,-0.000029,-0.000009,-0.000071,-54.775549,0.000088,
2446,2788,4.05308366109188,3.12975179968859,-0.0304972506646095,0.002476,-0.000802,-0.002025,0.120839,-0.064456,318.188774,24.619343,0.999486,0.989967,0.003979,0.379544,-0.000027,0.000002,-0.000025,0.000017,-0.000042,-60.111611,0.000042,
2266,3298,0.0470776229924255,14.1913447564334,0.00678010882035096,0.002389,-0.000673,-0.003394,0.121018,-0.056650,310.147014,25.421073,0.999563,0.994090,0.003259,0.289434,-0.000027,-0.000008,-0.000027,0.000012,-0.000046,-54.739972,0.000048,
2311,2113,1.24259142619104,-11.627077778565,0.0208927374976611,0.002312,-0.000860,-0.001386,0.110300,-0.062386,329.464262,23.058049,0.999268,0.982883,0.005219,0.328006,-0.000043,-0.000002,-0.000022,0.000007,-0.000053,-67.038425,0.000057,
2086,2398,-3.71115815008557,-5.38537302368852,-0.0183165452282879,0.003030,0.000135,-0.010383,0.169206,-0.056546,325.234651,24.419896,0.998885,0.985135,0.004834,0.319475,-0.000046,-0.000018,-0.000023,-0.000005,-0.000059,-60.863970,0.000071,
2296,2053,0.927043714852491,-12.9421703567035,0.0255487600009019,0.002909,0.000063,-0.003847,0.146179,-0.021212,330.514788,23.106762,0.999171,0.984223,0.004995,0.275634,-0.000055,-0.000005,-0.000040,0.000017,-0.000077,-61.190060,0.000081,
2341,2263,1.86806724528349,-8.33806030775249,0.00202776044170605,0.002163,-0.000539,-0.000683,0.101304,-0.043268,326.868189,23.282350,0.999162,0.984767,0.004874,0.339436,-0.000044,-0.000044,-0.000023,-0.000021,-0.000067,-45.064109,0.000092,
2071,2323,-4.02588141408974,-7.02495737919627,-0.00713057384399463,0.002816,-0.000231,-0.004122,0.141051,-0.039581,326.585690,24.453114,0.999294,0.988554,0.004434,0.355463,-0.000056,-0.000025,-0.000022,-0.000014,-0.000067,-62.690143,0.000087,
2236,3133,-0.573549289728678,10.6122495024592,0.00744694909980126,0.002897,-0.000335,-0.004168,0.146920,-0.023091,312.942021,25.003730,0.999642,0.993284,0.003527,0.350099,-0.000037,-0.000010,-0.000014,-0.000004,-0.000043,-66.633097,0.000052,
2371,2413,2.49395057839373,-5.05482512128611,-0.0100878316642934,0.002448,0.000025,-0.006520,0.135352,-0.046817,324.380927,23.617297,0.999551,0.989880,0.004245,0.297943,-0.000022,-0.000013,0.000008,-0.000008,-0.000027,59.600658,0.000037,
2476,2953,4.67434835005472,6.72179538147313,-0.0134563611524641,0.002425,-0.000623,-0.002386,0.120174,-0.045707,315.699724,25.317046,0.999382,0.989762,0.003994,0.342016,-0.000037,-0.000022,0.000005,-0.000020,-0.000039,72.930532,0.000060,
2356,2338,2.1810703191025,-6.69538245436674,-0.00252025764217478,0.002508,-0.000706,0.001272,0.110194,-0.040909,325.627549,23.491030,0.999378,0.989857,0.004313,0.271415,-0.000042,-0.000019,-0.000003,-0.000019,-0.000043,-82.887836,0.000063,
2116,2548,-3.08436702484644,-2.11123795057928,-0.0327938198895481,0.002374,-0.000254,-0.003918,0.120688,-0.031879,322.500673,24.307935,0.999283,0.988675,0.004299,0.412274,-0.000037,-0.000005,-0.000012,-0.000001,-0.000041,-71.720003,0.000048,
2326,2203,1.55319167582976,-9.65261021522547,0.00973937100900457,0.002430,-0.000142,-0.006904,0.135023,-0.070250,327.937802,23.255323,0.999164,0.982776,0.005343,0.258023,-0.000051,-0.000020,-0.000019,-0.000011,-0.000060,-65.105809,0.000077,
2131,2608,-2.76680765974127,-0.803846181907119,-0.0256612434621957,0.003018,-0.000679,-0.004380,0.151677,-0.059228,321.555256,24.335880,0.999485,0.990645,0.004111,0.358633,-0.000037,-0.000003,-0.000011,0.000000,-0.000041,-73.331178,0.000047,
2056,2263,-4.34299394418307,-8.33598528389952,-0.00615462039166914,0.003025,-0.000263,-0.004087,0.150376,-0.043932,327.649496,24.586394,0.998994,0.984931,0.005173,0.287421,-0.000050,0.000022,0.000010,0.000023,-0.000052,81.893189,0.000052,
2041,2188,-4.65846921424399,-9.97770322645098,0.00468986332867871,0.002368,-0.000126,-0.002215,0.114863,-0.025612,328.994928,24.667530,0.999052,0.986638,0.004806,0.315177,-0.000032,0.000028,0.000006,0.000029,-0.000032,84.446567,0.000035,
2206,2983,-1.19955963071712,7.35634602610867,-0.00972475111092308,0.002816,0.000001,-0.005916,0.148417,-0.025909,315.326207,24.763262,0.999436,0.992458,0.003533,0.305691,-0.000030,-0.000015,-0.000008,-0.000012,-0.000034,-67.486504,0.000047,
2191,2923,-1.51563563912001,6.05162338803525,-0.0105096271295793,0.002492,-0.000688,-0.000675,0.116636,-0.037004,316.310976,24.623810,0.999402,0.992110,0.003668,0.338049,-0.000030,-0.000020,-0.000001,-0.000020,-0.000030,-82.210860,0.000051,
2386,2488,2.80579135813142,-3.41599386637809,-0.0134037686565307,0.002357,-0.000777,-0.000303,0.108893,-0.042162,323.120640,23.745387,0.999450,0.989735,0.004166,0.353616,-0.000014,-0.000040,-0.000002,-0.000013,-0.000040,-4.560662,0.000056,
2011,2068,-5.29317569485261,-12.6070250497523,0.0137812195015385,0.002835,-0.000180,-0.006200,0.146831,-0.068914,331.209948,24.867759,0.999397,0.991910,0.003839,0.295433,0.000008,-0.000073,0.000003,0.000008,-0.000073,2.428034,0.000080,
2026,2128,-4.97581948456618,-11.2913381522784,0.00877533307107115,0.002695,-0.000122,-0.001219,0.127032,-0.025683,330.093032,24.789257,0.998573,0.978991,0.005988,0.297170,0.000001,-0.000019,0.000025,0.000018,-0.000036,33.915741,0.000036,
2416,2653,3.4267437102367,0.187154193177761,-0.0247088259531552,0.002454,-0.000520,-0.001020,0.116112,-0.041093,320.383539,24.243864,0.999450,0.989976,0.004120,0.324272,-0.000020,-0.000003,-0.000030,0.000020,-0.000043,-52.550719,0.000043,
2401,2578,3.11481006942393,-1.44974552610064,-0.0260706941386388,0.002457,-0.000650,-0.005438,0.132126,-0.071467,321.590368,24.003544,0.999363,0.987870,0.004384,0.312142,-0.000017,-0.000008,-0.000015,0.000002,-0.000028,-53.357742,0.000031,
2461,2878,4.36099838971456,5.09147334876432,-0.0373295497247454,0.002176,-0.000154,-0.005023,0.118833,-0.020094,316.689362,25.013818,0.999347,0.992427,0.003631,0.366054,-0.000044,0.000011,-0.000010,0.000012,-0.000046,-80.362946,0.000048,
2161,2773,-2.14327717872377,2.79068818168005,-0.0363199193154173,0.002595,-0.000655,-0.003345,0.129404,-0.060088,318.649609,24.442463,0.999403,0.991130,0.003843,0.335891,-0.000042,-0.000022,-0.000019,-0.000010,-0.000053,-58.673278,0.000068,
2146,2698,-2.45677047785843,1.15838812524478,-0.0394451194969747,0.002731,-0.000309,-0.003810,0.137077,-0.032840,319.905326,24.380160,0.999392,0.991100,0.003817,0.376277,-0.000034,-0.000020,-0.000020,-0.000006,-0.000049,-54.855552,0.000060,
2281,1993,0.610082293915756,-14.259071632024,0.0287903439847241,0.002802,-0.000485,-0.000983,0.131361,-0.047334,331.506672,23.133684,0.999467,0.970050,0.006609,0.194551,-0.000041,0.000007,-0.000073,0.000060,-0.000095,-54.113637,0.000096,
2446,2803,4.0499252260446,3.45747443989129,-0.0344367503664103,0.002501,-0.000660,-0.003768,0.128582,-0.055716,317.918311,24.731069,0.999617,0.991433,0.003665,0.328728,-0.000026,0.000005,-0.000024,0.000019,-0.000039,-61.589151,0.000040,
2296,2068,0.924492290741394,-12.6137503996331,0.0270520496292193,0.002985,-0.000277,-0.003472,0.148260,-0.050517,330.288542,23.118776,0.999246,0.983888,0.005015,0.267773,-0.000055,-0.000012,-0.000037,0.000009,-0.000076,-60.027681,0.000083,
2431,2728,3.73920687713069,1.82064067460706,-0.0197328545032178,0.002721,-0.001003,0.001152,0.120200,-0.060290,319.230955,24.365542,0.999732,0.992823,0.003477,0.425921,-0.000020,0.000015,-0.000023,0.000026,-0.000031,-63.047987,0.000034,
2491,3028,4.98608552718703,8.35320263255143,-0.00848474228916984,0.002613,-0.000509,-0.002169,0.128081,-0.056548,314.559957,25.669360,0.999736,0.994428,0.003176,0.305129,-0.000013,0.000001,0.000009,0.000005,-0.000017,64.441686,0.000017,
2221,3073,-0.888477047557057,9.30886793882627,0.0123567733097616,0.002603,-0.000492,-0.003734,0.131653,-0.049277,313.985495,24.877747,0.999624,0.993551,0.003244,0.316002,-0.000029,-0.000011,-0.000015,-0.000003,-0.000037,-60.476809,0.000044,
2086,2413,-3.71373074048842,-5.05935762723262,-0.0095521675971213,0.002635,-0.000760,-0.004099,0.132677,-0.071342,325.029973,24.383501,0.998927,0.985976,0.004641,0.341426,-0.000050,-0.000033,-0.000028,-0.000012,-0.000071,-53.099462,0.000089,
2101,2488,-3.39977482597137,-3.42167951142386,-0.0199162007929772,0.002778,-0.000571,-0.003633,0.138155,-0.048241,323.665027,24.301375,0.999108,0.989839,0.004195,0.416583,-0.000052,-0.000026,-0.000028,-0.000009,-0.000070,-57.523007,0.000086,
2251,3223,-0.26250230943344,12.5623335556833,0.0461350323038801,0.002114,-0.000554,0.000570,0.095345,-0.025105,311.709890,25.186551,0.999678,0.995308,0.003045,0.359589,-0.000019,-0.000006,-0.000015,0.000004,-0.000029,-56.245654,0.000031,
2026,2143,-4.97778153362215,-10.9641865327149,0.0109168177493757,0.002778,-0.000333,-0.001371,0.131211,-0.051599,329.875162,24.711927,0.998114,0.979358,0.005914,0.341618,0.000005,0.000003,0.000022,0.000026,-0.000017,43.903381,0.000026,
2071,2338,-4.02773973596766,-6.69794470687944,-0.00125607137704264,0.002781,-0.000083,-0.005865,0.144435,-0.036114,326.396601,24.438071,0.998754,0.986266,0.004795,0.372453,-0.000054,-0.000030,-0.000027,-0.000013,-0.000072,-57.066072,0.000091,
2476,2968,4.6717410352697,7.04821629878987,-0.00763371010975789,0.002234,-0.000333,-0.004157,0.118267,-0.036230,315.500969,25.425350,0.999511,0.990808,0.003859,0.299118,-0.000034,-0.000018,0.000012,-0.000011,-0.000040,62.288630,0.000054,
2176,2848,-1.829465846344,4.4222361513787,-0.0292808148421955,0.002876,-0.000571,-0.001166,0.135783,-0.036577,317.442490,24.525756,0.999385,0.992347,0.003552,0.346035,-0.000038,-0.000008,-0.000008,-0.000006,-0.000040,-76.647044,0.000050,
2011,2083,-5.29602081089086,-12.2773954052925,0.0109958916790447,0.002553,-0.000474,-0.002142,0.122835,-0.043827,330.922232,24.889713,0.998575,0.983029,0.005348,0.290120,0.000000,-0.000032,0.000009,0.000002,-0.000034,14.376715,0.000038,
2341,2278,1.86507466980426,-8.00954366542204,-0.00245940139262757,0.002183,-0.000593,-0.002485,0.108422,-0.066349,326.595746,23.311550,0.999011,0.984822,0.004954,0.326069,-0.000044,-0.000031,-0.000023,-0.000014,-0.000061,-52.896105,0.000080,
2311,2128,1.23966778133053,-11.2961485945667,0.0170608256949549,0.002035,-0.000215,-0.006716,0.115958,-0.067470,329.195494,23.238919,0.999247,0.984541,0.005011,0.177333,-0.000042,-0.000005,-0.000026,0.000008,-0.000056,-62.898400,0.000060,
2116,2563,-3.08609649678099,-1.78416992826055,-0.0291481600084467,0.002877,-0.000450,-0.003035,0.141144,-0.041311,322.308709,24.361333,0.999348,0.989155,0.004280,0.353480,-0.000034,-0.000008,-0.000014,-0.000002,-0.000041,-66.230116,0.000048,
2281,2008,0.607480139313523,-13.9302441958364,0.0296288372117601,0.002859,-0.000455,-0.000355,0.131918,-0.028754,331.273378,23.105490,0.999384,0.983977,0.005113,0.272689,-0.000042,0.000026,-0.000051,0.000053,-0.000070,-61.713692,0.000073,
2056,2278,-4.34542545559355,-8.00660357509985,-0.00842395656593453,0.002972,0.000048,-0.004624,0.149555,-0.039595,327.387874,24.685369,0.999628,0.991776,0.004039,0.189709,-0.000058,0.000006,0.000010,0.000008,-0.000060,81.147025,0.000065,
2356,2353,2.17873973862704,-6.36975712573597,-0.00385702955031775,0.002761,-0.000445,-0.003062,0.137147,-0.043920,325.402074,23.294019,0.999473,0.990102,0.004363,0.505999,-0.000040,-0.000018,0.000001,-0.000018,-0.000040,87.036411,0.000060,
2326,2218,1.55033884635937,-9.32440838025737,0.00985407309485709,0.002579,-0.000402,-0.003774,0.130973,-0.053976,327.692827,23.241503,0.998825,0.980797,0.005562,0.325194,-0.000050,-0.000027,-0.000020,-0.000015,-0.000062,-59.538469,0.000082,
2131,2623,-2.76967540582692,-0.476525330962687,-0.024710749132737,0.002579,-0.000158,-0.003623,0.129435,-0.026469,321.297648,24.365270,0.999516,0.990697,0.003978,0.368284,-0.000039,-0.000009,-0.000014,-0.000004,-0.000045,-69.108536,0.000054,
2236,3148,-0.575739179862573,10.9368555890862,0.0167875427838453,0.002658,-0.000130,-0.004874,0.138254,-0.019392,312.766421,25.010691,0.999324,0.991739,0.003741,0.366719,-0.000034,-0.000009,-0.000014,-0.000003,-0.000041,-65.732393,0.000049,
2371,2428,2.4906135987595,-4.72811654262429,-0.0145680907403403,0.002384,-0.000036,-0.005620,0.129234,-0.036448,324.095074,23.502707,0.999687,0.993315,0.003861,0.465630,-0.000022,-0.000013,0.000004,-0.000011,-0.000023,71.176865,0.000035,
2401,2593,3.11215238604177,-1.12283724627484,-0.0233315595107229,0.002692,-0.000562,-0.003015,0.134157,-0.067488,321.371691,24.034202,0.999463,0.989617,0.004129,0.331830,-0.000016,-0.000015,-0.000014,-0.000001,-0.000029,-45.510874,0.000035,
2416,2668,3.42407085312748,0.514211599165456,-0.0232731781100028,0.002584,-0.000904,-0.001422,0.123409,-0.064164,320.158875,24.326884,0.999420,0.989441,0.004261,0.266218,-0.000016,-0.000001,-0.000032,0.000024,-0.000041,-51.397411,0.000041,
2461,2893,4.35822463862691,5.41781618521981,-0.0293721088433472,0.002025,-0.000617,-0.001968,0.100161,-0.037006,316.492238,25.139244,0.999009,0.990479,0.004060,0.277569,-0.000040,0.000001,-0.000009,0.000003,-0.000041,-78.349426,0.000046,
2431,2743,3.73585003400421,2.14846995148281,-0.0205844640697705,0.002539,-0.001186,0.002701,0.106096,-0.046293,318.964721,24.486496,0.999608,0.991308,0.003715,0.369094,-0.000019,0.000017,-0.000021,0.000026,-0.000029,-65.055443,0.000032,
2146,2713,-2.45938122240163,1.48477297739218,-0.0389360741971814,0.002538,-0.000663,-0.004207,0.129256,-0.069769,319.658667,24.418034,0.999535,0.992016,0.003791,0.309362,-0.000032,-0.000018,-0.000022,-0.000002,-0.000048,-54.144952,0.000057,
2041,2203,-4.66082410074473,-9.64851077381886,-0.00497515905095725,0.002490,0.000207,-0.007812,0.136093,-0.037830,328.694704,24.660413,0.998697,0.983237,0.005248,0.305360,-0.000031,0.000033,0.000003,0.000033,-0.000032,87.051105,0.000037,
2161,2788,-2.14535093971815,3.11682419777449,-0.0314090081935205,0.002603,-0.000302,-0.004810,0.134394,-0.050570,318.451821,24.467558,0.999484,0.991423,0.003895,0.330218,-0.000045,-0.000022,-0.000020,-0.000011,-0.000057,-59.680323,0.000072,
2491,3043,4.98288522674059,8.6800266993299,-0.0103924726431046,0.002596,-0.000322,-0.002769,0.129670,-0.050736,314.299350,25.786198,0.999732,0.993816,0.003393,0.252065,-0.000011,0.000014,0.000017,0.000023,-0.000020,62.895313,0.000025,
2191,2938,-1.51767134877344,6.37667200822901,-0.00437431584151682,0.002532,-0.000925,-0.001808,0.121916,-0.051711,316.123529,24.620214,0.999424,0.993183,0.003514,0.340818,-0.000033,-0.000012,-0.000005,-0.000011,-0.000034,-78.102942,0.000047,
2086,2428,-3.71619579735625,-4.73090210133018,-0.0111472559389085,0.002696,-0.000227,-0.002771,0.131839,-0.026446,324.773187,24.416865,0.999145,0.987457,0.004448,0.353722,-0.000051,-0.000047,-0.000019,-0.000030,-0.000068,-47.685070,0.000101,
2251,3238,-0.265389104703022,12.8870523385846,0.0366450360454564,0.002342,-0.000455,-0.003018,0.117632,-0.037041,311.407136,25.129601,0.999798,0.996256,0.002756,0.426670,-0.000017,-0.000013,-0.000017,0.000002,-0.000032,-48.071848,0.000035,
2071,2353,-4.03055286569793,-6.36890295024659,-0.0111292098313811,0.002758,-0.000162,-0.008013,0.149502,-0.048388,326.077511,24.474683,0.998585,0.983303,0.005178,0.322728,-0.000058,-0.000029,-0.000020,-0.000019,-0.000069,-62.786686,0.000092,
2026,2158,-4.98051301820305,-10.6340359459925,0.00893144257855738,0.002470,-0.000869,0.000255,0.112452,-0.055420,329.598568,24.847053,0.999224,0.987001,0.004680,0.195993,0.000000,-0.000012,-0.000006,0.000003,-0.000015,-22.792325,0.000016,
2296,2083,0.920845199444408,-12.2833121621189,0.0188195939203979,0.002644,-0.000459,-0.003814,0.133761,-0.061885,329.963779,23.195022,0.999331,0.984177,0.004999,0.213672,-0.000053,-0.000017,-0.000035,0.000004,-0.000074,-58.759298,0.000083,
2011,2098,-5.29812221874488,-11.9477379966989,0.00547806584955879,0.002799,-0.000266,-0.004469,0.140507,-0.051839,330.653353,24.922932,0.998095,0.979387,0.005937,0.240154,-0.000004,-0.000033,0.000016,0.000003,-0.000040,24.021314,0.000045,
2446,2818,4.04727431777373,3.78310575831073,-0.0324061024379603,0.002445,-0.000087,-0.006584,0.136742,-0.041499,317.699139,24.695381,0.999550,0.990904,0.003838,0.430839,-0.000029,-0.000004,-0.000019,0.000007,-0.000039,-61.340940,0.000042,
2206,2998,-1.2023493677486,7.68156220445699,-0.00772779584752925,0.002776,-0.000438,-0.001799,0.133415,-0.027494,315.083470,24.749211,0.999492,0.992093,0.003604,0.333965,-0.000032,-0.000012,-0.000005,-0.000011,-0.000033,-77.522705,0.000046,
2386,2503,2.80284148955658,-3.08825100653056,-0.00780772611688008,0.002009,-0.000746,0.001550,0.086297,-0.025748,322.901163,23.837510,0.999594,0.991100,0.003859,0.322194,-0.000018,-0.000045,-0.000006,-0.000017,-0.000046,-11.287724,0.000065,
2221,3088,-0.891410167791161,9.63453397443784,0.00799519466534093,0.002515,-0.000556,-0.005108,0.131996,-0.056946,313.704208,24.892946,0.999430,0.993088,0.003379,0.311204,-0.000030,-0.000013,-0.000019,-0.000001,-0.000042,-56.793257,0.000049,
2281,2023,0.604024901088753,-13.6007803496734,0.0244041178388557,0.002420,-0.000463,-0.000996,0.113929,-0.034802,330.971009,23.096922,0.999156,0.983563,0.005264,0.307011,-0.000048,0.000024,-0.000038,0.000040,-0.000064,-66.901292,0.000065,
2101,2503,-3.40230204005264,-3.09409334896161,-0.0189703496995435,0.002729,-0.001015,-0.001157,0.128487,-0.068841,323.420817,24.369585,0.999159,0.990043,0.004088,0.330018,-0.000043,-0.000029,-0.000024,-0.000011,-0.000061,-52.650576,0.000077,
2476,2983,4.66809414520323,7.37500419692323,-0.0151527695273899,0.002233,-0.000498,-0.004504,0.119539,-0.037451,315.193489,25.490246,0.999382,0.990037,0.004031,0.289171,-0.000025,-0.000017,0.000012,-0.000009,-0.000033,54.297336,0.000044,
2176,2863,-1.83151340308968,4.7473130893575,-0.0222388584655278,0.002652,-0.000550,-0.004687,0.136394,-0.057990,317.258383,24.520086,0.998971,0.989126,0.004021,0.342194,-0.000035,-0.000007,-0.000010,-0.000004,-0.000038,-72.303973,0.000047,
2056,2293,-4.34753152975525,-7.68110203488246,-0.00204376152396435,0.002694,-0.000133,-0.005183,0.138275,-0.033915,327.189466,24.521069,0.999873,0.994653,0.003412,0.356318,-0.000058,0.000007,0.000007,0.000008,-0.000059,83.666165,0.000064,
2236,3163,-0.578368364228357,11.2613573176738,0.0208210063865408,0.002577,-0.000552,-0.002485,0.126527,-0.046344,312.543525,25.009342,0.999414,0.991502,0.003725,0.361139,-0.000030,-0.000013,-0.000015,-0.000004,-0.000038,-59.943374,0.000047,
2356,2368,2.17528265505536,-6.03919375327156,-0.00578671338939785,0.002515,-0.000163,-0.000337,0.116437,-0.006299,325.121098,23.507964,0.999145,0.986182,0.004741,0.370677,-0.000038,-0.000025,0.000001,-0.000025,-0.000039,84.486541,0.000064,
2491,3058,4.98060823091069,9.00394780639287,0.00295114754379711,0.002366,-0.000931,-0.001539,0.114170,-0.067874,314.150915,25.761693,0.999674,0.992513,0.003707,0.317352,-0.000007,0.000005,0.000011,0.000011,-0.000014,58.651407,0.000015,
2461,2908,4.35623445176256,5.74325745487002,-0.0239402944912399,0.002239,-0.000338,-0.006407,0.126830,-0.044543,316.319765,25.157123,0.998879,0.989270,0.004310,0.305955,-0.000041,-0.000005,-0.000003,-0.000004,-0.000041,-85.160085,0.000050,
2131,2638,-2.77091322595895,-0.152035302352232,-0.00781857234903782,0.002661,-0.000927,-0.003842,0.133611,-0.058727,321.200689,24.338916,0.999735,0.993473,0.003345,0.368083,-0.000038,-0.000008,-0.000013,-0.000003,-0.000043,-70.038971,0.000051,
2116,2578,-3.08841470305689,-1.45764619602026,-0.0255735552581768,0.002718,-0.000527,-0.003338,0.134669,-0.055319,322.089566,24.373148,0.999484,0.990917,0.003978,0.331747,-0.000038,-0.000010,-0.000015,-0.000003,-0.000044,-66.971676,0.000053,
2071,2368,-4.03270402269321,-6.0410538735913,-0.0121618719942944,0.002994,-0.000013,-0.007714,0.159568,-0.028676,325.837086,24.462503,0.998061,0.981057,0.005543,0.353279,-0.000058,-0.000028,-0.000021,-0.000017,-0.000069,-63.163735,0.000091,
2161,2803,-2.14708184225509,3.44231946864276,-0.0255360266829712,0.003016,-0.000637,-0.004407,0.152097,-0.058159,318.275057,24.461925,0.999591,0.992389,0.003639,0.338143,-0.000044,-0.000025,-0.000020,-0.000013,-0.000056,-57.697375,0.000074,
2311,2143,1.23754379024934,-10.9681305508475,0.0233996091804443,0.002596,-0.000695,-0.001131,0.122512,-0.049627,329.013345,23.246380,0.999321,0.985156,0.005015,0.222575,-0.000043,-0.000020,-0.000024,-0.000005,-0.000058,-57.829441,0.000069,
2431,2758,3.73276933728843,2.47570592441819,-0.0248169192740306,0.002364,-0.000659,-0.002366,0.116968,-0.052398,318.695586,24.550873,0.999553,0.989810,0.003925,0.348851,-0.000015,0.000018,-0.000016,0.000025,-0.000022,-67.859309,0.000027,
2401,2608,3.10926382087353,-0.79504159812511,-0.0221304283227823,0.002445,-0.000105,-0.005350,0.131543,-0.029292,321.134828,24.103253,0.999465,0.989979,0.004027,0.347162,-0.000019,-0.000009,-0.000015,0.000002,-0.000030,-54.631222,0.000034,
2041,2218,-4.66299395014809,-9.32033076483517,-0.00394482323673628,0.002604,0.000578,-0.005828,0.135944,-0.021651,328.462080,24.650339,0.998164,0.978360,0.005736,0.326855,-0.000038,0.000035,0.000004,0.000035,-0.000038,86.474170,0.000042,
2326,2233,1.54670220225775,-8.99597059820777,0.0095124265250206,0.002139,-0.001149,0.001417,0.092716,-0.063727,327.409772,23.275876,0.998359,0.977442,0.006039,0.317935,-0.000048,-0.000033,-0.000029,-0.000011,-0.000071,-52.070782,0.000088,
2416,2683,3.42128410441688,0.840609681137245,-0.0212872244614459,0.002561,-0.000668,-0.001676,0.123349,-0.056225,319.931541,24.327335,0.999400,0.987617,0.004547,0.322042,-0.000016,0.000009,-0.000028,0.000027,-0.000034,-57.153625,0.000036,
2011,2113,-5.29989143398146,-11.6207609830268,0.0148007383330082,0.002686,-0.000437,-0.003481,0.132596,-0.060594,330.483095,24.880153,0.998149,0.981111,0.005822,0.265059,-0.000012,-0.000035,0.000022,0.000001,-0.000048,31.050716,0.000055,
2341,2293,1.86263695598459,-7.68046111986138,-0.00369968396478271,0.002584,-0.000430,-0.003358,0.129949,-0.049891,326.364120,23.391357,0.999025,0.986695,0.004674,0.301617,-0.000042,-0.000019,-0.000016,-0.000011,-0.000049,-63.049733,0.000065,
2371,2443,2.48794234606702,-4.4004064861515,-0.00288729381082931,0.002279,-0.001090,0.002098,0.096634,-0.037389,323.916697,23.647954,0.999237,0.988818,0.004447,0.361621,-0.000017,-0.000026,0.000006,-0.000013,-0.000029,27.505493,0.000043,
2026,2173,-4.98222666578435,-10.3068254551127,0.0120491192333816,0.002634,-0.000756,-0.001779,0.125606,-0.063887,329.397402,24.778300,0.999234,0.989002,0.004362,0.249298,-0.000011,-0.000005,-0.000007,0.000000,-0.000015,-56.042951,0.000018,
2146,2728,-2.46133134137564,1.81039322514318,-0.029433211648211,0.002450,-0.000279,-0.003950,0.124577,-0.050487,319.490061,24.406330,0.999442,0.990817,0.003991,0.348373,-0.000038,-0.000020,-0.000025,-0.000002,-0.000056,-54.396857,0.000066,
2446,2833,4.04465318543187,4.11132505502456,-0.0273146454962898,0.002377,-0.000185,-0.007086,0.135520,-0.032795,317.494770,24.930509,0.999674,0.992668,0.003530,0.256278,-0.000033,0.000003,-0.000014,0.000008,-0.000038,-70.699141,0.000040,
2251,3253,-0.268904682928945,13.2137273146033,0.0238297910152028,0.002463,-0.000572,-0.002722,0.122202,-0.044642,311.057773,25.235339,0.999669,0.994454,0.003141,0.335157,-0.000016,-0.000018,-0.000013,-0.000004,-0.000031,-42.873446,0.000038,
2296,2098,0.917879964678942,-11.9538424513232,0.0138873607811547,0.002800,-0.000513,-0.003254,0.139032,-0.065830,329.686504,23.218163,0.999113,0.981889,0.005341,0.219934,-0.000052,-0.000022,-0.000035,0.000001,-0.000075,-56.594459,0.000086,
2176,2878,-1.83352071716565,5.07344106116919,-0.0151675975199055,0.002779,-0.000387,-0.003671,0.139248,-0.022294,317.075849,24.557602,0.999481,0.993458,0.003371,0.352209,-0.000033,-0.000003,-0.000008,-0.000001,-0.000035,-76.302579,0.000041,
2086,2443,-3.71911425344428,-4.40281306674454,-0.0186476332250436,0.002574,-0.000513,-0.003118,0.127124,-0.053175,324.463956,24.438086,0.999357,0.988510,0.004353,0.306223,-0.000055,-0.000045,-0.000027,-0.000023,-0.000077,-50.215962,0.000105,
2011,2128,-5.30235313923077,-11.2899524354398,0.00325425646946087,0.002872,0.000252,-0.006901,0.150601,-0.044876,330.163776,24.940870,0.998261,0.980226,0.005938,0.211604,-0.000015,-0.000038,0.000018,-0.000005,-0.000048,28.390699,0.000058,
2041,2233,-4.6648843513715,-8.99190749281136,-0.00467497106103565,0.002941,0.000019,-0.006704,0.153709,-0.049795,328.232668,24.693449,0.998963,0.985432,0.004975,0.250349,-0.000044,0.000033,0.000005,0.000033,-0.000044,86.504508,0.000046,
2191,2953,-1.52044905655055,6.7023870846334,-0.000210765692258974,0.002235,-0.000748,0.000992,0.099547,-0.035327,315.891480,24.636582,0.999329,0.992764,0.003578,0.354849,-0.000031,-0.000016,-0.000007,-0.000014,-0.000034,-68.914684,0.000049,
2221,3103,-0.893389085216331,9.95893618361315,0.0157240230763591,0.002631,-0.000695,-0.005084,0.137192,-0.069416,313.529402,24.876984,0.999497,0.992514,0.003565,0.332521,-0.000033,-0.000005,-0.000017,0.000003,-0.000041,-64.432924,0.000046,
2236,3178,-0.580454732200412,11.5859707207046,0.0278526610664471,0.002513,-0.000652,-0.004526,0.130136,-0.069410,312.360863,25.035406,0.999383,0.992146,0.003579,0.331580,-0.000027,-0.000014,-0.000015,-0.000004,-0.000037,-56.828524,0.000045,
2461,2923,4.35280145932651,6.06993299283327,-0.0239141294334217,0.002119,-0.000411,-0.002891,0.108035,-0.031676,316.055685,25.233426,0.999247,0.990648,0.004047,0.296646,-0.000040,-0.000017,-0.000004,-0.000016,-0.000041,-81.450037,0.000058,
2476,2998,4.6655975501105,7.69988726339459,-0.00703391509392759,0.002457,-0.000677,-0.000248,0.113511,-0.045285,315.010556,25.497343,0.999252,0.990105,0.003990,0.330151,-0.000020,-0.000020,0.000014,-0.000006,-0.000034,45.251882,0.000043,
2131,2653,-2.77389767272917,0.175977070382281,-0.0194137052548058,0.002764,-0.000401,-0.005648,0.143916,-0.048912,320.870695,24.357343,0.999649,0.992259,0.003563,0.365946,-0.000036,-0.000008,-0.000015,-0.000002,-0.000043,-66.493833,0.000050,
2281,2038,0.600602143208786,-13.2686578098081,0.00862792514578814,0.002520,0.000235,-0.005466,0.133651,-0.015685,330.617244,23.193251,0.999237,0.985852,0.004884,0.261810,-0.000053,0.000018,-0.000041,0.000037,-0.000072,-65.194473,0.000072,
2431,2773,3.72977088201975,2.80234281784281,-0.0227261815164184,0.002305,-0.000747,-0.000693,0.108073,-0.044547,318.459630,24.600842,0.999534,0.989848,0.004011,0.356694,-0.000022,0.000004,-0.000020,0.000015,-0.000033,-61.719636,0.000033,
2401,2623,3.10626400861414,-0.468081826531851,-0.0209139832750793,0.002464,-0.000359,-0.002904,0.123440,-0.031646,320.893150,24.140786,0.999350,0.989144,0.004104,0.353307,-0.000020,-0.000004,-0.000020,0.000009,-0.000034,-55.990356,0.000035,
2161,2818,-2.15012953827134,3.76928884101068,-0.0199892899606198,0.002267,-0.000562,-0.002122,0.110615,-0.048145,318.035698,24.575428,0.999737,0.994154,0.003208,0.244375,-0.000039,-0.000013,-0.000017,-0.000005,-0.000047,-64.266892,0.000058,
2296,2113,0.914645350239251,-11.6251273992759,0.00720415371046101,0.002659,-0.000425,-0.004739,0.137595,-0.075533,329.388329,23.165307,0.999018,0.981239,0.005418,0.296586,-0.000053,-0.000014,-0.000032,0.000004,-0.000071,-60.671120,0.000080,
2071,2383,-4.03538554138872,-5.71291688171082,-0.0122648687317906,0.002652,0.000173,-0.007324,0.142774,-0.037296,325.577548,24.519061,0.998745,0.984798,0.004980,0.286625,-0.000057,-0.000031,-0.000021,-0.000019,-0.000068,-60.637082,0.000092,
2251,3268,-0.27258199836486,13.5396489754178,0.00796920624799213,0.002472,-0.000286,-0.004762,0.129462,-0.027057,310.685695,25.235259,0.999510,0.992813,0.003476,0.374929,-0.000022,-0.000010,-0.000014,-0.000001,-0.000032,-56.959166,0.000037,
2356,2383,2.17190939820208,-5.71016548510934,-0.00948395276139991,0.002300,-0.000794,-0.000007,0.105178,-0.045605,324.835959,23.646538,0.999302,0.983684,0.004951,0.233253,-0.000036,-0.000027,-0.000001,-0.000027,-0.000036,-84.225044,0.000063,
2386,2518,2.80027345202393,-2.76120092493282,-0.0133064472469755,0.002334,-0.000409,-0.003878,0.120777,-0.043635,322.646815,23.804308,0.999475,0.989655,0.004214,0.381923,-0.000024,-0.000038,-0.000010,-0.000018,-0.000043,-27.716178,0.000063,
2311,2158,1.23471488089399,-10.6409423176715,0.0234434290345575,0.002660,-0.001506,0.000991,0.117907,-0.078855,328.768386,23.162442,0.999369,0.986553,0.004932,0.312310,-0.000050,-0.000030,-0.000025,-0.000013,-0.000067,-55.894002,0.000087,
2101,2518,-3.40526084224875,-2.76607918745127,-0.0262609756393317,0.002501,-0.000908,-0.002953,0.123284,-0.073950,323.112228,24.392150,0.999615,0.993155,0.003512,0.304773,-0.000041,-0.000022,-0.000021,-0.000009,-0.000054,-57.536904,0.000069,
2116,2593,-3.09028276642278,-1.13198020012729,-0.0215741913768852,0.002914,-0.000537,-0.004634,0.147557,-0.047865,321.893483,24.292806,0.999625,0.991993,0.003762,0.423770,-0.000040,-0.000006,-0.000011,-0.000003,-0.000043,-74.324134,0.000052,
2026,2188,-4.9846525997361,-9.97781962670953,0.00538690602508041,0.002574,-0.000049,-0.005591,0.133505,-0.045166,329.108913,24.748195,0.999098,0.987136,0.004746,0.291269,-0.000009,0.000040,0.000011,0.000042,-0.000011,78.387736,0.000043,
2341,2308,1.8602467996895,-7.35274008617098,0.00549342784546525,0.002378,-0.000439,-0.002330,0.116917,-0.026245,326.185260,23.449043,0.998408,0.983029,0.005123,0.306069,-0.000040,-0.000020,-0.000010,-0.000016,-0.000044,-67.385171,0.000062,
2326,2248,1.54377972072648,-8.66630784335695,0.00333188271832796,0.002143,-0.000387,-0.002831,0.107770,-0.044962,327.130642,23.338893,0.998856,0.982218,0.005247,0.310738,-0.000047,-0.000044,-0.000028,-0.000017,-0.000073,-46.658895,0.000096,
2446,2848,4.04244630023858,4.43547020857569,-0.0157023967135501,0.002514,-0.000371,-0.003355,0.127755,-0.046433,317.340506,24.865530,0.999606,0.992317,0.003517,0.359282,-0.000037,0.000010,-0.000015,0.000014,-0.000042,-73.342734,0.000042,
2416,2698,3.41777612696757,1.16807755845707,-0.0320242275197984,0.002638,-0.000271,-0.004436,0.137141,-0.059265,319.611279,24.337330,0.999547,0.990700,0.003956,0.357332,-0.000018,0.000015,-0.000027,0.000030,-0.000033,-60.377997,0.000037,
2056,2308,-4.34946902406067,-7.35274478196971,-0.0048262313800933,0.003065,0.000244,-0.007325,0.161487,-0.037786,326.947877,24.539778,0.999712,0.991597,0.003952,0.330494,-0.000060,-0.000020,-0.000005,-0.000019,-0.000061,-83.184596,0.000084,
2206,3013,-1.20472098734015,8.00639849694489,-0.000894655080855955,0.002563,-0.000690,-0.001400,0.122173,-0.050514,314.885110,24.757758,0.999487,0.991965,0.003575,0.318214,-0.000027,-0.000012,-0.000007,-0.000009,-0.000030,-67.532613,0.000041,
2491,3073,4.97734136015587,9.32958310805076,-0.000468254042345961,0.002265,-0.000678,-0.003783,0.118267,-0.057349,313.880581,25.762051,0.999626,0.992011,0.003767,0.385329,-0.000004,0.000011,0.000010,0.000016,-0.000009,63.199608,0.000016,
2011,2143,-5.30484127199411,-10.9617738098946,0.000849577317808325,0.002843,0.000157,-0.004205,0.141950,-0.019423,329.894821,24.857383,0.998050,0.980443,0.005809,0.311619,-0.000004,-0.000008,0.000019,0.000014,-0.000025,41.829363,0.000025,
2461,2938,4.35035280271805,6.39585623986048,-0.0237844033105148,0.002378,-0.000367,-0.006560,0.133782,-0.046370,315.837555,25.272800,0.999376,0.991675,0.003953,0.296492,-0.000041,-0.000023,-0.000004,-0.000022,-0.000042,-76.839364,0.000065,
2371,2458,2.48460355672784,-4.07200584210771,-0.00978140063045885,0.002229,-0.000996,0.000623,0.099625,-0.061018,323.618955,23.709848,0.999075,0.987861,0.004575,0.318709,-0.000017,-0.000019,0.000009,-0.000009,-0.000027,42.454516,0.000038,
2476,3013,4.66257067154548,8.02588745765756,-0.00474453781970396,0.002270,-0.000739,-0.000446,0.105649,-0.047507,314.776294,25.565699,0.999478,0.992576,0.003502,0.315277,-0.000025,-0.000010,0.000017,0.000002,-0.000037,56.975657,0.000042,
2146,2743,-2.46347102759874,2.13615775630988,-0.0226644086635588,0.002529,-0.000551,-0.001127,0.119542,-0.049555,319.298278,24.407570,0.999439,0.990798,0.004045,0.355927,-0.000041,-0.000019,-0.000021,-0.000007,-0.000054,-58.856971,0.000066,
2176,2893,-1.83546401565067,5.398163801416,-0.00584022364728298,0.002483,-0.000067,-0.007544,0.137617,-0.045993,316.908618,24.544836,0.999766,0.995679,0.003060,0.353169,-0.000033,-0.000005,-0.000007,-0.000003,-0.000035,-77.527049,0.000043,
2071,2398,-4.03756644358652,-5.38574831230108,-0.015433963914063,0.002952,-0.000064,-0.007683,0.157544,-0.050051,325.324398,24.466839,0.998948,0.986476,0.004829,0.324645,-0.000058,-0.000022,-0.000021,-0.000012,-0.000068,-65.288508,0.000086,
2131,2668,-2.77510037430955,0.499435933622813,0.00529020433253891,0.002555,-0.000189,-0.002960,0.126315,-0.030863,320.817200,24.257691,0.999647,0.992627,0.003560,0.489299,-0.000035,-0.000019,-0.000017,-0.000008,-0.000045,-58.190816,0.000058,
2086,2458,-3.7214995649541,-4.07602661593531,-0.0193755692195623,0.002647,-0.000731,-0.001961,0.127123,-0.055519,324.216102,24.384601,0.999378,0.989278,0.004284,0.357899,-0.000052,-0.000037,-0.000027,-0.000017,-0.000073,-52.522418,0.000095,
2431,2788,3.72692286388373,3.12921269918053,-0.0203905234713488,0.002352,-0.001010,0.000634,0.105205,-0.053124,318.231641,24.694692,0.999516,0.990969,0.003866,0.304058,-0.000022,0.000001,-0.000024,0.000017,-0.000037,-57.963255,0.000037,
2401,2638,3.10304499335342,-0.140937762029914,-0.0233174300850578,0.002461,-0.000694,-0.001604,0.118462,-0.046439,320.624284,24.181568,0.999293,0.988496,0.004159,0.343878,-0.000022,0.000001,-0.000024,0.000016,-0.000038,-57.808954,0.000038,
2491,3088,4.9750518284799,9.65590437125815,0.00506241699906695,0.002493,-0.000332,-0.004835,0.132996,-0.036856,313.695422,25.876987,0.999537,0.991946,0.003602,0.348823,-0.000007,0.000026,0.000015,0.000032,-0.000013,69.606803,0.000032,
2056,2323,-4.35120545471819,-7.02570848986154,0.00230995702457903,0.003033,0.000249,-0.009353,0.165750,-0.041658,326.770267,24.541544,0.999389,0.986257,0.004549,0.321065,-0.000054,-0.000032,-0.000014,-0.000025,-0.000061,-64.130854,0.000088,
2221,3118,-0.895673875989363,10.2847001412742,0.0216550629011749,0.002550,-0.000474,-0.005378,0.134495,-0.052061,313.330782,24.948438,0.999586,0.992455,0.003603,0.295950,-0.000036,-0.000008,-0.000018,0.000001,-0.000044,-64.416706,0.000051,
2026,2203,-4.98752635960049,-9.64825918289497,-0.00866144468096763,0.002699,0.000084,-0.006338,0.141354,-0.038146,328.758879,24.709384,0.999030,0.985547,0.005003,0.330579,-0.000006,0.000046,0.000007,0.000047,-0.000007,82.361021,0.000051,
2281,2053,0.5979529851307,-12.9404385178864,0.00915390620946255,0.002682,-0.000091,-0.003078,0.133028,-0.010061,330.380270,23.136862,0.999059,0.983873,0.005089,0.355062,-0.000051,-0.000006,-0.000037,0.000015,-0.000072,-60.470399,0.000076,
2341,2323,1.8571436424706,-7.02374341764028,-0.000849925501768212,0.002654,-0.000407,-0.001212,0.125715,-0.026633,325.898435,23.497223,0.999083,0.987247,0.004632,0.296083,-0.000040,-0.000017,-0.000005,-0.000016,-0.000041,-77.839407,0.000058,
2416,2713,3.41536684928206,1.49395463754544,-0.0212111791089455,0.002388,-0.000518,-0.003430,0.121936,-0.046126,319.442557,24.365756,0.999646,0.991547,0.003754,0.389864,-0.000019,0.000018,-0.000027,0.000032,-0.000034,-62.205858,0.000038,
2251,3283,-0.275662420641094,13.864449291879,0.000176335312801257,0.002582,-0.000682,-0.005666,0.137306,-0.054867,310.382463,25.226777,0.999495,0.992894,0.003437,0.377191,-0.000034,-0.000014,-0.000018,-0.000003,-0.000045,-59.544105,0.000054,
2041,2248,-4.66680696053232,-8.66463817984919,-0.00666289588002655,0.003267,0.000054,-0.008343,0.173225,-0.052292,327.994976,24.598163,0.999048,0.986923,0.004684,0.337750,-0.000051,0.000041,0.000007,0.000042,-0.000051,85.853892,0.000055,
2296,2128,0.912485366870506,-11.2965860923743,0.0113076438683493,0.002669,-0.000266,-0.007992,0.149092,-0.074815,329.192487,23.208989,0.999077,0.982410,0.005235,0.286470,-0.000052,-0.000016,-0.000035,0.000005,-0.000073,-58.712077,0.000082,
2236,3193,-0.583341729117517,11.9113434151048,0.0270794621714572,0.002516,-0.000668,-0.002166,0.122629,-0.057928,312.101159,25.054184,0.999310,0.992131,0.003625,0.344134,-0.000027,-0.000022,-0.000017,-0.000008,-0.000041,-50.040641,0.000053,
2161,2833,-2.1519421913881,4.0939454960804,-0.0154510938417047,0.002648,-0.000534,-0.002276,0.128658,-0.052652,317.848391,24.486770,0.999650,0.994281,0.003241,0.338581,-0.000040,-0.000012,-0.000013,-0.000007,-0.000045,-69.126089,0.000056,
2116,2608,-3.09308891984398,-0.804650483123616,-0.0281332374847807,0.002734,-0.000587,-0.007946,0.149013,-0.075607,321.597439,24.313557,0.999339,0.988989,0.004296,0.379407,-0.000039,-0.000005,-0.000011,-0.000002,-0.000043,-74.030038,0.000050,
2446,2863,4.03974017477946,4.76141644022905,-0.0122921635341982,0.002479,-0.000386,-0.003919,0.128289,-0.045734,317.124908,24.893902,0.999723,0.993840,0.003232,0.383539,-0.000041,0.000008,-0.000019,0.000014,-0.000047,-70.857836,0.000049,
2191,2968,-1.52236414853973,7.02786876448687,-0.00196302710457985,0.002756,-0.000797,-0.002802,0.135406,-0.058430,315.668343,24.633381,0.999245,0.991843,0.003753,0.348715,-0.000028,-0.000015,-0.000005,-0.000014,-0.000029,-70.789468,0.000044,
2386,2533,2.79661596788738,-2.43232858414738,-0.0230577614354388,0.002243,-0.000104,-0.005129,0.121247,-0.020891,322.321743,23.865327,0.999479,0.990460,0.004171,0.388406,-0.000020,-0.000038,-0.000013,-0.000014,-0.000044,-27.663671,0.000061,
2326,2263,1.54171205420982,-8.33794785473782,0.00215293802108363,0.002669,0.000029,-0.006403,0.144343,-0.049224,326.915267,23.362773,0.999153,0.984798,0.004762,0.319317,-0.000044,-0.000049,-0.000028,-0.000018,-0.000074,-42.667899,0.000098,
2011,2158,-5.30730769841047,-10.633027824531,0.00256259186073748,0.002667,-0.000792,-0.000478,0.123523,-0.052236,329.650073,24.933136,0.998333,0.979943,0.005879,0.193928,-0.000012,-0.000030,-0.000009,-0.000009,-0.000034,-22.734008,0.000045,
2311,2173,1.2316889880029,-10.3104728279832,0.0134120675924692,0.002702,-0.000570,-0.004793,0.139878,-0.054830,328.464306,23.223274,0.999203,0.983311,0.005121,0.310883,-0.000048,-0.000026,-0.000020,-0.000014,-0.000060,-59.577880,0.000079,
2461,2953,4.34798830567733,6.72135130415441,-0.0167927646853627,0.002658,-0.000499,-0.004118,0.137421,-0.045416,315.654759,25.309273,0.999474,0.991535,0.003840,0.314816,-0.000037,-0.000022,0.000005,-0.000020,-0.000039,72.766094,0.000060,
2086,2473,-3.7241227747363,-3.74802088170624,-0.0219019567357464,0.002617,-0.000671,-0.000597,0.121833,-0.038778,323.947234,24.412105,0.999339,0.989601,0.004292,0.347585,-0.000048,-0.000033,-0.000024,-0.000015,-0.000066,-53.747206,0.000086,
2206,3028,-1.20728504560124,8.33170244460499,0.00202335214498817,0.002493,-0.000845,-0.000098,0.114761,-0.055334,314.657454,24.768361,0.999646,0.993714,0.003315,0.318690,-0.000027,-0.000010,-0.000009,-0.000006,-0.000031,-66.251466,0.000040,
2101,2533,-3.40819978372064,-2.43791523813921,-0.0369456031764912,0.002448,-0.000137,-0.005676,0.129118,-0.039338,322.786032,24.364371,0.999529,0.991666,0.003816,0.369859,-0.000047,-0.000009,-0.000013,-0.000005,-0.000051,-72.817135,0.000062,
2071,2413,-4.03992772429061,-5.05957749163708,-0.0101116289621928,0.002847,-0.000830,-0.003169,0.139635,-0.059646,325.109618,24.406263,0.998748,0.986050,0.004786,0.373950,-0.000063,-0.000037,-0.000027,-0.000020,-0.000080,-57.992270,0.000106,
2356,2398,2.16988663620424,-5.38349316200448,-0.00487247680371183,0.002565,-0.000475,-0.002406,0.125861,-0.034992,324.652807,23.604441,0.999529,0.988009,0.004450,0.326330,-0.000030,-0.000011,0.000005,-0.000010,-0.000032,75.649613,0.000043,
2251,3298,-0.277954363471519,14.1893416541872,0.0090760253825124,0.002555,-0.000652,-0.002817,0.126699,-0.055581,310.200337,25.294132,0.999355,0.992255,0.003535,0.330688,-0.000035,-0.000009,-0.000028,0.000009,-0.000053,-57.307703,0.000056,
2281,2068,0.596194665604234,-12.611281794769,0.0151067983632061,0.002973,0.000145,-0.005834,0.155641,-0.022545,330.210969,23.249406,0.999011,0.984196,0.005032,0.260531,-0.000048,-0.000018,-0.000035,0.000004,-0.000071,-56.755579,0.000080,
2476,3028,4.65980736752717,8.35150338509789,-0.000282068217700271,0.002183,-0.000812,-0.000413,0.101542,-0.043100,314.564081,25.610186,0.999684,0.993642,0.003293,0.330862,-0.000024,0.000004,0.000013,0.000009,-0.000029,68.451040,0.000030,
2401,2653,3.10014722927881,0.186406042938003,-0.02350532905092,0.002454,-0.000358,-0.002169,0.120320,-0.036861,320.380434,24.239872,0.999311,0.988849,0.004247,0.341179,-0.000023,-0.000003,-0.000029,0.000018,-0.000044,-54.638637,0.000044,
2491,3103,4.97240638085295,9.98149337517988,0.00929564318079201,0.002603,-0.000272,-0.004330,0.136070,-0.043939,313.488150,25.947069,0.999430,0.990906,0.003692,0.329505,-0.000010,0.000026,0.000023,0.000037,-0.000021,64.034886,0.000037,
2026,2218,-4.98956187457992,-9.32090778195946,-0.0051720644879083,0.002729,-0.000177,-0.005039,0.139112,-0.064278,328.545206,24.691311,0.998654,0.982059,0.005426,0.314922,-0.000013,0.000046,0.000009,0.000047,-0.000014,81.047302,0.000048,
2221,3133,-0.898412007907588,10.6090646495883,0.0206202323628304,0.002639,-0.000463,-0.003673,0.133163,-0.048061,313.075957,24.864639,0.999609,0.993375,0.003449,0.401741,-0.000039,-0.000007,-0.000016,0.000000,-0.000046,-66.968442,0.000053,
2176,2908,-1.83916669217472,5.72417493297619,-0.0106316956650971,0.002093,-0.000857,-0.001051,0.099274,-0.057382,316.586210,24.539846,0.999495,0.992979,0.003540,0.358650,-0.000030,-0.000018,-0.000006,-0.000015,-0.000033,-66.522143,0.000049,
2056,2338,-4.35460516582801,-6.69706490046813,-0.00451669187498283,0.002571,-0.000016,-0.005436,0.133447,-0.025818,326.439516,24.537548,0.999081,0.986185,0.004677,0.337782,-0.000053,-0.000037,-0.000024,-0.000020,-0.000070,-54.337779,0.000095,
2371,2473,2.48214472246464,-3.74515362904839,-0.00548507470779214,0.002299,-0.001077,0.000638,0.102747,-0.056026,323.415108,23.710268,0.999403,0.988911,0.004281,0.365617,-0.000016,-0.000022,0.000005,-0.000013,-0.000025,31.815107,0.000039,
2266,1993,0.28161234177254,-14.2586330412441,0.0226049516497255,0.002398,-0.000414,-0.001791,0.115545,-0.042351,331.459017,23.165126,0.999203,0.966396,0.007110,0.274515,-0.000032,-0.000005,-0.000071,0.000054,-0.000091,-50.335455,0.000091,
2236,3208,-0.58546066701641,12.236485190495,0.034524839273729,0.002346,-0.000384,-0.004889,0.123788,-0.041365,311.918876,25.098052,0.999431,0.993454,0.003443,0.336588,-0.000025,-0.000021,-0.000016,-0.000007,-0.000039,-48.298352,0.000049,
2341,2338,1.85494518357969,-6.69698280324948,0.00774973280107361,0.002689,-0.000778,-0.000082,0.123228,-0.047797,325.725746,23.514645,0.999352,0.987916,0.004613,0.295813,-0.000041,-0.000024,-0.000004,-0.000023,-0.000042,-76.121414,0.000066,
2296,2143,0.909612155323376,-10.9650378649551,0.00887195344017755,0.002895,0.000041,-0.005504,0.151159,-0.044634,328.931176,23.432291,0.999370,0.984058,0.005083,0.126398,-0.000053,-0.000031,-0.000031,-0.000009,-0.000075,-54.723012,0.000092,
2041,2263,-4.66904609630491,-8.33713034869174,-0.000679480257929299,0.003096,-0.000270,-0.005095,0.156273,-0.032030,327.786737,24.588618,0.999037,0.987245,0.004729,0.362210,-0.000050,0.000025,0.000008,0.000025,-0.000051,84.178785,0.000051,
2011,2173,-5.30916708683634,-10.3057617394485,0.00401651819748849,0.002689,-0.000450,-0.003669,0.133283,-0.052646,329.431739,24.843965,0.998777,0.986321,0.005136,0.273516,-0.000022,-0.000020,-0.000009,-0.000012,-0.000030,-47.361543,0.000043,
2086,2488,-3.72614862833583,-3.42117382234046,-0.0230608535376291,0.002779,-0.000248,-0.004202,0.139844,-0.022564,323.713416,24.351743,0.999249,0.990321,0.004153,0.424264,-0.000052,-0.000029,-0.000023,-0.000014,-0.000066,-58.009260,0.000086,
2161,2848,-2.15451383623907,4.41956806779711,-0.0196637260066268,0.002787,-0.000464,-0.003547,0.138975,-0.049186,317.579813,24.417291,0.999652,0.994728,0.003114,0.421326,-0.000039,-0.000009,-0.000013,-0.000004,-0.000044,-69.328230,0.000053,
2071,2428,-4.04223495021579,-4.73092059834962,-0.00673204984360609,0.002741,-0.000049,-0.001615,0.130615,-0.001215,324.885857,24.491120,0.998883,0.987200,0.004485,0.345662,-0.000064,-0.000049,-0.000017,-0.000038,-0.000075,-56.833470,0.000115,
2446,2878,4.03556515330244,5.08901841955638,-0.0236182724278819,0.002217,-0.000572,-0.004108,0.116950,-0.041177,316.773219,24.966658,0.999497,0.992593,0.003523,0.367385,-0.000041,0.000003,-0.000015,0.000008,-0.000046,-72.865492,0.000049,
2431,2803,3.72460792200681,3.45630703845495,-0.0181044603682494,0.002543,-0.000636,-0.002874,0.127151,-0.035913,318.027766,24.787059,0.999514,0.990766,0.003916,0.278932,-0.000023,0.000005,-0.000024,0.000019,-0.000037,-59.643870,0.000037,
2116,2623,-3.09656098398123,-0.476554711938086,-0.0362624342553772,0.002428,-0.000671,-0.004530,0.124840,-0.062562,321.262118,24.356224,0.999209,0.986023,0.004738,0.354369,-0.000042,-0.000012,-0.000014,-0.000006,-0.000047,-68.561238,0.000058,
2026,2233,-4.99198431585493,-8.99179036572398,-0.00652717362726207,0.002652,-0.000530,-0.004141,0.133027,-0.067495,328.286478,24.766324,0.999307,0.987049,0.004660,0.229574,-0.000017,0.000039,0.000007,0.000040,-0.000018,82.801024,0.000040,
2326,2278,1.53821219553563,-8.00866084514817,-0.00536087117893658,0.002525,-0.000180,-0.006338,0.137456,-0.072552,326.603318,23.431884,0.999097,0.985123,0.004805,0.263620,-0.000041,-0.000032,-0.000028,-0.000008,-0.000065,-49.226395,0.000080,
2476,3043,4.6568096524064,8.67773788183815,-0.0019699420103052,0.002342,-0.000770,-0.000785,0.110280,-0.038210,314.312832,25.674271,0.999733,0.993426,0.003352,0.327666,-0.000024,0.000015,0.000019,0.000023,-0.000032,67.880785,0.000033,
2191,2983,-1.52499119983712,7.35369877537463,0.00207841265864772,0.002596,-0.000588,-0.000381,0.120526,-0.039852,315.442511,24.664851,0.999361,0.992290,0.003628,0.349607,-0.000029,-0.000015,-0.000003,-0.000014,-0.000029,-79.547399,0.000045,
2131,2683,-2.77887438725314,0.828439411004751,-0.012178084711195,0.002402,-0.000673,-0.002657,0.118222,-0.057654,320.419496,24.365122,0.999484,0.992186,0.003616,0.361588,-0.000037,-0.000010,-0.000018,-0.000001,-0.000046,-64.004558,0.000054,
2491,3118,4.9693153183633,10.3066502620564,0.0136370343207091,0.002508,-0.000818,-0.000845,0.118121,-0.055590,313.260876,25.985971,0.999431,0.991647,0.003622,0.336543,-0.000010,0.000039,0.000023,0.000048,-0.000019,68.771561,0.000048,
2401,2668,3.09715110770145,0.513349738979123,-0.0242326826727322,0.002320,-0.000652,-0.003656,0.119458,-0.052854,320.129609,24.287172,0.999356,0.989343,0.004251,0.323934,-0.000022,-0.000001,-0.000031,0.000021,-0.000043,-54.313240,0.000043,
2386,2548,2.79456618323374,-2.10601180960192,-0.0148663558586577,0.002533,-0.000577,-0.003952,0.130134,-0.056477,322.156156,23.915494,0.999427,0.989851,0.004263,0.346679,-0.000019,-0.000035,-0.000013,-0.000012,-0.000042,-28.264589,0.000056,
2416,2728,3.41205033359514,1.82119342059917,-0.0258620102571854,0.002580,-0.000697,-0.001096,0.122148,-0.054214,319.159477,24.419289,0.999644,0.991485,0.003735,0.376153,-0.000022,0.000011,-0.000021,0.000021,-0.000032,-64.439531,0.000033,
2146,2758,-2.46605259168014,2.46255396028326,-0.0226049999162115,0.002511,-0.001081,0.000141,0.114721,-0.065639,319.050506,24.434373,0.999418,0.991195,0.003803,0.320886,-0.000040,-0.000020,-0.000021,-0.000007,-0.000053,-57.748750,0.000066,
2101,2548,-3.41072685374493,-2.11164666895299,-0.0411709114601422,0.002724,-0.000481,-0.003227,0.134546,-0.036723,322.514149,24.258396,0.999661,0.994034,0.003518,0.480876,-0.000040,-0.000004,-0.000008,-0.000002,-0.000042,-77.448448,0.000050,
2356,2413,2.16671207795423,-5.0545968776593,-0.0113957741215245,0.002540,-0.000007,-0.004907,0.133683,-0.039225,324.362958,23.679490,0.999698,0.991057,0.004029,0.287611,-0.000032,-0.000012,0.000005,-0.000011,-0.000033,77.431142,0.000046,
2041,2278,-4.67154198193672,-8.00867839680469,-5.49548422554835E-05,0.002818,-0.000293,-0.004837,0.142795,-0.044402,327.537125,24.647918,0.999799,0.992763,0.003938,0.285326,-0.000053,0.000011,0.000007,0.000012,-0.000054,83.477810,0.000057,
2446,2893,4.03152882678118,5.4159478664436,-0.0333864393276713,0.002214,-0.001173,-0.001252,0.105905,-0.056708,316.435196,25.014818,0.999398,0.992308,0.003695,0.355544,-0.000040,-0.000007,-0.000013,-0.000002,-0.000045,-70.429985,0.000053,
2161,2863,-2.15784510485311,4.74700365208685,-0.0258789333771006,0.002445,-0.000783,-0.002807,0.120846,-0.061622,317.265273,24.520446,0.999377,0.992571,0.003518,0.315667,-0.000036,-0.000009,-0.000015,-0.000002,-0.000043,-65.787900,0.000051,
2281,2083,0.592766648190665,-12.2832336129656,0.0171371539675533,0.002316,-0.000453,-0.002551,0.114419,-0.045068,329.945953,23.232616,0.999068,0.983157,0.005174,0.285894,-0.000045,-0.000026,-0.000034,0.000000,-0.000071,-52.813171,0.000082,
2071,2443,-4.04474962174034,-4.40429487680462,-0.00746783872506285,0.002415,-0.000301,-0.004311,0.123213,-0.052636,324.631044,24.465673,0.999221,0.988458,0.004372,0.318076,-0.000068,-0.000047,-0.000027,-0.000029,-0.000086,-55.657574,0.000120,
2311,2188,1.22968492074615,-9.98295675735997,0.0251200420083819,0.002685,-0.000657,-0.003188,0.133627,-0.057319,328.314031,23.276657,0.999161,0.982702,0.005085,0.289349,-0.000048,-0.000020,-0.000024,-0.000007,-0.000062,-60.415150,0.000076,
2461,2968,4.34533382841438,7.04699834154655,-0.0106252636773547,0.002579,-0.000375,-0.003347,0.130920,-0.037400,315.454718,25.350229,0.999480,0.990843,0.003943,0.335457,-0.000039,-0.000018,0.000011,-0.000013,-0.000043,66.656944,0.000060,
2011,2188,-5.31328453320546,-9.97368820252127,-0.0220915029133266,0.002120,-0.000065,-0.006698,0.115457,-0.045601,328.955230,24.901098,0.999464,0.992103,0.004244,0.215221,-0.000018,0.000039,0.000013,0.000041,-0.000021,77.613426,0.000041,
2056,2353,-4.35726242006293,-6.36845487411579,-0.0154762785657567,0.002844,0.000101,-0.005781,0.146987,-0.009102,326.119985,24.495140,0.998886,0.984341,0.005022,0.393821,-0.000057,-0.000035,-0.000016,-0.000026,-0.000066,-62.286316,0.000095,
2026,2248,-4.99405051345223,-8.66517823116089,-0.00452170062794721,0.002697,-0.000577,-0.003541,0.133428,-0.076615,328.063279,24.658439,0.999337,0.987999,0.004472,0.320914,-0.000025,0.000046,0.000013,0.000049,-0.000027,80.165938,0.000049,
2176,2923,-1.84191267292692,6.05145909429893,-0.0180756073689849,0.002307,-0.000317,-0.002453,0.113689,-0.031873,316.293315,24.600986,0.999020,0.988644,0.004278,0.334708,-0.000030,-0.000016,-0.000005,-0.000015,-0.000031,-72.886454,0.000047,
2206,3043,-1.20919892702355,8.65701062542622,0.0101793599317261,0.002513,-0.000639,-0.001662,0.120730,-0.048843,314.486764,24.806025,0.999823,0.995563,0.002938,0.303197,-0.000026,-0.000009,-0.000007,-0.000006,-0.000028,-69.724760,0.000037,
2431,2818,3.72100204274389,3.78260458075695,-0.0258555424133533,0.002335,-0.000327,-0.005317,0.126722,-0.041257,317.718032,24.756477,0.999570,0.991690,0.003796,0.354227,-0.000025,-0.000003,-0.000020,0.000009,-0.000037,-59.397570,0.000039,
2266,2008,0.279751326494477,-13.9296835095175,0.0290795081575652,0.002540,-0.000225,-0.004261,0.130275,-0.053028,331.286654,23.241397,0.999163,0.983708,0.005245,0.216399,-0.000042,0.000018,-0.000051,0.000048,-0.000071,-60.099726,0.000073,
2086,2503,-3.72874629873364,-3.09406426639372,-0.0209899438241905,0.002441,-0.000328,-0.003549,0.122346,-0.042219,323.471044,24.385533,0.999057,0.990607,0.004004,0.371216,-0.000042,-0.000031,-0.000021,-0.000015,-0.000058,-52.564575,0.000077,
2371,2488,2.479267571716,-3.41722654369161,-0.00720523313640342,0.002249,-0.000618,-0.001568,0.108463,-0.046492,323.163086,23.753898,0.999501,0.988739,0.004185,0.373858,-0.000013,-0.000032,0.000000,-0.000013,-0.000032,-1.114488,0.000047,
2476,3058,4.65457040600955,9.00290820812336,0.00922011354509777,0.002018,-0.000710,-0.003147,0.104408,-0.049392,314.155366,25.744233,0.999636,0.991037,0.003889,0.301987,-0.000019,0.000006,0.000017,0.000014,-0.000027,63.106414,0.000027,
2221,3148,-0.900825631177256,10.9346088727322,0.0234752374062168,0.002622,-0.000487,-0.004313,0.134503,-0.038063,312.855632,24.911172,0.999609,0.993404,0.003350,0.382949,-0.000036,-0.000008,-0.000016,0.000000,-0.000043,-65.352162,0.000050,
2236,3223,-0.589019691700305,12.5618816586108,0.034486134074541,0.001918,-0.000689,0.001579,0.083006,-0.033419,311.631966,25.134100,0.999409,0.993192,0.003571,0.328091,-0.000022,-0.000009,-0.000016,0.000002,-0.000033,-56.031390,0.000038,
2116,2638,-3.09873351295188,-0.149555591470111,-0.0383480106502816,0.002777,-0.000637,-0.005014,0.142344,-0.058095,321.019073,24.363583,0.999399,0.989763,0.004019,0.355263,-0.000040,-0.000009,-0.000013,-0.000004,-0.000045,-69.698961,0.000055,
2341,2353,1.85236768341509,-6.36858979354345,-0.00020928870753778,0.003031,-0.000342,-0.006546,0.161589,-0.060622,325.455238,23.515021,0.999272,0.986858,0.004623,0.321209,-0.000040,-0.000025,-0.000002,-0.000024,-0.000041,-81.305277,0.000066,
2011,2203,-5.31374971188476,-9.64793981002092,-0.0127792661251647,0.003206,-0.000229,-0.007616,0.167790,-0.051606,328.844857,24.773042,0.999539,0.992428,0.004086,0.327535,-0.000012,0.000047,0.000011,0.000049,-0.000014,79.667377,0.000050,
2326,2293,1.53538499068995,-7.68069791518012,-0.00428343971623235,0.002545,-0.000622,-0.004359,0.131390,-0.060415,326.364016,23.437054,0.999011,0.985028,0.004902,0.307277,-0.000038,-0.000020,-0.000021,-0.000006,-0.000052,-57.067664,0.000064,
2296,2158,0.906910362620049,-10.6377128480004,0.0054224257947908,0.003015,0.000023,-0.007340,0.162855,-0.056480,328.673393,23.307004,0.999449,0.984675,0.005019,0.272673,-0.000060,-0.000040,-0.000030,-0.000018,-0.000082,-54.223872,0.000107,
2101,2563,-3.41232582371086,-1.78454626703656,-0.0336979784499363,0.003019,-0.000730,-0.003454,0.148684,-0.064032,322.347808,24.366491,0.999344,0.990409,0.004063,0.347276,-0.000037,-0.000007,-0.000011,-0.000003,-0.000041,-71.712953,0.000050,
2401,2683,3.09411120158097,0.841043765057861,-0.0275438671469033,0.002485,-0.000275,-0.003404,0.126276,-0.041151,319.864295,24.359112,0.999389,0.989266,0.004194,0.309879,-0.000023,0.000008,-0.000028,0.000025,-0.000040,-58.951802,0.000040,
2131,2698,-2.78213476674087,1.15661054719718,-0.0280685974890389,0.002548,-0.000501,-0.003997,0.129009,-0.045875,320.053822,24.377659,0.999497,0.991606,0.003685,0.366998,-0.000034,-0.000017,-0.000019,-0.000005,-0.000046,-56.866588,0.000056,
2266,2023,0.276937244290803,-13.5996883460372,0.0242557194782194,0.002465,0.000273,-0.007891,0.138974,-0.037563,331.013936,23.264002,0.998875,0.980907,0.005802,0.238602,-0.000052,0.000025,-0.000039,0.000041,-0.000068,-67.083221,0.000069,
2491,3133,4.96613385096861,10.6323640000823,0.0119956775077981,0.002484,-0.000949,-0.001429,0.119236,-0.056860,313.002147,26.032403,0.999454,0.991653,0.003551,0.346762,-0.000004,0.000029,0.000019,0.000038,-0.000013,65.032891,0.000039,
2026,2263,-4.99634088848256,-8.33611694471777,-0.00449661864143991,0.002578,-0.000604,-0.004226,0.129828,-0.080648,327.818301,24.753709,0.998874,0.983916,0.004959,0.214194,-0.000023,0.000028,0.000014,0.000032,-0.000027,75.608088,0.000034,
2041,2293,-4.67412570945862,-7.68190658730518,0.0031116154054871,0.002243,-0.000120,-0.005338,0.117815,-0.039367,327.297855,24.567126,0.999849,0.993862,0.003678,0.365669,-0.000051,0.000012,0.000004,0.000012,-0.000052,86.788751,0.000054,
2056,2368,-4.35982843393724,-6.04009326932935,-0.0194183945189366,0.002700,0.000060,-0.007417,0.144981,-0.035089,325.843409,24.547157,0.998827,0.985328,0.004902,0.312371,-0.000054,-0.000031,-0.000016,-0.000023,-0.000062,-63.705691,0.000088,
2446,2908,4.02915746024299,5.7419425927311,-0.0271900366549289,0.002187,-0.000802,-0.003033,0.111418,-0.056470,316.247618,25.081574,0.999381,0.991886,0.003759,0.340701,-0.000042,-0.000009,-0.000009,-0.000007,-0.000044,-75.747755,0.000056,
2386,2563,2.79089935297899,-1.77753918018112,-0.0203908402544926,0.002223,-0.000557,-0.003659,0.114863,-0.058853,321.850705,24.013283,0.999541,0.990544,0.003960,0.290879,-0.000021,-0.000021,-0.000014,-0.000007,-0.000035,-44.987732,0.000044,
2461,2983,4.3423336256158,7.37347174780602,-0.00534448177637614,0.002374,-0.000404,-0.000849,0.112054,-0.036324,315.234405,25.471535,0.999444,0.990894,0.003903,0.268826,-0.000032,-0.000017,0.000010,-0.000012,-0.000037,62.780230,0.000051,
2191,2998,-1.52773563798195,7.67991756073589,-0.00258581896696342,0.002694,-0.000383,-0.001225,0.127788,-0.023449,315.165789,24.678850,0.999541,0.992415,0.003590,0.365919,-0.000031,-0.000011,0.000001,-0.000011,-0.000031,86.967432,0.000044,
2161,2878,-2.1597136896838,5.07260651057481,-0.0179165970715189,0.002624,-0.000516,-0.001857,0.126316,-0.033426,317.093104,24.523669,0.999403,0.993339,0.003482,0.350149,-0.000035,-0.000004,-0.000014,0.000002,-0.000041,-68.744745,0.000046,
2086,2518,-3.73085697777937,-2.76772788328569,-0.0146742889828033,0.002222,-0.000608,-0.004477,0.114855,-0.067467,323.274239,24.396792,0.999426,0.992091,0.003739,0.334465,-0.000039,-0.000024,-0.000018,-0.000013,-0.000051,-56.346101,0.000067,
2416,2743,3.40918455916058,2.14830269051404,-0.0241332584567999,0.002645,-0.000957,0.000376,0.119682,-0.043679,318.926876,24.498295,0.999551,0.990721,0.003815,0.355571,-0.000022,0.000013,-0.000018,0.000020,-0.000029,-67.228497,0.000030,
2281,2098,0.589384091903963,-11.9538873150625,0.0144727244103251,0.001944,-0.000807,-0.000811,0.091477,-0.064586,329.659484,23.284884,0.998752,0.979330,0.005638,0.245296,-0.000042,-0.000031,-0.000036,0.000000,-0.000074,-49.366541,0.000085,
2116,2653,-3.10103544061097,0.178072613685771,-0.0391504124161202,0.002964,-0.000260,-0.004762,0.150345,-0.044878,320.776788,24.435604,0.999498,0.990607,0.003818,0.300569,-0.000038,-0.000010,-0.000015,-0.000003,-0.000045,-66.670258,0.000053,
2431,2833,3.71817965892241,4.10992471774967,-0.0243318658029921,0.002646,-0.000759,-0.001886,0.128200,-0.044650,317.487108,24.893423,0.999398,0.990443,0.003893,0.263659,-0.000030,0.000002,-0.000016,0.000008,-0.000037,-67.437446,0.000038,
2011,2218,-5.31580729452815,-9.32030098103808,-0.00337210599656146,0.002979,-0.000348,-0.003944,0.147439,-0.059242,328.661983,24.824186,0.999081,0.987995,0.004735,0.259040,-0.000018,0.000043,0.000016,0.000047,-0.000022,76.032706,0.000047,
2356,2428,2.16382363620159,-4.72864997943027,-0.0137170817454262,0.002657,0.000049,-0.004831,0.138860,-0.025369,324.106803,23.511881,0.999499,0.990739,0.004121,0.509704,-0.000032,-0.000013,-0.000001,-0.000013,-0.000032,-86.710928,0.000046,
2206,3058,-1.21177650756986,8.98259942297721,0.00790239948969429,0.002528,-0.000354,-0.004166,0.129496,-0.038675,314.231448,24.801072,0.999771,0.995020,0.002994,0.334278,-0.000026,-0.000016,-0.000010,-0.000009,-0.000032,-57.618739,0.000044,
2071,2458,-4.04701018980844,-4.07774496479482,-0.00879230389534769,0.002581,-0.000671,-0.003819,0.129283,-0.075128,324.384554,24.403961,0.999465,0.990094,0.004211,0.355474,-0.000064,-0.000038,-0.000027,-0.000021,-0.000081,-57.831034,0.000108,
2146,2773,-2.46854677298285,2.78994558257929,-0.0294212104860208,0.002710,-0.000529,-0.003522,0.135178,-0.057330,318.769905,24.478895,0.999680,0.994226,0.003165,0.292710,-0.000038,-0.000024,-0.000022,-0.000007,-0.000054,-53.766424,0.000067,
2236,3238,-0.591578497443514,12.8863993048043,0.0270645613781539,0.002206,-0.000809,-0.003344,0.112150,-0.061966,311.353581,25.087378,0.999616,0.994607,0.003153,0.366077,-0.000020,-0.000015,-0.000018,0.000000,-0.000036,-48.892426,0.000041,
2476,3073,4.65196412112286,9.32798211036842,0.0119361281188048,0.002327,-0.000797,-0.001961,0.114000,-0.059275,313.942383,25.752002,0.999619,0.991510,0.003746,0.339938,-0.000015,0.000011,0.000017,0.000019,-0.000023,63.689526,0.000025,
2221,3163,-0.903338350940395,11.2596471690678,0.0309200689378031,0.002356,-0.000708,-0.002522,0.116451,-0.032163,312.654546,24.946239,0.999545,0.993204,0.003396,0.371323,-0.000032,-0.000013,-0.000017,-0.000003,-0.000042,-59.862337,0.000050,
2401,2698,3.09055198709315,1.16801834434393,-0.035926814990944,0.002602,-0.000723,-0.002284,0.127400,-0.059159,319.551371,24.358302,0.999413,0.990926,0.003934,0.338633,-0.000023,0.000012,-0.000027,0.000027,-0.000038,-61.442395,0.000039,
2131,2713,-2.78476507760885,1.48423470210039,-0.0352096730806579,0.002617,-0.000060,-0.007375,0.142445,-0.049179,319.763876,24.432637,0.999429,0.991151,0.003866,0.314913,-0.000031,-0.000015,-0.000020,-0.000002,-0.000044,-55.911757,0.000052,
2341,2368,1.84798389276947,-6.03910063538294,-0.012628086807581,0.002669,-0.000288,-0.003119,0.133100,-0.042453,325.079962,23.547947,0.999051,0.985673,0.004788,0.345549,-0.000040,-0.000030,-0.000002,-0.000029,-0.000040,-77.434576,0.000070,
2041,2308,-4.67614149874716,-7.35276361554603,-0.00607478200691958,0.002941,0.000084,-0.006804,0.154063,-0.022596,327.015695,24.572484,0.999776,0.992047,0.004025,0.371710,-0.000052,-0.000023,-0.000010,-0.000020,-0.000055,-71.931525,0.000078,
2371,2503,2.4761561695,-3.08900529483999,-0.00920435242460371,0.002270,-0.000728,-0.000204,0.104536,-0.047113,322.898897,23.837254,0.999464,0.989103,0.004236,0.332059,-0.000018,-0.000037,-0.000004,-0.000017,-0.000038,-11.946040,0.000056,
2311,2203,1.22620997933414,-9.65349836080259,0.0142464966839952,0.002686,-0.000806,-0.004355,0.137594,-0.079835,327.985515,23.294814,0.998938,0.980902,0.005424,0.283825,-0.000050,-0.000023,-0.000022,-0.000011,-0.000063,-60.584968,0.000080,
2176,2938,-1.84336834621898,6.37660958318553,-0.0146114621770721,0.002904,-0.000578,-0.006300,0.153083,-0.051500,316.117569,24.592978,0.999234,0.991301,0.003834,0.334863,-0.000032,-0.000009,-0.000009,-0.000006,-0.000035,-71.090730,0.000044,
2086,2533,-3.73304821766075,-2.44012224298351,-0.0171125388383757,0.002558,-0.000414,-0.004143,0.129464,-0.042357,323.025705,24.399790,0.999666,0.992976,0.003589,0.356769,-0.000044,-0.000009,-0.000009,-0.000007,-0.000046,-75.986639,0.000058,
2446,2923,4.02694297768529,6.06873314039129,-0.0220491509812746,0.002457,-0.000440,-0.004199,0.128348,-0.042147,316.062096,25.203360,0.999573,0.994142,0.003502,0.285194,-0.000043,-0.000019,-0.000009,-0.000016,-0.000046,-70.641726,0.000065,
2266,2038,0.273713711669998,-13.2697999564106,0.0195432751662565,0.002330,0.000485,-0.006580,0.128588,-0.033737,330.723088,23.296032,0.998982,0.982359,0.005378,0.239823,-0.000056,0.000022,-0.000043,0.000041,-0.000075,-66.214445,0.000075,
2101,2578,-3.41462371500267,-1.45934356218599,-0.0199975509686396,0.002474,-0.000963,0.000455,0.112077,-0.074641,322.183562,24.342300,0.999386,0.989643,0.004057,0.362437,-0.000041,-0.000009,-0.000011,-0.000005,-0.000044,-72.793705,0.000054,
2326,2308,1.53255869568543,-7.35191141635263,-0.00611515710374988,0.002686,-0.000564,-0.003719,0.135728,-0.043138,326.110391,23.488318,0.998908,0.984795,0.004995,0.309829,-0.000036,-0.000020,-0.000015,-0.000011,-0.000045,-58.279614,0.000060,
2026,2278,-4.99798298857217,-8.00890133741392,-0.00235700325328025,0.002935,-0.000231,-0.005463,0.149769,-0.062787,327.615010,24.685182,0.998457,0.984836,0.005140,0.292901,-0.000028,0.000019,0.000010,0.000021,-0.000030,78.213129,0.000031,
2236,3253,-0.594447548450894,13.2117366407542,0.0190386782870746,0.002485,-0.000679,-0.004637,0.129290,-0.060193,311.057484,25.087462,0.999611,0.994374,0.003126,0.387661,-0.000020,-0.000021,-0.000015,-0.000005,-0.000035,-43.767582,0.000044,
2461,2998,4.33956210705574,7.69800804152059,-0.00244397622651604,0.002555,-0.000658,0.001298,0.112194,-0.046832,315.014187,25.413155,0.999274,0.990749,0.003959,0.370494,-0.000028,-0.000020,0.000014,-0.000010,-0.000038,53.347097,0.000051,
2296,2173,0.903805359305782,-10.3093660845041,-0.000804206698774124,0.002966,0.000130,-0.008883,0.165876,-0.047711,328.383175,23.230777,0.999494,0.983680,0.005066,0.390511,-0.000057,-0.000035,-0.000025,-0.000018,-0.000074,-56.426895,0.000097,
2386,2578,2.78794699657033,-1.45066681935197,-0.0180331812537133,0.002163,-0.000915,-0.001311,0.103595,-0.045231,321.615633,24.022621,0.999465,0.988995,0.004240,0.339182,-0.000020,-0.000007,-0.000014,0.000002,-0.000029,-57.855977,0.000032,
2491,3148,4.96338421230942,10.9584440619446,0.0164754012148478,0.002470,-0.000544,-0.000910,0.116766,-0.040504,312.790778,26.136325,0.999556,0.990836,0.003653,0.316630,-0.000001,0.000015,0.000020,0.000029,-0.000014,55.884799,0.000029,
2011,2233,-5.3183393314079,-8.99179049221401,-0.00339036914374446,0.002688,-0.000233,-0.002863,0.131147,-0.035667,328.404434,24.830533,0.999291,0.985696,0.004825,0.266644,-0.000023,0.000033,0.000014,0.000036,-0.000026,77.143148,0.000038,
2056,2383,-4.36222168595477,-5.71145635307229,-0.0273297013151819,0.002947,0.000679,-0.009457,0.162294,-0.022851,325.552694,24.553607,0.999368,0.989568,0.004272,0.314741,-0.000052,-0.000033,-0.000019,-0.000022,-0.000064,-58.707733,0.000089,
2416,2758,3.40624242336672,2.47519879668239,-0.0284866789877469,0.002561,-0.000317,-0.005053,0.135948,-0.042651,318.662306,24.523412,0.999526,0.989800,0.003978,0.379345,-0.000019,0.000015,-0.000013,0.000020,-0.000024,-71.485993,0.000025,
2191,3013,-1.52952148357177,8.00442219763399,0.00669643654691754,0.002717,-0.000430,-0.003164,0.134882,-0.047925,315.006369,24.674020,0.999513,0.992022,0.003654,0.359850,-0.000028,-0.000011,-0.000002,-0.000010,-0.000028,-84.992629,0.000040,
2281,2113,0.58710400545187,-11.6253453403374,0.0114110779396697,0.002309,-0.000423,-0.004325,0.120057,-0.061742,329.421414,23.242711,0.998902,0.980634,0.005432,0.321090,-0.000042,-0.000022,-0.000034,0.000004,-0.000068,-53.400498,0.000076,
2146,2788,-2.47132504885499,3.11601885445809,-0.0312772159725796,0.002565,-0.000444,-0.003103,0.127312,-0.040680,318.502944,24.437992,0.999595,0.993154,0.003437,0.358326,-0.000041,-0.000023,-0.000023,-0.000007,-0.000057,-55.804285,0.000070,
2116,2668,-3.10368019139306,0.504838656211518,-0.045931065147613,0.002956,0.000168,-0.008153,0.160147,-0.047826,320.486970,24.399797,0.999524,0.991957,0.003641,0.337309,-0.000038,-0.000020,-0.000016,-0.000011,-0.000047,-59.037778,0.000062,
2356,2443,2.16139623367441,-4.40086115971495,-0.00833006284693738,0.002587,-0.000359,-0.005755,0.138725,-0.055754,323.908641,23.634494,0.998893,0.984113,0.005029,0.396698,-0.000027,-0.000023,0.000002,-0.000022,-0.000028,66.509804,0.000050,
2401,2713,3.08728652544952,1.49485547653487,-0.0395306417598817,0.002374,-0.000561,-0.004395,0.124688,-0.055437,319.274368,24.367622,0.999584,0.991381,0.003769,0.379097,-0.000025,0.000015,-0.000027,0.000029,-0.000039,-63.200283,0.000040,
2071,2473,-4.04891913436455,-3.7501180435382,-0.007118090607662,0.002833,-0.000368,-0.004655,0.143420,-0.048483,324.170096,24.424447,0.999379,0.989758,0.004345,0.359553,-0.000059,-0.000034,-0.000024,-0.000020,-0.000073,-59.418131,0.000098,
2431,2848,3.71530726483465,4.43567519354023,-0.0243020840190979,0.002478,-0.000362,-0.005112,0.132485,-0.055032,317.247264,24.885942,0.999327,0.989079,0.004009,0.310530,-0.000035,0.000007,-0.000017,0.000013,-0.000041,-70.690510,0.000042,
2476,3088,4.64900192769142,9.65448448807856,0.00987759876795735,0.002545,-0.000552,-0.002408,0.125859,-0.049992,313.690757,25.845643,0.999468,0.992830,0.003525,0.311387,-0.000017,0.000023,0.000018,0.000029,-0.000023,69.099947,0.000031,
2161,2893,-2.16208075974309,5.39869464349418,-0.0220287478556997,0.002915,-0.000579,-0.003914,0.145978,-0.053832,316.834298,24.535438,0.999482,0.992973,0.003583,0.327693,-0.000036,-0.000005,-0.000013,0.000000,-0.000041,-69.912366,0.000047,
2461,3013,4.33725409849537,8.02436739514951,0.00446888904576781,0.002442,-0.000591,-0.001864,0.118961,-0.041554,314.833115,25.537547,0.999365,0.990796,0.003818,0.304728,-0.000034,-0.000011,0.000016,-0.000003,-0.000042,62.859750,0.000050,
2221,3178,-0.90549137713926,11.5845565510654,0.0345063824152021,0.002403,-0.000687,-0.005257,0.127238,-0.067952,312.450184,24.990839,0.999399,0.992269,0.003551,0.308670,-0.000031,-0.000015,-0.000016,-0.000006,-0.000041,-58.196563,0.000051,
2041,2323,-4.67840719879969,-7.02419940887365,-0.00880144197714117,0.003088,0.000138,-0.006788,0.160816,-0.035014,326.758081,24.624477,0.999327,0.985555,0.004564,0.301948,-0.000043,-0.000043,-0.000020,-0.000023,-0.000063,-45.268968,0.000090,
2266,2053,0.270533667312613,-12.9408254006104,0.0161312569819074,0.002258,0.000038,-0.003694,0.115580,-0.021772,330.440745,23.257325,0.998817,0.981222,0.005445,0.319747,-0.000054,-0.000002,-0.000039,0.000018,-0.000075,-61.936044,0.000078,
2446,2938,4.02364485580062,6.39459487562262,-0.0241475154648469,0.002337,-0.000434,-0.004050,0.122318,-0.040388,315.793460,25.204743,0.999553,0.993023,0.003649,0.337212,-0.000045,-0.000023,-0.000010,-0.000020,-0.000048,-68.840017,0.000070,
2131,2728,-2.78685506418638,1.80947610537786,-0.0312468815889702,0.002693,0.000165,-0.007694,0.147000,-0.041374,319.558607,24.352580,0.999337,0.989968,0.004110,0.408431,-0.000037,-0.000017,-0.000023,-0.000002,-0.000052,-56.813108,0.000061,
2086,2548,-3.73593707820941,-2.1134654321305,-0.0231324391110093,0.002428,-0.000603,-0.003702,0.122138,-0.051533,322.726144,24.323563,0.999451,0.991865,0.003841,0.423938,-0.000037,-0.000006,-0.000006,-0.000004,-0.000038,-79.304213,0.000047,
2236,3268,-0.597617231821953,13.5374047791335,0.0133968584617037,0.002504,-0.000608,-0.003018,0.124984,-0.041923,310.759593,25.119653,0.999490,0.993699,0.003328,0.393199,-0.000024,-0.000013,-0.000015,-0.000002,-0.000034,-55.489557,0.000041,
2341,2383,1.84459896133157,-5.71079893193214,-0.0110736966336731,0.002317,-0.001034,0.001276,0.101379,-0.058431,324.818362,23.647658,0.999385,0.986498,0.004650,0.268167,-0.000038,-0.000029,-0.000005,-0.000027,-0.000040,-65.590911,0.000068,
2011,2248,-5.32026441502712,-8.66496289730471,-0.00150513045844036,0.002744,-0.000314,-0.004151,0.137196,-0.049492,328.185806,24.745189,0.999192,0.984992,0.004860,0.328529,-0.000034,0.000043,0.000022,0.000049,-0.000039,75.261989,0.000052,
2206,3073,-1.2141184157879,9.30748224507571,0.0127297194723042,0.002413,-0.000532,-0.004853,0.126359,-0.045571,314.023992,24.798088,0.999700,0.993541,0.003256,0.345884,-0.000026,-0.000009,-0.000014,-0.000002,-0.000034,-61.004556,0.000040,
2026,2293,-5.00092615407426,-7.68006839095936,-0.00532710643409473,0.002424,0.000075,-0.004783,0.124534,-0.038818,327.323522,24.711966,0.998470,0.985000,0.005114,0.282493,-0.000027,0.000021,0.000003,0.000021,-0.000027,86.986968,0.000029,
2491,3163,4.96034823157457,11.2837459973313,0.0184049044858625,0.002328,-0.000447,-0.001024,0.110741,-0.035381,312.554844,26.167665,0.999648,0.992001,0.003417,0.348252,-0.000003,0.000023,0.000024,0.000037,-0.000017,59.469002,0.000038,
2176,2953,-1.84606066337639,6.70186926052791,-0.011536921924062,0.002733,-0.000568,-0.003632,0.136935,-0.043775,315.882931,24.568920,0.999220,0.992990,0.003515,0.378285,-0.000031,-0.000015,-0.000009,-0.000011,-0.000035,-65.096239,0.000048,
2371,2518,2.473350243812,-2.76180555647685,-0.0161306211996362,0.002559,-0.000741,-0.004145,0.131776,-0.078651,322.625434,23.818490,0.999350,0.987506,0.004605,0.361665,-0.000022,-0.000030,-0.000009,-0.000016,-0.000036,-34.159304,0.000053,
2326,2323,1.52956262883995,-7.0235622890001,-0.00742025902167143,0.002584,-0.000263,-0.003483,0.130346,-0.030660,325.851588,23.515017,0.998876,0.983241,0.005257,0.332267,-0.000035,-0.000016,-0.000011,-0.000010,-0.000040,-65.308482,0.000053,
2101,2593,-3.41685220911771,-1.13173076624175,-0.022609691282014,0.002565,-0.000450,-0.003210,0.127168,-0.054912,321.933672,24.370200,0.999303,0.989536,0.004150,0.356325,-0.000042,-0.000005,-0.000007,-0.000004,-0.000043,-79.469048,0.000052,
2191,3028,-1.53248446907133,8.33024728456731,0.00431576073674478,0.002582,-0.000559,-0.001979,0.124903,-0.043067,314.731620,24.687014,0.999606,0.993107,0.003595,0.365364,-0.000030,-0.000010,-0.000003,-0.000009,-0.000030,-80.454398,0.000041,
2386,2593,2.78529409506741,-1.12351497932967,-0.0186231235102241,0.002532,-0.000913,-0.000250,0.116722,-0.058308,321.380302,24.063052,0.999495,0.988872,0.004292,0.329829,-0.000018,-0.000012,-0.000014,-0.000001,-0.000029,-50.610229,0.000034,
2296,2188,0.901909443440065,-9.98148400874426,0.0160877540970432,0.002960,-0.000431,-0.003233,0.146377,-0.039573,328.262465,23.362394,0.998999,0.981428,0.005368,0.299083,-0.000057,-0.000029,-0.000030,-0.000010,-0.000076,-57.401451,0.000094,
2401,2728,3.08503167367485,1.82138438881667,-0.032095941442094,0.002656,-0.000941,-0.001829,0.128210,-0.053803,319.095856,24.444373,0.999648,0.990849,0.003893,0.349318,-0.000027,0.000008,-0.000021,0.000018,-0.000038,-64.801082,0.000038,
2311,2218,1.22299492610624,-9.32417263065197,0.00563964341381507,0.002874,-0.000429,-0.004176,0.145741,-0.045334,327.679691,23.274261,0.999020,0.979455,0.005477,0.374205,-0.000049,-0.000029,-0.000024,-0.000013,-0.000064,-56.519588,0.000083,
2461,3028,4.33425449640029,8.35017216650285,0.00917620617246939,0.002156,-0.000759,-0.000892,0.102156,-0.035680,314.610162,25.598838,0.999658,0.992425,0.003606,0.302955,-0.000034,0.000002,0.000012,0.000005,-0.000037,72.563428,0.000040,
2041,2338,-4.6809241380832,-6.69682888386821,-0.00744263477190543,0.002906,-0.000085,-0.003923,0.144434,-0.026509,326.511768,24.592316,0.999293,0.987875,0.004341,0.336810,-0.000046,-0.000051,-0.000033,-0.000015,-0.000081,-42.767424,0.000104,
2476,3103,4.64658829726127,9.97975688710784,0.0145337766965667,0.002698,-0.000692,-0.003496,0.136950,-0.058420,313.495268,25.890000,0.999417,0.991752,0.003716,0.314117,-0.000017,0.000018,0.000024,0.000030,-0.000029,63.412394,0.000034,
2056,2398,-4.36383985434781,-5.38637003534085,-0.0156282034745914,0.003021,0.000382,-0.007146,0.159103,-0.028719,325.406140,24.446991,0.998966,0.987642,0.004578,0.411366,-0.000054,-0.000024,-0.000021,-0.000013,-0.000065,-62.622711,0.000083,
2161,2908,-2.16418181456649,5.72355245437725,-0.0120219717850318,0.002752,-0.000461,-0.002563,0.134433,-0.036203,316.662507,24.502611,0.999404,0.992219,0.003756,0.387774,-0.000033,-0.000016,-0.000013,-0.000009,-0.000040,-61.952639,0.000053,
2221,3193,-0.908021732417989,11.9097553249199,0.0355947037710393,0.002675,-0.000569,-0.001896,0.129106,-0.044782,312.215464,24.992062,0.999436,0.993353,0.003439,0.348276,-0.000033,-0.000025,-0.000017,-0.000011,-0.000047,-51.046189,0.000062,
2146,2803,-2.47299544297216,3.44120962433355,-0.0250573768204845,0.002937,-0.000485,-0.003539,0.145762,-0.037246,318.329934,24.395772,0.999619,0.993340,0.003405,0.411616,-0.000041,-0.000026,-0.000022,-0.000011,-0.000057,-54.201413,0.000072,
2356,2458,2.1580433571512,-4.07134641409074,-0.017238297016263,0.002811,-0.000545,-0.005222,0.147041,-0.077808,323.598907,23.778341,0.999279,0.987557,0.004461,0.271154,-0.000029,-0.000014,0.000006,-0.000012,-0.000031,70.327191,0.000045,
2281,2128,0.585028988812834,-11.2972441726352,0.0192698912211995,0.002384,-0.000560,-0.003767,0.121581,-0.058799,329.247019,23.284122,0.998674,0.979802,0.005428,0.313020,-0.000043,-0.000023,-0.000037,0.000005,-0.000071,-52.784926,0.000079,
2086,2563,-3.73710898170341,-1.78659195307978,-0.0134695830341229,0.002907,-0.000682,-0.005243,0.148589,-0.064970,322.590349,24.414654,0.998980,0.988804,0.004397,0.318888,-0.000035,-0.000009,-0.000010,-0.000005,-0.000039,-70.617936,0.000048,
2236,3283,-0.600857073322235,13.8633928438198,0.00627971646804326,0.002357,-0.000372,-0.004239,0.122227,-0.043041,310.450754,25.197171,0.999361,0.993595,0.003388,0.334137,-0.000035,-0.000015,-0.000018,-0.000005,-0.000046,-58.899086,0.000055,
2266,2068,0.268029466877667,-12.6112255779068,0.0180549387161477,0.002353,0.000016,-0.002591,0.116303,-0.012103,330.215905,23.342895,0.999027,0.983448,0.005144,0.272729,-0.000051,-0.000018,-0.000036,0.000005,-0.000074,-57.201724,0.000083,
2416,2773,3.40337340760447,2.80115618384224,-0.0233009838221392,0.002344,-0.000403,-0.003514,0.120296,-0.051307,318.445907,24.551723,0.999547,0.989244,0.004076,0.390265,-0.000026,0.000001,-0.000017,0.000009,-0.000035,-64.316515,0.000036,
2071,2488,-4.05146407245435,-3.42209892410241,-0.0141219951342464,0.002994,-0.000073,-0.005481,0.153280,-0.022347,323.879033,24.406741,0.999493,0.991236,0.004121,0.401750,-0.000063,-0.000029,-0.000022,-0.000018,-0.000073,-64.239854,0.000097,
2431,2863,3.71244829397133,4.76169125396561,-0.0201347737756237,0.002343,-0.000630,-0.004017,0.122145,-0.060897,317.027128,24.933393,0.999512,0.991218,0.003660,0.306547,-0.000039,0.000004,-0.000021,0.000013,-0.000047,-67.730634,0.000049,
2116,2683,-3.10603151910121,0.829953436731877,-0.03985669818735,0.002804,-0.000417,-0.005460,0.145008,-0.062137,320.280126,24.335310,0.999477,0.993063,0.003460,0.391354,-0.000040,-0.000011,-0.000017,-0.000003,-0.000048,-65.012053,0.000058,
2026,2308,-5.00300350058155,-7.35173882658372,-0.0122784871809358,0.003077,-0.000498,-0.003165,0.149952,-0.060509,327.049761,24.703941,0.998743,0.985134,0.004983,0.261281,-0.000031,-0.000021,-0.000013,-0.000013,-0.000040,-55.444574,0.000054,
2011,2263,-5.32259148719279,-8.33746220695673,0.000228402874029143,0.002543,-0.000691,-0.003286,0.125509,-0.065055,327.947865,24.726399,0.998758,0.981754,0.005092,0.322225,-0.000038,0.000027,0.000024,0.000035,-0.000046,71.915295,0.000048,
2446,2953,4.02101598251668,6.72055852446541,-0.0243380665719428,0.002612,-0.000426,-0.005377,0.139909,-0.044628,315.564348,25.239239,0.999657,0.993860,0.003469,0.350069,-0.000043,-0.000022,-0.000002,-0.000022,-0.000043,-83.887296,0.000066,
2131,2743,-2.78916506979518,2.13620764046812,-0.0281001652963369,0.002839,-0.000060,-0.004561,0.144279,-0.037252,319.338482,24.410393,0.999423,0.990972,0.003925,0.360490,-0.000040,-0.000017,-0.000018,-0.000008,-0.000050,-61.687640,0.000062,
2491,3178,4.95854835524625,11.6087938533779,0.0277960868032778,0.002525,-0.000362,-0.004370,0.132726,-0.032511,312.409631,26.225523,0.999651,0.991655,0.003577,0.350738,-0.000001,0.000025,0.000026,0.000041,-0.000018,58.247082,0.000041,
2341,2398,1.84209772455599,-5.38293609343635,-0.00865552135689995,0.002293,-0.000449,-0.000611,0.107089,-0.026143,324.601295,23.671911,0.999632,0.988594,0.004388,0.314346,-0.000033,-0.000011,0.000000,-0.000011,-0.000033,-89.092201,0.000046,
2206,3088,-1.21665047279549,9.63336675798266,0.0182920890101173,0.002365,-0.000653,-0.001156,0.112445,-0.028398,313.811229,24.871357,0.999505,0.992665,0.003524,0.305440,-0.000029,-0.000012,-0.000016,-0.000002,-0.000039,-58.845454,0.000046,
2401,2743,3.08204233293131,2.14836588734526,-0.0359181727000646,0.002836,-0.000654,-0.002508,0.139073,-0.042460,318.830333,24.466860,0.999588,0.990771,0.003852,0.384070,-0.000027,0.000010,-0.000018,0.000017,-0.000035,-68.024293,0.000035,
2101,2608,-3.41890767515861,-0.804638369379013,-0.0245035936886779,0.002642,0.000144,-0.009067,0.148078,-0.037893,321.695733,24.364337,0.999037,0.987293,0.004572,0.381389,-0.000040,-0.000004,-0.000008,-0.000002,-0.000042,-77.499405,0.000049,
2371,2533,2.47032380611686,-2.43314002203954,-0.0195167879810469,0.002572,-0.000325,-0.005363,0.136940,-0.038361,322.358169,23.899888,0.999337,0.988215,0.004496,0.362900,-0.000018,-0.000030,-0.000012,-0.000011,-0.000037,-31.864730,0.000050,
2176,2968,-1.84736021733573,7.02696200712995,-0.00309339547112586,0.003340,-0.000826,-0.004712,0.168160,-0.062025,315.740477,24.596046,0.999314,0.992752,0.003555,0.344515,-0.000028,-0.000014,-0.000007,-0.000011,-0.000031,-66.939776,0.000044,
2386,2608,2.782766199121,-0.79610887793816,-0.0211059437908716,0.002832,-0.000371,-0.003559,0.142562,-0.036629,321.141520,24.080594,0.999369,0.988926,0.004197,0.377835,-0.000021,-0.000006,-0.000014,0.000002,-0.000029,-58.298118,0.000033,
2326,2338,1.52764367554729,-6.69749383708718,0.00834308164428421,0.002388,-0.000780,-0.001632,0.114786,-0.053283,325.725784,23.541367,0.999147,0.985022,0.004840,0.318811,-0.000039,-0.000024,-0.000011,-0.000018,-0.000045,-62.684527,0.000065,
2311,2233,1.22023341291705,-8.99463695604371,0.0048391324069712,0.002878,-0.000318,-0.004842,0.148253,-0.045713,327.432995,23.394762,0.998810,0.980354,0.005486,0.287872,-0.000047,-0.000034,-0.000031,-0.000009,-0.000072,-51.087433,0.000089,
2476,3118,4.64315346494323,10.3049983342513,0.0194691812305336,0.002246,-0.000810,0.000725,0.100130,-0.043461,313.253907,25.913341,0.999448,0.991680,0.003633,0.361305,-0.000014,0.000026,0.000024,0.000037,-0.000026,65.081992,0.000038,
2161,2923,-2.16723786974917,6.0502969237771,-0.0133035866164164,0.002242,-0.000223,-0.003540,0.114024,-0.028216,316.386741,24.575365,0.999160,0.989836,0.004119,0.332533,-0.000034,-0.000014,-0.000010,-0.000010,-0.000038,-67.432181,0.000051,
2296,2203,0.898756038722521,-9.6523463043052,0.0100640461316175,0.003132,-0.000785,-0.001094,0.146925,-0.061930,327.971000,23.402283,0.998406,0.978675,0.005790,0.269772,-0.000058,-0.000029,-0.000029,-0.000011,-0.000075,-58.595861,0.000094,
2191,3043,-1.53450221328631,8.65599965065627,0.0145500985521494,0.002342,-0.000816,-0.003538,0.118678,-0.059294,314.566073,24.801424,0.999727,0.995187,0.003105,0.248038,-0.000030,-0.000010,-0.000003,-0.000009,-0.000030,-81.687146,0.000041,
2461,3043,4.33144187089212,8.67520093662682,0.0111540673984223,0.002277,-0.000841,0.000072,0.104018,-0.047739,314.383472,25.591964,0.999564,0.991213,0.003750,0.351322,-0.000037,0.000015,0.000018,0.000020,-0.000042,72.781241,0.000042,
2116,2698,-3.10811539479817,1.15686817248547,-0.0317594821780744,0.002670,-0.000387,-0.004740,0.136731,-0.051604,320.095838,24.431331,0.999400,0.991768,0.003708,0.309302,-0.000035,-0.000018,-0.000018,-0.000007,-0.000047,-56.906698,0.000058,
2146,2818,-2.47646583881096,3.76863365035224,-0.0266984857607895,0.002182,-0.000336,-0.001802,0.105814,-0.019220,318.031953,24.488046,0.999547,0.993225,0.003466,0.344910,-0.000036,-0.000015,-0.000018,-0.000005,-0.000046,-59.824305,0.000056,
2416,2788,3.40016427717139,3.12928946860623,-0.0257886351236039,0.002522,-0.000963,-0.000659,0.117810,-0.054745,318.177360,24.719079,0.999496,0.989558,0.004103,0.267127,-0.000027,-0.000001,-0.000020,0.000009,-0.000037,-61.499813,0.000039,
2281,2143,0.58213981186903,-10.9662108315846,0.0190521530172418,0.002512,-0.000348,0.000318,0.113891,-0.015207,328.994624,23.470111,0.999257,0.983576,0.005102,0.201567,-0.000044,-0.000039,-0.000032,-0.000009,-0.000074,-47.314451,0.000091,
2056,2413,-4.36619487048376,-5.0592085037234,-0.0121149980981272,0.002888,-0.000141,-0.004639,0.145776,-0.045248,325.180464,24.466412,0.998233,0.984549,0.005189,0.371708,-0.000063,-0.000040,-0.000028,-0.000021,-0.000082,-56.434023,0.000109,
2491,3193,4.95597635277551,11.9335566120039,0.0374905658761691,0.002553,-0.000592,-0.000222,0.117975,-0.030261,312.230207,26.262114,0.999567,0.992290,0.003515,0.373974,0.000006,0.000021,0.000032,0.000046,-0.000019,51.490384,0.000046,
2236,3298,-0.604207847893139,14.1888121751486,-0.00348926201553468,0.002320,-0.000267,-0.005000,0.123058,-0.034161,310.123402,25.202709,0.999396,0.993464,0.003353,0.357055,-0.000031,-0.000011,-0.000028,0.000009,-0.000051,-54.920455,0.000054,
2041,2353,-4.68339882537462,-6.36865144598658,-0.0135643869056707,0.003034,-0.000111,-0.004214,0.151123,-0.017260,326.225852,24.564924,0.998947,0.985752,0.004873,0.368148,-0.000049,-0.000045,-0.000023,-0.000024,-0.000070,-47.116520,0.000098,
2086,2578,-3.74040469871622,-1.45893174286268,-0.0224782973436959,0.002686,-0.000710,-0.002887,0.131659,-0.058139,322.255605,24.398438,0.999126,0.989196,0.004270,0.342245,-0.000039,-0.000008,-0.000010,-0.000005,-0.000042,-72.941727,0.000052,
2266,2083,0.264802010201553,-12.2812650206185,0.010045716229456,0.002485,-0.000120,-0.000918,0.116797,-0.020177,329.908312,23.374912,0.999180,0.984926,0.005025,0.261662,-0.000046,-0.000026,-0.000036,0.000001,-0.000073,-52.659534,0.000084,
2071,2503,-4.0539796705518,-3.09441272269209,-0.0196792301273945,0.003087,0.000160,-0.006429,0.160335,-0.025434,323.597401,24.406629,0.999346,0.990834,0.004019,0.396890,-0.000052,-0.000029,-0.000021,-0.000017,-0.000065,-59.465967,0.000086,
2401,2758,3.07924590074845,2.47517797119435,-0.0347668722760091,0.002624,-0.000015,-0.005582,0.140657,-0.044751,318.597126,24.531717,0.999453,0.989424,0.004097,0.362553,-0.000026,0.000013,-0.000013,0.000017,-0.000030,-72.838704,0.000030,
2356,2473,2.15535354404712,-3.74404319679565,-0.0138179761495962,0.002827,-0.000857,-0.003524,0.141713,-0.066506,323.379075,23.806093,0.999638,0.989275,0.004037,0.294887,-0.000028,-0.000016,0.000004,-0.000015,-0.000029,72.707873,0.000045,
2011,2278,-5.32500677775617,-8.00930288898183,-0.00207068739200622,0.002509,-0.000711,-0.002178,0.120994,-0.044723,327.683049,24.696139,0.998607,0.982125,0.005417,0.363101,-0.000043,0.000023,0.000019,0.000028,-0.000048,74.707555,0.000049,
2431,2878,3.70948185894955,5.08816911386567,-0.0208245235093614,0.002439,-0.000822,-0.003613,0.125079,-0.045420,316.779246,24.970097,0.999519,0.991799,0.003536,0.335310,-0.000039,-0.000001,-0.000018,0.000006,-0.000047,-68.248415,0.000051,
2221,3208,-0.910903806050289,12.2351995128838,0.0380435855549877,0.002186,-0.000395,-0.003056,0.110423,-0.029488,311.971473,25.035355,0.999277,0.992679,0.003653,0.337794,-0.000030,-0.000024,-0.000016,-0.000011,-0.000044,-49.897506,0.000058,
2341,2413,1.84057067717871,-5.05614466578736,0.00355368168044379,0.002316,-0.000095,-0.004850,0.123014,-0.050277,324.476658,23.751942,0.999627,0.990625,0.004122,0.247940,-0.000035,-0.000012,-0.000002,-0.000012,-0.000035,-86.237592,0.000049,
2026,2323,-5.00473284314656,-7.02475472801004,-0.00943002770458179,0.003246,-0.000285,-0.005522,0.164223,-0.045722,326.846567,24.639792,0.999145,0.985773,0.004719,0.332570,-0.000027,-0.000044,-0.000020,-0.000013,-0.000058,-33.339125,0.000075,
2326,2353,1.52431213416688,-6.36741161969408,-0.00653021869243275,0.002489,-0.000093,-0.007944,0.141434,-0.054355,325.385175,23.616820,0.999213,0.983741,0.004730,0.279163,-0.000038,-0.000026,-0.000010,-0.000020,-0.000044,-59.703139,0.000065,
2461,3058,4.32829532262004,9.00165982898312,0.0081819787694144,0.002091,-0.000369,-0.003646,0.109687,-0.034066,314.118191,25.662844,0.999545,0.989977,0.004044,0.347710,-0.000032,0.000008,0.000017,0.000014,-0.000038,70.269939,0.000039,
2476,3133,4.64025703537717,10.6311067367596,0.0182392140933985,0.002347,-0.001062,-0.001103,0.111637,-0.058773,313.008960,26.012137,0.999498,0.991081,0.003630,0.302728,-0.000010,0.000017,0.000020,0.000027,-0.000020,62.164757,0.000028,
2131,2758,-2.79200763530364,2.46304996673503,-0.0295475971677206,0.002672,-0.000473,-0.002712,0.130934,-0.035689,319.069386,24.448800,0.999481,0.991919,0.003706,0.329355,-0.000040,-0.000019,-0.000018,-0.000008,-0.000050,-60.010813,0.000063,
2311,2248,1.21696052802107,-8.66635676067954,0.00363422848198525,0.002229,0.000084,-0.007659,0.128257,-0.034307,327.160968,23.390096,0.998853,0.982853,0.005180,0.338708,-0.000046,-0.000042,-0.000027,-0.000017,-0.000071,-46.706865,0.000094,
2206,3103,-1.21879804844435,9.95744416528206,0.0205877685986025,0.002591,-0.000809,-0.002266,0.126277,-0.050224,313.599859,24.799686,0.999405,0.991271,0.003915,0.371077,-0.000033,-0.000003,-0.000014,0.000002,-0.000039,-68.132095,0.000043,
2296,2218,0.895661278458835,-9.32310130797417,0.0077510137699619,0.002760,-0.000114,-0.003359,0.137742,-0.020601,327.700169,23.433109,0.998852,0.980423,0.005458,0.313063,-0.000057,-0.000032,-0.000030,-0.000012,-0.000076,-56.397015,0.000096,
2041,2368,-4.68555214034773,-6.04169155646217,-0.0095734286728657,0.002901,-0.000488,-0.003976,0.144218,-0.044038,326.010981,24.566042,0.998994,0.986346,0.004771,0.334260,-0.000040,-0.000036,-0.000020,-0.000018,-0.000058,-48.229952,0.000080,
2281,2158,0.579424294277779,-10.6377537155171,0.0121719517555903,0.002666,-0.000044,-0.003969,0.135381,-0.024713,328.717618,23.408256,0.999561,0.984411,0.004997,0.284794,-0.000047,-0.000046,-0.000029,-0.000018,-0.000075,-45.812522,0.000099,
2056,2428,-4.36898119297069,-4.730623108536,-0.0154996270792367,0.002804,-0.000153,-0.001326,0.132588,-0.010704,324.896616,24.504719,0.998828,0.986537,0.004677,0.364155,-0.000067,-0.000050,-0.000018,-0.000039,-0.000078,-57.985702,0.000119,
2371,2548,2.46759306174265,-2.10605733836759,-0.0155861122436249,0.002594,-0.000318,-0.002878,0.129123,-0.023240,322.139748,23.931502,0.999278,0.987626,0.004602,0.388342,-0.000017,-0.000027,-0.000012,-0.000009,-0.000035,-34.038758,0.000046,
2416,2803,3.39722719133873,3.45555387044953,-0.0290133548027143,0.002420,-0.000253,-0.005209,0.130078,-0.040371,317.918207,24.695886,0.999351,0.988973,0.004337,0.352677,-0.000026,0.000003,-0.000019,0.000012,-0.000036,-63.897382,0.000036,
2491,3208,4.95234089852073,12.2596362745016,0.0297722983790436,0.002468,-0.000668,-0.002202,0.121644,-0.038678,311.922525,26.332574,0.999354,0.992874,0.003592,0.352551,0.000015,0.000005,0.000028,0.000038,-0.000019,39.788701,0.000038,
2446,2968,4.01842279475688,7.04697645560515,-0.0186063124036764,0.002387,-0.000163,-0.007365,0.137129,-0.035202,315.364011,25.347146,0.999662,0.993018,0.003518,0.303163,-0.000044,-0.000019,0.000002,-0.000019,-0.000045,86.149393,0.000065,
2116,2713,-3.1103920838268,1.48319458958149,-0.0312884351590696,0.002710,-0.000354,-0.005928,0.142118,-0.056835,319.861965,24.430763,0.999347,0.991015,0.003878,0.308300,-0.000032,-0.000014,-0.000020,-0.000002,-0.000045,-57.036467,0.000053,
2011,2293,-5.32784956024365,-7.67856769023389,-0.0147819140609613,0.002666,-0.000182,-0.001259,0.125891,-0.021862,327.339867,24.799472,0.998977,0.987435,0.004714,0.273306,-0.000039,0.000029,0.000014,0.000032,-0.000042,78.681065,0.000044,
2176,2983,-1.85091841319566,7.35307399532774,-0.00554502255437228,0.002789,-0.001024,-0.000496,0.129590,-0.062224,315.436820,24.627654,0.999224,0.992443,0.003637,0.324260,-0.000030,-0.000015,-0.000005,-0.000014,-0.000031,-72.197808,0.000046,
2251,1993,-0.0472186746783727,-14.2545871427705,-0.00468440070920906,0.003074,-0.000392,-0.003184,0.151015,-0.061232,331.290360,23.307739,0.999692,0.990883,0.004242,0.220071,-0.000018,-0.000022,-0.000057,0.000037,-0.000077,-43.868976,0.000077,
2161,2938,-2.1692485608306,6.37512248267402,-0.00899372933906761,0.002515,-0.000765,-0.002816,0.124136,-0.059155,316.189126,24.554182,0.999274,0.990387,0.004027,0.332204,-0.000037,-0.000009,-0.000013,-0.000004,-0.000042,-68.737409,0.000051,
2266,2098,0.261855246605641,-11.9518330360823,0.00798812329730936,0.002347,-0.000541,-0.000932,0.110420,-0.047040,329.643449,23.449188,0.999108,0.982114,0.005318,0.189412,-0.000043,-0.000030,-0.000038,0.000002,-0.000075,-49.823436,0.000086,
2386,2623,2.7789794639119,-0.468909321928344,-0.0260923205042332,0.002353,-0.000545,-0.003278,0.119530,-0.039681,320.833085,24.087794,0.999269,0.988667,0.004193,0.411860,-0.000021,-0.000002,-0.000019,0.000009,-0.000033,-58.677267,0.000034,
2101,2623,-3.42247022076737,-0.476830955119347,-0.037510526852202,0.002538,-0.000159,-0.005384,0.132444,-0.027486,321.328560,24.341117,0.999177,0.987862,0.004406,0.417098,-0.000042,-0.000012,-0.000013,-0.000007,-0.000047,-70.218671,0.000058,
2086,2593,-3.74317645615723,-1.13168325511641,-0.0220355224754485,0.002300,-0.000411,-0.002023,0.111521,-0.033392,321.996263,24.414384,0.999165,0.989214,0.004208,0.350909,-0.000038,-0.000005,-0.000006,-0.000004,-0.000039,-79.278656,0.000047,
2191,3058,-1.53701748344678,8.98058364453343,0.0126009694835147,0.002498,-0.000532,-0.004176,0.127919,-0.054294,314.314528,24.710663,0.999799,0.996056,0.002877,0.357578,-0.000029,-0.000018,-0.000006,-0.000015,-0.000032,-65.344435,0.000048,
2071,2518,-4.05682026866311,-2.76727234198068,-0.0226197387431171,0.002846,-0.000346,-0.004951,0.144884,-0.057486,323.315442,24.414629,0.999365,0.991625,0.003853,0.354824,-0.000049,-0.000024,-0.000021,-0.000012,-0.000061,-60.753561,0.000078,
2146,2833,-2.47733991887991,4.09321717678372,-0.0146014597222006,0.002801,-0.000277,-0.004683,0.143052,-0.031956,317.926887,24.457934,0.999549,0.993610,0.003388,0.369942,-0.000038,-0.000014,-0.000015,-0.000007,-0.000045,-64.358191,0.000056,
2461,3073,4.32505487101004,9.32729325506825,0.00227162711530582,0.002474,-0.000680,-0.002245,0.121810,-0.056751,313.835288,25.679532,0.999640,0.992494,0.003593,0.361883,-0.000031,0.000013,0.000017,0.000019,-0.000037,71.352027,0.000037,
2431,2893,3.70645319313035,5.4146603417494,-0.0221217768478823,0.002467,-0.000643,-0.003868,0.127382,-0.040832,316.525616,25.018910,0.999526,0.991825,0.003620,0.340614,-0.000038,-0.000011,-0.000015,-0.000004,-0.000045,-65.868644,0.000055,
2401,2773,3.07672041783846,2.8004683050906,-0.0228131014510495,0.002357,-0.000662,-0.001946,0.114984,-0.059747,318.427636,24.558280,0.999507,0.989441,0.004051,0.366112,-0.000033,-0.000001,-0.000017,0.000006,-0.000040,-66.289798,0.000043,
2491,3223,4.94921575057159,12.5859404801192,0.02304172703208,0.002649,-0.000330,-0.006091,0.145020,-0.044496,311.642661,26.431648,0.999430,0.992401,0.003630,0.305327,0.000022,-0.000015,0.000026,0.000035,-0.000028,27.550376,0.000037,
2026,2338,-5.0074555908552,-6.69786577227386,-0.00285828827207979,0.002587,-0.000444,-0.001430,0.122700,-0.050390,326.618837,24.627774,0.999215,0.987732,0.004405,0.331811,-0.000030,-0.000056,-0.000034,-0.000006,-0.000080,-34.876689,0.000096,
2476,3148,4.63717801374036,10.956998603802,0.0192520798796068,0.002198,-0.000725,-0.001461,0.106276,-0.045327,312.765777,26.079987,0.999531,0.990350,0.003700,0.303826,-0.000008,0.000005,0.000020,0.000019,-0.000022,54.418755,0.000024,
2221,3223,-0.914152139188982,12.5605938930649,0.0399941269710098,0.001945,-0.000520,0.004041,0.076527,-0.011841,311.708069,25.072361,0.999533,0.994173,0.003305,0.335714,-0.000028,-0.000014,-0.000018,-0.000002,-0.000040,-55.746688,0.000048,
2041,2383,-4.68801109816057,-5.71462514666074,-0.00878142157347384,0.002721,-0.000729,-0.002677,0.132294,-0.061581,325.764410,24.541400,0.999336,0.989066,0.004183,0.335495,-0.000034,-0.000038,-0.000022,-0.000014,-0.000058,-42.638399,0.000077,
2251,2008,-0.0499754250142104,-13.9269072690089,0.00452268310539239,0.002329,-0.000816,-0.002382,0.114156,-0.064002,331.089785,23.293437,0.999528,0.988983,0.004562,0.258440,-0.000033,-0.000001,-0.000041,0.000027,-0.000062,-55.715792,0.000062,
2341,2428,1.83857878375305,-4.73011700217167,0.00927645241699793,0.002809,-0.000284,-0.003245,0.140006,-0.033203,324.299250,23.663021,0.999717,0.994472,0.003566,0.391931,-0.000035,-0.000014,-0.000008,-0.000012,-0.000038,-71.718711,0.000052,
2056,2443,-4.37162042878329,-4.40356898055582,-0.0158052208309982,0.002435,-0.000538,-0.001889,0.117085,-0.056532,324.637107,24.517220,0.999177,0.988028,0.004440,0.302020,-0.000072,-0.000046,-0.000029,-0.000027,-0.000090,-57.038634,0.000123,
2356,2488,2.1528598399591,-3.41760983329365,-0.00871888406607013,0.002851,-0.000875,-0.002490,0.139205,-0.061569,323.176451,23.780230,0.999518,0.988828,0.004163,0.365646,-0.000024,-0.000028,-0.000001,-0.000024,-0.000028,-12.339301,0.000052,
2131,2773,-2.7945062857674,2.78885445636248,-0.028444963261677,0.002527,-0.000514,-0.003166,0.125599,-0.043145,318.829991,24.425496,0.999615,0.993184,0.003382,0.350865,-0.000038,-0.000022,-0.000020,-0.000008,-0.000052,-55.845013,0.000066,
2011,2308,-5.32965769648983,-7.35136061592787,-0.0169749358527724,0.002779,-0.000131,-0.007860,0.148933,-0.060811,327.103874,24.753890,0.998980,0.988316,0.004618,0.269985,-0.000039,-0.000021,0.000001,-0.000021,-0.000039,86.379934,0.000061,
2416,2818,3.39440937345899,3.78106894836722,-0.0215270823047149,0.002234,-0.000752,-0.001635,0.108245,-0.050897,317.714849,24.715158,0.999352,0.989705,0.004144,0.370311,-0.000028,-0.000003,-0.000015,0.000004,-0.000035,-65.134910,0.000038,
2371,2563,2.46429799150227,-1.77844649536411,-0.0143431707286368,0.002395,-0.000699,0.001272,0.105116,-0.035010,321.882507,24.019061,0.999408,0.989171,0.004282,0.330996,-0.000020,-0.000014,-0.000015,-0.000002,-0.000032,-50.616262,0.000038,
2326,2368,1.5209443232586,-6.03940611536933,-0.0118362052726866,0.002450,-0.000068,-0.005941,0.132763,-0.062247,325.089821,23.609165,0.999355,0.986708,0.004529,0.315327,-0.000037,-0.000032,-0.000010,-0.000024,-0.000045,-52.175733,0.000070,
2491,3238,4.94512144166775,12.9115483875934,0.0137844458786844,0.002466,-0.000684,-0.005287,0.133374,-0.059806,311.306789,26.466525,0.999570,0.993057,0.003499,0.312525,0.000024,-0.000010,0.000030,0.000042,-0.000027,30.080895,0.000042,
2086,2608,-3.74515546483426,-0.804140140876314,-0.0269947011635168,0.002815,-0.000132,-0.004903,0.143635,-0.018764,321.743801,24.425518,0.999206,0.989087,0.004202,0.354147,-0.000037,-0.000003,-0.000008,-0.000001,-0.000039,-77.052045,0.000045,
2281,2173,0.575950873501849,-10.310413606814,0.00832515209862095,0.002380,-0.000647,-0.000849,0.111666,-0.048205,328.421182,23.297000,0.999366,0.983606,0.005123,0.403369,-0.000044,-0.000041,-0.000025,-0.000018,-0.000067,-46.527782,0.000089,
2176,2998,-1.85309393673603,7.67869420580337,0.000413484718706059,0.002696,-0.000567,-0.001496,0.128661,-0.027452,315.240863,24.640426,0.999438,0.992266,0.003647,0.357736,-0.000032,-0.000012,0.000001,-0.000012,-0.000032,88.308432,0.000045,
2146,2848,-2.48036624623479,4.41977949124744,-0.0236133283931963,0.002853,-0.000513,-0.004840,0.145832,-0.048621,317.610463,24.458698,0.999563,0.993798,0.003333,0.360372,-0.000037,-0.000012,-0.000015,-0.000004,-0.000044,-64.314868,0.000054,
2206,3118,-1.22096905878415,10.2829430972145,0.0240370899034019,0.002764,-0.000640,-0.002721,0.135764,-0.043212,313.392860,24.840975,0.999488,0.992920,0.003586,0.352182,-0.000036,-0.000005,-0.000015,0.000001,-0.000042,-68.344776,0.000048,
2446,2983,4.01509224787266,7.37259611860841,-0.0153220799903124,0.002309,-0.000670,-0.000954,0.109396,-0.037270,315.118581,25.379723,0.999642,0.991948,0.003677,0.319646,-0.000039,-0.000017,0.000000,-0.000017,-0.000039,89.757900,0.000057,
2311,2263,1.21433925684032,-8.33781110488788,0.007503851877118,0.002480,-0.000272,-0.002179,0.121002,-0.023394,326.943595,23.467164,0.999181,0.985603,0.004755,0.306854,-0.000041,-0.000044,-0.000027,-0.000016,-0.000069,-43.458258,0.000091,
2401,2788,3.073303953286,3.12823415798088,-0.0275007163493797,0.002328,-0.000840,-0.000847,0.109638,-0.049682,318.138008,24.661105,0.999569,0.989048,0.004133,0.318915,-0.000033,-0.000003,-0.000018,0.000006,-0.000041,-64.482204,0.000045,
2296,2233,0.893131621453477,-8.9940657638337,0.0059568966184429,0.002974,0.000171,-0.004846,0.152688,-0.015950,327.457935,23.492250,0.999008,0.981668,0.005249,0.291000,-0.000056,-0.000034,-0.000035,-0.000008,-0.000082,-53.707557,0.000100,
2101,2638,-3.42510788536088,-0.150413995302628,-0.0343428686614402,0.002348,-0.000827,-0.001345,0.111665,-0.054102,321.091608,24.370328,0.999155,0.988949,0.004173,0.362919,-0.000040,-0.000009,-0.000012,-0.000005,-0.000044,-70.571218,0.000054,
2191,3073,-1.5390436409339,9.30568306781432,0.016839342080516,0.002590,-0.000250,-0.006744,0.140363,-0.045693,314.117522,24.707724,0.999667,0.994544,0.003159,0.382669,-0.000029,-0.000013,-0.000010,-0.000008,-0.000034,-65.141939,0.000044,
2266,2113,0.26089475539316,-11.6241138607724,0.0169674625597622,0.002921,0.000440,-0.007287,0.158036,-0.035379,329.524647,23.454254,0.999163,0.982166,0.005243,0.224116,-0.000042,-0.000021,-0.000036,0.000006,-0.000069,-53.227241,0.000076,
2461,3088,4.32184508799278,9.65361200292646,0.00198329261525032,0.002443,-0.000850,-0.000649,0.114311,-0.059556,313.579276,25.780155,0.999700,0.994463,0.003297,0.311793,-0.000031,0.000022,0.000016,0.000027,-0.000036,74.206335,0.000037,
2026,2353,-5.00937815597577,-6.36897029433044,-0.0122676533885056,0.003148,-0.000205,-0.006511,0.162490,-0.049885,326.338287,24.641813,0.999070,0.987846,0.004627,0.310633,-0.000031,-0.000047,-0.000021,-0.000016,-0.000062,-34.907271,0.000082,
2161,2953,-2.1714924302432,6.70048571266221,-0.00515964248256751,0.002488,-0.000600,-0.003575,0.125301,-0.050842,315.978064,24.543612,0.999403,0.992375,0.003602,0.360661,-0.000038,-0.000016,-0.000014,-0.000009,-0.000044,-64.151236,0.000057,
2386,2638,2.77641959517095,-0.14192821988042,-0.0240696072397668,0.002535,-0.000879,-0.003223,0.127543,-0.058347,320.614282,24.155003,0.999244,0.988363,0.004256,0.369642,-0.000023,0.000002,-0.000023,0.000016,-0.000036,-59.251989,0.000037,
2221,3238,-0.916762418629698,12.8856002561932,0.0285614826450455,0.002345,-0.000808,-0.002218,0.114848,-0.060824,311.405193,25.067747,0.999646,0.994605,0.003161,0.308872,-0.000027,-0.000021,-0.000020,-0.000004,-0.000044,-49.542581,0.000053,
2476,3163,4.63407653745498,11.2830118341647,0.0162040457390731,0.002196,-0.000511,-0.003850,0.115329,-0.048611,312.502944,26.155114,0.999611,0.990993,0.003640,0.280606,-0.000011,0.000013,0.000022,0.000026,-0.000024,59.118822,0.000029,
2431,2908,3.70306710690314,5.74003363493179,-0.0218918622685464,0.002285,-0.001133,-0.000739,0.107188,-0.073987,316.262912,25.018053,0.999673,0.991824,0.003528,0.357721,-0.000040,-0.000012,-0.000011,-0.000008,-0.000044,-70.219199,0.000057,
2116,2728,-3.11310870336668,1.81003570803647,-0.0349092051184243,0.002657,0.000032,-0.005877,0.139676,-0.032838,319.585724,24.419961,0.999356,0.990565,0.003963,0.347041,-0.000039,-0.000016,-0.000023,-0.000002,-0.000053,-58.221590,0.000062,
2491,3253,4.94121311672172,13.2373865361261,0.0048371235386071,0.002540,-0.000562,-0.003313,0.129256,-0.050349,310.980710,26.504676,0.999742,0.994048,0.003213,0.341289,0.000029,-0.000006,0.000035,0.000051,-0.000027,31.758215,0.000051,
2251,2023,-0.0516655239987323,-13.59892524843,0.0215220403520107,0.002296,-0.000825,0.001200,0.100973,-0.052089,330.977080,23.384049,0.999088,0.983568,0.005288,0.206059,-0.000043,0.000014,-0.000031,0.000028,-0.000057,-66.602318,0.000057,
2056,2458,-4.37387779607011,-4.07688734213908,-0.0155879343387255,0.002357,-0.000606,-0.003393,0.117718,-0.058319,324.397873,24.461523,0.999158,0.987480,0.004660,0.351646,-0.000065,-0.000035,-0.000027,-0.000019,-0.000081,-59.514707,0.000106,
2086,2623,-3.74824336682871,-0.477970432016043,-0.0333746191807336,0.002593,-0.000451,-0.003250,0.128524,-0.042682,321.433333,24.342661,0.999304,0.989184,0.004141,0.412861,-0.000041,-0.000011,-0.000014,-0.000005,-0.000046,-68.793090,0.000057,
2341,2443,1.83434952711468,-4.39987774671344,-0.00769138976005479,0.002538,-0.000225,-0.005325,0.134837,-0.043140,323.908684,23.778786,0.999389,0.989183,0.004276,0.304796,-0.000030,-0.000020,-0.000003,-0.000019,-0.000031,-73.968871,0.000050,
2041,2398,-4.69025035834403,-5.3870668306128,-0.0152174519024015,0.002987,-0.000187,-0.004884,0.150845,-0.037642,325.487637,24.456162,0.999315,0.989975,0.004020,0.438924,-0.000033,-0.000030,-0.000023,-0.000008,-0.000055,-46.626574,0.000069,
2071,2533,-4.05886262123523,-2.43965047039229,-0.0209845563253452,0.002959,0.000076,-0.006052,0.153399,-0.027235,323.094689,24.450614,0.999439,0.991378,0.003865,0.346830,-0.000054,-0.000008,-0.000010,-0.000005,-0.000056,-78.145385,0.000068,
2491,3268,4.93748605531316,13.5634145190576,0.001239022572463,0.002367,-0.000874,-0.001129,0.112763,-0.058853,310.687018,26.612810,0.999837,0.995513,0.002819,0.281740,0.000042,-0.000029,0.000039,0.000059,-0.000046,24.051231,0.000062,
2011,2323,-5.33107623142503,-7.02549886471473,-0.00128174407893766,0.002683,-0.000231,-0.006634,0.141206,-0.047220,326.985888,24.715582,0.998883,0.985594,0.004976,0.311320,-0.000033,-0.000049,-0.000009,-0.000029,-0.000053,-24.086678,0.000084,
2446,2998,4.01297185680451,7.69745298223472,-0.00200908600606908,0.002320,-0.000885,0.001796,0.099527,-0.044593,314.975346,25.418774,0.999321,0.989069,0.004069,0.324597,-0.000036,-0.000018,0.000003,-0.000018,-0.000036,79.459410,0.000055,
2281,2188,0.573836040862687,-9.98114554214592,0.0124550587431713,0.002688,-0.000697,-0.000458,0.124458,-0.052923,328.226186,23.432625,0.998936,0.980654,0.005530,0.293118,-0.000045,-0.000036,-0.000032,-0.000009,-0.000072,-48.763164,0.000089,
2326,2383,1.51807753193809,-5.71107162270098,-0.010515784568895,0.002584,-0.000732,-0.001793,0.124412,-0.057513,324.849572,23.688586,0.999554,0.988042,0.004472,0.276758,-0.000033,-0.000031,-0.000010,-0.000022,-0.000043,-48.037148,0.000065,
2026,2368,-5.01180371427172,-6.04236315177981,-0.0106294748804316,0.002805,-0.000300,-0.007088,0.148305,-0.053227,326.096792,24.564196,0.999101,0.988308,0.004583,0.376761,-0.000019,-0.000035,-0.000018,-0.000008,-0.000047,-33.249614,0.000059,
2461,3103,4.31943257454917,9.97829181755634,0.0130719383647602,0.002136,-0.000957,-0.000626,0.100067,-0.066013,313.412605,25.808772,0.999595,0.992978,0.003511,0.329945,-0.000030,0.000018,0.000022,0.000026,-0.000038,68.893995,0.000039,
2176,3013,-1.85552924349095,8.00381514367424,0.00483219262218881,0.002639,-0.000891,0.000299,0.120328,-0.044281,315.025128,24.651670,0.999417,0.990600,0.003855,0.341211,-0.000030,-0.000011,-0.000003,-0.000011,-0.000030,-81.493311,0.000042,
2251,2038,-0.0542693927475284,-13.2693377097663,0.0184041159110393,0.002462,-0.000346,0.000170,0.112099,-0.030741,330.721050,23.388943,0.998998,0.981455,0.005382,0.249326,-0.000050,0.000017,-0.000035,0.000032,-0.000065,-66.722515,0.000065,
2476,3178,4.63146269744351,11.6083412805551,0.0181786733294871,0.002502,-0.000353,-0.003337,0.127621,-0.026197,312.285592,26.175519,0.999670,0.992350,0.003485,0.338275,-0.000010,0.000014,0.000022,0.000027,-0.000023,59.358878,0.000029,
2221,3253,-0.91983226615098,13.210308061333,0.0217018457572067,0.002442,-0.000920,-0.001679,0.117557,-0.058326,311.104803,25.015223,0.999632,0.994659,0.003108,0.381678,-0.000026,-0.000026,-0.000015,-0.000011,-0.000041,-45.463343,0.000055,
2371,2578,2.46146720567463,-1.45145641029982,-0.0164630675602666,0.002431,-0.000722,-0.000833,0.114203,-0.046154,321.630580,24.024167,0.999461,0.988694,0.004322,0.356485,-0.000019,-0.000002,-0.000015,0.000007,-0.000028,-60.519176,0.000029,
2401,2803,3.07083155605517,3.45465863232924,-0.0293108282786534,0.002678,-0.000441,-0.003870,0.136879,-0.031613,317.905598,24.659691,0.999563,0.990842,0.003967,0.384341,-0.000032,0.000001,-0.000018,0.000009,-0.000039,-66.091248,0.000041,
2296,2248,0.889923161979123,-8.66641540957493,0.0020823442650908,0.002686,-0.000205,-0.005941,0.143047,-0.057945,327.174714,23.455657,0.999115,0.983928,0.005034,0.318180,-0.000053,-0.000042,-0.000031,-0.000017,-0.000079,-50.024305,0.000102,
2431,2923,3.70054557131919,6.06743057806069,-0.0213790814685808,0.002422,-0.000545,-0.004154,0.126383,-0.053200,316.040627,25.155693,0.999629,0.992799,0.003551,0.290518,-0.000041,-0.000021,-0.000013,-0.000015,-0.000047,-63.824730,0.000064,
2131,2788,-2.79704123071066,3.11473968738203,-0.0248022580418592,0.002255,-0.000625,-0.002503,0.111090,-0.040885,318.602452,24.423898,0.999598,0.993627,0.003282,0.360333,-0.000043,-0.000021,-0.000021,-0.000009,-0.000056,-58.606018,0.000070,
2416,2833,3.39136749851236,4.10808513856097,-0.022216324145063,0.002354,-0.000975,0.000316,0.106589,-0.047670,317.462449,24.800364,0.999019,0.988335,0.004237,0.335663,-0.000031,0.000001,-0.000011,0.000004,-0.000035,-72.915551,0.000038,
2491,3283,4.93433379192027,13.8880401498048,-0.00229683014208604,0.002446,-0.000762,-0.002649,0.122241,-0.064899,310.420497,26.593416,0.999852,0.996080,0.002735,0.352521,0.000055,-0.000060,0.000040,0.000068,-0.000073,17.191282,0.000081,
2101,2653,-3.42718344816174,0.176766234779045,-0.0328228087802245,0.002569,-0.000608,-0.001339,0.121913,-0.049743,320.871201,24.428936,0.999415,0.990460,0.003863,0.310324,-0.000039,-0.000010,-0.000014,-0.000005,-0.000044,-68.028008,0.000054,
2116,2743,-3.11599966153766,2.13767674585301,-0.0418741160087848,0.002647,0.000071,-0.005907,0.139342,-0.025728,319.283320,24.477802,0.999434,0.991202,0.003840,0.300117,-0.000043,-0.000017,-0.000018,-0.000008,-0.000052,-62.467559,0.000065,
2206,3133,-1.22329734110513,10.6081726141828,0.0283164516760053,0.002705,-0.000506,-0.003438,0.135354,-0.042347,313.183020,24.872144,0.999599,0.994357,0.003318,0.337541,-0.000038,-0.000004,-0.000013,0.000000,-0.000042,-70.868918,0.000048,
2146,2863,-2.48341980867257,4.74632645611733,-0.0283876897935329,0.002796,-0.000681,-0.002013,0.134587,-0.052349,317.315238,24.482143,0.999480,0.993090,0.003453,0.340557,-0.000035,-0.000011,-0.000018,-0.000001,-0.000045,-62.057330,0.000052,
2356,2503,2.14946832645255,-3.08980474444995,-0.00876818790254674,0.002630,-0.001237,0.001720,0.114115,-0.055803,322.907564,23.836756,0.999412,0.989068,0.004296,0.354832,-0.000029,-0.000034,-0.000005,-0.000026,-0.000037,-32.045037,0.000063,
2266,2128,0.257517555762103,-11.2952559909505,0.00781382194406888,0.002798,0.000043,-0.008181,0.155167,-0.043220,329.204489,23.391113,0.999012,0.982191,0.005260,0.308221,-0.000042,-0.000024,-0.000037,0.000005,-0.000071,-51.723431,0.000080,
2311,2278,1.21191722880303,-8.00917432945342,0.00685366108120888,0.002717,-0.000328,-0.004088,0.138339,-0.036023,326.713233,23.534896,0.999212,0.985844,0.004602,0.260995,-0.000038,-0.000028,-0.000029,-0.000003,-0.000062,-50.132670,0.000074,
2386,2653,2.77315910876211,0.184932735865978,-0.0218733698876576,0.002244,-0.000983,-0.000057,0.102795,-0.057111,320.364026,24.197253,0.999147,0.987580,0.004458,0.372533,-0.000024,-0.000002,-0.000027,0.000017,-0.000043,-56.100467,0.000043,
2026,2383,-5.01407590628792,-5.71452526463425,-0.00624181690523073,0.002633,-0.000173,-0.004777,0.134099,-0.031834,325.877228,24.605597,0.999396,0.990570,0.003898,0.348743,-0.000014,-0.000040,-0.000024,0.000000,-0.000054,-30.757357,0.000062,
2071,2548,-4.06197688671601,-2.11321589478695,-0.021521974288305,0.002596,-0.000679,0.000233,0.118557,-0.028596,322.813436,24.394873,0.999496,0.991644,0.003860,0.399012,-0.000045,-0.000004,-0.000008,-0.000003,-0.000047,-79.659154,0.000056,
2056,2473,-4.37576200183129,-3.74831166436486,-0.0164159705768157,0.002724,-0.000325,-0.004944,0.139087,-0.042218,324.169427,24.556410,0.999218,0.988101,0.004756,0.268740,-0.000058,-0.000031,-0.000019,-0.000021,-0.000068,-62.255751,0.000093,
2086,2638,-3.75035780750496,-0.151177638623103,-0.0294682860203466,0.002673,-0.000818,-0.002070,0.128701,-0.056820,321.223167,24.399431,0.999271,0.989451,0.004071,0.341348,-0.000038,-0.000008,-0.000015,-0.000002,-0.000044,-67.685928,0.000052,
2011,2338,-5.33401978591157,-6.69759660680735,-0.00506894268687574,0.002309,-0.000077,-0.003960,0.116828,-0.029768,326.688769,24.671365,0.998959,0.986996,0.004742,0.363295,-0.000040,-0.000058,-0.000026,-0.000022,-0.000076,-35.198423,0.000103,
2161,2968,-2.1740920279476,7.02617295143684,-0.0026122453010089,0.002427,-0.001170,-0.000889,0.114065,-0.067795,315.743808,24.582801,0.999567,0.993731,0.003314,0.313703,-0.000035,-0.000014,-0.000013,-0.000008,-0.000041,-64.061412,0.000053,
2281,2203,0.571145077568847,-9.65180745693802,0.00599779667925304,0.002908,-0.000349,-0.003910,0.146182,-0.059248,327.952143,23.470225,0.998747,0.980797,0.005526,0.279669,-0.000047,-0.000034,-0.000032,-0.000008,-0.000073,-50.482850,0.000089,
2476,3193,4.62840116794063,11.9332473821219,0.0224413742662364,0.002454,-0.000622,0.000578,0.110412,-0.021001,312.058086,26.191135,0.999541,0.992529,0.003449,0.383213,-0.000006,0.000012,0.000026,0.000031,-0.000025,54.659671,0.000032,
2221,3268,-0.922479934484176,13.5354384479637,0.0152189977565627,0.002708,-0.000550,-0.004386,0.138721,-0.039999,310.825578,24.992585,0.999478,0.994013,0.003322,0.440164,-0.000029,-0.000018,-0.000012,-0.000010,-0.000037,-56.794834,0.000050,
2041,2413,-4.69286031833107,-5.05779265439354,-0.0251316359581324,0.003234,0.000039,-0.004996,0.162596,-0.036643,325.174352,24.523533,0.999047,0.986681,0.004535,0.366848,-0.000043,-0.000044,-0.000028,-0.000015,-0.000071,-44.501438,0.000092,
2461,3118,4.31673633995305,10.30389147919,0.01297700024503,0.002482,-0.000753,-0.000433,0.115383,-0.052371,313.181200,25.834995,0.999547,0.991604,0.003696,0.370729,-0.000024,0.000020,0.000022,0.000030,-0.000033,67.593876,0.000037,
2341,2458,1.83050700170303,-4.07180321948789,-0.0166267401735354,0.002289,-0.000506,-0.004007,0.118717,-0.059483,323.575067,23.784621,0.999510,0.988981,0.004204,0.320783,-0.000032,-0.000011,0.000002,-0.000011,-0.000032,83.705711,0.000045,
2491,3298,4.93124909713809,14.2137151307683,-0.0023962883313402,0.002357,-0.000509,-0.003574,0.121907,-0.042437,310.172208,26.665115,0.999688,0.993907,0.003310,0.360790,0.000059,-0.000056,0.000033,0.000068,-0.000065,14.892787,0.000077,
2326,2398,1.51640051105876,-5.38469187575677,-0.000497764743215612,0.002665,0.000123,-0.005156,0.140035,-0.033299,324.706485,23.657519,0.999510,0.988365,0.004488,0.367760,-0.000028,-0.000013,-0.000006,-0.000011,-0.000030,-72.350992,0.000042,
2191,3088,-1.54169336616689,9.63150872848084,0.0176807506912269,0.002750,-0.000424,-0.002676,0.134977,-0.032417,313.873892,24.748891,0.999486,0.992761,0.003545,0.368228,-0.000032,-0.000013,-0.000013,-0.000007,-0.000039,-62.858418,0.000049,
2446,3013,4.0102878171825,8.02374725401469,-0.00384298763668767,0.002489,-0.000443,-0.001802,0.120910,-0.032455,314.735710,25.471469,0.999047,0.987433,0.004205,0.335651,-0.000039,-0.000012,0.000005,-0.000011,-0.000040,79.502879,0.000054,
2176,3028,-1.85783239658358,8.32905776482168,0.00619399384510189,0.002857,-0.001008,0.001125,0.127798,-0.039504,314.799352,24.635728,0.999524,0.992492,0.003662,0.373237,-0.000031,-0.000011,-0.000005,-0.000009,-0.000033,-76.866318,0.000044,
2026,2398,-5.01628002312947,-5.38749202935222,-0.00721595693488553,0.002829,-0.000502,-0.002809,0.137602,-0.045186,325.631298,24.561192,0.999423,0.991030,0.003822,0.371642,-0.000015,-0.000036,-0.000024,0.000001,-0.000052,-33.247057,0.000059,
2416,2848,3.38876059776421,4.43442342342273,-0.0202530165655048,0.002406,-0.000529,-0.001291,0.115048,-0.033673,317.242559,24.836705,0.999306,0.989752,0.003993,0.361091,-0.000036,0.000006,-0.000012,0.000009,-0.000039,-75.290176,0.000041,
2251,2053,-0.0564936314363855,-12.9408451630348,0.0208483485760667,0.002606,-0.000620,-0.000927,0.122153,-0.032720,330.510617,23.385258,0.998950,0.981384,0.005357,0.277541,-0.000050,-0.000009,-0.000031,0.000008,-0.000067,-61.686119,0.000073,
2011,2353,-5.33620575443644,-6.36855309215322,-0.0146457631011572,0.002858,-0.000378,-0.004466,0.143375,-0.056568,326.393768,24.724338,0.999080,0.989936,0.004455,0.273574,-0.000037,-0.000040,-0.000012,-0.000027,-0.000050,-40.543258,0.000078,
2431,2938,3.69769428286296,6.39294805738075,-0.0158008412255981,0.002320,-0.000651,-0.001304,0.111148,-0.042518,315.827169,25.170403,0.999607,0.992414,0.003670,0.335693,-0.000040,-0.000023,-0.000012,-0.000017,-0.000046,-62.529606,0.000065,
2086,2653,-3.75231895021998,0.174850782061462,-0.0224460039996757,0.002798,-0.000992,0.000545,0.126860,-0.057616,321.037155,24.403021,0.999534,0.990754,0.003736,0.336496,-0.000038,-0.000010,-0.000016,-0.000003,-0.000045,-64.866279,0.000054,
2041,2428,-4.69518165906649,-4.72994312808706,-0.0249981660833214,0.003081,0.000189,-0.006353,0.159391,-0.027413,324.930162,24.553420,0.999021,0.986372,0.004594,0.339972,-0.000046,-0.000049,-0.000016,-0.000031,-0.000064,-41.861388,0.000097,
2506,1993,5.53018647939436,-14.2660893760174,0.0316473491897113,0.001841,0.000093,-0.005247,0.104337,-0.033545,331.736503,21.520617,0.999208,0.975159,0.006085,0.222403,-0.000074,-0.000081,0.000071,-0.000006,-0.000149,43.549702,0.000176,
2221,3283,-0.925707583090784,13.8625419588936,0.000970777917416399,0.002950,-0.000628,-0.007005,0.158354,-0.038310,310.478853,25.130958,0.999447,0.993210,0.003316,0.320756,-0.000038,-0.000020,-0.000014,-0.000013,-0.000046,-61.612704,0.000062,
2356,2518,2.14686110047343,-2.76214402053608,-0.0133051889678768,0.002726,-0.000774,-0.004550,0.140755,-0.072485,322.653133,23.866705,0.999227,0.987194,0.004558,0.348200,-0.000031,-0.000028,-0.000011,-0.000018,-0.000040,-48.271476,0.000060,
2131,2803,-2.79924243311348,3.44086352008724,-0.0249380426729431,0.002478,-0.000364,-0.003167,0.123458,-0.031366,318.369947,24.411785,0.999493,0.993049,0.003495,0.387491,-0.000042,-0.000026,-0.000019,-0.000014,-0.000055,-56.623910,0.000073,
2296,2263,0.886171778655228,-8.33604235596711,-0.00714293273864541,0.002552,-0.000552,-0.003214,0.127618,-0.059626,326.839552,23.578885,0.999504,0.988917,0.004479,0.225811,-0.000049,-0.000042,-0.000029,-0.000016,-0.000075,-48.495982,0.000097,
2476,3208,4.62575374953093,12.2584458536496,0.025196954825276,0.002400,-0.000466,-0.002048,0.118036,-0.021025,311.842637,26.233360,0.999381,0.992268,0.003576,0.396249,0.000000,-0.000002,0.000022,0.000021,-0.000023,43.643035,0.000025,
2206,3148,-1.2263529381579,10.9338752637084,0.0234220360524091,0.002533,-0.000325,-0.004486,0.130870,-0.028060,312.892021,24.881196,0.999511,0.993909,0.003383,0.358317,-0.000034,-0.000004,-0.000012,0.000001,-0.000039,-70.553734,0.000044,
2071,2563,-4.06429569276742,-1.78540131991299,-0.0292429443087485,0.002904,-0.000623,-0.002748,0.141263,-0.034516,322.528949,24.411528,0.999188,0.989897,0.004189,0.374373,-0.000042,-0.000008,-0.000011,-0.000005,-0.000046,-73.135887,0.000056,
2266,2143,0.254973146299989,-10.9640544584644,0.00911146382100014,0.003079,0.000142,-0.004816,0.157007,-0.007309,328.974161,23.616935,0.999422,0.986035,0.004900,0.146927,-0.000044,-0.000045,-0.000032,-0.000013,-0.000076,-44.417650,0.000096,
2056,2488,-4.37815976138062,-3.42142937512907,-0.0169928856959132,0.002672,-0.000405,-0.004622,0.135767,-0.041642,323.919370,24.519235,0.999382,0.989515,0.004347,0.302582,-0.000061,-0.000025,-0.000016,-0.000019,-0.000067,-69.066275,0.000091,
2101,2668,-3.42921435146905,0.503059367987824,-0.0344607663603256,0.002751,-0.000176,-0.005759,0.143367,-0.042708,320.636018,24.381708,0.999474,0.991531,0.003727,0.366406,-0.000040,-0.000022,-0.000015,-0.000014,-0.000048,-60.731167,0.000065,
2311,2293,1.20873708388978,-7.68108046397268,0.000638877465007681,0.002668,-0.000176,-0.005131,0.139713,-0.034184,326.420811,23.487989,0.999240,0.986391,0.004697,0.344170,-0.000036,-0.000015,-0.000023,-0.000001,-0.000051,-57.568202,0.000059,
2341,2473,1.82809274358519,-3.74439272103162,-0.0125854183741581,0.002438,-0.000454,-0.003191,0.122782,-0.040300,323.369743,23.819777,0.999537,0.988796,0.004131,0.342712,-0.000030,-0.000013,0.000003,-0.000012,-0.000030,80.349454,0.000044,
2401,2818,3.06798640009378,3.781120961791,-0.0251842174611738,0.002354,-0.000355,-0.004791,0.125372,-0.035875,317.684017,24.734056,0.999469,0.989820,0.004207,0.350830,-0.000033,-0.000004,-0.000014,0.000002,-0.000038,-67.490110,0.000043,
2161,2983,-2.1767526485453,7.3525533986895,-0.00873960968380061,0.002668,-0.000864,-0.001451,0.127065,-0.050319,315.460666,24.595863,0.999515,0.993682,0.003376,0.327786,-0.000036,-0.000016,-0.000010,-0.000012,-0.000040,-66.480567,0.000055,
2446,3028,4.00766199393616,8.34950253762035,0.00298009235530117,0.002272,-0.000589,-0.002183,0.112313,-0.045139,314.538846,25.561165,0.999364,0.989372,0.003982,0.284472,-0.000039,0.000000,0.000004,0.000000,-0.000039,84.508264,0.000046,
2461,3133,4.3138470150939,10.6298805953417,0.0138619968485045,0.002452,-0.000788,-0.001530,0.118097,-0.058425,312.945203,25.926844,0.999516,0.990681,0.003762,0.325898,-0.000020,0.000012,0.000017,0.000019,-0.000027,67.040467,0.000028,
2041,2443,-4.69691228720372,-4.40483502267152,-0.00881786619441982,0.002844,-0.000347,-0.002656,0.138041,-0.048524,324.802580,24.517682,0.998765,0.984202,0.005105,0.348172,-0.000052,-0.000043,-0.000027,-0.000020,-0.000075,-49.410084,0.000100,
2176,3043,-1.85980489254553,8.65556290313155,0.00928009512682593,0.002836,-0.000345,-0.004785,0.145329,-0.048519,314.597387,24.764865,0.999679,0.996022,0.003010,0.246513,-0.000034,-0.000011,-0.000007,-0.000009,-0.000036,-75.237486,0.000047,
2116,2758,-3.11732359345822,2.46190722267497,-0.0270250558980933,0.002634,-0.000070,-0.008276,0.145737,-0.031025,319.170997,24.412405,0.999533,0.991750,0.003662,0.363408,-0.000042,-0.000019,-0.000018,-0.000009,-0.000053,-60.845097,0.000067,
2371,2593,2.45861468620283,-1.12470236294992,-0.0191362363799499,0.002583,-0.001091,-0.001713,0.124168,-0.082140,321.375075,24.032659,0.999371,0.988563,0.004301,0.353872,-0.000016,-0.000007,-0.000014,0.000003,-0.000026,-54.426086,0.000029,
2506,2008,5.52722347043697,-13.9377700122267,0.0320716503372864,0.002122,-0.000607,-0.003403,0.109804,-0.070284,331.504535,21.498783,0.999293,0.977410,0.005939,0.272019,-0.000055,-0.000099,0.000066,-0.000007,-0.000147,35.913241,0.000174,
2146,2878,-2.48510895989293,5.07146469661352,-0.0154414790909527,0.002687,-0.000240,-0.002816,0.132219,-0.020635,317.177064,24.475584,0.999453,0.992380,0.003617,0.386298,-0.000035,-0.000005,-0.000018,0.000003,-0.000043,-65.129916,0.000048,
2386,2668,2.77047354540251,0.512651949238773,-0.0276987440196876,0.002542,-0.000376,-0.004755,0.133563,-0.055420,320.101868,24.255310,0.999340,0.988900,0.004240,0.360046,-0.000025,0.000000,-0.000029,0.000019,-0.000044,-56.559188,0.000044,
2026,2413,-5.01899222204068,-5.05889847664454,-0.0143241359566559,0.002774,-0.000287,-0.002790,0.135148,-0.027324,325.327514,24.575314,0.999218,0.989278,0.004204,0.367341,-0.000024,-0.000047,-0.000024,-0.000009,-0.000062,-32.102275,0.000077,
2011,2368,-5.33835559866714,-6.04201474482037,-0.01269051888994,0.002714,-0.000502,-0.005587,0.139763,-0.069576,326.165531,24.652923,0.999096,0.989734,0.004483,0.321820,-0.000024,-0.000022,-0.000009,-0.000014,-0.000032,-47.632713,0.000047,
2221,3298,-0.929616470517498,14.1873412259268,-0.00450930805345706,0.002336,-0.000582,-0.003300,0.118067,-0.042677,310.146818,25.115724,0.999504,0.993609,0.003152,0.348773,-0.000032,-0.000016,-0.000024,0.000001,-0.000049,-54.541938,0.000056,
2326,2413,1.51271290872995,-5.05688882220262,-0.011018385936552,0.002516,0.000184,-0.005597,0.134696,-0.058078,324.370995,23.614396,0.999463,0.988375,0.004506,0.422412,-0.000028,-0.000014,-0.000005,-0.000013,-0.000030,-71.385164,0.000044,
2281,2218,0.567690008928178,-9.32284512233834,0.00642068434501653,0.002197,-0.000311,-0.002781,0.109860,-0.027763,327.677155,23.513674,0.998976,0.981893,0.005316,0.298402,-0.000047,-0.000036,-0.000035,-0.000006,-0.000077,-49.461178,0.000092,
2251,2068,-0.0588728116568298,-12.6123517639441,0.0260987677989419,0.002546,-0.000472,0.000128,0.116031,-0.023318,330.307150,23.406566,0.999100,0.983449,0.005074,0.292380,-0.000047,-0.000026,-0.000029,-0.000006,-0.000068,-54.780487,0.000082,
2191,3103,-1.54400425137562,9.95618600456825,0.0259085013637446,0.002639,-0.000755,-0.000127,0.121696,-0.046073,313.684759,24.761390,0.999450,0.992988,0.003542,0.355312,-0.000037,-0.000006,-0.000011,-0.000003,-0.000040,-72.179001,0.000048,
2416,2863,3.38621275886116,4.76088272722242,-0.019510976002266,0.002557,-0.000523,-0.003664,0.130661,-0.046495,317.019619,24.905981,0.999480,0.990152,0.003862,0.326312,-0.000039,0.000003,-0.000016,0.000008,-0.000044,-71.414166,0.000047,
2476,3223,4.62269428609708,12.5845545419963,0.0218900784458924,0.002447,-0.000371,-0.004625,0.129933,-0.039955,311.580183,26.347262,0.999327,0.992574,0.003568,0.318569,0.000005,-0.000016,0.000021,0.000019,-0.000029,32.224399,0.000029,
2431,2953,3.69435301436307,6.71949438449279,-0.0217753465216788,0.002418,-0.000659,-0.001519,0.116478,-0.039269,315.537080,25.209989,0.999718,0.993562,0.003440,0.349096,-0.000040,-0.000022,-0.000006,-0.000020,-0.000042,-72.719565,0.000063,
2086,2668,-3.75450667211868,0.501712264690426,-0.0286215823086877,0.003016,-0.000350,-0.005004,0.153113,-0.047151,320.768735,24.365756,0.999416,0.991203,0.003766,0.383835,-0.000040,-0.000023,-0.000018,-0.000012,-0.000052,-57.586537,0.000068,
2506,2023,5.52398931625898,-13.6068945097076,0.0272313640590482,0.002552,-0.000593,-0.002065,0.124312,-0.053649,331.236246,21.602655,0.999220,0.973339,0.006339,0.249653,-0.000032,-0.000042,0.000032,-0.000004,-0.000069,40.678052,0.000083,
2296,2278,0.883926897617883,-8.00947216140094,0.00216246435775247,0.002501,-0.000953,-0.000936,0.117436,-0.057397,326.665436,23.544528,0.999442,0.987653,0.004504,0.294264,-0.000044,-0.000028,-0.000031,-0.000004,-0.000069,-52.284728,0.000082,
2356,2533,2.14383032063226,-2.43455372477691,-0.0173094664024234,0.002784,-0.000463,-0.005294,0.146137,-0.060669,322.381681,23.872045,0.999241,0.987270,0.004607,0.394818,-0.000026,-0.000029,-0.000014,-0.000014,-0.000042,-41.828163,0.000058,
2206,3163,-1.22918422520192,11.2586910567457,0.0268208278934594,0.002356,-0.000759,-0.000560,0.110110,-0.036367,312.654618,24.885401,0.999759,0.995641,0.002956,0.361338,-0.000031,-0.000008,-0.000014,-0.000002,-0.000038,-64.738578,0.000045,
2071,2578,-4.06695918988867,-1.45801120367219,-0.0333610219167326,0.002790,-0.000340,-0.003354,0.137828,-0.030704,322.248470,24.416952,0.998973,0.989124,0.004419,0.370544,-0.000046,-0.000006,-0.000010,-0.000004,-0.000048,-76.431914,0.000058,
2011,2383,-5.34006742265921,-5.71393091341664,-0.00985611365570094,0.003080,-0.000193,-0.004768,0.154487,-0.034965,325.961685,24.688397,0.999244,0.989769,0.004164,0.310654,-0.000022,-0.000026,-0.000022,-0.000003,-0.000046,-42.306673,0.000055,
2131,2818,-2.80154323367991,3.76679917400025,-0.0197363338214132,0.002246,-0.000081,-0.003962,0.115265,-0.016471,318.161434,24.422104,0.999283,0.991797,0.003862,0.397567,-0.000036,-0.000015,-0.000016,-0.000007,-0.000044,-61.884148,0.000055,
2266,2158,0.252538589433644,-10.6371250301879,0.0113816097547215,0.002972,0.000141,-0.006916,0.159067,-0.025198,328.754530,23.522201,0.999205,0.984584,0.005034,0.252040,-0.000045,-0.000049,-0.000026,-0.000021,-0.000073,-42.552021,0.000099,
2326,2428,1.50877597315752,-4.72629242567589,-0.0238598699252748,0.002584,-0.000249,-0.002480,0.126976,-0.026026,324.011963,23.754883,0.999565,0.990669,0.004093,0.350524,-0.000027,-0.000018,-0.000010,-0.000011,-0.000033,-56.399511,0.000046,
2236,1993,-0.372838681346011,-14.259095878259,0.0290534212599027,0.002654,-0.000504,-0.002581,0.129690,-0.042314,331.579060,23.330983,0.999702,0.989670,0.004349,0.320184,-0.000007,-0.000019,-0.000036,0.000023,-0.000049,-40.094412,0.000049,
2476,3238,4.61886334339483,12.9103711075389,0.00925367961627899,0.002722,-0.000724,-0.004486,0.141967,-0.052806,311.239624,26.379710,0.999662,0.994428,0.003138,0.328525,0.000007,-0.000013,0.000025,0.000024,-0.000030,34.285589,0.000032,
2506,2038,5.52066741663514,-13.2786929022465,0.0347798639421626,0.001996,-0.000792,0.001299,0.085888,-0.042168,331.019070,21.613344,0.999160,0.971963,0.006431,0.315205,-0.000026,-0.000060,0.000037,-0.000002,-0.000084,32.869909,0.000098,
2416,2878,3.3829886037224,5.08778504985131,-0.0218460830784011,0.002476,-0.000152,-0.003559,0.126797,-0.009633,316.750882,24.948132,0.999481,0.991459,0.003671,0.368508,-0.000039,-0.000004,-0.000013,0.000001,-0.000043,-71.547641,0.000049,
2311,2308,1.20466943462175,-7.35149910264895,-0.0136147336037311,0.002656,-0.000821,-0.002028,0.128370,-0.052761,326.048081,23.523330,0.999337,0.987883,0.004699,0.325253,-0.000035,-0.000018,-0.000017,-0.000007,-0.000045,-58.695200,0.000057,
2116,2773,-3.11988019205309,2.78828932360587,-0.0245879861116691,0.002660,-0.000003,-0.003505,0.132804,-0.021330,318.934815,24.434998,0.999702,0.992965,0.003375,0.353853,-0.000043,-0.000023,-0.000021,-0.000009,-0.000057,-57.487128,0.000071,
2056,2503,-4.38128678973716,-3.09456670389885,-0.0238722142335064,0.002432,-0.000447,-0.001805,0.116789,-0.028050,323.601259,24.415168,0.999468,0.989869,0.004099,0.416090,-0.000048,-0.000024,-0.000017,-0.000015,-0.000057,-61.991809,0.000076,
2401,2833,3.06497866770767,4.10799170667102,-0.0285927566235387,0.002659,-0.000547,-0.003307,0.133894,-0.046802,317.419262,24.799565,0.999358,0.989648,0.004113,0.319942,-0.000034,-0.000002,-0.000011,0.000002,-0.000038,-73.428479,0.000043,
2026,2428,-5.02160454058318,-4.73131352771089,-0.0177670375633738,0.002612,-0.000393,-0.002558,0.127030,-0.039841,325.049069,24.567940,0.999081,0.987174,0.004542,0.354166,-0.000028,-0.000052,-0.000013,-0.000022,-0.000057,-24.103154,0.000082,
2371,2608,2.45603500338062,-0.797086430005606,-0.019041242734545,0.002882,-0.000708,-0.001477,0.137240,-0.048944,321.144881,24.079981,0.999249,0.988186,0.004274,0.381669,-0.000020,-0.000003,-0.000014,0.000005,-0.000028,-60.117364,0.000030,
2446,3043,4.00493047899428,8.67438745218094,0.00932780690578738,0.002362,-0.001182,0.002034,0.100423,-0.064058,314.335108,25.576881,0.999320,0.989022,0.003996,0.301145,-0.000041,0.000013,0.000009,0.000014,-0.000043,80.233752,0.000043,
2176,3058,-1.86201742412947,8.97915654447513,0.0171369680280122,0.002772,-0.000661,-0.002948,0.136551,-0.062666,314.410427,24.665777,0.999691,0.995886,0.003020,0.342775,-0.000034,-0.000019,-0.000010,-0.000014,-0.000039,-63.539957,0.000055,
2251,2083,-0.0625109360032674,-12.2816858243293,0.0150149221824449,0.002560,-0.000962,0.003241,0.106393,-0.047725,329.963727,23.484584,0.999243,0.983293,0.005164,0.217153,-0.000042,-0.000033,-0.000030,-0.000007,-0.000067,-49.322351,0.000082,
2191,3118,-1.54620683378122,10.2812833097466,0.0308077829048443,0.002721,-0.000624,0.000320,0.124118,-0.041454,313.483078,24.776434,0.999364,0.993596,0.003507,0.358351,-0.000039,-0.000006,-0.000011,-0.000003,-0.000042,-73.237134,0.000050,
2101,2683,-3.43177547051013,0.828830037059312,-0.0308320171333776,0.002465,-0.000446,-0.003982,0.124941,-0.042964,320.405188,24.342132,0.999426,0.992154,0.003622,0.407418,-0.000044,-0.000014,-0.000016,-0.000007,-0.000051,-66.520964,0.000063,
2146,2893,-2.48744366837837,5.39717504315595,-0.0164206288489481,0.002753,-0.000349,-0.005216,0.142492,-0.037813,316.935246,24.471703,0.999355,0.990655,0.004035,0.380492,-0.000035,-0.000008,-0.000016,0.000000,-0.000043,-65.043595,0.000049,
2386,2683,2.76699694427671,0.841743363891908,-0.0376571495434632,0.002770,-0.000092,-0.004525,0.143349,-0.033923,319.783314,24.391082,0.999388,0.989177,0.004043,0.289702,-0.000027,0.000008,-0.000028,0.000023,-0.000042,-60.820884,0.000042,
2461,3148,4.31103293706305,10.9555072559753,0.0175479221680916,0.002282,-0.000481,-0.002392,0.113721,-0.040023,312.725551,25.981637,0.999483,0.990282,0.003728,0.342929,-0.000018,0.000002,0.000017,0.000012,-0.000028,60.120348,0.000028,
2431,2968,3.69156749438222,7.04538098457669,-0.0237767945761789,0.002444,-0.000274,-0.005475,0.132407,-0.051183,315.291177,25.236416,0.999870,0.995422,0.002982,0.360071,-0.000041,-0.000020,-0.000003,-0.000019,-0.000042,-82.004680,0.000063,
2161,2998,-2.17873236965456,7.67771758360022,-0.00128658781204649,0.002621,-0.000635,-0.002909,0.129496,-0.032656,315.280879,24.593769,0.999573,0.993604,0.003508,0.356822,-0.000038,-0.000011,-0.000004,-0.000010,-0.000039,-82.400942,0.000051,
2041,2458,-4.69974400203756,-4.07719528088498,-0.016269395300526,0.002501,-0.000137,-0.006348,0.132615,-0.046375,324.493209,24.473808,0.998773,0.983696,0.005234,0.388166,-0.000048,-0.000032,-0.000027,-0.000012,-0.000068,-53.593818,0.000086,
2011,2398,-5.34238541202138,-5.38746966565795,-0.00726344068220897,0.002935,-0.000584,-0.002521,0.141626,-0.051047,325.729425,24.628474,0.999253,0.989480,0.004175,0.344072,-0.000024,-0.000029,-0.000022,-0.000004,-0.000049,-41.516605,0.000059,
2086,2683,-3.75749707819631,0.828196456270817,-0.0295108572800018,0.002572,-0.000524,-0.003084,0.127110,-0.041273,320.492425,24.347609,0.999472,0.992633,0.003491,0.407124,-0.000046,-0.000017,-0.000020,-0.000007,-0.000056,-62.832856,0.000069,
2281,2233,0.56498283258319,-8.99395982029957,0.006163809848033,0.002055,-0.000191,-0.004789,0.110110,-0.027939,327.433148,23.579713,0.998951,0.981514,0.005318,0.262148,-0.000048,-0.000038,-0.000040,-0.000002,-0.000083,-48.447332,0.000097,
2071,2593,-4.0695660101722,-1.13123539806358,-0.0306834291037035,0.002497,-0.000411,-0.000974,0.117520,-0.031511,322.007942,24.434824,0.999078,0.989379,0.004203,0.349592,-0.000041,-0.000002,-0.000005,-0.000002,-0.000042,-83.208829,0.000049,
2476,3253,4.61521455214703,13.2356995373653,0.00609127368733198,0.002557,-0.000850,-0.002337,0.126144,-0.054488,310.950709,26.414380,0.999706,0.994076,0.003103,0.347340,0.000010,-0.000009,0.000029,0.000031,-0.000030,35.997555,0.000035,
2341,2488,1.82568464710224,-3.41775165225494,-0.00835109715518456,0.002557,-0.000394,-0.002603,0.126224,-0.030587,323.165774,23.799970,0.999521,0.988230,0.004135,0.410017,-0.000028,-0.000022,0.000000,-0.000022,-0.000028,-87.647228,0.000050,
2506,2053,5.5169176137775,-12.9476184662751,0.0286422249995439,0.002085,-0.001048,0.003350,0.081934,-0.038814,330.721254,21.745827,0.999240,0.982572,0.005379,0.250815,-0.000020,-0.000062,0.000037,0.000002,-0.000084,30.150896,0.000096,
2356,2548,2.1405942533954,-2.10748170577278,-0.0134150403025046,0.002392,-0.000622,-0.001325,0.114147,-0.051404,322.138854,23.907946,0.999195,0.987081,0.004606,0.407854,-0.000026,-0.000026,-0.000014,-0.000011,-0.000040,-45.191260,0.000054,
2236,2008,-0.376457012162721,-13.9301109336021,0.0288273592721566,0.001915,-0.001106,0.001268,0.083244,-0.052402,331.290228,23.333175,0.999642,0.989065,0.004435,0.332993,-0.000027,0.000000,-0.000027,0.000017,-0.000044,-57.852937,0.000044,
2296,2293,0.881277176946899,-7.68036224376096,0.000780194439812476,0.002519,-0.000478,-0.003076,0.125704,-0.048133,326.419526,23.631710,0.999399,0.986810,0.004583,0.248521,-0.000042,-0.000014,-0.000024,-0.000001,-0.000056,-60.282448,0.000065,
2326,2443,1.50642650252137,-4.39977949307189,-0.0164826441268815,0.002424,-0.000331,-0.002873,0.120996,-0.030955,323.825136,23.754203,0.999438,0.989168,0.004306,0.381798,-0.000021,-0.000022,-0.000005,-0.000016,-0.000027,-44.427330,0.000043,
2131,2833,-2.80385144146576,4.09335620329378,-0.0228201139283328,0.002602,-0.000349,-0.004017,0.131727,-0.034346,317.908196,24.463275,0.999493,0.993193,0.003533,0.344161,-0.000038,-0.000014,-0.000013,-0.000008,-0.000044,-65.801313,0.000056,
2416,2893,3.38064429102004,5.41366101365782,-0.0197090098812396,0.002876,-0.000594,-0.003971,0.146437,-0.045320,316.543891,25.005325,0.999512,0.991369,0.003722,0.323007,-0.000037,-0.000012,-0.000010,-0.000008,-0.000040,-70.849232,0.000052,
2206,3178,-1.23151905019091,11.584466154185,0.0217689634210956,0.002675,-0.000441,-0.005129,0.139370,-0.044685,312.395866,24.931163,0.999689,0.995247,0.003055,0.322591,-0.000032,-0.000011,-0.000012,-0.000005,-0.000037,-65.652915,0.000046,
2026,2443,-5.02339849952922,-4.40282590959995,-0.0201299657335881,0.003057,0.000018,-0.004863,0.153934,-0.047042,324.813804,24.653159,0.999349,0.990439,0.004073,0.253491,-0.000034,-0.000047,-0.000027,-0.000012,-0.000068,-38.376241,0.000086,
2311,2323,1.2023661728229,-7.02380807808915,-0.00636041069890325,0.002769,-0.000934,0.000765,0.124014,-0.050962,325.861880,23.585612,0.999091,0.985200,0.004978,0.298621,-0.000035,-0.000013,-0.000013,-0.000007,-0.000041,-64.905523,0.000052,
2401,2848,3.0626043719487,4.43318929180801,-0.0205321559909066,0.002680,-0.000742,-0.001829,0.129437,-0.045903,317.238083,24.789930,0.999397,0.991443,0.003865,0.375520,-0.000039,0.000002,-0.000011,0.000005,-0.000042,-76.250856,0.000045,
2266,2173,0.248842690542627,-10.3096977376437,0.00719511427962516,0.002594,-0.000822,-0.001897,0.124849,-0.046322,328.444787,23.412838,0.999474,0.985681,0.004899,0.368814,-0.000042,-0.000043,-0.000022,-0.000021,-0.000065,-44.767949,0.000089,
2476,3268,4.61159221291076,13.5616373262804,0.00442067520629053,0.002396,-0.000982,0.001003,0.105903,-0.061174,310.669514,26.522737,0.999847,0.995785,0.002724,0.287013,0.000020,-0.000027,0.000032,0.000036,-0.000044,26.855028,0.000047,
2056,2518,-4.38323651143158,-2.76753814150432,-0.0196343786197986,0.002353,-0.000170,-0.004464,0.120730,-0.038974,323.398207,24.456340,0.999342,0.990452,0.004027,0.359523,-0.000044,-0.000022,-0.000018,-0.000012,-0.000054,-60.901646,0.000071,
2161,3013,-2.18130539407049,8.00309328814199,-0.000352888577936028,0.002582,-0.000718,-0.001946,0.124683,-0.037147,315.039387,24.592637,0.999467,0.991534,0.003822,0.362626,-0.000036,-0.000009,-0.000006,-0.000008,-0.000037,-77.445152,0.000048,
2371,2623,2.45230001001412,-0.469687496422168,-0.0238083622818408,0.002436,-0.000763,-0.000833,0.114479,-0.045265,320.838464,24.100288,0.999256,0.988456,0.004246,0.406859,-0.000021,0.000001,-0.000019,0.000011,-0.000032,-60.239010,0.000033,
2506,2068,5.5157646798577,-12.6196741429764,0.0449787800980062,0.002489,-0.000768,0.001216,0.108705,-0.024214,330.642434,21.836944,0.999407,0.984588,0.005044,0.237712,-0.000018,-0.000031,0.000022,-0.000001,-0.000048,36.709308,0.000056,
2101,2698,-3.43405662243076,1.15594025205071,-0.0268237964201035,0.002425,-0.000469,-0.002474,0.118695,-0.034655,320.188838,24.423967,0.999278,0.991389,0.003808,0.335189,-0.000038,-0.000020,-0.000018,-0.000009,-0.000049,-58.132239,0.000062,
2011,2413,-5.34517222673632,-5.06033590812095,-0.00864804364249494,0.002394,-0.000628,-0.003092,0.118281,-0.065412,325.453320,24.595237,0.999156,0.989840,0.004161,0.352625,-0.000034,-0.000040,-0.000020,-0.000017,-0.000057,-41.085637,0.000078,
2386,2698,2.76455350846294,1.1670045205802,-0.0289736325809713,0.002667,-0.000590,-0.002819,0.132328,-0.052018,319.601606,24.372985,0.999445,0.990876,0.003797,0.333069,-0.000028,0.000010,-0.000027,0.000024,-0.000042,-62.916002,0.000042,
2461,3163,4.3086229990755,11.2808289196619,0.0220004714440734,0.002403,-0.000557,-0.003873,0.124866,-0.043195,312.528073,26.037767,0.999586,0.991228,0.003686,0.336713,-0.000017,0.000008,0.000018,0.000018,-0.000027,61.720482,0.000027,
2116,2788,-3.12294855407113,3.11370094021262,-0.0221689254483977,0.002213,-0.000867,0.001835,0.096180,-0.034124,318.675422,24.394947,0.999582,0.992992,0.003454,0.384380,-0.000048,-0.000022,-0.000022,-0.000009,-0.000061,-60.402725,0.000077,
2086,2698,-3.76007796114617,1.15518079943065,-0.0298794443500014,0.002495,-0.000524,-0.001374,0.118669,-0.029278,320.237545,24.378110,0.999338,0.991911,0.003700,0.388079,-0.000038,-0.000022,-0.000022,-0.000007,-0.000054,-55.131136,0.000066,
2236,2023,-0.377671175798856,-13.6009083085427,0.0349332845763115,0.002575,-0.000160,-0.002713,0.126665,-0.044852,331.143222,23.414196,0.998951,0.982928,0.005407,0.283717,-0.000037,0.000016,-0.000021,0.000023,-0.000044,-71.097876,0.000044,
2431,2983,3.68960019710606,7.36991096601621,-0.00675294510131152,0.002407,-0.000619,-0.001295,0.115122,-0.045387,315.171758,25.254886,0.999675,0.992039,0.003564,0.396469,-0.000038,-0.000017,-0.000004,-0.000016,-0.000038,-78.405918,0.000056,
2071,2608,-4.07186129870124,-0.803546433638729,-0.0363350383778425,0.002761,-0.000441,-0.003068,0.135665,-0.032706,321.735863,24.469483,0.999318,0.990655,0.003887,0.311129,-0.000040,0.000000,-0.000005,0.000000,-0.000041,-83.360404,0.000047,
2176,3073,-1.86470815893832,9.3038277514457,0.0178875683150181,0.002547,-0.000335,-0.003583,0.128226,-0.053927,314.163820,24.600361,0.999684,0.995819,0.002960,0.428316,-0.000034,-0.000015,-0.000012,-0.000009,-0.000040,-64.370010,0.000052,
2041,2473,-4.70220717485405,-3.74893351558894,-0.0228620907933532,0.002697,-0.000305,-0.006501,0.142001,-0.059326,324.205336,24.515629,0.998480,0.983622,0.005310,0.327208,-0.000042,-0.000028,-0.000016,-0.000017,-0.000052,-56.464133,0.000072,
2251,2098,-0.0644082403415247,-11.9526822485273,0.0123338973331784,0.002950,-0.000142,-0.004107,0.148502,-0.039369,329.742226,23.477038,0.999338,0.982032,0.005367,0.259368,-0.000040,-0.000034,-0.000032,-0.000004,-0.000069,-47.700821,0.000082,
2146,2908,-2.48988009367524,5.72244033859625,-0.00779398230071138,0.002455,-0.000762,-0.002004,0.118889,-0.044385,316.739895,24.489875,0.999276,0.990203,0.004064,0.363077,-0.000033,-0.000018,-0.000017,-0.000007,-0.000044,-56.745782,0.000056,
2026,2458,-5.02659366122067,-4.07580475159341,-0.0319019720246843,0.002782,-0.000105,-0.005119,0.141979,-0.045849,324.462450,24.514135,0.999442,0.990750,0.003949,0.385513,-0.000035,-0.000034,-0.000026,-0.000008,-0.000061,-45.336053,0.000075,
2416,2908,3.37743064281318,5.7391831420862,-0.0201544050728444,0.002771,-0.001025,-0.002379,0.135573,-0.070986,316.284809,25.005453,0.999593,0.991898,0.003627,0.344472,-0.000038,-0.000012,-0.000007,-0.000011,-0.000040,-75.631616,0.000053,
2356,2563,2.13745295489559,-1.7785708729627,-0.0179457886588921,0.002392,-0.000423,-0.002043,0.116804,-0.033832,321.859393,24.034176,0.999353,0.989819,0.004242,0.339194,-0.000027,-0.000014,-0.000017,-0.000002,-0.000039,-55.269763,0.000047,
2191,3133,-1.54912878362071,10.6071541035748,0.0295812791406433,0.002430,-0.000669,-0.000359,0.112897,-0.031338,313.216102,24.822938,0.999337,0.993526,0.003573,0.335419,-0.000039,-0.000005,-0.000009,-0.000003,-0.000042,-75.875672,0.000050,
2476,3283,4.60954680709431,13.8860614294176,0.0152070742843193,0.002286,-0.000877,-0.001490,0.110375,-0.063154,310.518291,26.558133,0.999838,0.996335,0.002710,0.304760,0.000035,-0.000053,0.000036,0.000048,-0.000066,19.815866,0.000068,
2446,3058,4.00189108367913,9.0008294489494,0.00504739763852058,0.002388,-0.000875,-0.001419,0.114673,-0.055057,314.067535,25.642317,0.999552,0.991151,0.003767,0.295899,-0.000038,0.000007,0.000009,0.000009,-0.000040,78.681657,0.000042,
2326,2458,1.50337408160276,-4.07171392977823,-0.0209673324006303,0.002453,-0.000425,-0.003435,0.124212,-0.042664,323.547920,23.796235,0.999476,0.988928,0.004246,0.363957,-0.000024,-0.000014,0.000000,-0.000014,-0.000024,89.554479,0.000038,
2401,2863,3.05971070264849,4.7602718661984,-0.0225118079708295,0.002791,-0.000515,-0.002794,0.138164,-0.035396,316.985089,24.872964,0.999426,0.991182,0.003787,0.348334,-0.000042,0.000000,-0.000014,0.000005,-0.000046,-72.758585,0.000051,
2296,2308,0.878116990366362,-7.35320706910073,-0.0043871302949583,0.002545,-0.000838,-0.001861,0.122647,-0.058530,326.131879,23.527447,0.999235,0.985970,0.004900,0.374566,-0.000040,-0.000015,-0.000017,-0.000007,-0.000048,-63.574973,0.000060,
2131,2848,-2.80660567578373,4.42048914338872,-0.0336084369167793,0.002854,-0.000152,-0.006565,0.151087,-0.026682,317.593092,24.479180,0.999571,0.993764,0.003377,0.341478,-0.000037,-0.000013,-0.000015,-0.000006,-0.000044,-64.103567,0.000055,
2281,2248,0.562709708184283,-8.66627137610671,0.00131752164384125,0.002519,0.000032,-0.008897,0.145156,-0.072696,327.186536,23.538980,0.999093,0.982276,0.005229,0.288263,-0.000046,-0.000046,-0.000037,-0.000009,-0.000083,-44.839829,0.000101,
2506,2083,5.5123100556973,-12.2912680529248,0.0350162740019755,0.002648,-0.000344,-0.002812,0.131682,-0.025910,330.341135,21.699778,0.999417,0.985757,0.004772,0.437853,-0.000023,-0.000036,0.000008,-0.000019,-0.000039,25.188175,0.000060,
2386,2713,2.76206621141772,1.49280059290857,-0.0220230971065689,0.002520,-0.000791,-0.002888,0.125711,-0.067884,319.409484,24.391060,0.999629,0.992201,0.003496,0.342623,-0.000030,0.000012,-0.000027,0.000025,-0.000043,-64.237600,0.000043,
2161,3028,-2.18330984201312,8.32816662537023,0.00753233152607891,0.002817,-0.000909,0.001569,0.124684,-0.042094,314.860812,24.614127,0.999393,0.990237,0.004187,0.345482,-0.000036,-0.000008,-0.000008,-0.000006,-0.000038,-75.757234,0.000048,
2056,2533,-4.38502525332775,-2.44087169463825,-0.0173420591381728,0.002674,0.000099,-0.005178,0.137618,-0.022761,323.191839,24.424147,0.999228,0.989269,0.004157,0.403580,-0.000047,-0.000006,-0.000006,-0.000005,-0.000048,-82.442801,0.000058,
2086,2713,-3.76198507878513,1.48108908568344,-0.0278017420312153,0.002840,-0.000659,-0.001189,0.133974,-0.036681,320.027210,24.353549,0.999321,0.991255,0.003814,0.404526,-0.000035,-0.000013,-0.000024,0.000003,-0.000050,-57.459241,0.000056,
2311,2338,1.19933667537634,-6.69588459744863,-0.00594840112620432,0.002528,-0.000807,0.001713,0.109800,-0.034771,325.608688,23.591603,0.999146,0.985192,0.004762,0.343052,-0.000038,-0.000022,-0.000013,-0.000015,-0.000045,-60.928115,0.000063,
2071,2623,-4.07370602483148,-0.478097680431198,-0.0338516471878165,0.002922,-0.000227,-0.005781,0.150863,-0.037798,321.529559,24.377454,0.999266,0.990030,0.004014,0.395583,-0.000045,-0.000009,-0.000010,-0.000006,-0.000047,-75.481979,0.000059,
2026,2473,-5.02927524527422,-3.74837879636856,-0.0282375314938577,0.002328,-0.000333,-0.001634,0.111462,-0.028035,324.220369,24.544167,0.998949,0.986754,0.004619,0.364949,-0.000031,-0.000029,-0.000015,-0.000015,-0.000045,-46.665049,0.000063,
2266,2188,0.246694248772751,-9.9803712590594,0.0130893309396924,0.002814,-0.000760,-0.000125,0.129127,-0.040740,328.255888,23.561984,0.999148,0.984446,0.005071,0.253243,-0.000045,-0.000041,-0.000030,-0.000013,-0.000073,-46.874225,0.000093,
2341,2503,1.82185848793033,-3.08990384464431,-0.0141928912729554,0.002155,-0.000874,-0.000443,0.100106,-0.044533,322.847741,23.827316,0.999325,0.987699,0.004306,0.406910,-0.000033,-0.000028,-0.000004,-0.000026,-0.000035,-59.455416,0.000061,
2041,2488,-4.70360831794881,-3.42281761523903,-0.0156784386593358,0.003141,-0.000454,-0.006171,0.161467,-0.051973,324.042763,24.472478,0.999350,0.988853,0.004411,0.371188,-0.000047,-0.000020,-0.000013,-0.000015,-0.000053,-67.929259,0.000071,
2461,3178,4.30584127019919,11.6066940111605,0.0218319367372715,0.002617,-0.000439,-0.004342,0.136563,-0.035732,312.291999,26.109273,0.999649,0.991923,0.003617,0.325980,-0.000015,0.000008,0.000017,0.000017,-0.000024,62.216960,0.000025,
2431,2998,3.68702577119658,7.69625194484505,0.000113182028258052,0.002472,-0.000873,0.001410,0.108030,-0.043613,314.976565,25.377139,0.999321,0.986147,0.004436,0.325166,-0.000035,-0.000018,-0.000001,-0.000018,-0.000035,-85.164265,0.000053,
2476,3298,4.60568052325174,14.2124944696693,-8.3665987688164E-05,0.002511,-0.000299,-0.004173,0.131307,-0.024851,310.163389,26.601082,0.999571,0.993955,0.003406,0.355847,0.000036,-0.000049,0.000036,0.000050,-0.000062,20.186102,0.000066,
2101,2713,-3.43623755500057,1.48242291343734,-0.0306500964158545,0.002752,-0.000249,-0.004578,0.139955,-0.038100,319.934939,24.400466,0.999313,0.990934,0.003881,0.356914,-0.000035,-0.000014,-0.000019,-0.000002,-0.000046,-59.077356,0.000055,
2011,2428,-5.34735416418732,-4.73241078750968,-0.00921642665366562,0.002470,-0.000301,-0.002730,0.120914,-0.029551,325.209051,24.597047,0.999069,0.988596,0.004353,0.375954,-0.000039,-0.000045,-0.000016,-0.000026,-0.000058,-39.424472,0.000086,
2206,3193,-1.2336610129323,11.9086734462932,0.0298712273188926,0.002683,-0.000580,-0.003792,0.135480,-0.046360,312.214722,24.907486,0.999758,0.996333,0.002927,0.360300,-0.000032,-0.000021,-0.000013,-0.000012,-0.000041,-56.138954,0.000056,
2116,2803,-3.12450092036181,3.43970039015957,-0.0164797347183026,0.002483,-0.000627,-0.001949,0.119854,-0.047575,318.502932,24.438457,0.999472,0.993431,0.003431,0.330690,-0.000047,-0.000026,-0.000020,-0.000014,-0.000059,-58.666875,0.000078,
2326,2473,1.50122103718833,-3.74534134041986,-0.010312317758121,0.002328,-0.000396,-0.002703,0.115972,-0.049364,323.386048,23.823232,0.999480,0.988699,0.004147,0.365418,-0.000022,-0.000014,0.000001,-0.000014,-0.000022,84.193690,0.000036,
2446,3073,3.99881151638594,9.32634515256199,-0.00160499098689115,0.002701,-0.000889,-0.003190,0.135700,-0.063014,313.787351,25.628697,0.999696,0.994027,0.003285,0.353004,-0.000038,0.000013,0.000010,0.000015,-0.000040,79.358452,0.000041,
2356,2578,2.13483801925006,-1.45194923031062,-0.01629371875282,0.002392,-0.000601,-0.003280,0.121094,-0.046294,321.634341,24.039800,0.999308,0.988466,0.004320,0.360768,-0.000026,-0.000005,-0.000018,0.000006,-0.000037,-59.629518,0.000040,
2236,2038,-0.380764422470062,-13.2713223280652,0.0270050123224337,0.002662,-0.000422,-0.002365,0.129436,-0.060587,330.839246,23.400850,0.998917,0.980800,0.005478,0.306251,-0.000043,0.000018,-0.000025,0.000027,-0.000052,-70.499233,0.000052,
2176,3088,-1.86757576842402,9.63081862368996,0.0146200691366971,0.002729,-0.000758,0.000257,0.124667,-0.045844,313.887174,24.727530,0.999538,0.993762,0.003330,0.320608,-0.000038,-0.000017,-0.000015,-0.000009,-0.000046,-62.413989,0.000059,
2371,2638,2.4495617623756,-0.141846206816126,-0.0268669604063803,0.002659,-0.000780,-0.002756,0.131547,-0.046533,320.585842,24.185764,0.999267,0.988708,0.004214,0.361899,-0.000023,0.000004,-0.000023,0.000017,-0.000036,-59.766261,0.000036,
2251,2113,-0.0671302445506932,-11.6241816850341,0.0146401891911978,0.002738,-0.000194,-0.003395,0.136459,-0.044350,329.508240,23.497155,0.999143,0.981877,0.005329,0.260606,-0.000039,-0.000024,-0.000031,0.000000,-0.000063,-51.965887,0.000073,
2416,2923,3.37476669471617,6.06590404816729,-0.0173121754833119,0.002724,-0.000874,-0.003695,0.138308,-0.067330,316.065994,25.114316,0.999662,0.992817,0.003504,0.286493,-0.000039,-0.000020,-0.000010,-0.000015,-0.000044,-66.645664,0.000061,
2281,2263,0.558385052430349,-8.33505602924786,-0.00903004962765408,0.002073,-0.000396,-0.003288,0.105858,-0.046843,326.817704,23.700200,0.999473,0.987504,0.004590,0.183797,-0.000043,-0.000046,-0.000036,-0.000009,-0.000081,-43.899806,0.000098,
2191,3148,-1.55212558884568,10.9323662571667,0.0275689702489217,0.002217,-0.001046,0.000407,0.100536,-0.049771,312.941819,24.836547,0.999075,0.992235,0.003910,0.316622,-0.000038,-0.000002,-0.000009,0.000000,-0.000040,-76.550229,0.000046,
2146,2923,-2.49233168208393,6.04824408409468,-0.00564235290551096,0.002225,-0.000474,-0.004020,0.114476,-0.048015,316.509283,24.511496,0.998945,0.988095,0.004416,0.345096,-0.000033,-0.000015,-0.000013,-0.000008,-0.000040,-61.669366,0.000051,
2401,2878,3.05628777359777,5.0873479461395,-0.027439991484755,0.002677,-0.000408,-0.002877,0.133343,-0.014828,316.693746,24.928410,0.999413,0.992518,0.003564,0.358786,-0.000042,-0.000007,-0.000012,-0.000003,-0.000046,-73.435591,0.000055,
2086,2728,-3.76434890102957,1.80820368236441,-0.0314180849296122,0.002820,-0.000165,-0.005311,0.145122,-0.034975,319.764599,24.389136,0.999350,0.990672,0.003894,0.369945,-0.000043,-0.000013,-0.000026,0.000002,-0.000058,-59.395771,0.000066,
2491,1993,5.20207132385294,-14.2668754018539,0.0385026160582242,0.002271,-0.000865,0.003984,0.088178,-0.021616,331.731608,21.580886,0.999175,0.969561,0.006670,0.280992,-0.000137,-0.000034,0.000028,-0.000026,-0.000144,75.668496,0.000184,
2026,2488,-5.03048468569374,-3.42314690150913,-0.0208166497325806,0.002813,-0.000492,-0.003133,0.137843,-0.050801,324.067265,24.452323,0.999329,0.988653,0.004191,0.425135,-0.000041,-0.000020,-0.000010,-0.000016,-0.000045,-67.852533,0.000063,
2071,2638,-4.07599288647006,-0.15150104109064,-0.0247447021449716,0.002628,-0.000483,-0.002231,0.127163,-0.030094,321.338919,24.438178,0.999088,0.988915,0.004235,0.339825,-0.000040,-0.000006,-0.000011,-0.000003,-0.000043,-74.033321,0.000052,
2431,3013,3.68408302401794,8.02245171089141,-0.00225592037503475,0.002326,-0.000701,-0.003141,0.118201,-0.053989,314.721419,25.439755,0.999292,0.987548,0.004229,0.301279,-0.000036,-0.000012,0.000000,-0.000012,-0.000036,89.837302,0.000050,
2506,2098,5.50776844455726,-11.9576598356082,0.0255993829418912,0.002370,-0.000324,0.000743,0.105344,-0.012112,329.991939,22.035070,0.999554,0.986590,0.004758,0.181321,-0.000031,-0.000028,-0.000004,-0.000026,-0.000033,-53.848827,0.000059,
2041,2503,-4.70671950953491,-3.09523247702202,-0.0208764344613996,0.002727,-0.000259,-0.004280,0.137242,-0.033161,323.733057,24.444143,0.999512,0.990690,0.003936,0.412126,-0.000035,-0.000017,-0.000017,-0.000006,-0.000045,-58.924752,0.000056,
2341,2518,1.81982496206686,-2.76143101029368,-0.0173744941909604,0.002811,-0.000465,-0.005292,0.147226,-0.054532,322.624651,23.937337,0.998906,0.984932,0.004726,0.324563,-0.000034,-0.000024,-0.000008,-0.000020,-0.000039,-61.091305,0.000059,
2266,2203,0.243799306837612,-9.65171335267204,0.00424299647619364,0.002982,-0.000539,-0.003353,0.147573,-0.066331,327.959241,23.531483,0.998670,0.981966,0.005469,0.286506,-0.000047,-0.000039,-0.000032,-0.000011,-0.000075,-48.444313,0.000093,
2056,2548,-4.38807501744759,-2.1131950502235,-0.0246553914558945,0.002606,-0.000328,-0.001469,0.123886,-0.039235,322.874776,24.436503,0.999384,0.990601,0.003937,0.370541,-0.000039,-0.000003,-0.000005,-0.000003,-0.000039,-81.895476,0.000047,
2326,2488,1.49883884613015,-3.41779213521852,-0.00869436167806725,0.002649,-0.000488,-0.002163,0.128831,-0.038485,323.169266,23.861144,0.999458,0.988528,0.004134,0.374017,-0.000023,-0.000022,-0.000004,-0.000018,-0.000026,-48.674296,0.000045,
2386,2728,2.75904630044992,1.81975666338225,-0.0221895917497932,0.002545,-0.000887,-0.001160,0.120680,-0.050002,319.158695,24.428401,0.999632,0.991608,0.003673,0.366716,-0.000031,0.000005,-0.000021,0.000015,-0.000041,-65.622039,0.000041,
2011,2443,-5.34918657863241,-4.40432268586616,-0.00729827545785611,0.002815,-0.000509,-0.001351,0.132983,-0.043840,324.994852,24.691868,0.999325,0.990504,0.004035,0.256509,-0.000036,-0.000037,-0.000030,-0.000006,-0.000067,-44.555380,0.000082,
2206,3208,-1.23678277620796,12.2338918207331,0.0287321876738815,0.002305,-0.000592,-0.003174,0.116099,-0.044657,311.940238,24.922880,0.999583,0.994777,0.003232,0.361649,-0.000029,-0.000021,-0.000013,-0.000011,-0.000038,-54.244987,0.000052,
2131,2863,-2.80878206616676,4.7449080744174,-0.0170854849743023,0.002394,-0.000626,-0.001475,0.114429,-0.046115,317.451323,24.480743,0.999561,0.993131,0.003440,0.325486,-0.000035,-0.000013,-0.000017,-0.000004,-0.000044,-61.475197,0.000053,
2446,3088,3.99675880315445,9.65215293816339,0.0113191908546355,0.002690,-0.000845,-0.001991,0.130754,-0.045545,313.644767,25.745925,0.999702,0.994085,0.003315,0.304476,-0.000038,0.000020,0.000009,0.000021,-0.000039,81.585954,0.000039,
2101,2728,-3.4390313310113,1.80953628873935,-0.0393201340517066,0.002732,-0.000049,-0.007428,0.147421,-0.045112,319.626589,24.404633,0.999304,0.990076,0.004024,0.347387,-0.000042,-0.000015,-0.000022,-0.000002,-0.000055,-60.626781,0.000064,
2236,2053,-0.383858714004869,-12.9409610472684,0.0236320007072095,0.002488,-0.000695,-0.001272,0.117861,-0.054148,330.558061,23.493461,0.998883,0.979408,0.005529,0.244984,-0.000044,-0.000007,-0.000022,0.000003,-0.000054,-65.137500,0.000060,
2296,2323,0.875630452609819,-7.02505620151562,-0.000233988993613821,0.002576,-0.000867,-0.000498,0.119477,-0.061678,325.920915,23.605117,0.999005,0.984485,0.005193,0.325672,-0.000038,-0.000011,-0.000014,-0.000005,-0.000045,-66.804537,0.000054,
2161,3043,-2.1851507336525,8.65345705004357,0.0183698927050955,0.002645,-0.000589,-0.000531,0.123308,-0.031286,314.705253,24.662201,0.999549,0.993872,0.003415,0.317169,-0.000039,-0.000009,-0.000010,-0.000006,-0.000042,-72.782104,0.000053,
2461,3193,4.30296216130366,11.931301766913,0.0272315018070799,0.002598,-0.000737,-0.000857,0.122443,-0.033674,312.077325,26.106720,0.999593,0.991767,0.003600,0.383682,-0.000013,0.000007,0.000020,0.000019,-0.000025,58.668807,0.000026,
2491,2008,5.19902013683273,-13.9372166604958,0.0344176050457463,0.002304,-0.000726,-0.000285,0.106068,-0.035019,331.473909,21.605940,0.999344,0.974603,0.006065,0.305100,-0.000104,-0.000052,0.000028,-0.000040,-0.000117,66.289235,0.000163,
2356,2593,2.13197871789263,-1.12435155580825,-0.0207667526318005,0.002728,-0.001097,-0.003210,0.136053,-0.072472,321.368380,24.100087,0.999279,0.988501,0.004313,0.313841,-0.000022,-0.000012,-0.000016,0.000000,-0.000034,-54.002082,0.000039,
2311,2353,1.19667795123894,-6.36709377642667,-0.00982443102890329,0.002563,-0.000391,-0.002983,0.127543,-0.047103,325.351373,23.668410,0.999397,0.986922,0.004419,0.288109,-0.000035,-0.000025,-0.000013,-0.000016,-0.000044,-55.675145,0.000063,
2116,2818,-3.12690381166861,3.76619085928965,-0.0232038741483507,0.002792,-0.000410,-0.004415,0.141480,-0.040198,318.224525,24.415530,0.999417,0.993024,0.003589,0.364480,-0.000039,-0.000013,-0.000018,-0.000004,-0.000048,-62.945603,0.000058,
2401,2893,3.05398775036193,5.41277021268044,-0.0219394717861405,0.002582,-0.000333,-0.006373,0.141643,-0.037501,316.503714,24.955526,0.999476,0.992100,0.003658,0.353988,-0.000041,-0.000014,-0.000008,-0.000012,-0.000043,-75.510242,0.000057,
2086,2743,-3.76684176248091,2.1336283621424,-0.0241213238466571,0.002445,-0.000768,-0.002103,0.118353,-0.066226,319.556053,24.394432,0.999487,0.990944,0.003816,0.332529,-0.000048,-0.000016,-0.000020,-0.000006,-0.000057,-64.302427,0.000070,
2041,2518,-4.70908835565695,-2.76793250419929,-0.0228139167516019,0.002720,-0.000163,-0.004686,0.138095,-0.032976,323.475496,24.443031,0.999309,0.991046,0.004001,0.406966,-0.000034,-0.000018,-0.000019,-0.000005,-0.000046,-56.523042,0.000057,
2011,2458,-5.35106405539827,-4.07760000784194,-0.0110652851971622,0.002952,0.000328,-0.008232,0.158192,-0.033130,324.747031,24.588883,0.999465,0.991013,0.003849,0.359408,-0.000037,-0.000026,-0.000030,-0.000001,-0.000062,-49.906201,0.000072,
2506,2113,5.50475818454673,-11.6296291406536,0.0205415840686101,0.002463,0.000005,-0.004416,0.129622,-0.034063,329.732755,21.950887,0.999625,0.987203,0.004672,0.307762,-0.000037,-0.000030,-0.000010,-0.000023,-0.000044,-55.264836,0.000068,
2251,2128,-0.0702206276070463,-11.2954488147664,0.0093897788407844,0.002397,-0.000100,-0.006900,0.132307,-0.052703,329.219288,23.465227,0.998788,0.980759,0.005467,0.310697,-0.000041,-0.000026,-0.000031,-0.000001,-0.000066,-51.707128,0.000076,
2026,2503,-5.03345502573695,-3.09324257098068,-0.0340853545694699,0.002803,-0.000288,-0.004578,0.141429,-0.035241,323.717063,24.566197,0.999692,0.993317,0.003497,0.318479,-0.000030,-0.000013,-0.000015,-0.000005,-0.000038,-59.698626,0.000047,
2371,2653,2.44613645122706,0.185926878575629,-0.0324055090684965,0.002501,-0.000441,-0.003174,0.125901,-0.046628,320.289748,24.248218,0.999302,0.988401,0.004342,0.341081,-0.000024,0.000000,-0.000027,0.000017,-0.000042,-56.948921,0.000042,
2341,2533,1.816800537308,-2.4339062376045,-0.018438613598164,0.002739,-0.000317,-0.004510,0.141249,-0.041714,322.366402,23.962088,0.999110,0.985752,0.004657,0.350341,-0.000029,-0.000025,-0.000012,-0.000015,-0.000040,-49.781740,0.000057,
2281,2278,0.556159752492199,-8.00885253635563,-0.00583106004438605,0.002230,-0.000438,-0.004117,0.115833,-0.048404,326.613247,23.574214,0.999653,0.989042,0.004351,0.338047,-0.000038,-0.000032,-0.000035,0.000000,-0.000071,-47.422618,0.000082,
2191,3163,-1.55529829755295,11.2587443105331,0.0152365105661261,0.002347,-0.000837,-0.001614,0.112861,-0.060388,312.605148,24.891996,0.999622,0.995336,0.003105,0.263763,-0.000037,-0.000005,-0.000012,-0.000001,-0.000041,-71.333609,0.000048,
2446,3103,3.99378623168658,9.97681109077296,0.0142948937896108,0.002310,-0.000660,-0.003897,0.120487,-0.046046,313.414121,25.714825,0.999715,0.994094,0.003337,0.386253,-0.000036,0.000018,0.000013,0.000021,-0.000039,76.858691,0.000039,
2056,2563,-4.38972608578253,-1.78719261389534,-0.0190902628328331,0.002822,-0.000704,-0.002937,0.137850,-0.064042,322.693062,24.422674,0.999302,0.990018,0.004080,0.354826,-0.000035,-0.000009,-0.000007,-0.000007,-0.000036,-75.823792,0.000047,
2266,2218,0.241011633804536,-9.3238610857647,0.0101522337942015,0.002561,-0.000853,-0.001505,0.122033,-0.053889,327.741278,23.549411,0.998735,0.980886,0.005493,0.308957,-0.000047,-0.000041,-0.000035,-0.000009,-0.000079,-47.165946,0.000097,
2416,2938,3.37161163102277,6.39145164908668,-0.0106064500131993,0.002337,-0.000816,0.000808,0.104096,-0.039878,315.842899,25.122603,0.999618,0.992396,0.003652,0.352890,-0.000038,-0.000020,-0.000011,-0.000015,-0.000043,-64.214266,0.000060,
2386,2743,2.7560685630922,2.1466457594948,-0.0251944857621424,0.002141,-0.000183,-0.008223,0.127762,-0.047058,318.896354,24.456420,0.999700,0.992089,0.003602,0.385187,-0.000032,0.000008,-0.000016,0.000014,-0.000038,-70.620246,0.000038,
2236,2068,-0.386106599229148,-12.6123409627942,0.0285937107042287,0.002461,-0.000455,-0.001536,0.117568,-0.042797,330.357988,23.520720,0.999101,0.981143,0.005332,0.253421,-0.000041,-0.000023,-0.000021,-0.000009,-0.000055,-56.661286,0.000070,
2461,3208,4.29993623317209,12.2572161521252,0.025922932817366,0.002575,-0.000353,-0.002368,0.127306,-0.013066,311.824585,26.170404,0.999516,0.990195,0.003873,0.393775,-0.000008,-0.000006,0.000016,0.000009,-0.000023,47.598720,0.000023,
2431,3028,3.68133941809467,8.34811899180419,0.00146664401762564,0.002228,-0.000778,-0.003453,0.114828,-0.059736,314.503868,25.493551,0.999429,0.988610,0.004123,0.290738,-0.000035,-0.000003,-0.000001,-0.000003,-0.000035,-87.804958,0.000042,
2071,2653,-4.07868045597729,0.175545144166207,-0.0330443737727819,0.002766,-0.000555,-0.002737,0.134948,-0.041987,321.034615,24.417205,0.999292,0.990144,0.004007,0.346413,-0.000040,-0.000010,-0.000012,-0.000005,-0.000044,-70.499073,0.000054,
2491,2023,5.19663636408904,-13.607320254275,0.0367349797517136,0.002310,0.000091,-0.006437,0.130179,-0.033571,331.275302,21.716255,0.999270,0.973664,0.006111,0.258346,-0.000074,-0.000022,0.000007,-0.000021,-0.000075,82.081111,0.000101,
2206,3223,-1.24025048067844,12.5605563904216,0.0217571576229147,0.002247,-0.000690,0.001156,0.099662,-0.032817,311.619015,25.032080,0.999801,0.996217,0.002836,0.279469,-0.000027,-0.000011,-0.000015,-0.000002,-0.000036,-58.529878,0.000043,
2146,2938,-2.494304359721,6.37446601862042,-0.0059606879817693,0.002761,-0.000710,-0.004246,0.139770,-0.056904,316.287395,24.563220,0.999340,0.990987,0.003894,0.291668,-0.000036,-0.000010,-0.000014,-0.000004,-0.000042,-66.290790,0.000050,
2176,3103,-1.86982537524085,9.95578668471716,0.0166627223897535,0.002672,-0.000436,-0.003182,0.132823,-0.039761,313.667486,24.708179,0.999547,0.994324,0.003199,0.357228,-0.000043,-0.000012,-0.000012,-0.000007,-0.000047,-71.156104,0.000059,
2041,2533,-4.71118465271632,-2.44021535995962,-0.0246617774949414,0.002946,-0.000103,-0.005726,0.151439,-0.037642,323.230813,24.490755,0.999283,0.991029,0.003821,0.348016,-0.000038,-0.000003,-0.000005,-0.000002,-0.000039,-81.350103,0.000046,
2506,2128,5.50123216544187,-11.300328695377,0.0169467219116655,0.002529,-0.000245,-0.002535,0.125279,-0.037390,329.456163,21.986065,0.999615,0.986157,0.004829,0.333449,-0.000034,-0.000033,-0.000005,-0.000028,-0.000039,-47.643617,0.000067,
2086,2758,-3.76968525594332,2.4604189832981,-0.0333624341716359,0.002569,-0.000880,-0.002033,0.123848,-0.058757,319.240935,24.359487,0.999513,0.991576,0.003735,0.374159,-0.000046,-0.000020,-0.000021,-0.000009,-0.000058,-61.034238,0.000073,
2326,2503,1.4948276925812,-3.08948852074558,-0.0133202129910615,0.002154,-0.001284,0.002795,0.088730,-0.042947,322.847152,23.931703,0.999462,0.988567,0.004066,0.334752,-0.000028,-0.000026,-0.000009,-0.000018,-0.000036,-47.648042,0.000055,
2311,2368,1.19381806292218,-6.03938147305436,-0.0131897429756123,0.002592,-0.000077,-0.004440,0.133994,-0.033247,325.087368,23.631008,0.999600,0.989376,0.004128,0.373413,-0.000035,-0.000032,-0.000014,-0.000019,-0.000048,-47.727901,0.000069,
2011,2473,-5.35412974723081,-3.75001613991738,-0.0146915371536238,0.002517,-0.000167,-0.004782,0.128678,-0.034018,324.445524,24.583093,0.999158,0.988797,0.004244,0.353863,-0.000030,-0.000021,-0.000020,-0.000004,-0.000046,-51.199729,0.000056,
2356,2608,2.12950429124814,-0.797174956281594,-0.0179634580742913,0.002875,-0.000421,-0.003202,0.143085,-0.027059,321.154926,24.118114,0.999296,0.988178,0.004306,0.380850,-0.000025,-0.000009,-0.000016,0.000001,-0.000034,-58.493882,0.000039,
2131,2878,-2.81055268866877,5.06920454211557,-0.00809830561331637,0.002374,-0.000379,-0.003369,0.119229,-0.052946,317.287929,24.405124,0.999574,0.992434,0.003499,0.399604,-0.000033,-0.000006,-0.000017,0.000002,-0.000041,-64.704893,0.000047,
2101,2743,-3.44123611892792,2.13537013799439,-0.0307592310253995,0.002649,-0.000627,-0.003276,0.131288,-0.052257,319.438778,24.434356,0.999436,0.990784,0.003852,0.311764,-0.000047,-0.000017,-0.000017,-0.000010,-0.000054,-65.513192,0.000069,
2026,2518,-5.03561348376813,-2.76794425757252,-0.0297155067071913,0.002673,-0.000256,-0.003602,0.132817,-0.032090,323.503515,24.436327,0.999713,0.994214,0.003320,0.442654,-0.000032,-0.000017,-0.000018,-0.000005,-0.000044,-56.599056,0.000054,
2116,2833,-3.12971516350642,4.0929605389731,-0.0271852861496882,0.002787,-0.000784,-0.002757,0.136180,-0.063821,317.942102,24.475197,0.999569,0.993602,0.003507,0.284737,-0.000041,-0.000013,-0.000016,-0.000005,-0.000048,-65.339835,0.000059,
2401,2908,3.05076409528749,5.73902940929815,-0.0176973427398366,0.002370,-0.000980,-0.001048,0.112268,-0.065021,316.264974,25.059097,0.999526,0.991580,0.003752,0.267828,-0.000042,-0.000013,-0.000005,-0.000013,-0.000042,-81.011876,0.000058,
2446,3118,3.99110020664822,10.302867858178,0.0129368187962768,0.002564,-0.000396,-0.005958,0.139942,-0.045150,313.176144,25.787833,0.999653,0.992821,0.003492,0.365223,-0.000030,0.000017,0.000013,0.000021,-0.000034,75.266685,0.000034,
2251,2143,-0.0727793277053159,-10.9660367241266,0.00980004804347345,0.002502,0.000188,-0.006020,0.134387,-0.027470,328.982880,23.528567,0.998847,0.982755,0.005235,0.299051,-0.000044,-0.000044,-0.000026,-0.000018,-0.000070,-44.790573,0.000093,
2056,2578,-4.39231869725441,-1.45947763131112,-0.0262362273219878,0.002871,-0.000243,-0.004598,0.144941,-0.052295,322.397739,24.422469,0.999089,0.989490,0.004194,0.362493,-0.000039,-0.000008,-0.000009,-0.000005,-0.000042,-74.439717,0.000051,
2161,3058,-2.18664203120536,8.97737965396123,0.0286231539215578,0.002780,-0.000335,-0.003804,0.139589,-0.050062,314.563176,24.612531,0.999600,0.995646,0.003231,0.357197,-0.000039,-0.000018,-0.000015,-0.000010,-0.000047,-63.403646,0.000061,
2491,2038,5.19308378663241,-13.2786499557035,0.0385904372853929,0.001845,0.000235,-0.004616,0.102048,-0.031717,331.021035,21.714572,0.999232,0.974174,0.006204,0.324373,-0.000063,-0.000042,0.000014,-0.000034,-0.000070,63.435730,0.000107,
2371,2668,2.44336483126404,0.512875705223344,-0.0345857823932079,0.002402,-0.000181,-0.007849,0.138047,-0.066639,320.039902,24.288137,0.999469,0.989498,0.004207,0.322773,-0.000026,0.000002,-0.000029,0.000020,-0.000044,-57.728832,0.000044,
2071,2668,-4.08114615713543,0.502349453816805,-0.0382462383745974,0.002711,-0.000286,-0.006824,0.144140,-0.050170,320.757477,24.401842,0.999183,0.989895,0.004109,0.350794,-0.000042,-0.000023,-0.000014,-0.000016,-0.000049,-62.149203,0.000067,
2086,2773,-3.7712759136552,2.78704293723879,-0.029572818729207,0.003021,-0.000597,-0.003609,0.149328,-0.052431,319.054205,24.417866,0.999610,0.991938,0.003741,0.321088,-0.000046,-0.000024,-0.000024,-0.000008,-0.000061,-56.846269,0.000076,
2191,3178,-1.55714577260533,11.5830280198823,0.0213762773005328,0.002672,-0.000800,-0.001618,0.127944,-0.051530,312.426501,24.850103,0.999838,0.996744,0.002783,0.327939,-0.000039,-0.000006,-0.000011,-0.000003,-0.000043,-72.622799,0.000051,
2146,2953,-2.49721375311596,6.70015846074223,-0.00858908537173875,0.002604,-0.000480,-0.003059,0.129067,-0.032730,316.010362,24.521574,0.999550,0.992392,0.003554,0.364857,-0.000037,-0.000016,-0.000016,-0.000008,-0.000045,-61.393878,0.000057,
2461,3223,4.2964457258514,12.5830574910542,0.0208849233665092,0.002425,-0.000371,-0.003534,0.124667,-0.035964,311.533238,26.253531,0.999520,0.992323,0.003576,0.340839,-0.000004,-0.000016,0.000016,0.000007,-0.000027,35.315289,0.000028,
2506,2143,5.49819492945151,-10.9709961459589,0.0201859775446565,0.002585,-0.000769,0.000233,0.116991,-0.046573,329.232331,22.109388,0.999083,0.977207,0.005883,0.264827,-0.000026,-0.000007,-0.000005,-0.000005,-0.000027,-76.264200,0.000035,
2386,2758,2.75273875047126,2.4742433236683,-0.0312469897536403,0.002521,-0.000167,-0.003946,0.129878,-0.036670,318.603100,24.523016,0.999460,0.989848,0.003918,0.372572,-0.000031,0.000012,-0.000010,0.000015,-0.000033,-77.013687,0.000033,
2281,2293,0.553760653344856,-7.68062465944789,-0.0039461021203806,0.002545,-0.000677,-0.001966,0.123025,-0.048991,326.393944,23.623764,0.999419,0.986560,0.004723,0.317654,-0.000037,-0.000015,-0.000027,0.000004,-0.000055,-55.845082,0.000062,
2011,2488,-5.35636292637092,-3.42232003488272,-0.0231387590902727,0.002991,0.000026,-0.004835,0.150682,-0.040329,324.155058,24.554129,0.999349,0.989091,0.004153,0.365922,-0.000041,-0.000010,-0.000015,-0.000004,-0.000047,-67.333329,0.000057,
2041,2548,-4.71406141896258,-2.11273256645448,-0.032497797758765,0.002876,-0.000088,-0.004783,0.145612,-0.034988,322.917316,24.461854,0.999508,0.991475,0.003653,0.373252,-0.000035,-0.000001,-0.000007,0.000000,-0.000036,-79.143146,0.000041,
2296,2338,0.872746745855618,-6.69617610633924,-0.00731596079879182,0.002793,-0.000724,-0.002517,0.136286,-0.062242,325.636061,23.640835,0.999219,0.986236,0.004708,0.321626,-0.000041,-0.000017,-0.000014,-0.000011,-0.000047,-65.466643,0.000062,
2236,2083,-0.38972242547084,-12.2819137589394,0.0220472809072021,0.002081,-0.000580,0.000828,0.092454,-0.026599,330.036733,23.586064,0.999354,0.982766,0.005189,0.229170,-0.000037,-0.000028,-0.000022,-0.000010,-0.000055,-50.955320,0.000070,
2341,2548,1.81366516251041,-2.1073266483229,-0.0132403511623806,0.002333,-0.000833,-0.000378,0.108064,-0.039676,322.133577,23.971513,0.998909,0.983610,0.004973,0.380391,-0.000030,-0.000020,-0.000011,-0.000012,-0.000038,-57.164461,0.000052,
2431,3043,3.67852164332123,8.67398069300958,-0.000325213272674318,0.002648,-0.000848,-0.001962,0.128596,-0.058978,314.257101,25.526086,0.999505,0.990185,0.003894,0.308152,-0.000036,0.000010,0.000005,0.000010,-0.000036,84.178937,0.000037,
2416,2953,3.36856640728748,6.71845436580428,-0.0166057363068717,0.002601,-0.000861,-0.000723,0.121840,-0.047057,315.564902,25.213868,0.999739,0.992553,0.003641,0.301532,-0.000037,-0.000019,-0.000006,-0.000017,-0.000038,-72.887771,0.000057,
2266,2233,0.238064023467675,-8.99471379280749,0.00373103064163161,0.002533,-0.000465,-0.004368,0.130366,-0.052213,327.454078,23.573389,0.998725,0.980219,0.005475,0.314869,-0.000046,-0.000039,-0.000041,-0.000001,-0.000084,-47.395798,0.000097,
2311,2383,1.19173656581864,-5.71209171099546,-0.00380300377145204,0.002504,0.000069,-0.005194,0.132568,-0.028547,324.921708,23.692380,0.999386,0.987229,0.004599,0.350361,-0.000031,-0.000031,-0.000015,-0.000016,-0.000046,-45.156248,0.000065,
2326,2518,1.49239067132551,-2.76147000863116,-0.0210218239682263,0.002657,-0.000727,-0.002839,0.131410,-0.059678,322.582283,23.965866,0.999307,0.987186,0.004316,0.319531,-0.000030,-0.000022,-0.000011,-0.000014,-0.000037,-54.830809,0.000053,
2446,3133,3.98788589990726,10.6290370640015,0.0128358226688192,0.002555,-0.000515,-0.003525,0.130411,-0.044391,312.919521,25.883316,0.999538,0.989758,0.003993,0.321470,-0.000027,0.000010,0.000007,0.000012,-0.000028,79.493014,0.000028,
2176,3118,-1.87177274053868,10.2807255994113,0.0200626544175293,0.002865,-0.000368,-0.006061,0.150672,-0.049506,313.468827,24.713963,0.999440,0.994051,0.003370,0.352913,-0.000045,-0.000011,-0.000012,-0.000007,-0.000048,-72.521455,0.000060,
2026,2533,-5.03746960240204,-2.44044356127282,-0.0285220656706429,0.002845,-0.000287,-0.006074,0.147487,-0.040970,323.285570,24.495707,0.999458,0.990694,0.003869,0.365508,-0.000036,-0.000008,-0.000004,-0.000007,-0.000037,-81.365759,0.000047,
2206,3238,-1.24208435665493,12.8846393759983,0.0234494390792861,0.002533,-0.000311,-0.004406,0.130551,-0.046116,311.418807,24.981874,0.999750,0.995417,0.002944,0.331872,-0.000025,-0.000019,-0.000018,-0.000004,-0.000040,-50.165963,0.000049,
2356,2623,2.12552648830049,-0.469644691264648,-0.0205962816709757,0.001987,-0.000513,-0.002638,0.100279,-0.034873,320.846298,24.179943,0.999240,0.988265,0.004300,0.350710,-0.000025,-0.000003,-0.000018,0.000007,-0.000035,-61.253204,0.000037,
2506,2158,5.4949342552117,-10.6418595505953,0.0203097195233113,0.002211,-0.000234,-0.002426,0.110375,-0.032536,328.984196,22.163229,0.999235,0.979352,0.005474,0.289088,-0.000024,-0.000037,-0.000016,-0.000013,-0.000048,-33.822987,0.000064,
2071,2683,-4.08334975147422,0.828058303928096,-0.0302876644275329,0.002549,-0.000575,-0.003680,0.127664,-0.036488,320.564648,24.377977,0.999329,0.991632,0.003784,0.385526,-0.000046,-0.000018,-0.000015,-0.000011,-0.000052,-66.840248,0.000068,
2086,2788,-3.77373784417584,3.11232454288084,-0.0249559245357887,0.002685,-0.000502,-0.002999,0.132117,-0.045872,318.832480,24.363277,0.999464,0.991451,0.003791,0.381354,-0.000052,-0.000024,-0.000026,-0.000008,-0.000068,-59.097803,0.000084,
2131,2893,-2.81288668656925,5.39622416369387,-0.0143562439098446,0.002649,-0.000173,-0.007549,0.144512,-0.055840,317.016350,24.468145,0.999440,0.991384,0.003862,0.339117,-0.000033,-0.000010,-0.000016,-0.000002,-0.000041,-62.409012,0.000049,
2491,2053,5.18834426722699,-12.945642567085,0.0147848812264328,0.002192,-0.000097,-0.005086,0.119572,-0.064502,330.597245,21.861896,0.999122,0.978719,0.005744,0.207519,-0.000052,-0.000037,0.000017,-0.000026,-0.000064,56.879184,0.000093,
2101,2758,-3.44298585767813,2.46052583861737,-0.0245692016482622,0.002787,-0.000557,-0.005104,0.143054,-0.045722,319.259185,24.372711,0.999518,0.990914,0.003730,0.380921,-0.000047,-0.000021,-0.000017,-0.000012,-0.000055,-63.569473,0.000072,
2056,2593,-4.39517251412734,-1.13081097026404,-0.0341164148792359,0.002948,-0.000419,-0.002440,0.142398,-0.044762,322.086167,24.513044,0.998856,0.988523,0.004299,0.275202,-0.000039,-0.000005,-0.000005,-0.000004,-0.000040,-81.283883,0.000048,
2011,2503,-5.35917240681551,-3.09408029724317,-0.0281439265288554,0.002763,-0.000585,-0.003730,0.137061,-0.054467,323.857421,24.620033,0.999636,0.993105,0.003637,0.275216,-0.000029,-0.000001,-0.000021,0.000011,-0.000041,-61.885942,0.000042,
2191,3193,-1.55922901297849,11.9072706124982,0.0303084277923631,0.002453,-0.000574,-0.003363,0.123387,-0.048795,312.251613,24.829888,0.999724,0.995894,0.003007,0.364142,-0.000041,-0.000017,-0.000014,-0.000011,-0.000047,-65.395955,0.000061,
2116,2848,-3.13196370948227,4.41870511870538,-0.0258986168170736,0.002784,-0.000268,-0.004422,0.141255,-0.027105,317.714006,24.424813,0.999629,0.993869,0.003343,0.374701,-0.000040,-0.000011,-0.000018,-0.000003,-0.000049,-64.070858,0.000058,
2161,3073,-2.18959262518756,9.30310003093491,0.0259115580556113,0.002656,-0.000352,-0.002216,0.129054,-0.035733,314.284946,24.614813,0.999615,0.995013,0.003160,0.378533,-0.000041,-0.000015,-0.000017,-0.000007,-0.000049,-63.725235,0.000061,
2146,2968,-2.49964585807119,7.02551460209754,-0.00507682801196552,0.002483,-0.000760,-0.002445,0.121510,-0.050949,315.788027,24.538171,0.999642,0.993985,0.003219,0.337376,-0.000032,-0.000014,-0.000017,-0.000004,-0.000042,-59.649293,0.000051,
2386,2773,2.74969086120891,2.8003814551215,-0.0258602374861994,0.002258,-0.000514,0.000036,0.103351,-0.040267,318.377447,24.564342,0.999459,0.990046,0.003897,0.370617,-0.000036,-0.000001,-0.000014,0.000004,-0.000041,-70.763148,0.000045,
2041,2563,-4.71583088018787,-1.7865004270182,-0.0274161511002831,0.002991,-0.000201,-0.006111,0.154533,-0.043757,322.726397,24.449086,0.999541,0.991205,0.003674,0.370339,-0.000033,-0.000005,-0.000008,-0.000003,-0.000035,-74.665637,0.000042,
2251,2158,-0.074949808264261,-10.6383338098119,0.0136952527536778,0.002507,0.000023,-0.008400,0.142329,-0.068633,328.782339,23.544638,0.998361,0.982211,0.005342,0.267688,-0.000043,-0.000045,-0.000021,-0.000023,-0.000065,-43.789603,0.000092,
2371,2683,2.43953422764337,0.840845538794284,-0.041077483253332,0.002420,-0.000529,-0.001820,0.117329,-0.048242,319.720392,24.352981,0.999432,0.990186,0.003958,0.317816,-0.000028,0.000009,-0.000029,0.000025,-0.000044,-61.421201,0.000044,
2461,3238,4.29372382726867,12.90858389431,0.0206888683209172,0.002671,-0.000601,-0.004361,0.139093,-0.041691,311.299578,26.322192,0.999720,0.994469,0.003138,0.319234,-0.000001,-0.000015,0.000020,0.000013,-0.000029,35.271956,0.000029,
2281,2308,0.551777794445233,-7.3530902414054,0.00111015894566435,0.002723,-0.000655,-0.004170,0.138525,-0.050186,326.209570,23.646991,0.999200,0.984702,0.005124,0.322834,-0.000037,-0.000014,-0.000020,-0.000002,-0.000049,-60.317480,0.000058,
2401,2923,3.04829107982532,6.06445198485014,-0.0134962021202227,0.002379,-0.000542,-0.002329,0.117536,-0.045834,316.060672,25.042246,0.999456,0.991739,0.003780,0.348822,-0.000041,-0.000019,-0.000008,-0.000016,-0.000044,-71.429278,0.000063,
2296,2353,0.870603961861494,-6.36913822613351,0.00275222822756405,0.002605,-0.000464,-0.002774,0.128626,-0.058916,325.470167,23.677827,0.999627,0.989379,0.004059,0.319472,-0.000039,-0.000020,-0.000015,-0.000012,-0.000047,-61.262516,0.000062,
2236,2098,-0.391665403642161,-11.9531086797348,0.0174069494957507,0.002581,0.000166,-0.005878,0.137278,-0.031560,329.801917,23.551543,0.999259,0.981863,0.005332,0.282781,-0.000037,-0.000025,-0.000024,-0.000006,-0.000056,-51.690404,0.000069,
2011,2518,-5.36120058784886,-2.76887734147466,-0.0202664734233053,0.002616,-0.000599,-0.001344,0.123844,-0.033907,323.668424,24.494914,0.999682,0.993517,0.003501,0.410095,-0.000033,-0.000006,-0.000027,0.000011,-0.000049,-58.606978,0.000052,
2491,2068,5.18511291652407,-12.6157894358556,0.00803396330059059,0.002634,-0.000311,-0.005032,0.139500,-0.065704,330.318886,21.887826,0.999251,0.980187,0.005665,0.242716,-0.000046,-0.000011,0.000010,-0.000009,-0.000048,75.465867,0.000061,
2431,3058,3.67530843501732,9.00009649855843,0.00262093863614155,0.002311,-0.001015,-0.000234,0.106655,-0.057613,314.014030,25.616621,0.999646,0.991576,0.003745,0.267920,-0.000033,0.000005,0.000005,0.000005,-0.000034,82.352888,0.000036,
2266,2248,0.235334057510229,-8.66571481082021,0.000451865054401424,0.002988,-0.000532,-0.000452,0.138315,-0.039915,327.192504,23.611555,0.998891,0.982771,0.005258,0.317075,-0.000042,-0.000048,-0.000039,-0.000005,-0.000084,-42.725029,0.000101,
2341,2563,1.81054109175897,-1.77895418695918,-0.0181016737611799,0.002231,-0.000572,-0.002552,0.111077,-0.032268,321.852092,24.055402,0.999042,0.986274,0.004631,0.341603,-0.000031,-0.000010,-0.000015,-0.000003,-0.000039,-63.023811,0.000046,
2131,2908,-2.81509780355313,5.72114035675269,-0.00808812574075546,0.002637,-0.000347,-0.005411,0.137526,-0.051151,316.818016,24.425562,0.999403,0.989842,0.004048,0.391385,-0.000031,-0.000022,-0.000018,-0.000008,-0.000045,-52.085906,0.000057,
2416,2968,3.36621246695419,7.04379991903269,-0.0107376458109343,0.002453,-0.000798,-0.004087,0.127329,-0.065815,315.374745,25.251181,0.999835,0.994455,0.003229,0.292483,-0.000040,-0.000019,-0.000004,-0.000018,-0.000040,-80.711661,0.000060,
2326,2533,1.48944716269061,-2.43385092931124,-0.0245207827617833,0.002574,-0.000227,-0.005294,0.136307,-0.042542,322.314592,23.973212,0.999384,0.987194,0.004322,0.364953,-0.000026,-0.000024,-0.000015,-0.000010,-0.000040,-46.477964,0.000053,
2461,3253,4.28980771299224,13.2340757756783,0.0138006013506811,0.002454,-0.000640,-0.002998,0.123951,-0.039447,310.980038,26.346288,0.999733,0.994528,0.003037,0.350342,0.000003,-0.000014,0.000023,0.000019,-0.000031,34.766974,0.000031,
2086,2803,-3.77601978957553,3.43885970330628,-0.022469685097974,0.002626,-0.000456,-0.003089,0.129703,-0.040464,318.607031,24.412253,0.999366,0.991601,0.003744,0.336485,-0.000053,-0.000026,-0.000024,-0.000012,-0.000068,-59.609778,0.000086,
2206,3253,-1.24503321120888,13.2092908397553,0.0236247774947742,0.002359,-0.000393,-0.002063,0.115162,-0.030423,311.159231,24.950357,0.999795,0.995644,0.002823,0.394373,-0.000024,-0.000023,-0.000013,-0.000010,-0.000036,-46.149436,0.000049,
2071,2698,-4.08570625213251,1.15449075805456,-0.0293680659236202,0.002535,-0.000438,-0.002793,0.124510,-0.035137,320.326123,24.378694,0.999280,0.992368,0.003687,0.383250,-0.000036,-0.000023,-0.000017,-0.000012,-0.000047,-55.774762,0.000062,
2056,2608,-4.39741913603189,-0.805822579657523,-0.029172545981055,0.002578,-0.000673,-0.004405,0.130802,-0.057035,321.874067,24.402238,0.999135,0.989808,0.004075,0.368732,-0.000039,-0.000003,-0.000006,-0.000002,-0.000040,-80.982523,0.000048,
2101,2773,-3.44578391625553,2.78838131611038,-0.0332391093464821,0.003003,-0.000190,-0.004308,0.150802,-0.032440,318.950355,24.439620,0.999597,0.991940,0.003644,0.329028,-0.000047,-0.000025,-0.000021,-0.000012,-0.000060,-59.068214,0.000077,
2311,2398,1.19086875709145,-5.38705698584639,0.0138341589316155,0.002960,-0.000157,-0.006526,0.157930,-0.034063,324.852598,23.640000,0.999390,0.988450,0.004585,0.430408,-0.000027,-0.000014,-0.000011,-0.000007,-0.000033,-59.965824,0.000043,
2176,3133,-1.87436518930442,10.6058501553407,0.0289751129114393,0.002424,-0.000655,-0.003317,0.121813,-0.035655,313.269391,24.750741,0.999311,0.993915,0.003557,0.340874,-0.000046,-0.000010,-0.000011,-0.000007,-0.000049,-74.477225,0.000061,
2026,2548,-5.039478532916,-2.11367030983374,-0.0232833164412227,0.002832,-0.000072,-0.004974,0.143968,-0.025300,323.083315,24.504568,0.999592,0.991462,0.003555,0.363338,-0.000033,-0.000006,-0.000007,-0.000004,-0.000035,-76.235151,0.000043,
2161,3088,-2.19300636849945,9.62965394743824,0.0177789839364095,0.002405,-0.000634,-0.001093,0.113995,-0.035263,313.956502,24.677638,0.999437,0.992143,0.003616,0.325174,-0.000045,-0.000020,-0.000020,-0.000009,-0.000056,-61.300088,0.000071,
2446,3148,3.98520229874665,10.9544710016608,0.0182561595823358,0.002361,-0.000137,-0.004289,0.124530,-0.027230,312.713030,25.932011,0.999569,0.991403,0.003676,0.341006,-0.000024,0.000000,0.000007,0.000002,-0.000026,75.185121,0.000029,
2041,2578,-4.71826430678832,-1.45922227314593,-0.0334664097300106,0.003218,-0.000018,-0.005843,0.164291,-0.044486,322.443155,24.431098,0.999227,0.990294,0.003976,0.380995,-0.000039,-0.000005,-0.000012,-0.000002,-0.000043,-72.427169,0.000050,
2506,2173,5.49219552519215,-10.3137469679993,0.0250321764897876,0.002460,-0.000496,0.000739,0.109455,-0.032383,328.780530,22.191468,0.998964,0.978014,0.005669,0.324433,-0.000030,-0.000029,-0.000024,-0.000005,-0.000053,-45.496384,0.000065,
2116,2863,-3.13434769042466,4.74391201730742,-0.0148457270317408,0.002455,-0.000636,0.000650,0.110920,-0.030914,317.532482,24.441873,0.999620,0.993237,0.003432,0.356917,-0.000037,-0.000012,-0.000018,-0.000002,-0.000047,-62.593360,0.000055,
2191,3208,-1.56169433273656,12.232532564663,0.0313775674296153,0.002666,-0.000602,-0.001137,0.126271,-0.034228,312.017738,24.848861,0.999496,0.993877,0.003509,0.372989,-0.000037,-0.000016,-0.000014,-0.000009,-0.000044,-63.957709,0.000057,
2491,2083,5.18281594425797,-12.2877194860925,0.0133535716011579,0.002811,0.000002,-0.007010,0.155292,-0.064961,330.137477,21.888534,0.999354,0.979683,0.005495,0.304438,-0.000045,-0.000017,-0.000001,-0.000017,-0.000045,-88.717008,0.000065,
2386,2788,2.74661292397734,3.12792766052765,-0.0316416089586937,0.002326,-0.000496,-0.002621,0.116026,-0.049865,318.096971,24.658099,0.999691,0.992452,0.003579,0.310774,-0.000036,-0.000003,-0.000014,0.000002,-0.000041,-69.632732,0.000046,
2011,2533,-5.36321957088407,-2.44171877738354,-0.0195822594227479,0.002656,-0.000569,-0.003350,0.131126,-0.041318,323.439126,24.515991,0.999396,0.988680,0.004258,0.370452,-0.000038,-0.000005,-0.000011,-0.000001,-0.000041,-72.657340,0.000048,
2356,2638,2.12340360978958,-0.143113620607714,-0.0139404213648504,0.002306,-0.000789,-0.001159,0.109620,-0.046773,320.667735,24.237457,0.999296,0.988355,0.004309,0.320624,-0.000027,0.000001,-0.000021,0.000012,-0.000038,-61.431328,0.000039,
2251,2173,-0.078197203467365,-10.3098438679708,0.0103385937202916,0.002423,-0.000757,-0.004321,0.124893,-0.066864,328.495627,23.517737,0.999037,0.985619,0.004912,0.322659,-0.000042,-0.000035,-0.000017,-0.000021,-0.000056,-50.707305,0.000079,
2146,2983,-2.50189617486476,7.35105208558981,-0.00713781585079687,0.002773,-0.000614,-0.003942,0.139493,-0.048864,315.544328,24.516688,0.999697,0.994950,0.003045,0.368228,-0.000033,-0.000015,-0.000013,-0.000008,-0.000040,-62.535604,0.000052,
2236,2113,-0.394046496687888,-11.6260758165088,0.0213325069933603,0.002819,-0.000559,-0.001490,0.133808,-0.051945,329.590811,23.470157,0.999282,0.982549,0.005237,0.367851,-0.000036,-0.000015,-0.000023,0.000000,-0.000051,-57.203558,0.000059,
2086,2818,-3.77804665735439,3.76505115319573,-0.0243722120131338,0.002951,-0.000368,-0.005532,0.151771,-0.042822,318.369507,24.408012,0.999497,0.993043,0.003501,0.337400,-0.000046,-0.000013,-0.000022,-0.000002,-0.000057,-63.939078,0.000067,
2296,2368,0.867912144379652,-6.041677300818,0.0047734170983631,0.002375,-0.000184,-0.004227,0.123128,-0.049128,325.239215,23.672661,0.999341,0.986364,0.004612,0.366029,-0.000040,-0.000026,-0.000017,-0.000015,-0.000051,-56.157216,0.000069,
2461,3268,4.28503244500783,13.5603863080962,-0.00482340501025647,0.002406,-0.000791,-0.000912,0.113802,-0.045981,310.566567,26.394848,0.999764,0.994828,0.002903,0.348230,0.000015,-0.000031,0.000024,0.000025,-0.000041,22.952380,0.000041,
2371,2698,2.43700585481819,1.1662725659383,-0.0328291670170415,0.002190,-0.000737,-0.000823,0.103166,-0.046586,319.531752,24.326902,0.999349,0.991202,0.003715,0.386916,-0.000030,0.000010,-0.000028,0.000024,-0.000045,-62.410017,0.000045,
2431,3073,3.67235998258512,9.32516449060371,0.00203644876944509,0.002338,-0.000742,-0.000724,0.109857,-0.041369,313.766944,25.576569,0.999670,0.992949,0.003488,0.373537,-0.000033,0.000012,0.000005,0.000013,-0.000034,83.926923,0.000034,
2011,2548,-5.36516595453237,-2.11504903204028,-0.021015123755717,0.003055,-0.000534,-0.002605,0.147505,-0.043406,323.201423,24.472944,0.999537,0.989694,0.003859,0.400495,-0.000032,0.000000,-0.000013,0.000004,-0.000036,-70.446584,0.000040,
2401,2938,3.04542668967504,6.39005762597861,-0.00765023941784193,0.002108,-0.000392,-0.000595,0.098886,-0.027994,315.846026,25.058909,0.999464,0.991799,0.003791,0.394894,-0.000039,-0.000019,-0.000010,-0.000015,-0.000043,-67.704134,0.000060,
2326,2548,1.4862213505743,-2.10668679786172,-0.0241318681050302,0.002364,-0.000562,-0.001858,0.114716,-0.029265,322.052973,23.982559,0.999064,0.985438,0.004718,0.404335,-0.000029,-0.000017,-0.000014,-0.000008,-0.000038,-57.329265,0.000049,
2416,2983,3.3633004448595,7.36903236455339,-0.00835442507604967,0.002461,-0.000652,-0.001993,0.120112,-0.047469,315.142493,25.220551,0.999866,0.994640,0.003159,0.388587,-0.000037,-0.000016,-0.000005,-0.000015,-0.000038,-77.682640,0.000055,
2206,3268,-1.2482328678251,13.5352696309511,0.00996960947242087,0.002711,-0.000357,-0.002388,0.132479,-0.024806,310.815835,24.978752,0.999524,0.993946,0.003235,0.386914,-0.000023,-0.000017,-0.000009,-0.000011,-0.000030,-53.987138,0.000042,
2056,2623,-4.39920156369699,-0.478914171592159,-0.0290835745912545,0.002901,-0.000232,-0.007611,0.154842,-0.061475,321.655943,24.422050,0.999352,0.991365,0.003793,0.339803,-0.000044,-0.000011,-0.000011,-0.000007,-0.000047,-73.203089,0.000059,
2041,2593,-4.72020380895265,-1.13210325556675,-0.0292376944281045,0.003310,-0.000106,-0.005729,0.168196,-0.044772,322.239499,24.492542,0.999095,0.990030,0.004038,0.312499,-0.000042,-0.000005,-0.000010,-0.000002,-0.000045,-76.080364,0.000053,
2131,2923,-2.81759764254391,6.04767745808046,-0.0125403098826951,0.002707,-0.000264,-0.008428,0.149819,-0.053968,316.548619,24.466451,0.999216,0.990305,0.004061,0.353042,-0.000031,-0.000019,-0.000014,-0.000010,-0.000040,-56.106060,0.000053,
2266,2263,0.233037652172239,-8.33763782327516,0.0109916207439369,0.002410,-0.000223,-0.002989,0.120269,-0.035648,327.020138,23.719953,0.999640,0.989780,0.004303,0.240583,-0.000038,-0.000048,-0.000038,-0.000005,-0.000081,-41.053712,0.000097,
2506,2188,5.4885330504759,-9.98331090443503,0.0148263787269798,0.002468,-0.000317,-0.003139,0.124849,-0.033426,328.467793,22.280507,0.998891,0.976334,0.005971,0.298647,-0.000020,-0.000008,-0.000027,0.000014,-0.000042,-50.767194,0.000043,
2491,2098,5.18112274432158,-11.9602690702017,0.0344279937527858,0.002516,0.000053,-0.006093,0.138326,-0.058880,330.054321,22.004740,0.999618,0.985018,0.004845,0.255494,-0.000047,-0.000014,-0.000009,-0.000012,-0.000050,-76.179107,0.000065,
2281,2323,0.549014208968018,-7.02505731829776,0.00159285022255062,0.002703,-0.000817,-0.003010,0.133704,-0.067587,325.966634,23.691154,0.998957,0.984010,0.005217,0.291019,-0.000038,-0.000006,-0.000020,0.000003,-0.000047,-64.095745,0.000053,
2101,2788,-3.44804467348958,3.11324780291872,-0.0250063670503096,0.002766,-0.000613,-0.002043,0.133105,-0.047334,318.758551,24.396870,0.999556,0.991945,0.003729,0.357895,-0.000055,-0.000024,-0.000023,-0.000012,-0.000067,-62.040693,0.000085,
2026,2563,-5.04172965298945,-1.78701419277201,-0.0231871881975394,0.002731,-0.000097,-0.006489,0.143500,-0.029940,322.841454,24.481766,0.999561,0.990821,0.003728,0.372639,-0.000030,-0.000004,-0.000005,-0.000003,-0.000031,-80.311570,0.000038,
2071,2713,-4.08839999330057,1.48161260936229,-0.0359819898914111,0.002709,-0.000650,-0.001090,0.127596,-0.045137,320.030735,24.397386,0.999251,0.991144,0.003833,0.351931,-0.000031,-0.000012,-0.000019,0.000000,-0.000043,-58.630798,0.000050,
2176,3148,-1.87738289653879,10.9312539791975,0.0231578832290324,0.002501,-0.000795,-0.001374,0.119204,-0.056761,312.972979,24.761305,0.999402,0.994050,0.003459,0.320349,-0.000043,-0.000007,-0.000010,-0.000005,-0.000046,-75.486574,0.000056,
2161,3103,-2.19505510913584,9.95428316366634,0.0206663240838338,0.002503,-0.000470,-0.004079,0.127699,-0.037378,313.749644,24.640024,0.999587,0.994446,0.003148,0.369689,-0.000049,-0.000016,-0.000018,-0.000008,-0.000057,-66.757320,0.000071,
2011,2563,-5.36777713282413,-1.78775080079247,-0.0226931590087815,0.002650,-0.000399,-0.004569,0.134211,-0.045364,322.931787,24.490200,0.999350,0.988600,0.004152,0.370065,-0.000030,0.000005,-0.000011,0.000009,-0.000033,-73.664678,0.000034,
2341,2578,1.80758699698184,-1.45204350446882,-0.0202779992060869,0.002120,-0.000467,-0.004298,0.112061,-0.049326,321.591738,24.058548,0.999140,0.986848,0.004404,0.358861,-0.000029,-0.000007,-0.000018,0.000004,-0.000040,-60.952236,0.000044,
2446,3163,3.98267190052441,11.2799549689208,0.0245703523395377,0.002493,-0.000299,-0.002082,0.122275,-0.026766,312.517656,26.010484,0.999601,0.991715,0.003760,0.313876,-0.000020,0.000005,0.000008,0.000007,-0.000022,74.073368,0.000023,
2386,2803,2.74377118780299,3.45432581345698,-0.0372519216588216,0.002762,-0.000486,-0.003350,0.138707,-0.041636,317.828340,24.635037,0.999865,0.995526,0.003192,0.385636,-0.000036,-0.000001,-0.000014,0.000004,-0.000041,-70.465900,0.000045,
2356,2653,2.12014176652841,0.184887401851313,-0.0252294403781548,0.002409,-0.000076,-0.005649,0.130451,-0.027812,320.350010,24.252420,0.999324,0.987816,0.004490,0.364290,-0.000028,-0.000002,-0.000024,0.000013,-0.000042,-58.885917,0.000044,
2461,3283,4.28196140135515,13.8861185711476,-0.00798645103049012,0.002704,-0.000451,0.000175,0.123515,-0.036544,310.302824,26.464340,0.999483,0.992656,0.003522,0.341047,0.000033,-0.000055,0.000026,0.000040,-0.000062,15.221397,0.000063,
2116,2878,-3.13682637712725,5.06950909649699,-0.0162788741590703,0.002440,-0.000586,-0.000442,0.113408,-0.054987,317.279383,24.426148,0.999552,0.992764,0.003611,0.351719,-0.000037,-0.000005,-0.000017,0.000003,-0.000044,-66.893749,0.000049,
2311,2413,1.1863306226485,-5.05720884372202,-0.00205470318167045,0.002416,0.000055,-0.005908,0.130957,-0.050384,324.449797,23.723559,0.999450,0.988768,0.004428,0.364821,-0.000024,-0.000016,-0.000010,-0.000009,-0.000032,-55.641050,0.000043,
2041,2608,-4.72290269865587,-0.805824309333993,-0.0305114073997288,0.002898,-0.000191,-0.006870,0.152412,-0.039320,321.970852,24.428326,0.999014,0.988690,0.004323,0.375148,-0.000044,-0.000003,-0.000012,0.000000,-0.000048,-74.688447,0.000055,
2146,2998,-2.50372712494529,7.67617155060982,0.0018242472848442,0.002556,-0.000101,-0.008439,0.143337,-0.027939,315.378575,24.517020,0.999624,0.993746,0.003351,0.395744,-0.000036,-0.000010,-0.000008,-0.000008,-0.000039,-74.850605,0.000050,
2506,2203,5.48536005840029,-9.65551215203055,0.0203285936132147,0.002173,-0.000574,-0.000461,0.100924,-0.037435,328.247551,22.302814,0.998877,0.974920,0.006151,0.335720,-0.000013,-0.000028,-0.000036,0.000016,-0.000057,-39.223181,0.000058,
2401,2953,3.04224677367977,6.71655704339593,-0.0126164389157566,0.002270,-0.000826,-0.000327,0.105162,-0.047505,315.565553,25.122999,0.999562,0.992249,0.003691,0.356440,-0.000036,-0.000019,-0.000006,-0.000017,-0.000038,-72.421420,0.000056,
2026,2578,-5.04447699247121,-1.4592592995952,-0.0288251326671798,0.002661,0.000016,-0.005061,0.136352,-0.024837,322.544616,24.504645,0.999201,0.989887,0.004114,0.345957,-0.000035,-0.000001,-0.000006,0.000000,-0.000036,-79.868509,0.000042,
2416,2998,3.36057929386427,7.69509909417637,-0.00600903710488865,0.002517,-0.000882,-0.001800,0.121885,-0.059984,314.918584,25.301111,0.999525,0.989868,0.003924,0.342421,-0.000035,-0.000017,-0.000002,-0.000016,-0.000035,-82.669565,0.000053,
2086,2833,-3.78059573897712,4.09100590872359,-0.0201544198396277,0.002635,-0.000433,-0.003764,0.132109,-0.036500,318.141442,24.424275,0.999751,0.995320,0.002955,0.326166,-0.000048,-0.000014,-0.000025,-0.000001,-0.000061,-62.458399,0.000070,
2056,2638,-4.40202691766116,-0.152088088075836,-0.0283781065533617,0.002657,-0.000655,-0.002541,0.129237,-0.055513,321.393480,24.433989,0.999240,0.990444,0.004019,0.328910,-0.000038,-0.000008,-0.000010,-0.000005,-0.000041,-73.678770,0.000051,
2191,3223,-1.56464794138074,12.5579517937875,0.0325366414489281,0.002433,-0.000861,0.001764,0.106309,-0.042747,311.761820,24.909563,0.999695,0.995220,0.003052,0.316527,-0.000035,-0.000006,-0.000018,0.000002,-0.000044,-64.796870,0.000049,
2491,2113,5.17821412374453,-11.6327646218747,0.0408750317812974,0.002396,-0.000455,-0.003207,0.121607,-0.062728,329.849857,21.979042,0.999643,0.985244,0.004820,0.339141,-0.000048,-0.000012,-0.000011,-0.000009,-0.000051,-74.369735,0.000065,
2131,2938,-2.81942786607479,6.37347329384498,-0.00363778295417205,0.002902,-0.000447,-0.006427,0.152777,-0.047842,316.381568,24.529256,0.999590,0.993074,0.003578,0.301064,-0.000033,-0.000014,-0.000015,-0.000006,-0.000041,-61.804092,0.000051,
2251,2188,-0.0811325952337505,-9.97868261263667,0.00352429352284389,0.002652,-0.000562,-0.003909,0.134114,-0.047699,328.205250,23.686572,0.999513,0.989485,0.004386,0.199256,-0.000044,-0.000033,-0.000026,-0.000012,-0.000065,-50.679700,0.000083,
2296,2383,0.864559062629422,-5.71163817565957,-0.00832531217594124,0.002454,-0.000039,-0.007926,0.139245,-0.060554,324.902806,23.783664,0.998999,0.983047,0.005209,0.275794,-0.000037,-0.000027,-0.000018,-0.000014,-0.000051,-52.638883,0.000068,
2371,2713,2.43432763835613,1.49345440720711,-0.03482842836911,0.002313,-0.000836,-0.003725,0.119102,-0.064523,319.286819,24.401849,0.999519,0.991705,0.003620,0.335289,-0.000031,0.000009,-0.000029,0.000024,-0.000046,-62.423813,0.000046,
2071,2728,-4.09008604104003,1.8078985993683,-0.0353635956457197,0.003016,-0.000160,-0.006142,0.156361,-0.037389,319.821311,24.385112,0.999288,0.990414,0.003921,0.368797,-0.000038,-0.000012,-0.000021,0.000000,-0.000050,-60.560454,0.000058,
2266,2278,0.229925373543562,-8.00934801887208,-0.000579146842142109,0.002685,-0.000385,-0.004523,0.137890,-0.057712,326.699723,23.654078,0.999509,0.987502,0.004580,0.312466,-0.000034,-0.000034,-0.000036,0.000002,-0.000070,-44.888300,0.000079,
2461,3298,4.2792161227834,14.2112377932069,-0.0091533559679533,0.002650,-0.000241,-0.004955,0.140611,-0.019243,310.063411,26.484165,0.999481,0.993872,0.003420,0.391562,0.000037,-0.000058,0.000024,0.000043,-0.000063,13.264047,0.000064,
2326,2563,1.48389527074761,-1.7790016645612,-0.0231805102103522,0.002567,-0.000388,-0.004339,0.132660,-0.033498,321.835288,24.066670,0.998768,0.984819,0.004902,0.351373,-0.000031,-0.000005,-0.000017,0.000003,-0.000040,-63.726690,0.000044,
2281,2338,0.546819299039953,-6.69574601326695,-0.00729707917264477,0.003354,0.000276,-0.009844,0.186764,-0.056112,325.702729,23.736019,0.999099,0.985886,0.004820,0.287453,-0.000041,-0.000010,-0.000019,-0.000001,-0.000050,-64.227493,0.000058,
2206,3283,-1.25088120532583,13.8605991678659,0.00676313337118017,0.002883,-0.000612,-0.002838,0.141767,-0.038095,310.552217,25.028546,0.999346,0.993416,0.003314,0.338886,-0.000029,-0.000020,-0.000009,-0.000014,-0.000035,-58.475574,0.000050,
2011,2578,-5.37117317252994,-1.46091157147877,-0.0248756718075924,0.001681,-0.000645,-0.003323,0.086134,-0.060578,322.623611,24.479336,0.999016,0.986961,0.004693,0.354786,-0.000032,0.000005,-0.000014,0.000009,-0.000036,-70.885577,0.000038,
2506,2218,5.48193115851244,-9.32648834319315,0.0151950945273711,0.002277,-0.000826,-0.000779,0.106830,-0.065246,327.968154,22.354674,0.999027,0.976102,0.005938,0.319800,-0.000010,-0.000040,-0.000023,0.000002,-0.000053,-28.277138,0.000060,
2176,3163,-1.87915452916052,11.2561174320497,0.0320005551779445,0.002774,-0.000889,-0.000305,0.128391,-0.066606,312.810992,24.803414,0.999817,0.996725,0.002770,0.279302,-0.000042,-0.000009,-0.000013,-0.000004,-0.000046,-71.292784,0.000056,
2101,2803,-3.45084623130608,3.43936427945832,-0.0275524112367975,0.002585,-0.000922,-0.001285,0.122447,-0.068226,318.483287,24.395351,0.999435,0.992561,0.003615,0.339452,-0.000054,-0.000026,-0.000021,-0.000015,-0.000066,-61.740692,0.000086,
2431,3088,3.67118622157509,9.65021861664582,0.0199905603845991,0.002588,-0.000459,-0.001898,0.125820,-0.031946,313.687877,25.663775,0.999698,0.993756,0.003339,0.344433,-0.000033,0.000017,0.000003,0.000017,-0.000033,86.458068,0.000033,
2041,2623,-4.72493443097242,-0.479106811592338,-0.0323921662798625,0.003152,0.000074,-0.008668,0.169182,-0.060879,321.729343,24.430724,0.999028,0.988755,0.004329,0.344334,-0.000050,-0.000010,-0.000020,-0.000002,-0.000058,-67.927494,0.000068,
2356,2668,2.11718449045418,0.511312195196922,-0.0239738007263099,0.002416,-0.000428,-0.002773,0.120547,-0.036818,320.107034,24.261166,0.999498,0.990196,0.004070,0.385844,-0.000029,0.000002,-0.000026,0.000017,-0.000044,-60.097848,0.000044,
2386,2818,2.74098203707216,3.78074300833583,-0.0331753382810689,0.002667,-0.000586,-0.001845,0.128907,-0.048181,317.608112,24.707520,0.999686,0.992459,0.003685,0.349636,-0.000039,-0.000005,-0.000012,-0.000001,-0.000042,-72.452725,0.000050,
2236,2128,-0.396972197248285,-11.2947417184333,0.0130734806828059,0.002731,0.000118,-0.006562,0.146391,-0.033399,329.292177,23.615356,0.998889,0.981747,0.005324,0.265728,-0.000037,-0.000019,-0.000024,-0.000002,-0.000054,-54.935098,0.000063,
2401,2968,3.04045267145385,7.04187669588181,0.00130343486989659,0.002297,-0.000991,-0.000279,0.106217,-0.050386,315.438277,25.197248,0.999866,0.995205,0.003133,0.323822,-0.000039,-0.000018,-0.000004,-0.000017,-0.000039,-78.657836,0.000058,
2161,3118,-2.19706068375799,10.2799231567927,0.0217079893316168,0.002840,-0.000339,-0.006041,0.149300,-0.037868,313.534651,24.685917,0.999537,0.994368,0.003217,0.332509,-0.000050,-0.000014,-0.000017,-0.000007,-0.000057,-67.766744,0.000070,
2446,3178,3.9796833385002,11.605720501721,0.0210438031527929,0.002674,-0.000501,-0.003496,0.135825,-0.041708,312.255495,26.074937,0.999643,0.992211,0.003556,0.285403,-0.000017,0.000004,0.000005,0.000005,-0.000018,77.751776,0.000018,
2476,1993,4.87515390648176,-14.2663557665128,0.0403240061336305,0.002960,0.000038,-0.002512,0.144778,-0.017674,331.761617,21.710412,0.998655,0.971633,0.006344,0.262028,-0.000081,-0.000031,0.000037,-0.000011,-0.000101,61.881953,0.000123,
2026,2593,-5.04696388519082,-1.13166662421563,-0.0372691552217361,0.002886,-0.000057,-0.005873,0.148961,-0.033109,322.244144,24.507174,0.999044,0.990063,0.004241,0.326463,-0.000039,-0.000003,-0.000002,-0.000003,-0.000039,-87.322427,0.000047,
2341,2593,1.80489158181147,-1.12429815089654,-0.0217257664940576,0.002571,-0.000875,-0.001438,0.122686,-0.057884,321.346533,24.141073,0.999367,0.988794,0.004173,0.305355,-0.000028,-0.000015,-0.000018,-0.000003,-0.000041,-54.691332,0.000048,
2056,2653,-4.40470921234773,0.174806707804166,-0.0361976964360338,0.002742,-0.000555,-0.002985,0.134400,-0.055881,321.090622,24.391615,0.999364,0.991010,0.003950,0.366331,-0.000041,-0.000011,-0.000011,-0.000008,-0.000044,-71.981750,0.000056,
2116,2893,-3.13966174549045,5.39624631544662,-0.0230927511014443,0.002460,-0.000468,-0.000940,0.115851,-0.049477,316.980552,24.451161,0.999429,0.992606,0.003865,0.335188,-0.000036,-0.000009,-0.000016,-0.000001,-0.000043,-65.023774,0.000051,
2206,3298,-1.25442658428316,14.1851768776927,0.00101446949980755,0.002499,-0.000872,-0.000913,0.117750,-0.056615,310.234406,25.004793,0.999357,0.993837,0.003200,0.359184,-0.000021,-0.000014,-0.000019,0.000001,-0.000037,-50.668667,0.000042,
2506,2233,5.47923424477058,-8.99620413838421,0.0141985903223372,0.002357,-0.000190,-0.005991,0.130820,-0.061002,327.740406,22.538376,0.998961,0.980559,0.005496,0.203900,-0.000008,-0.000005,-0.000010,0.000004,-0.000017,-48.364888,0.000017,
2191,3238,-1.56626377087922,12.8817354174966,0.0390019119494127,0.002645,-0.000776,-0.003033,0.131158,-0.057792,311.595710,24.859406,0.999757,0.995202,0.002955,0.364983,-0.000034,-0.000013,-0.000022,0.000001,-0.000047,-57.714856,0.000054,
2491,2128,5.17539609218435,-11.3045932810847,0.0479980318380626,0.002247,-0.000784,-0.001138,0.106766,-0.065058,329.652457,22.024495,0.999642,0.988544,0.004447,0.352899,-0.000039,-0.000016,-0.000005,-0.000015,-0.000040,-78.462431,0.000057,
2071,2743,-4.09226637283092,2.13316024079869,-0.0294039585800192,0.002879,-0.000539,-0.005085,0.146863,-0.065891,319.618914,24.361974,0.999417,0.991548,0.003750,0.360385,-0.000042,-0.000014,-0.000014,-0.000008,-0.000048,-67.532917,0.000060,
2311,2428,1.18279971663927,-4.72781136346044,-0.00933096503092656,0.002590,-0.000214,-0.000589,0.120735,-0.023674,324.135294,23.811202,0.999642,0.990660,0.003993,0.337885,-0.000022,-0.000025,-0.000016,-0.000007,-0.000040,-43.074791,0.000051,
2131,2953,-2.82217454498707,6.69868219039224,-0.00207323285883376,0.002720,-0.000368,-0.003484,0.135615,-0.032244,316.133418,24.480496,0.999631,0.993160,0.003394,0.370642,-0.000034,-0.000020,-0.000016,-0.000010,-0.000045,-56.502834,0.000059,
2251,2203,-0.083918974221298,-9.65193608898056,0.00296320764596203,0.002529,-0.000289,-0.003768,0.128143,-0.028753,327.953823,23.524328,0.999056,0.984991,0.004990,0.406552,-0.000044,-0.000033,-0.000029,-0.000009,-0.000068,-50.643791,0.000084,
2296,2398,0.861694074816477,-5.38371691113166,-0.00985403285272923,0.002339,0.000284,-0.009086,0.138056,-0.026750,324.646099,23.773250,0.999199,0.986310,0.004843,0.351560,-0.000033,-0.000012,-0.000016,-0.000003,-0.000042,-61.736689,0.000050,
2146,3013,-2.5058464987373,8.00239142558719,-0.000553203205470254,0.002901,-0.000015,-0.011498,0.168534,-0.037942,315.138985,24.576248,0.999485,0.991694,0.003738,0.333643,-0.000034,-0.000009,-0.000010,-0.000005,-0.000037,-71.020511,0.000046,
2266,2293,0.227134317881337,-7.68113105015454,-0.001829243704492,0.002716,-0.000625,-0.003597,0.136221,-0.054676,326.445570,23.666974,0.999426,0.985685,0.004834,0.330529,-0.000033,-0.000015,-0.000028,0.000006,-0.000054,-54.175278,0.000059,
2176,3178,-1.88127223491738,11.5799360356041,0.0409718638550203,0.002652,-0.000900,0.000196,0.121301,-0.053415,312.634154,24.729720,0.999757,0.995558,0.002971,0.377385,-0.000044,-0.000010,-0.000011,-0.000007,-0.000048,-73.365540,0.000059,
2281,2353,0.543274673033427,-6.36925868058533,0.00214998309752445,0.002605,-0.000577,0.001055,0.115757,-0.049450,325.468709,23.713310,0.999254,0.985894,0.004743,0.346223,-0.000041,-0.000015,-0.000020,-0.000004,-0.000052,-61.462059,0.000062,
2041,2638,-4.72757387269629,-0.152816752680195,-0.0267986340698485,0.002737,-0.000042,-0.004059,0.137233,-0.038054,321.501443,24.417921,0.999158,0.990486,0.004098,0.372718,-0.000045,-0.000007,-0.000017,0.000000,-0.000052,-69.407261,0.000060,
2026,2608,-5.04955036819775,-0.804376334797809,-0.0427371482120975,0.002903,-0.000262,-0.005562,0.148882,-0.016841,321.955715,24.489032,0.998977,0.988390,0.004467,0.351890,-0.000042,-0.000003,-0.000005,-0.000003,-0.000043,-82.836321,0.000051,
2476,2008,4.87054720586375,-13.9360572912817,0.0285300892887221,0.002550,-0.000546,-0.000845,0.119488,-0.036414,331.396381,21.711454,0.999199,0.977315,0.005672,0.303144,-0.000064,-0.000047,0.000038,-0.000016,-0.000094,51.282063,0.000119,
2086,2848,-3.78238841949096,4.41613692362542,-0.0169245667175346,0.002892,0.000022,-0.005843,0.150132,-0.024149,317.942933,24.355143,0.999646,0.994040,0.003261,0.406636,-0.000045,-0.000013,-0.000027,0.000002,-0.000060,-60.334558,0.000068,
2101,2818,-3.4528546727013,3.76598154198192,-0.0292175263618901,0.002862,-0.000405,-0.004927,0.146019,-0.058259,318.248921,24.420405,0.999345,0.993269,0.003557,0.325609,-0.000048,-0.000013,-0.000019,-0.000004,-0.000056,-66.211042,0.000067,
2431,3103,3.66749785988388,9.97653801632412,0.0124939848426493,0.002442,-0.000514,-0.002373,0.120866,-0.031169,313.374021,25.718036,0.999756,0.994753,0.003177,0.339941,-0.000033,0.000017,0.000008,0.000018,-0.000034,81.517446,0.000034,
2446,3193,3.97708166650086,11.9303383109756,0.0284467459283064,0.002613,-0.000753,-0.001653,0.126037,-0.045683,312.062012,26.090954,0.999668,0.992423,0.003463,0.316194,-0.000014,0.000004,0.000006,0.000006,-0.000015,72.466110,0.000016,
2416,3013,3.35755978773682,8.0214817198568,-0.00640119090718372,0.002326,-0.000717,-0.003702,0.120141,-0.058716,314.667929,25.382481,0.999370,0.988001,0.004154,0.309331,-0.000037,-0.000012,-0.000001,-0.000012,-0.000037,-86.536201,0.000051,
2221,1993,-0.699900398918263,-14.2580174556197,0.0331587963552238,0.002649,0.000171,-0.005671,0.139463,-0.021733,331.654775,23.522878,0.999681,0.989420,0.004355,0.254443,0.000007,-0.000025,-0.000026,0.000022,-0.000039,-29.197439,0.000039,
2236,2143,-0.399444132046604,-10.9656403163963,0.00668909393056083,0.002921,0.000917,-0.011997,0.172911,-0.012313,329.024061,23.580989,0.998815,0.982015,0.005229,0.345528,-0.000040,-0.000037,-0.000020,-0.000018,-0.000059,-47.400579,0.000080,
2161,3133,-2.19994772872639,10.6044574675042,0.0254361216229881,0.002561,-0.000867,-0.001350,0.121864,-0.049069,313.293767,24.661075,0.999444,0.994008,0.003421,0.354908,-0.000051,-0.000013,-0.000017,-0.000006,-0.000058,-69.589021,0.000071,
2011,2593,-5.3727310213784,-1.13320520654288,-0.0289484601697723,0.002438,-0.000052,-0.005901,0.128176,-0.047727,322.388588,24.508284,0.999079,0.988037,0.004672,0.327314,-0.000036,-0.000008,-0.000008,-0.000006,-0.000038,-75.194544,0.000048,
2401,2983,3.03731852348658,7.36801090550642,-0.00148971573463541,0.002303,-0.000790,-0.000324,0.106745,-0.042604,315.170109,25.223762,0.999692,0.992752,0.003575,0.350112,-0.000037,-0.000015,-0.000006,-0.000014,-0.000039,-74.855933,0.000054,
2506,2248,5.47576810276684,-8.66875205308244,0.0133614619429636,0.002329,-0.000466,-0.002957,0.117766,-0.054499,327.478217,22.467994,0.998907,0.981160,0.005561,0.344220,-0.000007,0.000015,-0.000013,0.000021,-0.000013,-64.607612,0.000021,
2356,2683,2.11411023276908,0.83938152512593,-0.028805936910544,0.002589,-0.000407,-0.002426,0.127288,-0.026391,319.828886,24.355717,0.999521,0.990869,0.003866,0.341061,-0.000030,0.000011,-0.000026,0.000023,-0.000042,-64.243285,0.000042,
2341,2608,1.80122565536717,-0.795956696336617,-0.0355444916733063,0.002662,-0.000609,-0.002925,0.132181,-0.034803,320.996514,24.145416,0.999415,0.987760,0.004336,0.361766,-0.000030,-0.000014,-0.000018,-0.000002,-0.000041,-57.182856,0.000049,
2371,2728,2.43211416927318,1.82063055862937,-0.0314099186755357,0.002688,-0.000382,-0.003921,0.137204,-0.045291,319.089005,24.487482,0.999552,0.991292,0.003700,0.310123,-0.000032,0.000001,-0.000024,0.000014,-0.000045,-62.325006,0.000046,
2056,2668,-4.40614596946853,0.500812338745213,-0.0270057983392462,0.002865,-0.000274,-0.006025,0.148765,-0.052607,320.938739,24.410943,0.999319,0.990568,0.004015,0.345279,-0.000043,-0.000025,-0.000010,-0.000021,-0.000048,-65.433012,0.000070,
2326,2578,1.48108394118433,-1.45211395683246,-0.0208295544612156,0.002407,-0.000519,-0.003768,0.123272,-0.043205,321.602303,24.100067,0.999251,0.988859,0.004181,0.343476,-0.000030,-0.000001,-0.000020,0.000009,-0.000040,-62.490245,0.000042,
2386,2833,2.7377157476583,4.10807295504211,-0.0347030809800799,0.002247,-0.000086,-0.004046,0.117694,-0.030963,317.338973,24.801786,0.999548,0.988994,0.004143,0.315911,-0.000041,-0.000003,-0.000010,-0.000001,-0.000043,-76.245485,0.000050,
2311,2443,1.18043141998897,-4.40202714709234,-0.000852575693727431,0.002434,-0.000728,0.000743,0.108880,-0.039615,323.952239,23.763873,0.999533,0.989664,0.004191,0.402684,-0.000017,-0.000029,-0.000011,-0.000010,-0.000036,-31.132927,0.000049,
2086,2863,-3.78472484222989,4.74295322156238,-0.0195083714955899,0.003072,-0.000039,-0.006498,0.160310,-0.026614,317.687332,24.416451,0.999403,0.991520,0.003888,0.341710,-0.000041,-0.000012,-0.000026,0.000003,-0.000056,-59.588890,0.000063,
2476,2023,4.86735371249042,-13.6055127377031,0.028259874477385,0.002409,-0.000238,-0.001420,0.115386,-0.027982,331.147664,21.845085,0.999461,0.982676,0.005096,0.238266,-0.000044,-0.000029,0.000024,-0.000011,-0.000062,53.670313,0.000079,
2146,3028,-2.50830843713517,8.32732048419055,0.00462779030510774,0.002987,-0.000343,-0.005720,0.154845,-0.039910,314.924272,24.563339,0.999477,0.991906,0.003696,0.351668,-0.000033,-0.000006,-0.000011,-0.000003,-0.000037,-70.632001,0.000044,
2506,2263,5.47220978601839,-8.33930781800663,0.0105578395817929,0.002600,-0.001246,0.002464,0.108941,-0.068499,327.202862,22.585595,0.998629,0.977912,0.005786,0.276315,-0.000015,0.000000,-0.000018,0.000012,-0.000027,-56.766512,0.000027,
2266,2308,0.224835952027931,-7.35316835495804,0.00367317458216121,0.002658,-0.000268,-0.003944,0.134834,-0.013456,326.247654,23.691171,0.998936,0.983409,0.005261,0.374901,-0.000036,-0.000009,-0.000022,0.000004,-0.000049,-60.672591,0.000054,
2011,2608,-5.3758075182727,-0.805022027784752,-0.0423236996092555,0.002588,-0.000650,-0.002524,0.125775,-0.047386,322.031834,24.519035,0.999581,0.992486,0.003703,0.306083,-0.000043,-0.000014,-0.000011,-0.000011,-0.000047,-72.085347,0.000061,
2491,2143,5.17072218098162,-10.97157246951,0.0278447999104401,0.002433,-0.000854,-0.000643,0.113340,-0.053426,329.247161,22.210103,0.999047,0.982451,0.005394,0.241762,-0.000033,0.000006,-0.000005,0.000006,-0.000034,-82.410509,0.000036,
2026,2623,-5.05112612198081,-0.479063846540967,-0.032807815538149,0.002976,-0.000111,-0.005665,0.152548,-0.031676,321.800053,24.457060,0.999019,0.988513,0.004493,0.359699,-0.000048,-0.000009,-0.000014,-0.000005,-0.000052,-72.270239,0.000063,
2041,2653,-4.73051268127863,0.174791920323777,-0.0397348680430696,0.002787,-0.000084,-0.005487,0.143527,-0.040339,321.156861,24.399614,0.999335,0.991034,0.003929,0.382020,-0.000050,-0.000010,-0.000018,-0.000003,-0.000057,-68.648782,0.000067,
2431,3118,3.66426787861993,10.3032286523274,0.0016053659637123,0.002924,-0.000394,-0.004142,0.149663,-0.032494,313.065271,25.792487,0.999813,0.995829,0.002942,0.313312,-0.000027,0.000016,0.000007,0.000017,-0.000028,80.487219,0.000028,
2071,2758,-4.0946613254942,2.45992254215867,-0.0338733547786774,0.003055,-0.000490,-0.006081,0.157827,-0.062888,319.349044,24.366509,0.999437,0.992510,0.003653,0.355860,-0.000038,-0.000020,-0.000015,-0.000011,-0.000046,-60.523861,0.000061,
2176,3193,-1.8830664034078,11.9034154617436,0.0518288533405666,0.002497,-0.000689,-0.002710,0.123199,-0.057079,312.482237,24.655127,0.999804,0.996620,0.002809,0.459449,-0.000047,-0.000020,-0.000013,-0.000015,-0.000052,-68.355984,0.000070,
2296,2413,0.859027577578203,-5.05591369369244,-0.00963666629201043,0.002576,-0.000127,-0.006497,0.140041,-0.046550,324.407313,23.827287,0.999306,0.987586,0.004627,0.309185,-0.000029,-0.000014,-0.000018,-0.000003,-0.000041,-56.310311,0.000049,
2281,2368,0.540444488266093,-6.04185633826668,0.00584335525644519,0.002187,-0.000632,0.000896,0.097097,-0.045687,325.238612,23.724890,0.999136,0.983654,0.005054,0.367960,-0.000043,-0.000023,-0.000022,-0.000009,-0.000057,-57.306422,0.000071,
2446,3208,3.97393579711111,12.2558570859068,0.0260859213573781,0.002479,-0.000382,-0.003813,0.128108,-0.029949,311.797913,26.116667,0.999570,0.991300,0.003733,0.357127,-0.000009,-0.000009,0.000002,-0.000007,-0.000011,51.790716,0.000018,
2191,3253,-1.56980701099706,13.2074823819204,0.0280971234967637,0.002533,-0.000621,-0.001860,0.122417,-0.035288,311.249529,24.858928,0.999692,0.994683,0.003065,0.400864,-0.000032,-0.000015,-0.000018,-0.000003,-0.000043,-57.551370,0.000052,
2116,2908,-3.14122389644361,5.72169109394809,-0.0131945299014546,0.002578,-0.000289,-0.002879,0.127228,-0.022042,316.830409,24.460831,0.999258,0.991369,0.003987,0.356169,-0.000033,-0.000021,-0.000017,-0.000009,-0.000045,-54.626656,0.000058,
2401,2998,3.03426568856665,7.69511038526813,-0.00870603292133865,0.002364,-0.000445,-0.005188,0.127256,-0.055673,314.884464,25.334545,0.999544,0.990682,0.003947,0.271160,-0.000033,-0.000015,-0.000005,-0.000014,-0.000034,-76.174825,0.000050,
2161,3148,-2.20312013801435,10.9300494795972,0.0212228597543458,0.002279,-0.000822,-0.000423,0.105962,-0.058905,312.997400,24.687452,0.999406,0.993323,0.003602,0.327509,-0.000049,-0.000010,-0.000016,-0.000005,-0.000055,-70.351036,0.000066,
2131,2968,-2.82448683474588,7.02458730885997,-0.00264221997389313,0.002819,-0.000426,-0.005082,0.144980,-0.041703,315.893596,24.509839,0.999754,0.994867,0.002962,0.336923,-0.000030,-0.000017,-0.000018,-0.000005,-0.000043,-55.203589,0.000052,
2416,3028,3.35429201732954,8.34703616279702,-0.00356566215361909,0.002190,-0.001127,0.001436,0.094967,-0.052205,314.421143,25.407948,0.999496,0.989684,0.003968,0.337112,-0.000037,-0.000005,-0.000002,-0.000005,-0.000037,-85.683595,0.000045,
2221,2008,-0.704005874529816,-13.9273937256953,0.0245999816715425,0.002096,-0.000661,-0.000237,0.096529,-0.034729,331.299671,23.582112,0.999644,0.988323,0.004580,0.205539,-0.000014,-0.000004,-0.000022,0.000013,-0.000032,-51.377812,0.000032,
2101,2833,-3.45530996185606,4.09175116600331,-0.0264239889584132,0.002803,-0.000788,-0.002391,0.135773,-0.071279,318.018513,24.428834,0.999606,0.994266,0.003269,0.305289,-0.000050,-0.000013,-0.000020,-0.000004,-0.000059,-66.588442,0.000070,
2236,2158,-0.403167767745433,-10.6365886039512,0.00322161631902418,0.002531,-0.000248,-0.005209,0.132747,-0.067958,328.713847,23.656261,0.998705,0.983593,0.005196,0.238657,-0.000039,-0.000037,-0.000017,-0.000021,-0.000055,-46.244116,0.000079,
2056,2683,-4.40810068702865,0.826574811709655,-0.0221396445808182,0.002823,-0.000296,-0.007697,0.151570,-0.044068,320.739400,24.370478,0.999381,0.991633,0.003847,0.389037,-0.000048,-0.000021,-0.000008,-0.000018,-0.000051,-74.293672,0.000071,
2341,2623,1.79868530485358,-0.470044391360233,-0.0251766624093648,0.002387,-0.000886,0.000297,0.108218,-0.041897,320.815989,24.169755,0.999371,0.988621,0.004213,0.367191,-0.000029,-0.000007,-0.000018,0.000003,-0.000040,-60.709979,0.000044,
2506,2278,5.46888114204684,-8.01041746139551,0.0064012112171099,0.002465,-0.000788,-0.000813,0.115601,-0.069984,326.931922,22.631845,0.998756,0.979004,0.005498,0.291847,-0.000013,-0.000001,-0.000010,0.000005,-0.000019,-60.432686,0.000020,
2011,2623,-5.37710804458249,-0.480229214279696,-0.0304982704833492,0.002842,-0.000721,-0.001998,0.136032,-0.042083,321.898665,24.435147,0.999571,0.992671,0.003599,0.383722,-0.000049,-0.000020,-0.000018,-0.000012,-0.000057,-64.741049,0.000074,
2146,3043,-2.51119250027613,8.65276371905077,0.0062893278042111,0.002738,-0.000647,-0.002182,0.132627,-0.030487,314.671280,24.566673,0.999524,0.993584,0.003233,0.364695,-0.000035,-0.000008,-0.000013,-0.000002,-0.000040,-67.833078,0.000047,
2371,2743,2.42938926981082,2.14684072985088,-0.0318928072825884,0.002921,-0.000653,-0.003242,0.145398,-0.053561,318.849267,24.484859,0.999514,0.990826,0.003730,0.345946,-0.000033,0.000005,-0.000019,0.000013,-0.000041,-67.329264,0.000042,
2041,2668,-4.73209584321309,0.500589292826355,-0.0341330430449602,0.002953,-0.000051,-0.008732,0.160205,-0.055752,320.977644,24.388575,0.999346,0.989732,0.004152,0.370318,-0.000053,-0.000026,-0.000019,-0.000017,-0.000063,-62.914530,0.000084,
2251,2218,-0.0858705742548125,-9.32355065689165,0.00840508775121407,0.002655,-0.000327,-0.006110,0.141566,-0.044112,327.770759,23.613516,0.998569,0.979465,0.005710,0.327601,-0.000043,-0.000036,-0.000032,-0.000007,-0.000071,-48.276156,0.000087,
2476,2038,4.86427165530691,-13.2766716006801,0.0275553749717119,0.002310,0.000179,-0.003055,0.117206,-0.023299,330.902115,21.827770,0.999389,0.980835,0.005453,0.320493,-0.000038,-0.000044,0.000027,-0.000013,-0.000068,42.030833,0.000088,
2386,2848,2.73563035057437,4.43300471961604,-0.0257873596488594,0.002465,-0.000724,-0.002631,0.122453,-0.040930,317.174379,24.785161,0.999484,0.990510,0.003917,0.365181,-0.000044,0.000000,-0.000010,0.000002,-0.000046,-77.982814,0.000052,
2356,2698,2.11144239840613,1.16448405738612,-0.0223132192394928,0.002500,-0.000962,0.000731,0.111880,-0.039009,319.624635,24.298698,0.999515,0.991960,0.003677,0.424575,-0.000031,0.000010,-0.000024,0.000021,-0.000042,-65.256084,0.000042,
2446,3223,3.97038980759705,12.5813651921788,0.024289379452739,0.002170,-0.000591,-0.002666,0.109495,-0.043481,311.517902,26.178074,0.999518,0.992054,0.003726,0.332836,-0.000006,-0.000016,0.000002,-0.000005,-0.000016,12.517355,0.000023,
2086,2878,-3.7873598592126,5.06752674239495,-0.0133792781092552,0.002670,-0.000581,-0.002877,0.131086,-0.047968,317.466276,24.359173,0.999398,0.992029,0.003843,0.376181,-0.000040,-0.000005,-0.000024,0.000007,-0.000052,-63.320741,0.000056,
2026,2638,-5.05326093739127,-0.153780619508673,-0.0230900094422282,0.002539,-0.000019,-0.005221,0.131173,-0.040270,321.617659,24.417734,0.999151,0.991253,0.004001,0.380997,-0.000043,-0.000007,-0.000011,-0.000004,-0.000046,-74.459873,0.000056,
2191,3268,-1.57332801187104,13.5328700699627,0.0169383682808188,0.002464,-0.000665,-0.000633,0.115361,-0.042116,310.903139,24.858413,0.999477,0.992712,0.003481,0.407661,-0.000029,-0.000009,-0.000014,-0.000002,-0.000036,-62.554248,0.000043,
2326,2593,1.47825676607371,-1.12495039809333,-0.0201410782702283,0.002688,-0.000687,0.001189,0.119064,-0.028152,321.360295,24.124038,0.999631,0.992068,0.003638,0.369510,-0.000030,-0.000010,-0.000020,0.000002,-0.000042,-58.035055,0.000048,
2221,2023,-0.706117573469921,-13.5981928777111,0.0199376797175432,0.002579,-0.000193,-0.004359,0.131996,-0.053575,331.055718,23.567942,0.999055,0.983194,0.005252,0.223387,-0.000025,0.000011,-0.000018,0.000019,-0.000033,-67.385858,0.000033,
2491,2158,5.1668879316872,-10.6422671367551,0.0220030673591509,0.002010,-0.000500,-0.002696,0.102012,-0.050665,328.944733,22.226303,0.998996,0.980960,0.005566,0.290304,-0.000034,-0.000022,-0.000014,-0.000013,-0.000044,-56.519003,0.000059,
2161,3163,-2.20495617919298,11.2553758350676,0.025574921701093,0.002593,-0.000518,-0.002002,0.125508,-0.032370,312.807773,24.708838,0.999591,0.993733,0.003344,0.341583,-0.000046,-0.000011,-0.000018,-0.000003,-0.000054,-66.922548,0.000064,
2071,2773,-4.0966468628184,2.78586562288874,-0.0272551375783223,0.003017,-0.000433,-0.005979,0.155854,-0.053843,319.158913,24.381598,0.999376,0.991151,0.003865,0.346576,-0.000036,-0.000023,-0.000019,-0.000010,-0.000050,-54.290158,0.000064,
2056,2698,-4.41103704243065,1.15374035788396,-0.0266757205056365,0.002622,-0.000109,-0.005494,0.136162,-0.028217,320.442904,24.378597,0.999271,0.991586,0.003810,0.391885,-0.000036,-0.000024,-0.000009,-0.000020,-0.000041,-62.611038,0.000061,
2236,2173,-0.405490569850588,-10.3086371183125,0.0101147703897482,0.002479,-0.000399,-0.002928,0.122983,-0.058723,328.520088,23.681840,0.998802,0.985099,0.005020,0.246107,-0.000040,-0.000031,-0.000014,-0.000021,-0.000051,-53.434725,0.000073,
2431,3133,3.66172727696673,10.6278142553344,0.00711990195833323,0.002875,-0.000507,-0.004542,0.148788,-0.045624,312.865274,25.790853,0.999711,0.993836,0.003240,0.350513,-0.000024,0.000010,0.000002,0.000010,-0.000024,86.816407,0.000024,
2296,2428,0.856341259572883,-4.72819657759202,-0.00766320630219752,0.002612,-0.000106,-0.004580,0.135243,-0.023399,324.176114,23.852080,0.999508,0.989386,0.004259,0.339127,-0.000026,-0.000025,-0.000026,0.000000,-0.000051,-45.802159,0.000059,
2011,2638,-5.37977090129887,-0.152415567132074,-0.0402137274039092,0.002729,-0.000173,-0.006381,0.142865,-0.045849,321.581503,24.458285,0.999040,0.987660,0.004433,0.345689,-0.000046,-0.000020,-0.000014,-0.000013,-0.000052,-66.241003,0.000069,
2341,2638,1.79636102932326,-0.143471765303715,-0.0206816047224265,0.002315,-0.000520,-0.002538,0.114885,-0.055346,320.616746,24.214506,0.999354,0.988632,0.004231,0.346282,-0.000030,-0.000004,-0.000020,0.000007,-0.000041,-61.061281,0.000044,
2176,3208,-1.88680317568217,12.2311218022138,0.0342484609489588,0.002588,-0.000659,-0.001865,0.124854,-0.043785,312.090047,24.790924,0.999662,0.995186,0.003067,0.347621,-0.000045,-0.000017,-0.000013,-0.000012,-0.000050,-68.516346,0.000065,
2311,2458,1.17696662220193,-4.07365313510443,-0.00822863526707351,0.002431,-0.001126,0.002750,0.101740,-0.037611,323.640452,23.792348,0.999475,0.988867,0.004326,0.409969,-0.000021,-0.000021,-0.000006,-0.000015,-0.000027,-44.060474,0.000042,
2401,3013,3.03157782361864,8.02059427120356,-0.00682995090096483,0.002517,-0.000561,-0.004329,0.131176,-0.052820,314.658941,25.346721,0.999522,0.990315,0.003902,0.306591,-0.000034,-0.000012,-0.000004,-0.000012,-0.000035,-80.722672,0.000048,
2281,2383,0.537327967601865,-5.71237679592598,-0.0093307517824428,0.002392,-0.000242,-0.005823,0.129058,-0.059716,324.901132,23.766945,0.998965,0.983658,0.005138,0.341779,-0.000041,-0.000026,-0.000021,-0.000012,-0.000056,-54.765446,0.000072,
2101,2848,-3.45754274338857,4.41819188080148,-0.0324214746342477,0.002995,0.000357,-0.008195,0.162023,-0.020955,317.750394,24.374028,0.999757,0.994873,0.003057,0.411634,-0.000048,-0.000012,-0.000022,-0.000001,-0.000059,-65.003923,0.000069,
2041,2683,-4.73498212080797,0.827912970776481,-0.0392052238725,0.002750,0.000044,-0.007394,0.147172,-0.037652,320.679085,24.400156,0.999464,0.991667,0.003808,0.369886,-0.000059,-0.000025,-0.000015,-0.000019,-0.000065,-69.056142,0.000088,
2026,2653,-5.05585138045551,0.173793134433424,-0.0350912339676483,0.002832,-0.000035,-0.006879,0.149249,-0.045631,321.292656,24.406460,0.999167,0.991943,0.003832,0.377896,-0.000049,-0.000008,-0.000016,-0.000002,-0.000054,-71.288866,0.000064,
2131,2983,-2.82701062873015,7.3502128471799,-0.00466303408558133,0.002893,-0.000132,-0.005295,0.149118,-0.025273,315.636357,24.482010,0.999740,0.994796,0.003026,0.386053,-0.000032,-0.000017,-0.000014,-0.000009,-0.000040,-59.615382,0.000053,
2116,2923,-3.14335276839115,6.04716818300147,-0.0120867447546402,0.002496,0.000048,-0.007963,0.138599,-0.026418,316.607034,24.445462,0.998928,0.990210,0.004203,0.370087,-0.000031,-0.000019,-0.000012,-0.000012,-0.000039,-58.135466,0.000053,
2506,2293,5.4653554740746,-7.681941252657,0.0101080846336572,0.002006,-0.001199,0.002211,0.082731,-0.063736,326.686873,22.717450,0.999115,0.979876,0.005384,0.275860,-0.000007,-0.000005,0.000005,-0.000002,-0.000011,50.241712,0.000014,
2476,2053,4.86093682020716,-12.9473901046506,0.025450101281308,0.002376,-0.000653,-0.001230,0.113024,-0.052567,330.638742,21.874567,0.999388,0.983291,0.005191,0.304309,-0.000030,-0.000039,0.000028,-0.000007,-0.000063,40.549679,0.000076,
2371,2758,2.42588003080469,2.47420665402571,-0.0318692520716581,0.002444,-0.000476,-0.001152,0.116139,-0.046281,318.575530,24.581614,0.999230,0.987832,0.004075,0.297594,-0.000031,0.000009,-0.000014,0.000013,-0.000035,-72.706778,0.000036,
2416,3043,3.35237400562343,8.67267252463202,0.0037521823728639,0.002386,-0.000577,-0.001634,0.115451,-0.037246,314.257435,25.465432,0.999625,0.991533,0.003712,0.341574,-0.000037,0.000007,0.000003,0.000007,-0.000037,85.457293,0.000039,
2446,3238,3.96700706739963,12.9073592095134,0.0180553385131361,0.002396,-0.000495,-0.001403,0.115236,-0.036712,311.224631,26.242953,0.999624,0.993584,0.003340,0.325609,-0.000003,-0.000018,0.000005,-0.000002,-0.000020,17.195405,0.000024,
2266,2323,0.222104155260421,-7.02450209142248,0.0033369568575381,0.002767,-0.000708,-0.001957,0.133122,-0.046681,326.000807,23.800502,0.998523,0.980967,0.005730,0.259824,-0.000038,0.000002,-0.000024,0.000013,-0.000049,-64.963982,0.000050,
2146,3058,-2.51347296091268,8.97781377266157,0.00934920519381421,0.002582,-0.000487,-0.004977,0.133849,-0.052065,314.453603,24.577505,0.999550,0.994630,0.003238,0.339225,-0.000034,-0.000015,-0.000018,-0.000005,-0.000045,-59.229906,0.000055,
2221,2038,-0.709327996779738,-13.2689195960285,0.0169449692755848,0.002233,-0.000204,-0.003025,0.111882,-0.039844,330.769856,23.552997,0.998836,0.979409,0.005594,0.274624,-0.000030,0.000013,-0.000022,0.000022,-0.000039,-67.229823,0.000039,
2191,3283,-1.57563369286756,13.8579095704724,0.016103655969971,0.002500,-0.000645,-0.005338,0.131720,-0.064819,310.666659,24.902910,0.999554,0.995011,0.003079,0.353378,-0.000030,-0.000010,-0.000011,-0.000005,-0.000035,-66.363001,0.000044,
2386,2863,2.73311314226511,4.75894350728835,-0.0173431286395385,0.002385,-0.000848,-0.000032,0.109410,-0.031511,316.987345,24.841461,0.999414,0.990615,0.003857,0.361131,-0.000047,-0.000002,-0.000014,0.000002,-0.000051,-73.878145,0.000058,
2161,3178,-2.20739391761314,11.5800935376276,0.0303359244641683,0.002505,-0.000689,-0.000208,0.115927,-0.030053,312.592905,24.704037,0.999568,0.992141,0.003520,0.357503,-0.000047,-0.000012,-0.000017,-0.000004,-0.000054,-67.693115,0.000065,
2086,2893,-3.78947519838561,5.39347277240036,-0.0141512205067329,0.002854,-0.000574,-0.005172,0.146172,-0.065626,317.231004,24.377494,0.999409,0.993607,0.003654,0.338737,-0.000038,-0.000007,-0.000023,0.000005,-0.000050,-61.868985,0.000055,
2251,2233,-0.0894759302688506,-8.99476912157093,0.00269062015945565,0.002356,-0.000795,-0.002454,0.115762,-0.060713,327.455672,23.629658,0.998580,0.980745,0.005538,0.321048,-0.000043,-0.000031,-0.000036,0.000000,-0.000074,-49.925913,0.000086,
2056,2713,-4.41346816235111,1.48054660507145,-0.0303747278773017,0.002869,-0.000547,-0.003424,0.141578,-0.050415,320.174360,24.403536,0.999115,0.990537,0.003909,0.339739,-0.000030,-0.000011,-0.000010,-0.000006,-0.000034,-66.016369,0.000044,
2011,2653,-5.38199624889247,0.174003472762841,-0.0450365616703152,0.002954,-0.000121,-0.007519,0.156382,-0.040611,321.312202,24.391596,0.998808,0.987246,0.004595,0.406210,-0.000053,-0.000015,-0.000019,-0.000007,-0.000060,-67.458243,0.000074,
2071,2788,-4.09902811698898,3.11151957088246,-0.0249391131621906,0.002799,-0.000162,-0.006729,0.148018,-0.045282,318.927194,24.340854,0.999324,0.990320,0.003948,0.392675,-0.000045,-0.000023,-0.000022,-0.000010,-0.000058,-58.166263,0.000074,
2041,2698,-4.73734606200314,1.15437662427654,-0.0371203324802423,0.002644,-0.000119,-0.005899,0.138086,-0.041293,320.444439,24.418196,0.999308,0.991807,0.003795,0.340810,-0.000046,-0.000027,-0.000014,-0.000019,-0.000054,-62.197146,0.000076,
2281,2398,0.53419401333322,-5.38408315408143,-0.00929209495728855,0.002326,-0.000957,-0.000815,0.109070,-0.053028,324.638661,23.832569,0.999102,0.986157,0.004949,0.312429,-0.000039,-0.000010,-0.000018,-0.000002,-0.000047,-64.385667,0.000056,
2326,2608,1.47547174122393,-0.797124259997865,-0.0255287162419222,0.002911,-0.000528,-0.001310,0.137971,-0.033299,321.090422,24.181318,0.999520,0.990432,0.003897,0.342378,-0.000032,-0.000009,-0.000021,0.000003,-0.000044,-59.939781,0.000049,
2296,2443,0.852701645877612,-4.40130405038592,-0.0187987970390395,0.002709,-0.000714,-0.001970,0.130694,-0.041141,323.836647,23.724286,0.999575,0.989960,0.004140,0.481040,-0.000021,-0.000028,-0.000021,-0.000003,-0.000046,-40.123140,0.000055,
2446,3253,3.96420678155935,13.2322102591432,0.0206483351964835,0.002243,-0.000707,-0.003074,0.114361,-0.050776,310.999366,26.276996,0.999741,0.994737,0.003002,0.328085,0.000000,-0.000020,0.000008,0.000003,-0.000022,18.697174,0.000024,
2341,2653,1.79289471220499,0.184824181768313,-0.0315984064511667,0.002496,-0.000361,-0.002596,0.123486,-0.042669,320.289812,24.266252,0.999441,0.989919,0.004089,0.344520,-0.000032,-0.000008,-0.000022,0.000005,-0.000045,-58.895240,0.000049,
2311,2473,1.17425003826301,-3.74558672460383,-0.00858771673671299,0.002185,-0.000699,-0.001446,0.104912,-0.047598,323.397485,23.875161,0.999279,0.987583,0.004444,0.350791,-0.000018,-0.000017,-0.000006,-0.000012,-0.000023,-46.194826,0.000036,
2101,2863,-3.45948229253758,4.7434888309226,-0.0185264928196602,0.002877,-0.000262,-0.003630,0.143039,-0.033353,317.603886,24.429031,0.999591,0.993102,0.003506,0.344939,-0.000046,-0.000012,-0.000021,-0.000002,-0.000056,-64.613147,0.000065,
2236,2188,-0.407850103120584,-9.97920615974618,0.00900682789773555,0.002747,-0.000389,-0.003771,0.137974,-0.067165,328.283895,23.780104,0.999167,0.986724,0.004748,0.163054,-0.000044,-0.000031,-0.000024,-0.000012,-0.000062,-52.574711,0.000080,
2431,3148,3.65821461826892,10.9540009434399,0.00179805157648616,0.002550,-0.000329,-0.007222,0.143782,-0.054905,312.569425,25.870458,0.999653,0.993857,0.003222,0.310489,-0.000022,0.000001,0.000001,0.000001,-0.000022,86.482916,0.000025,
2506,2308,5.4625567127534,-7.35417046496958,0.0127797454985057,0.001935,-0.001023,0.000338,0.086815,-0.073107,326.470641,22.748255,0.999109,0.981474,0.005294,0.298642,-0.000003,0.000021,0.000001,0.000021,-0.000003,87.673772,0.000023,
2401,3028,3.02887409679017,8.34570773178689,-0.000918955264864962,0.002492,-0.000888,-0.001482,0.119596,-0.053914,314.451806,25.359340,0.999560,0.990594,0.003885,0.337455,-0.000032,-0.000005,-0.000004,-0.000004,-0.000033,-81.869635,0.000040,
2026,2668,-5.05775179440047,0.499325936706285,-0.0349932554662473,0.003171,-0.000577,-0.007142,0.165364,-0.087060,321.067414,24.350732,0.999199,0.991426,0.003850,0.382821,-0.000050,-0.000021,-0.000018,-0.000012,-0.000059,-64.132501,0.000077,
2476,2068,4.85845283594123,-12.6184741647314,0.0292656939028006,0.002615,-0.000743,-0.001571,0.125195,-0.067371,330.440967,21.944916,0.999265,0.981032,0.005533,0.278946,-0.000025,-0.000015,0.000021,0.000002,-0.000042,51.387315,0.000047,
2176,3223,-1.8891466984046,12.556219565829,0.0400558636197275,0.002475,-0.000810,-0.001184,0.117522,-0.042072,311.885729,24.837822,0.999727,0.995583,0.002907,0.313305,-0.000043,-0.000007,-0.000016,-0.000001,-0.000049,-68.864141,0.000057,
2191,3298,-1.5794293627006,14.1842510276928,-0.00216143163783045,0.002701,-0.000982,-0.003347,0.134637,-0.071150,310.270053,24.961514,0.999712,0.996691,0.002702,0.301252,-0.000022,0.000000,-0.000018,0.000011,-0.000032,-60.702552,0.000033,
2011,2668,-5.38352367627179,0.499743384856437,-0.0370221384388287,0.003286,-0.000325,-0.005848,0.167082,-0.044498,321.147124,24.383538,0.998979,0.988354,0.004307,0.398554,-0.000057,-0.000024,-0.000018,-0.000016,-0.000065,-65.493471,0.000086,
2491,2173,5.16500747194115,-10.3149442318719,0.0320010309321219,0.002705,-0.000779,0.001231,0.118696,-0.048079,328.803023,22.235596,0.998518,0.972522,0.006261,0.344691,-0.000032,-0.000014,-0.000019,-0.000002,-0.000044,-57.950435,0.000052,
2221,2053,-0.712301932089613,-12.9389346068851,0.0104317934356004,0.002186,-0.000031,-0.004397,0.114171,-0.024628,330.476702,23.567997,0.998918,0.978930,0.005573,0.297734,-0.000032,-0.000012,-0.000020,0.000000,-0.000044,-58.320429,0.000051,
2356,2713,2.10841195997548,1.49239803704572,-0.0251049754288033,0.002469,-0.000862,-0.000092,0.113390,-0.050475,319.358296,24.427119,0.999545,0.992123,0.003569,0.323780,-0.000030,0.000009,-0.000024,0.000020,-0.000042,-64.587822,0.000042,
2041,2713,-4.73979753926018,1.48095403903162,-0.0411397097592499,0.002750,-0.000494,-0.005624,0.142112,-0.053752,320.171943,24.410272,0.999095,0.990451,0.004108,0.329274,-0.000039,-0.000013,-0.000015,-0.000006,-0.000046,-65.421840,0.000057,
2146,3073,-2.51630350282201,9.30357911356337,0.00617813802500677,0.002795,-0.000727,-0.000156,0.128989,-0.049296,314.177253,24.593540,0.999739,0.996443,0.002834,0.332679,-0.000037,-0.000011,-0.000019,-0.000001,-0.000047,-61.461430,0.000055,
2131,2998,-2.82941041057028,7.67491226497039,0.0003700482595832,0.002658,-0.000113,-0.005063,0.137631,-0.021535,315.422873,24.433821,0.999743,0.994735,0.003114,0.443162,-0.000036,-0.000012,-0.000007,-0.000010,-0.000038,-75.874365,0.000051,
2161,3193,-2.20990370534087,11.9044586361825,0.0298088088756572,0.002490,-0.000855,-0.001553,0.119245,-0.051151,312.346903,24.662231,0.999649,0.994229,0.003144,0.387099,-0.000049,-0.000020,-0.000019,-0.000011,-0.000059,-63.037394,0.000074,
2266,2338,0.218669542825157,-6.69558205103376,-0.00826709156467587,0.002554,-0.000189,-0.005886,0.136532,-0.044553,325.665065,23.792093,0.998893,0.984213,0.005170,0.298164,-0.000041,-0.000002,-0.000023,0.000008,-0.000052,-65.105636,0.000055,
2416,3058,3.34932875014371,8.99830882782792,0.00482787979007071,0.002350,-0.000830,0.000207,0.106925,-0.053123,314.012511,25.516340,0.999634,0.992131,0.003646,0.321679,-0.000032,0.000002,0.000005,0.000003,-0.000033,82.137823,0.000037,
2386,2878,2.73038536439037,5.0861880990272,-0.0200782903735899,0.002487,-0.000393,-0.003658,0.127292,-0.025431,316.737094,24.942315,0.999459,0.992453,0.003608,0.309571,-0.000047,-0.000009,-0.000012,-0.000006,-0.000050,-73.985833,0.000062,
2071,2803,-4.10157448518239,3.43833776537902,-0.0299067347871755,0.002997,-0.000408,-0.005550,0.153698,-0.054255,318.647686,24.372581,0.999387,0.991346,0.003813,0.348654,-0.000046,-0.000025,-0.000020,-0.000013,-0.000058,-58.717332,0.000076,
2446,3268,3.95946262222348,13.5583748610542,0.00021111920631256,0.002179,-0.000692,-0.002894,0.110756,-0.046796,310.577323,26.290906,0.999720,0.994316,0.003083,0.369146,0.000010,-0.000034,0.000005,0.000011,-0.000034,6.416955,0.000035,
2506,2323,5.45934268947187,-7.02558771202498,0.00731058229837345,0.002191,-0.000682,-0.000955,0.103661,-0.050923,326.198778,22.745796,0.998854,0.984373,0.005058,0.386841,-0.000009,0.000036,0.000016,0.000041,-0.000014,72.092247,0.000042,
2056,2728,-4.41583497064232,1.80743912990474,-0.0358227334712069,0.003064,-0.000389,-0.005011,0.155090,-0.045885,319.899032,24.400771,0.999313,0.991371,0.003743,0.341964,-0.000035,-0.000009,-0.000013,-0.000003,-0.000040,-66.900529,0.000049,
2371,2773,2.42345355404052,2.80016940445208,-0.0271592910020217,0.002464,-0.000429,-0.001847,0.119565,-0.038859,318.374262,24.590272,0.999527,0.991120,0.003661,0.337287,-0.000034,-0.000003,-0.000016,0.000004,-0.000041,-66.477768,0.000045,
2476,2083,4.85434600374306,-12.2878103417272,0.0186693165053384,0.002323,-0.000277,-0.003255,0.118398,-0.038826,330.103286,21.977605,0.999354,0.981288,0.005372,0.335295,-0.000024,-0.000021,0.000012,-0.000010,-0.000034,48.871816,0.000047,
2311,2488,1.17170211384621,-3.41828973086562,-0.00491642223130384,0.002052,-0.000510,-0.002325,0.101870,-0.044401,323.182110,23.916141,0.999369,0.988614,0.004189,0.346285,-0.000021,-0.000023,-0.000012,-0.000010,-0.000034,-42.337344,0.000045,
2011,2683,-5.3858861230705,0.825183982031156,-0.0225357471114762,0.002483,-0.000397,-0.002798,0.121798,-0.035401,320.980248,24.392017,0.999810,0.996296,0.002795,0.387188,-0.000059,-0.000032,-0.000008,-0.000030,-0.000062,-74.105929,0.000093,
2116,2938,-3.1458978014982,6.37309896020098,-0.0128416271754759,0.002573,-0.000178,-0.006074,0.136484,-0.033038,316.354400,24.465009,0.999338,0.991796,0.003792,0.346669,-0.000034,-0.000014,-0.000013,-0.000008,-0.000040,-63.299818,0.000051,
2251,2248,-0.0919248555207623,-8.66346705737831,-0.00631221724819397,0.002830,0.000392,-0.007594,0.154702,0.002254,327.176122,23.768698,0.998107,0.978809,0.006024,0.270670,-0.000039,-0.000039,-0.000035,-0.000004,-0.000074,-44.783535,0.000088,
2101,2878,-3.4622800506814,5.06856457657575,-0.0187345079332886,0.002637,-0.000807,-0.001623,0.125900,-0.067544,317.341815,24.384470,0.999585,0.992780,0.003648,0.356083,-0.000045,-0.000004,-0.000019,0.000003,-0.000052,-68.684870,0.000058,
2086,2908,-3.79200074958492,5.71937508660233,-0.0114915948951761,0.002739,-0.000761,-0.002299,0.132583,-0.056312,316.995596,24.394056,0.999361,0.992886,0.003685,0.330047,-0.000037,-0.000020,-0.000024,-0.000002,-0.000054,-54.739983,0.000064,
2491,2188,5.16071375374525,-9.98376834019471,0.0187469213075815,0.002599,-0.001056,0.000768,0.115499,-0.050345,328.445971,22.360801,0.998457,0.972054,0.006321,0.279296,-0.000016,0.000002,-0.000022,0.000017,-0.000031,-56.163286,0.000031,
2431,3163,3.65594413588591,11.2792166326018,0.0116007715717501,0.002688,-0.000356,-0.004383,0.139657,-0.045190,312.401516,25.936859,0.999653,0.993153,0.003370,0.302332,-0.000019,0.000003,0.000002,0.000004,-0.000019,84.054469,0.000021,
2026,2683,-5.06162900080797,0.828445855451463,-0.0495204991381115,0.002656,-0.000615,-0.003517,0.131768,-0.053393,320.668847,24.433449,0.999821,0.996056,0.002868,0.324750,-0.000057,-0.000023,-0.000012,-0.000019,-0.000061,-72.022061,0.000084,
2236,2203,-0.410294295734882,-9.65335701325289,0.0122109039975271,0.002667,-0.000273,-0.003620,0.133880,-0.062557,328.066165,23.588997,0.999472,0.989047,0.004395,0.382481,-0.000044,-0.000034,-0.000028,-0.000011,-0.000067,-50.292889,0.000085,
2161,3208,-2.21212220645714,12.2295709740587,0.0335168360396665,0.002465,-0.000688,-0.003198,0.123216,-0.049849,312.136389,24.695328,0.999622,0.994665,0.003043,0.363894,-0.000046,-0.000016,-0.000020,-0.000006,-0.000056,-63.652446,0.000068,
2326,2623,1.47275763101927,-0.471680515729837,-0.0161883911135305,0.002273,-0.000699,-0.001296,0.108588,-0.041366,320.896202,24.153994,0.999474,0.989826,0.003986,0.396518,-0.000031,-0.000001,-0.000021,0.000010,-0.000042,-62.219921,0.000044,
2281,2413,0.531579766778872,-5.05691426245544,-0.00691576795770743,0.002242,-0.001017,-0.000690,0.104781,-0.052297,324.411840,23.828303,0.999265,0.987744,0.004586,0.346745,-0.000033,-0.000013,-0.000020,0.000000,-0.000045,-58.043226,0.000053,
2296,2458,0.850044329600269,-4.07175024779287,-0.0207505957907301,0.002813,-0.000294,-0.003605,0.141162,-0.042382,323.587009,23.915361,0.999389,0.988507,0.004392,0.320071,-0.000024,-0.000022,-0.000015,-0.000008,-0.000038,-46.293246,0.000049,
2176,3238,-1.89186373303597,12.8811667888545,0.034075648835028,0.002637,-0.000616,-0.002712,0.129784,-0.042675,311.602343,24.809504,0.999732,0.995229,0.002957,0.352115,-0.000041,-0.000014,-0.000019,-0.000004,-0.000050,-63.130122,0.000061,
2206,1993,-1.02783715596575,-14.2562911810985,0.0184706288542316,0.003092,0.000561,-0.007965,0.166970,-0.024415,331.596732,23.582382,0.999384,0.984624,0.004906,0.298510,-0.000013,-0.000028,-0.000033,0.000013,-0.000054,-38.877019,0.000056,
2446,3283,3.95587411544583,13.88446063447,-0.00959014419152027,0.002350,-0.000498,-0.003350,0.120377,-0.049686,310.257718,26.368758,0.999710,0.993761,0.003202,0.338968,0.000027,-0.000057,0.000004,0.000027,-0.000057,2.714099,0.000057,
2476,2098,4.85159272223038,-11.9579557763752,0.0193553182922415,0.002529,-0.000221,-0.003959,0.130525,-0.042653,329.878750,22.099245,0.999408,0.979805,0.005482,0.269488,-0.000024,-0.000020,0.000003,-0.000019,-0.000025,65.230600,0.000044,
2056,2743,-4.41860675581887,2.13338012435398,-0.035556476280135,0.002711,-0.000441,-0.003203,0.133718,-0.037037,319.636934,24.357247,0.999455,0.992323,0.003611,0.388932,-0.000039,-0.000010,-0.000007,-0.000009,-0.000041,-77.512724,0.000053,
2401,3043,3.02685083489517,8.67119489370887,0.00656722396928444,0.002631,-0.000605,-0.003582,0.133724,-0.043214,314.283266,25.408088,0.999611,0.992004,0.003667,0.344080,-0.000032,0.000006,0.000001,0.000006,-0.000032,88.000301,0.000033,
2341,2668,1.79015633319457,0.51167227983909,-0.0259041576418895,0.002316,-0.000752,-0.000307,0.107091,-0.054743,320.077199,24.354069,0.999679,0.992602,0.003718,0.281472,-0.000032,-0.000005,-0.000023,0.000008,-0.000046,-60.154517,0.000049,
2506,2338,5.45652807155144,-6.69589698658845,0.00795729083256447,0.002318,-0.000378,-0.002514,0.115630,-0.059278,325.972409,22.941437,0.999198,0.986294,0.005062,0.245673,-0.000003,0.000036,0.000031,0.000053,-0.000020,61.313980,0.000053,
2041,2728,-4.74143929871773,1.80664636267588,-0.0336496595905942,0.003042,-0.000436,-0.004077,0.151279,-0.047759,320.000581,24.400173,0.999395,0.992209,0.003531,0.337536,-0.000045,-0.000009,-0.000019,-0.000001,-0.000053,-66.864748,0.000061,
2221,2068,-0.714608192049855,-12.6096629784279,0.0111957923451769,0.002384,0.000057,-0.004524,0.123677,-0.024469,330.251364,23.619967,0.999065,0.978951,0.005535,0.267937,-0.000032,-0.000027,-0.000021,-0.000009,-0.000050,-48.243086,0.000063,
2386,2893,2.72771904546871,5.41210439500537,-0.0217394467727559,0.002522,0.000139,-0.007757,0.143829,-0.019344,316.495062,24.933440,0.999453,0.992934,0.003593,0.367457,-0.000046,-0.000015,-0.000008,-0.000013,-0.000048,-76.583285,0.000064,
2101,2893,-3.46424750314424,5.39406214052542,-0.0125673815510368,0.002702,-0.000563,-0.001508,0.128628,-0.055783,317.152117,24.383371,0.999424,0.992953,0.003750,0.369720,-0.000043,-0.000008,-0.000018,0.000000,-0.000050,-67.256290,0.000058,
2071,2818,-4.10350856100715,3.76411670233345,-0.0260512725820945,0.003078,-0.000129,-0.007203,0.162291,-0.040530,318.444868,24.358469,0.999526,0.991984,0.003747,0.373247,-0.000039,-0.000012,-0.000017,-0.000004,-0.000047,-64.035423,0.000057,
2266,2353,0.215473994336325,-6.3682175491249,-0.00651059822098432,0.002251,-0.000672,-0.000988,0.106289,-0.047031,325.407472,23.783315,0.999153,0.984659,0.005038,0.332097,-0.000043,-0.000008,-0.000024,0.000004,-0.000055,-62.831912,0.000062,
2131,3013,-2.83148366927589,8.00136707386334,0.0002431294476537,0.002868,-0.000050,-0.008298,0.157027,-0.027751,315.196185,24.525759,0.999435,0.992035,0.003640,0.349758,-0.000034,-0.000008,-0.000009,-0.000005,-0.000037,-72.818637,0.000046,
2311,2503,1.16891925735254,-3.09094900992913,-0.00779155939272869,0.002346,-0.000648,-0.000894,0.110435,-0.052490,322.923787,23.917300,0.999492,0.989597,0.004006,0.370471,-0.000027,-0.000026,-0.000016,-0.000010,-0.000043,-45.975521,0.000056,
2026,2698,-5.06360534733296,1.15419838919734,-0.0486168312443738,0.002816,-0.000364,-0.004737,0.142552,-0.045945,320.444450,24.365939,0.999821,0.995626,0.002975,0.390197,-0.000048,-0.000026,-0.000012,-0.000020,-0.000053,-66.076419,0.000076,
2251,2263,-0.0943446723880683,-8.33666332873156,-0.0020109506059498,0.002641,0.000307,-0.008801,0.149961,-0.025065,326.966092,23.728993,0.999007,0.984369,0.005119,0.308705,-0.000036,-0.000041,-0.000034,-0.000004,-0.000072,-43.047059,0.000086,
2416,3073,3.34679776199803,9.32372497353504,0.00809044349551868,0.002444,-0.000692,-0.000549,0.114086,-0.045050,313.801507,25.540889,0.999640,0.992435,0.003584,0.352020,-0.000032,0.000010,0.000004,0.000010,-0.000032,84.716418,0.000033,
2011,2698,-5.38797195876684,1.15167089054088,-0.024710084575247,0.002693,-0.000151,-0.004027,0.134894,-0.030788,320.732259,24.367270,0.999833,0.995937,0.002852,0.404968,-0.000048,-0.000035,-0.000007,-0.000032,-0.000051,-66.907799,0.000084,
2086,2923,-3.7943937129205,6.04554316209455,-0.01389305688798,0.002865,-0.000597,-0.002818,0.139940,-0.044859,316.738602,24.400703,0.999223,0.992003,0.003782,0.333324,-0.000036,-0.000020,-0.000019,-0.000007,-0.000049,-56.467790,0.000061,
2371,2788,2.4209142934603,3.12760859308223,-0.0228494812645295,0.002385,-0.000333,-0.002879,0.119623,-0.040470,318.165503,24.744365,0.999872,0.995188,0.003093,0.222552,-0.000033,-0.000004,-0.000016,0.000003,-0.000040,-65.411110,0.000045,
2491,2203,5.15716419405871,-9.6542834790135,0.0131598028541475,0.002305,-0.000394,-0.002894,0.116312,-0.041875,328.157421,22.408152,0.998275,0.974112,0.006213,0.302147,-0.000011,-0.000018,-0.000026,0.000012,-0.000040,-41.408110,0.000042,
2431,3178,3.65343541689024,11.6035000290524,0.0215751999244276,0.002534,-0.000758,-0.002027,0.123651,-0.059684,312.223680,25.944971,0.999656,0.992784,0.003383,0.328205,-0.000015,0.000002,0.000000,0.000002,-0.000015,89.937395,0.000016,
2476,2113,4.84726924728681,-11.6289336365256,0.0157820510128204,0.002002,-0.001192,0.001178,0.086567,-0.046283,329.562955,22.103916,0.999357,0.977903,0.005753,0.321456,-0.000024,-0.000016,-0.000001,-0.000016,-0.000024,-84.677655,0.000040,
2206,2008,-1.03025885143948,-13.9285255695072,0.0252235284186213,0.002839,0.000147,-0.006347,0.150131,-0.045475,331.396005,23.563848,0.999286,0.981623,0.005251,0.316168,-0.000027,-0.000006,-0.000029,0.000014,-0.000047,-54.975451,0.000048,
2356,2728,2.10606981607852,1.81886721947193,-0.01867584814363,0.002496,-0.000633,0.000208,0.113669,-0.040274,319.168230,24.480177,0.999500,0.991391,0.003707,0.319796,-0.000031,0.000002,-0.000019,0.000011,-0.000040,-65.027632,0.000041,
2146,3088,-2.51860499103929,9.629449106719,0.00656460328036701,0.002817,-0.000686,-0.002688,0.137794,-0.041803,313.944064,24.641479,0.999708,0.995313,0.003008,0.299085,-0.000042,-0.000018,-0.000022,-0.000005,-0.000054,-59.472048,0.000066,
2446,3298,3.95266602494716,14.2091378514017,-0.0132344237200641,0.002382,-0.000439,-0.003972,0.124181,-0.053563,309.984565,26.355616,0.999723,0.994213,0.003147,0.398960,0.000035,-0.000062,0.000000,0.000035,-0.000062,0.009057,0.000062,
2176,3253,-1.89529016865849,13.2063234410496,0.0279666778232013,0.002414,-0.000913,0.000384,0.109786,-0.049278,311.285567,24.810429,0.999739,0.995173,0.002999,0.355379,-0.000038,-0.000013,-0.000015,-0.000006,-0.000045,-65.555828,0.000055,
2041,2743,-4.74425961006738,2.13287642990045,-0.0350713225463437,0.002616,-0.000407,-0.003924,0.131276,-0.034555,319.725675,24.364914,0.999507,0.992565,0.003547,0.378889,-0.000051,-0.000010,-0.000011,-0.000007,-0.000054,-75.807153,0.000067,
2056,2758,-4.42063864176747,2.45893213989275,-0.0267734090173235,0.002467,-0.000518,-0.003148,0.122293,-0.053221,319.455864,24.374467,0.999340,0.991728,0.003804,0.350131,-0.000035,-0.000019,-0.000008,-0.000016,-0.000038,-67.390973,0.000055,
2236,2218,-0.413367552918178,-9.32296272698535,0.0027314053205032,0.002815,-0.000451,-0.004560,0.143647,-0.053701,327.754528,23.681582,0.998990,0.984285,0.005005,0.322803,-0.000043,-0.000039,-0.000031,-0.000009,-0.000072,-46.953413,0.000089,
2281,2428,0.529138405877561,-4.72907778514988,-0.00589783988812087,0.002432,-0.000684,-0.000567,0.113258,-0.032810,324.185950,23.858206,0.999509,0.989339,0.004277,0.365396,-0.000030,-0.000021,-0.000028,0.000003,-0.000053,-49.273086,0.000060,
2161,3223,-2.21442302929184,12.5543053566563,0.0381193173213319,0.002475,-0.000826,-0.002222,0.120669,-0.048736,311.926966,24.702177,0.999667,0.995032,0.002962,0.367027,-0.000043,-0.000009,-0.000023,0.000003,-0.000055,-63.364409,0.000062,
2506,2353,5.45418405941177,-6.36816806116947,0.00889324212334941,0.002863,-0.000325,-0.004228,0.147225,-0.045961,325.768986,22.943540,0.999187,0.985953,0.005123,0.319707,0.000009,0.000064,0.000035,0.000081,-0.000008,63.940567,0.000090,
2296,2473,0.847096794846522,-3.74482528430961,-0.018871477579637,0.002638,-0.000770,-0.001111,0.124517,-0.063534,323.343549,23.926144,0.998791,0.984151,0.005114,0.319204,-0.000019,-0.000018,-0.000015,-0.000004,-0.000034,-45.573360,0.000041,
2026,2713,-5.06580695537319,1.4804990602066,-0.0435837461168944,0.002659,-0.000547,-0.003457,0.131785,-0.043067,320.232651,24.391108,0.999664,0.994472,0.003382,0.358304,-0.000043,-0.000013,-0.000014,-0.000008,-0.000049,-68.032448,0.000061,
2341,2683,1.78704006280403,0.838307027117025,-0.0297519295260145,0.002327,-0.001008,-0.000050,0.106617,-0.067686,319.800947,24.348310,0.999638,0.992440,0.003699,0.311347,-0.000034,0.000005,-0.000023,0.000015,-0.000044,-65.251092,0.000045,
2116,2953,-3.14826379106354,6.69873616490368,-0.00804200333544713,0.002651,-0.000415,-0.001412,0.126209,-0.022696,316.139947,24.483743,0.999631,0.992307,0.003481,0.341089,-0.000033,-0.000021,-0.000014,-0.000012,-0.000043,-56.817691,0.000057,
2011,2713,-5.39098677505341,1.47920475993833,-0.0346733316615087,0.002475,-0.000064,-0.004687,0.126685,-0.034005,320.397745,24.388221,0.999705,0.994517,0.003320,0.369343,-0.000046,-0.000023,-0.000011,-0.000019,-0.000050,-68.520978,0.000072,
2326,2638,1.46952123257782,-0.143479008061483,-0.0253884354285674,0.002314,-0.000369,-0.004059,0.120127,-0.041643,320.586784,24.218532,0.999382,0.989727,0.004016,0.366875,-0.000032,0.000000,-0.000022,0.000011,-0.000043,-63.348749,0.000044,
2476,2128,4.84493130859822,-11.3004445548952,0.0227515712273885,0.002304,-0.001207,0.003050,0.093321,-0.051365,329.385793,22.181053,0.999162,0.975700,0.006006,0.298426,-0.000015,-0.000021,0.000002,-0.000014,-0.000022,18.323401,0.000036,
2071,2833,-4.10632143604926,4.0899361127514,-0.015712700561437,0.002315,-0.000669,-0.001908,0.111862,-0.044616,318.237351,24.418660,0.999514,0.992601,0.003515,0.305319,-0.000040,-0.000013,-0.000022,-0.000001,-0.000052,-60.870430,0.000061,
2401,3058,3.02369734489415,8.99737405243571,0.00687322171540927,0.002513,-0.000544,-0.001887,0.122149,-0.039638,314.028504,25.484225,0.999624,0.992981,0.003543,0.316107,-0.000026,0.000002,0.000004,0.000002,-0.000027,82.765948,0.000030,
2431,3193,3.65097265588856,11.928431601566,0.0307670357603342,0.002510,-0.000972,0.000570,0.112881,-0.057524,312.044045,25.994076,0.999616,0.992004,0.003537,0.329893,-0.000012,0.000002,0.000001,0.000002,-0.000012,84.272884,0.000013,
2176,3268,-1.89889477813326,13.5320839628685,0.0113256184865236,0.002408,-0.000869,-0.001241,0.114568,-0.054054,310.904955,24.811744,0.999642,0.994562,0.003118,0.360076,-0.000033,-0.000009,-0.000009,-0.000006,-0.000036,-70.889360,0.000046,
2311,2518,1.16598190383035,-2.76243683686351,-0.0152267076678072,0.002543,-0.000433,-0.003328,0.127912,-0.050867,322.635651,23.980270,0.999474,0.988049,0.004151,0.342482,-0.000030,-0.000019,-0.000017,-0.000007,-0.000042,-53.855747,0.000053,
2221,2083,-0.717402745657711,-12.2812518949454,0.012276122194578,0.002147,-0.000364,-0.003528,0.109535,-0.039727,330.005492,23.617810,0.999155,0.980368,0.005436,0.277050,-0.000030,-0.000029,-0.000023,-0.000007,-0.000052,-45.574277,0.000064,
2461,1993,4.54548853077069,-14.2643274825329,0.0259042961445743,0.002603,-0.000208,-0.004393,0.135347,-0.053904,331.594426,21.832309,0.998917,0.969701,0.006428,0.211492,-0.000055,-0.000012,0.000011,-0.000010,-0.000058,76.064550,0.000073,
2056,2773,-4.42279041909797,2.78464867125485,-0.0217093966319339,0.002259,-0.000406,-0.004320,0.116080,-0.041371,319.248712,24.353020,0.999132,0.989837,0.004119,0.377966,-0.000033,-0.000023,-0.000009,-0.000018,-0.000039,-59.847104,0.000058,
2206,2023,-1.03228467559637,-13.6002595934934,0.031775874050652,0.002948,-0.000127,-0.005480,0.152318,-0.051862,331.212184,23.578459,0.998790,0.982117,0.005429,0.315197,-0.000033,0.000004,-0.000025,0.000016,-0.000046,-63.445568,0.000046,
2101,2908,-3.4662649276996,5.71978375938714,-0.00640422615657599,0.002653,-0.000713,-0.002466,0.129167,-0.051059,316.960062,24.413233,0.999272,0.992819,0.003832,0.345227,-0.000041,-0.000021,-0.000019,-0.000010,-0.000052,-59.057249,0.000067,
2266,2368,0.212324080218384,-6.03953196628055,-0.0101395593639495,0.002229,-0.000703,0.001688,0.096451,-0.028959,325.124620,23.827367,0.999087,0.984762,0.004994,0.333381,-0.000048,-0.000018,-0.000026,-0.000003,-0.000063,-60.247296,0.000075,
2041,2758,-4.74620836023593,2.45769796289287,-0.0284619608014509,0.002658,-0.000642,-0.002348,0.128754,-0.047998,319.535746,24.294863,0.999335,0.992240,0.003832,0.427698,-0.000046,-0.000022,-0.000013,-0.000017,-0.000052,-66.128584,0.000072,
2386,2908,2.7237743371703,5.73856939313647,-0.0256073848972846,0.002292,-0.000658,-0.001255,0.109591,-0.043792,316.183561,24.994387,0.999361,0.991711,0.003809,0.324970,-0.000047,-0.000014,-0.000005,-0.000013,-0.000048,-81.138540,0.000064,
2491,2218,5.15321091729665,-9.32444660961666,0.0106045126252639,0.001993,-0.001035,0.000919,0.087235,-0.057572,327.863938,22.549588,0.998925,0.981682,0.005517,0.206678,-0.000011,-0.000030,-0.000017,-0.000001,-0.000040,-29.671161,0.000047,
2506,2368,5.4510617937069,-6.04031678384967,0.003550846927169,0.003184,-0.000131,-0.005638,0.167483,-0.045399,325.501808,22.913632,0.998650,0.981072,0.005746,0.413024,0.000020,0.000059,0.000033,0.000078,0.000001,60.047842,0.000091,
2086,2938,-3.79608774069488,6.37056714887154,-0.00628115778397387,0.002847,-0.000246,-0.006648,0.150349,-0.036149,316.568635,24.380016,0.999267,0.992218,0.003726,0.361324,-0.000038,-0.000017,-0.000020,-0.000005,-0.000050,-58.467010,0.000060,
2131,3028,-2.83417880825897,8.32638005969787,0.00433657760368078,0.002735,-0.000385,-0.003007,0.135007,-0.015972,314.964009,24.499335,0.999505,0.992110,0.003625,0.392540,-0.000034,-0.000006,-0.000010,-0.000002,-0.000037,-72.613727,0.000045,
2251,2278,-0.0970569099187522,-8.00941878669169,0.00160142561196608,0.002639,-0.000453,-0.004103,0.134275,-0.055915,326.739124,23.730705,0.999317,0.985500,0.004834,0.301508,-0.000032,-0.000030,-0.000033,0.000003,-0.000064,-46.003914,0.000073,
2356,2743,2.10327582113338,2.14499773829696,-0.0180693276894885,0.002357,-0.000720,-0.001604,0.113607,-0.052463,318.929439,24.481753,0.999574,0.992093,0.003545,0.345084,-0.000030,0.000004,-0.000014,0.000009,-0.000035,-70.593095,0.000036,
2416,3088,3.34449530828821,9.64982302107493,0.00832099155627475,0.002781,-0.000460,-0.004184,0.143007,-0.049047,313.586541,25.624578,0.999677,0.993277,0.003423,0.311042,-0.000030,0.000014,0.000001,0.000014,-0.000030,88.927195,0.000030,
2281,2443,0.526195976097863,-4.40123422081638,-0.0132513018421037,0.002558,-0.000559,-0.002866,0.126735,-0.045027,323.895480,23.846917,0.999589,0.990151,0.004132,0.394044,-0.000028,-0.000021,-0.000024,-0.000001,-0.000048,-48.944901,0.000056,
2161,3238,-2.2174077930576,12.8798894590575,0.0306514033005669,0.002501,-0.000767,-0.002896,0.123919,-0.056051,311.621927,24.730707,0.999704,0.994958,0.002969,0.339774,-0.000041,-0.000016,-0.000026,0.000000,-0.000057,-58.316682,0.000066,
2071,2848,-4.10923022842008,4.4172648100764,-0.0270290718657407,0.002384,-0.000247,-0.003416,0.119500,-0.026466,317.906229,24.436408,0.999675,0.994447,0.003143,0.302401,-0.000037,-0.000013,-0.000025,0.000003,-0.000053,-57.616680,0.000059,
2026,2728,-5.06710637568758,1.80556391166128,-0.0307321576392496,0.002938,-0.000500,-0.002087,0.140886,-0.042128,320.106196,24.371321,0.999566,0.993115,0.003510,0.368991,-0.000050,-0.000007,-0.000019,0.000000,-0.000057,-69.425755,0.000066,
2011,2728,-5.39313429775424,1.80490739384025,-0.0306016278627794,0.002511,-0.000265,-0.001631,0.120006,-0.032434,320.182281,24.354962,0.999618,0.993133,0.003516,0.392336,-0.000054,-0.000014,-0.000016,-0.000008,-0.000060,-71.368782,0.000074,
2371,2803,2.41835785968953,3.45214766021738,-0.0186197609630199,0.002581,-0.000854,-0.000052,0.118433,-0.045748,317.956247,24.638732,0.999858,0.995405,0.003149,0.363891,-0.000033,-0.000004,-0.000017,0.000004,-0.000041,-65.402592,0.000045,
2476,2143,4.84184946169743,-10.9697767471156,0.0162896945419675,0.002540,-0.000645,-0.000503,0.117810,-0.030600,329.113458,22.291340,0.998245,0.977777,0.005819,0.268689,-0.000011,-0.000002,-0.000002,-0.000001,-0.000012,-77.875967,0.000014,
2146,3103,-2.52086557427902,9.95354527139406,0.0108339175536685,0.002766,-0.000479,-0.003021,0.136503,-0.035375,313.734041,24.555489,0.999827,0.996948,0.002559,0.398607,-0.000046,-0.000014,-0.000020,-0.000004,-0.000055,-64.284912,0.000067,
2176,3283,-1.90167867821331,13.8573992698527,0.00730317810462111,0.002343,-0.000700,-0.003262,0.117906,-0.051322,310.628559,24.839143,0.999681,0.995392,0.002935,0.346140,-0.000031,-0.000011,-0.000004,-0.000010,-0.000032,-79.887975,0.000044,
2461,2008,4.54244938659059,-13.9353850422693,0.0320257166421243,0.002606,-0.000768,0.001757,0.112231,-0.036930,331.380634,21.878522,0.999098,0.974194,0.006020,0.240217,-0.000049,-0.000027,0.000016,-0.000019,-0.000058,62.099075,0.000080,
2431,3208,3.64762609591809,12.2544362198975,0.0229736579726136,0.002508,-0.000459,-0.002619,0.124884,-0.031278,311.744085,26.022315,0.999577,0.990528,0.003870,0.376665,-0.000009,-0.000010,-0.000003,-0.000007,-0.000013,-38.210681,0.000020,
2326,2653,1.46622450232598,0.184711426622187,-0.0343500264912109,0.002635,-0.000425,-0.002110,0.128142,-0.023822,320.275640,24.271964,0.999406,0.990624,0.003916,0.366245,-0.000033,-0.000004,-0.000024,0.000009,-0.000047,-60.729064,0.000049,
2236,2233,-0.417005964852308,-8.9937656075523,-0.00469143138116124,0.002445,-0.000524,-0.002647,0.120474,-0.054399,327.427652,23.702341,0.998919,0.984485,0.004943,0.325411,-0.000044,-0.000032,-0.000033,-0.000004,-0.000072,-50.407214,0.000086,
2491,2233,5.14962528629729,-8.99615388252153,0.00540051162647615,0.001972,-0.001228,0.001388,0.084418,-0.063610,327.575434,22.518331,0.998931,0.981355,0.005681,0.293271,-0.000007,-0.000008,-0.000009,0.000002,-0.000017,-43.608120,0.000019,
2401,3073,3.02081667725487,9.32310388192423,0.00649129493655209,0.002550,-0.000426,-0.002335,0.125536,-0.039668,313.783123,25.522078,0.999617,0.992344,0.003592,0.322881,-0.000025,0.000008,0.000003,0.000009,-0.000025,84.409808,0.000025,
2506,2383,5.44700801441543,-5.71125601176922,0.00559885853175501,0.002549,-0.000564,-0.000148,0.117025,-0.058133,325.224585,23.085109,0.998641,0.981848,0.005387,0.291978,0.000024,0.000039,0.000013,0.000047,0.000017,59.614682,0.000066,
2041,2773,-4.74874814760553,2.78517750813798,-0.0340190407096088,0.002685,-0.000609,-0.003637,0.133639,-0.045138,319.250413,24.360894,0.999165,0.990915,0.003979,0.357084,-0.000043,-0.000027,-0.000013,-0.000020,-0.000050,-61.356987,0.000072,
2116,2968,-3.15008475766767,7.02379569935692,-0.00425898323868523,0.002773,-0.000440,-0.005512,0.143925,-0.047988,315.945282,24.481241,0.999702,0.993527,0.003209,0.321067,-0.000029,-0.000019,-0.000016,-0.000007,-0.000040,-53.799350,0.000051,
2101,2923,-3.4687556705708,6.04585342948128,-0.00948074967931234,0.002576,-0.000452,-0.005697,0.135186,-0.046412,316.696162,24.412784,0.999156,0.991656,0.003931,0.351239,-0.000039,-0.000021,-0.000014,-0.000013,-0.000047,-61.925986,0.000063,
2341,2698,1.78508836744607,1.16390382465364,-0.0211931369476019,0.002486,-0.000820,-0.000656,0.116147,-0.047652,319.638480,24.320727,0.999644,0.993647,0.003560,0.396048,-0.000036,0.000006,-0.000020,0.000014,-0.000044,-67.996474,0.000045,
2056,2788,-4.42537003736152,3.1118678128511,-0.0277632928554681,0.002466,-0.000407,-0.003026,0.121966,-0.037359,318.960233,24.394873,0.999254,0.990413,0.003953,0.334919,-0.000046,-0.000022,-0.000010,-0.000018,-0.000050,-69.376795,0.000070,
2311,2533,1.16302754864015,-2.43518822797424,-0.0167699815856963,0.002406,-0.000448,-0.004062,0.124128,-0.048633,322.375886,23.985418,0.999436,0.988878,0.004125,0.372826,-0.000026,-0.000021,-0.000022,-0.000002,-0.000046,-48.123456,0.000054,
2266,2383,0.21024834925273,-5.71182139641215,-0.0179214844431499,0.003065,-0.000886,-0.002725,0.149313,-0.063647,324.870511,23.800180,0.998622,0.981772,0.005340,0.353319,-0.000046,-0.000021,-0.000024,-0.000007,-0.000061,-58.918244,0.000075,
2206,2038,-1.03594150358101,-13.2697792601582,0.0235475256004634,0.002529,-0.000183,-0.003624,0.127274,-0.043000,330.877507,23.618552,0.998905,0.981586,0.005343,0.304802,-0.000035,0.000004,-0.000026,0.000018,-0.000048,-63.038338,0.000049,
2296,2488,0.844643999603171,-3.41747702066385,-0.0200464652546088,0.002698,-0.000354,-0.005172,0.141112,-0.062058,323.107463,23.929672,0.999379,0.989335,0.004206,0.348301,-0.000021,-0.000022,-0.000022,0.000001,-0.000044,-44.091475,0.000050,
2161,3253,-2.22087232430435,13.2052611848614,0.0180718581427186,0.002446,-0.000778,-0.002740,0.120902,-0.056160,311.267837,24.708800,0.999694,0.994878,0.003010,0.369978,-0.000038,-0.000014,-0.000021,-0.000002,-0.000051,-59.719180,0.000059,
2176,3298,-1.90467454582079,14.1827036799577,-0.00188042598807669,0.002468,-0.000651,-0.004528,0.127601,-0.055676,310.315249,24.849138,0.999763,0.996834,0.002523,0.342421,-0.000021,-0.000002,-0.000011,0.000003,-0.000026,-65.363281,0.000028,
2281,2458,0.523617862246233,-4.07270177663556,-0.0121040786875142,0.002689,-0.000215,-0.001651,0.128843,-0.016862,323.663720,23.943294,0.999715,0.991050,0.003988,0.354911,-0.000029,-0.000015,-0.000017,-0.000004,-0.000040,-55.569863,0.000049,
2251,2293,-0.0998657409581334,-7.68079547918297,-0.00360443006695732,0.002693,-0.000085,-0.006135,0.143514,-0.044763,326.462807,23.732494,0.999115,0.985031,0.004904,0.336599,-0.000032,-0.000015,-0.000027,0.000005,-0.000051,-53.764978,0.000057,
2221,2098,-0.719029216720497,-11.9527585908658,0.015891049574293,0.002843,-0.000242,-0.003360,0.140930,-0.035083,329.825830,23.636079,0.999062,0.980103,0.005535,0.285154,-0.000033,-0.000025,-0.000024,-0.000005,-0.000053,-49.860636,0.000065,
2416,3103,3.34177905803396,9.97580132272887,0.0111986227182683,0.002740,-0.000250,-0.004730,0.143256,-0.029759,313.364891,25.694653,0.999796,0.995335,0.003090,0.306912,-0.000028,0.000015,0.000005,0.000016,-0.000029,83.909647,0.000029,
2356,2758,2.09894418455668,2.47344015026852,-0.0327887586694828,0.001955,-0.000181,-0.002280,0.097763,-0.018019,318.545407,24.532765,0.999471,0.990628,0.003762,0.367773,-0.000027,0.000007,-0.000009,0.000009,-0.000030,-75.454771,0.000031,
2131,3043,-2.83647414993284,8.65094468297719,0.0154678439691338,0.002514,-0.001276,0.001812,0.110049,-0.047039,314.788055,24.523955,0.999496,0.993060,0.003459,0.341514,-0.000036,-0.000007,-0.000012,-0.000002,-0.000040,-69.644367,0.000048,
2476,2158,4.8389368744462,-10.6415677749989,0.0186027611617305,0.002602,-0.000780,0.000769,0.115780,-0.047291,328.888834,22.314560,0.998327,0.975560,0.006144,0.287958,-0.000017,-0.000028,-0.000010,-0.000011,-0.000034,-30.808320,0.000047,
2026,2743,-5.06930002085724,2.13190490833907,-0.03028897324225,0.002973,-0.000404,-0.002391,0.143397,-0.028845,319.869174,24.360348,0.999419,0.991518,0.003821,0.383713,-0.000058,-0.000006,-0.000010,-0.000004,-0.000060,-79.588046,0.000072,
2011,2743,-5.39578107268824,2.13308763993334,-0.0444085427371874,0.002791,-0.000323,-0.004081,0.139552,-0.036539,319.842840,24.416273,0.999661,0.993381,0.003302,0.315275,-0.000066,-0.000014,-0.000006,-0.000013,-0.000067,-83.386932,0.000086,
2086,2953,-3.79879825751265,6.69646449874251,-0.00694411266499628,0.002746,-0.000391,-0.004049,0.138168,-0.025352,316.306666,24.383003,0.999299,0.992952,0.003620,0.367585,-0.000036,-0.000026,-0.000020,-0.000010,-0.000052,-51.841879,0.000066,
2461,2023,4.53907537522316,-13.6044160380727,0.0247776971547182,0.002553,-0.000176,-0.002179,0.124790,-0.025816,331.090523,21.968905,0.999312,0.979277,0.005487,0.219180,-0.000037,-0.000014,0.000010,-0.000011,-0.000041,69.947646,0.000054,
2431,3223,3.64447783529995,12.5798706820494,0.0257904408522904,0.002210,-0.000685,-0.001323,0.106294,-0.042201,311.502837,26.100724,0.999511,0.991795,0.003701,0.335957,-0.000008,-0.000015,-0.000002,-0.000008,-0.000016,-16.774995,0.000024,
2506,2398,5.44284317013981,-5.38185725488969,-0.00775665761744904,0.002543,-0.000743,-0.001291,0.121108,-0.061847,324.873430,23.135698,0.998794,0.983422,0.005079,0.300852,0.000035,0.000033,0.000016,0.000050,0.000018,42.602506,0.000071,
2041,2788,-4.75070391196936,3.11150391484674,-0.0324139184507999,0.002843,-0.000588,-0.005204,0.145297,-0.047265,319.031945,24.386734,0.999228,0.990017,0.003934,0.321538,-0.000056,-0.000024,-0.000011,-0.000021,-0.000060,-72.698212,0.000084,
2386,2923,2.72174664584738,6.06404571183666,-0.0150838919091711,0.002445,-0.000581,0.000173,0.111485,-0.045439,316.028858,25.048694,0.999172,0.990758,0.004073,0.311590,-0.000048,-0.000017,-0.000010,-0.000014,-0.000051,-73.395326,0.000068,
2401,3088,3.01836303190474,9.64849273407908,0.0102724632420177,0.002625,-0.000667,-0.003541,0.133314,-0.047254,313.577128,25.566520,0.999575,0.991582,0.003680,0.315174,-0.000023,0.000011,0.000000,0.000011,-0.000024,-89.224660,0.000024,
2146,3118,-2.52279394426884,10.2789383692644,0.0177027498967277,0.002756,-0.000364,-0.005236,0.142812,-0.037316,313.552651,24.616686,0.999642,0.995441,0.003012,0.341958,-0.000047,-0.000012,-0.000021,-0.000003,-0.000057,-65.287812,0.000067,
2071,2863,-4.11080135028197,4.74190411405726,-0.022723117244368,0.002733,-0.000340,-0.006213,0.143497,-0.050054,317.723006,24.370091,0.999415,0.992077,0.003718,0.341672,-0.000035,-0.000013,-0.000025,0.000004,-0.000052,-56.898465,0.000058,
2236,2248,-0.418699978939358,-8.66532576990054,-0.000225745298052971,0.002970,0.000234,-0.003578,0.147874,-0.001942,327.249962,23.728793,0.998694,0.982699,0.005357,0.374607,-0.000041,-0.000040,-0.000031,-0.000009,-0.000071,-45.516121,0.000088,
2116,2983,-3.15203596906394,7.3481279228059,0.00757309865343814,0.002652,-0.000353,-0.003298,0.131879,-0.026180,315.788163,24.423661,0.999768,0.994632,0.002984,0.403104,-0.000031,-0.000020,-0.000012,-0.000012,-0.000039,-57.975272,0.000053,
2461,2038,4.53614333818215,-13.2753328675291,0.0247288739749933,0.002724,-0.000193,-0.001422,0.129751,-0.020647,330.853472,21.980662,0.999359,0.980215,0.005492,0.270604,-0.000035,-0.000029,0.000015,-0.000016,-0.000047,50.926557,0.000066,
2266,2398,0.207419970214847,-5.3838137027168,-0.0148152667032377,0.002720,-0.000945,-0.002229,0.131828,-0.070984,324.636298,23.883316,0.999056,0.986446,0.004752,0.290008,-0.000044,-0.000004,-0.000021,0.000004,-0.000053,-66.967478,0.000059,
2191,1993,-1.35558942468435,-14.2565373321606,0.0237022596809879,0.002605,0.000190,-0.005704,0.137231,-0.044425,331.651918,23.707410,0.999428,0.985622,0.004927,0.259033,-0.000007,-0.000047,-0.000020,0.000001,-0.000055,-22.354274,0.000063,
2311,2548,1.15971947412161,-2.10758068961504,-0.0199890289534324,0.002310,-0.000632,-0.001222,0.109997,-0.036543,322.091501,24.003828,0.999196,0.986131,0.004673,0.399798,-0.000031,-0.000014,-0.000020,-0.000001,-0.000045,-56.492989,0.000052,
2026,2758,-5.07137822072049,2.45786793554363,-0.0313373457788089,0.003043,-0.000256,-0.005541,0.155325,-0.034187,319.629300,24.325872,0.999103,0.991027,0.004060,0.403458,-0.000053,-0.000022,-0.000015,-0.000016,-0.000059,-68.297966,0.000079,
2476,2173,4.83603526834704,-10.3123604763361,0.0200233498356965,0.002789,-0.001031,0.002401,0.118075,-0.050371,328.660454,22.410898,0.997923,0.967430,0.006847,0.247889,-0.000014,-0.000019,-0.000012,-0.000004,-0.000029,-39.762978,0.000036,
2491,2248,5.14655458735663,-8.66771850955132,0.00475431440497687,0.002150,-0.000978,0.002660,0.087815,-0.043852,327.330791,22.527012,0.998866,0.982120,0.005491,0.365728,-0.000007,0.000010,-0.000011,0.000016,-0.000013,-63.879680,0.000017,
2056,2803,-4.42753359893011,3.43826517250477,-0.0300900598503517,0.002846,-0.000507,-0.001939,0.136394,-0.042595,318.711645,24.404355,0.999331,0.991478,0.003812,0.314717,-0.000046,-0.000023,-0.000011,-0.000018,-0.000051,-67.549301,0.000071,
2086,2968,-3.80117731212247,7.02169414536608,-0.00233313008391178,0.002489,-0.000456,-0.003899,0.125890,-0.028239,316.088907,24.378912,0.999388,0.992657,0.003540,0.366931,-0.000029,-0.000023,-0.000021,-0.000005,-0.000047,-49.224370,0.000057,
2101,2938,-3.47120709698306,6.37183003576079,-0.00993970207161965,0.002576,-0.000395,-0.005749,0.135412,-0.039193,316.448268,24.424329,0.999202,0.991593,0.003906,0.347422,-0.000042,-0.000016,-0.000015,-0.000009,-0.000049,-64.527928,0.000062,
2431,3238,3.64093388236687,12.9055738095869,0.0172865872872876,0.002426,-0.000596,-0.000090,0.111664,-0.044168,311.190394,26.134380,0.999518,0.993075,0.003493,0.349075,-0.000007,-0.000020,0.000000,-0.000007,-0.000020,-0.334505,0.000028,
2371,2818,2.41535825549206,3.77833491628422,-0.0234215814015215,0.002837,-0.000905,0.000119,0.129520,-0.056865,317.682942,24.625479,0.999863,0.995494,0.003197,0.406955,-0.000036,-0.000007,-0.000014,-0.000001,-0.000042,-67.636925,0.000049,
2506,2413,5.44062825015206,-5.05452824157737,-0.00406990499323001,0.002801,-0.000244,-0.005099,0.147839,-0.045456,324.687896,23.145193,0.999083,0.984719,0.004989,0.370173,0.000026,0.000017,0.000017,0.000039,0.000004,37.656070,0.000047,
2281,2473,0.520822914322373,-3.74527736295516,-0.0146539124663718,0.002836,-0.000237,-0.000876,0.133030,-0.001771,323.403833,23.921948,0.999490,0.989717,0.004199,0.420348,-0.000023,-0.000014,-0.000016,-0.000002,-0.000035,-53.358910,0.000042,
2221,2113,-0.722245703847261,-11.6246513884222,0.0192608722172736,0.002221,-0.000554,0.000454,0.100183,-0.064618,329.572437,23.655781,0.998906,0.982041,0.005325,0.257997,-0.000035,-0.000017,-0.000024,0.000000,-0.000051,-55.309727,0.000059,
2341,2713,1.78171629179738,1.49178196358286,-0.0298591186664225,0.002489,-0.000780,-0.002057,0.121171,-0.057219,319.326693,24.396086,0.999403,0.990895,0.003892,0.348072,-0.000034,0.000005,-0.000018,0.000012,-0.000042,-68.521743,0.000043,
2326,2668,1.46365561460984,0.512010779152675,-0.0300508620341589,0.002605,-0.000703,-0.001188,0.123475,-0.036516,320.062921,24.390176,0.999641,0.992259,0.003683,0.270321,-0.000035,-0.000003,-0.000025,0.000011,-0.000049,-61.344407,0.000051,
2416,3118,3.33868783109144,10.3011540825986,0.0145914737138924,0.002534,-0.000623,-0.002137,0.124124,-0.036885,313.128533,25.740264,0.999828,0.995764,0.002895,0.300806,-0.000023,0.000013,0.000004,0.000013,-0.000024,83.310109,0.000024,
2131,3058,-2.83855478212453,8.9766083002434,0.0125053589341633,0.002695,-0.000702,-0.004603,0.137737,-0.061224,314.546140,24.543781,0.999338,0.992845,0.003653,0.312378,-0.000035,-0.000015,-0.000017,-0.000005,-0.000045,-59.907437,0.000055,
2011,2758,-5.39780657945015,2.45831981813793,-0.0423756195827423,0.002773,-0.000356,-0.006081,0.144141,-0.050207,319.621745,24.348005,0.999540,0.992911,0.003477,0.358127,-0.000067,-0.000033,-0.000012,-0.000029,-0.000071,-72.174505,0.000103,
2041,2803,-4.75296039804415,3.43725259592883,-0.0306247240609423,0.002872,-0.000503,-0.003759,0.142591,-0.047591,318.800924,24.363414,0.999386,0.991470,0.003646,0.336907,-0.000055,-0.000026,-0.000013,-0.000021,-0.000060,-69.199424,0.000084,
2251,2308,-0.102401906895523,-7.35241601703235,-0.000705211403669637,0.002519,0.000346,-0.007070,0.138769,-0.014058,326.239784,23.779234,0.998593,0.982284,0.005356,0.345896,-0.000032,-0.000008,-0.000023,0.000006,-0.000045,-58.702235,0.000049,
2356,2773,2.09703827973235,2.80064917832772,-0.0304332171980946,0.002398,0.000448,-0.006357,0.132775,0.001658,318.355399,24.625068,0.999548,0.991416,0.003580,0.334155,-0.000029,-0.000007,-0.000013,-0.000001,-0.000035,-65.774592,0.000041,
2296,2503,0.841144875476548,-3.08822735388537,-0.0281935143856344,0.002694,-0.000365,-0.003085,0.133900,-0.051049,322.788430,24.039769,0.999662,0.993157,0.003616,0.280865,-0.000027,-0.000025,-0.000027,0.000001,-0.000053,-45.955843,0.000060,
2206,2053,-1.03941976078944,-12.9386683333198,0.0126180733990395,0.002334,-0.000138,-0.003911,0.119248,-0.039149,330.537005,23.697594,0.998887,0.977951,0.005634,0.250212,-0.000035,-0.000013,-0.000022,0.000000,-0.000048,-58.195529,0.000056,
2191,2008,-1.35842997961032,-13.9277413987511,0.0204614680349664,0.002610,-0.000093,-0.003843,0.131543,-0.027671,331.378949,23.630897,0.999342,0.985420,0.004933,0.370801,-0.000021,-0.000022,-0.000016,-0.000005,-0.000038,-44.239673,0.000047,
2161,3268,-2.22376628652886,13.530161604264,0.0164783734811067,0.002314,-0.000918,-0.001289,0.110377,-0.050798,310.998266,24.703970,0.999669,0.994970,0.003057,0.389001,-0.000032,-0.000013,-0.000015,-0.000004,-0.000040,-61.231010,0.000049,
2071,2878,-4.11353814952664,5.06770642348172,-0.0240172290897931,0.002498,-0.000549,-0.005352,0.130155,-0.064260,317.455270,24.364042,0.999195,0.990211,0.004180,0.330056,-0.000035,-0.000006,-0.000025,0.000008,-0.000049,-60.123503,0.000052,
2401,3103,3.01574350730685,9.9735518680655,0.0182278011262156,0.002383,-0.000468,-0.002446,0.118307,-0.033923,313.383259,25.589407,0.999605,0.993139,0.003379,0.350158,-0.000022,0.000014,0.000004,0.000014,-0.000022,84.027003,0.000022,
2026,2773,-5.07434790025171,2.78539983663606,-0.0377114685632591,0.002741,-0.000411,-0.005498,0.141180,-0.064763,319.318455,24.423525,0.999462,0.992316,0.003804,0.265413,-0.000045,-0.000028,-0.000014,-0.000021,-0.000053,-61.015052,0.000076,
2116,2998,-3.15508715330258,7.67439715538878,0.00064439794732607,0.002489,-0.000483,-0.003582,0.125175,-0.036807,315.478970,24.452041,0.999537,0.993331,0.003328,0.366946,-0.000034,-0.000013,-0.000004,-0.000012,-0.000034,-78.558460,0.000048,
2461,2053,4.53368233530773,-12.9468605523872,0.027649767254843,0.002854,-0.000412,-0.003897,0.144912,-0.059430,330.651729,22.019236,0.999250,0.981442,0.005389,0.250729,-0.000031,-0.000031,0.000017,-0.000013,-0.000048,44.678339,0.000065,
2506,2428,5.43812605764039,-4.72693116345204,0.000240679341743544,0.002954,-0.000229,-0.006199,0.159097,-0.043964,324.491892,23.204550,0.998885,0.981957,0.005442,0.374683,0.000022,0.000022,0.000020,0.000042,0.000001,45.037747,0.000049,
2431,3253,3.63744093145564,13.2315055214894,0.00775041408877541,0.002719,-0.000983,0.000397,0.123213,-0.054774,310.875313,26.196955,0.999528,0.993178,0.003391,0.324184,-0.000005,-0.000023,0.000002,-0.000005,-0.000023,5.269528,0.000030,
2476,2188,4.83327180161532,-9.98321660846656,0.0203033652883846,0.002702,-0.000541,-0.002000,0.130976,-0.042615,328.433127,22.483671,0.998359,0.969935,0.006730,0.242349,-0.000002,-0.000006,-0.000018,0.000015,-0.000022,-41.996306,0.000022,
2236,2263,-0.421547905525312,-8.33727290440937,0.00524432152366217,0.002475,-0.000212,-0.001732,0.119031,-0.021146,327.024932,23.806420,0.998965,0.983388,0.005316,0.301226,-0.000038,-0.000041,-0.000029,-0.000010,-0.000068,-43.588968,0.000085,
2146,3133,-2.52535669689076,10.6033758279315,0.021393641324039,0.002614,-0.000628,-0.003036,0.129483,-0.046466,313.325575,24.580586,0.999522,0.994427,0.003309,0.375651,-0.000049,-0.000010,-0.000021,-0.000001,-0.000058,-66.791186,0.000068,
2266,2413,0.205208635619272,-5.05727834022451,-0.00439008044463662,0.002432,-0.000649,-0.002025,0.118052,-0.046173,324.467181,23.873610,0.999144,0.987894,0.004492,0.351263,-0.000038,-0.000008,-0.000024,0.000005,-0.000051,-61.579301,0.000056,
2491,2263,5.14423055510413,-8.3384835538809,0.0039230884356698,0.002530,-0.000498,-0.002839,0.126437,-0.063625,327.119604,22.651631,0.998815,0.980000,0.005344,0.282320,-0.000018,-0.000001,-0.000015,0.000008,-0.000027,-59.877853,0.000027,
2371,2833,2.41181945003886,4.10631945008822,-0.0272206153162529,0.002381,-0.000541,-0.001026,0.112835,-0.036427,317.389052,24.758722,0.999674,0.991761,0.003723,0.335404,-0.000036,-0.000003,-0.000012,0.000001,-0.000040,-71.722886,0.000046,
2086,2983,-3.80373567231424,7.34659150971522,-0.00234115596197171,0.002427,-0.001084,-0.002487,0.118686,-0.059031,315.837908,24.343963,0.999537,0.993949,0.003259,0.369628,-0.000032,-0.000026,-0.000019,-0.000010,-0.000048,-49.293083,0.000061,
2386,2938,2.71877742637077,6.38978640227113,-0.0119110959241198,0.002224,-0.000829,0.001444,0.096646,-0.053143,315.795767,25.084375,0.999260,0.990581,0.004012,0.310894,-0.000046,-0.000015,-0.000013,-0.000011,-0.000050,-69.878608,0.000065,
2041,2818,-4.75523191708051,3.76289477718884,-0.027134720194681,0.002720,-0.000476,-0.003373,0.134590,-0.029061,318.578668,24.328626,0.999228,0.991548,0.003775,0.382228,-0.000048,-0.000014,-0.000010,-0.000011,-0.000051,-74.319845,0.000066,
2251,2323,-0.105580424728483,-7.02383463890256,-0.00787517068863508,0.002594,-0.000130,-0.005697,0.137557,-0.040807,325.936725,23.806747,0.998662,0.984022,0.005204,0.317331,-0.000035,0.000003,-0.000026,0.000016,-0.000048,-63.335814,0.000049,
2011,2773,-5.39968925206794,2.784844926252,-0.0397713339610277,0.002865,-0.000044,-0.008179,0.154182,-0.037404,319.409951,24.380587,0.999604,0.992819,0.003524,0.326297,-0.000060,-0.000039,-0.000010,-0.000035,-0.000064,-67.534115,0.000100,
2221,2128,-0.72448823361843,-11.2951032938005,0.0162541249007973,0.002362,0.000331,-0.005192,0.124979,-0.028448,329.330444,23.677099,0.998668,0.981667,0.005361,0.294922,-0.000036,-0.000020,-0.000026,-0.000001,-0.000055,-53.277943,0.000065,
2101,2953,-3.47368125079857,6.69798536107594,-0.0141420152369278,0.002846,-0.000311,-0.005012,0.145683,-0.038385,316.179005,24.436808,0.999446,0.992289,0.003604,0.336660,-0.000040,-0.000024,-0.000016,-0.000014,-0.000050,-58.209897,0.000068,
2056,2818,-4.42960876310601,3.76401760783746,-0.0289917695703821,0.002929,-0.000451,-0.003695,0.145216,-0.040002,318.486195,24.377619,0.999298,0.990915,0.003887,0.338729,-0.000040,-0.000010,-0.000009,-0.000007,-0.000043,-74.067833,0.000054,
2161,3283,-2.22644213996706,13.8553299847328,0.0201642126334036,0.002094,-0.000615,0.000828,0.093816,-0.030329,310.766550,24.741419,0.999698,0.995523,0.002876,0.380265,-0.000027,-0.000015,-0.000007,-0.000011,-0.000030,-64.675163,0.000043,
2296,2518,0.838185696767564,-2.76109140716667,-0.0319736709935796,0.002841,-0.000510,-0.001741,0.136076,-0.051083,322.516180,24.012484,0.999639,0.992029,0.003705,0.339075,-0.000030,-0.000016,-0.000027,0.000005,-0.000050,-52.009564,0.000056,
2071,2893,-4.11585281446927,5.39396378793699,-0.022367915474149,0.002547,-0.000536,-0.003830,0.128099,-0.051684,317.222832,24.398902,0.999382,0.992549,0.003744,0.304372,-0.000033,-0.000007,-0.000025,0.000008,-0.000049,-58.680870,0.000052,
2311,2563,1.15737854224779,-1.78031054397256,-0.0193320272189794,0.002499,-0.000527,-0.003641,0.126927,-0.048212,321.870640,24.054215,0.999074,0.987849,0.004514,0.370861,-0.000033,-0.000003,-0.000023,0.000010,-0.000045,-61.425800,0.000048,
2416,3133,3.33566526026494,10.6253044825048,0.014940150945506,0.002446,-0.000692,-0.001887,0.119160,-0.039122,312.881363,25.654825,0.999840,0.995900,0.002803,0.430662,-0.000021,0.000008,0.000000,0.000008,-0.000021,89.632338,0.000021,
2356,2788,2.09448308355196,3.12620369614895,-0.0260399351346337,0.002406,0.000018,-0.005587,0.130208,-0.026771,318.145840,24.633396,0.999724,0.993990,0.003279,0.336322,-0.000027,-0.000006,-0.000012,-0.000001,-0.000033,-66.051627,0.000038,
2131,3073,-2.84095010587473,9.30218118229426,0.0150167664955916,0.002731,-0.000247,-0.002987,0.134684,-0.037919,314.319064,24.557558,0.999663,0.994577,0.003274,0.326478,-0.000037,-0.000010,-0.000020,0.000000,-0.000047,-62.253027,0.000054,
2191,2023,-1.3602455268206,-13.5977055230333,0.0178531306604555,0.003243,0.000213,-0.007318,0.171492,-0.043920,331.156087,23.713113,0.999003,0.985144,0.004993,0.290251,-0.000027,-0.000015,-0.000012,-0.000008,-0.000034,-57.708353,0.000045,
2431,3268,3.63358858890878,13.5575404574206,-0.000649945181351086,0.002435,-0.001006,-0.000657,0.114111,-0.048875,310.548829,26.263985,0.999664,0.993938,0.003227,0.311467,-0.000001,-0.000035,-0.000002,-0.000001,-0.000035,-3.550823,0.000041,
2461,2068,4.5306525112279,-12.6188013854238,0.0346146017074034,0.002402,-0.000583,-0.002430,0.118722,-0.068013,330.442117,22.039999,0.999140,0.982058,0.005392,0.278743,-0.000027,-0.000012,0.000012,-0.000005,-0.000034,61.235961,0.000043,
2491,2278,5.14163385700759,-8.00948403434466,0.00581065475637388,0.002748,-0.000293,-0.004310,0.142093,-0.043218,326.907864,22.747474,0.999158,0.982561,0.005009,0.267890,-0.000018,0.000002,-0.000011,0.000006,-0.000023,-66.638712,0.000023,
2026,2788,-5.0765530524246,3.11099073802013,-0.0352619749692167,0.002644,-0.000359,-0.005866,0.137864,-0.036771,319.092364,24.358410,0.999575,0.993262,0.003429,0.348717,-0.000057,-0.000023,-0.000011,-0.000020,-0.000060,-73.672216,0.000084,
2506,2443,5.43401783683837,-4.39844647778859,-0.00190668847380948,0.002286,-0.000185,-0.004534,0.122097,-0.041804,324.193101,23.288711,0.999026,0.983077,0.005202,0.355513,0.000030,-0.000021,0.000028,0.000042,-0.000033,23.697245,0.000044,
2236,2278,-0.424426340135231,-8.0092094840106,-0.00187013725349061,0.002743,-0.000884,-0.001228,0.129488,-0.064906,326.734682,23.786530,0.999028,0.984856,0.004981,0.300764,-0.000034,-0.000034,-0.000029,-0.000005,-0.000063,-44.956248,0.000076,
2326,2683,1.46034285942203,0.838040258307387,-0.030440098815177,0.002228,-0.000815,0.000440,0.100541,-0.037610,319.793354,24.345689,0.999706,0.992642,0.003653,0.348477,-0.000037,0.000006,-0.000026,0.000018,-0.000049,-64.965170,0.000050,
2281,2488,0.51724386998713,-3.41884685115542,-0.0213146465963518,0.002479,-0.000629,-0.000321,0.114634,-0.038251,323.087856,23.828762,0.999693,0.991417,0.003907,0.506233,-0.000024,-0.000018,-0.000023,0.000003,-0.000045,-49.120384,0.000050,
2206,2068,-1.04102295946974,-12.6114583959184,0.0241795709829375,0.002616,-0.000367,-0.001593,0.124807,-0.040929,330.398311,23.682811,0.999140,0.980505,0.005389,0.282764,-0.000034,-0.000025,-0.000021,-0.000008,-0.000051,-51.027045,0.000064,
2086,2998,-3.80550693299266,7.67253282057287,0.00298246800139168,0.002734,-0.000837,-0.002396,0.132716,-0.045827,315.651672,24.401309,0.999610,0.994050,0.003150,0.323678,-0.000036,-0.000015,-0.000011,-0.000010,-0.000041,-66.202058,0.000054,
2476,2203,4.8299031125292,-9.6535579415935,0.0111789757916654,0.002909,0.000061,-0.004993,0.152007,-0.035188,328.135401,22.510611,0.998075,0.971725,0.006528,0.282165,0.000000,-0.000021,-0.000021,0.000013,-0.000034,-32.072626,0.000034,
2011,2788,-5.40185342072418,3.11031661809402,-0.0319742661536111,0.002570,-0.000039,-0.006849,0.137023,-0.028399,319.214814,24.364661,0.999611,0.993019,0.003455,0.339107,-0.000070,-0.000028,-0.000007,-0.000027,-0.000071,-80.266053,0.000101,
2401,3118,3.01305364415932,10.2989550778291,0.0272601001416319,0.001977,-0.000595,-0.001504,0.096138,-0.038007,313.191092,25.670956,0.999862,0.995993,0.002744,0.308699,-0.000017,0.000011,0.000004,0.000012,-0.000018,82.131110,0.000018,
2266,2428,0.202288263282611,-4.72858646756052,-0.00895098119343629,0.002531,-0.000356,-0.001815,0.122031,-0.039581,324.190062,23.941751,0.999282,0.988766,0.004325,0.316866,-0.000036,-0.000019,-0.000029,0.000003,-0.000058,-53.001142,0.000066,
2341,2728,1.7788580048273,1.81960939974886,-0.0326056429394157,0.002602,-0.000671,-0.002848,0.129167,-0.055932,319.067146,24.509247,0.999329,0.990056,0.004014,0.273061,-0.000034,0.000001,-0.000014,0.000006,-0.000039,-70.343005,0.000042,
2146,3148,-2.52858548020812,10.9291082706404,0.0176749458810832,0.002263,-0.000433,-0.001383,0.108313,-0.044513,313.027995,24.611142,0.999525,0.993766,0.003368,0.353569,-0.000048,-0.000008,-0.000020,0.000001,-0.000057,-67.208082,0.000065,
2371,2848,2.40915042738208,4.43234182354011,-0.0257325731635092,0.002429,-0.000567,-0.001492,0.116729,-0.035973,317.160945,24.775802,0.999576,0.990987,0.003804,0.359502,-0.000039,-0.000001,-0.000011,0.000002,-0.000042,-74.312456,0.000047,
2251,2338,-0.108904087721001,-6.69586355592023,-0.00571033382107089,0.002016,-0.000454,-0.002060,0.099025,-0.061815,325.674157,23.870773,0.998796,0.985341,0.005090,0.257416,-0.000038,-0.000003,-0.000025,0.000010,-0.000051,-62.769848,0.000054,
2161,3298,-2.22901256004203,14.1802327416942,0.0153201736635538,0.002240,-0.000497,-0.001703,0.108282,-0.044775,310.494623,24.746468,0.999774,0.996864,0.002498,0.369451,-0.000016,-0.000007,-0.000012,0.000001,-0.000024,-55.184508,0.000028,
2191,2038,-1.36346643130743,-13.2666805328022,0.0104203791804025,0.003136,0.000101,-0.006012,0.162524,-0.045638,330.843825,23.822966,0.999109,0.986866,0.004716,0.197177,-0.000026,-0.000013,-0.000014,-0.000004,-0.000035,-57.952397,0.000043,
2116,3013,-3.15699971192714,7.99913231023798,0.00458129485349446,0.002664,-0.000707,-0.005373,0.138459,-0.055542,315.281060,24.425158,0.999006,0.989603,0.004085,0.377849,-0.000030,-0.000009,-0.000006,-0.000007,-0.000032,-75.426823,0.000042,
2296,2533,0.834853987430584,-2.43477637852553,-0.0382265205768135,0.002666,-0.000673,-0.002118,0.129271,-0.068292,322.214786,23.910380,0.999690,0.994137,0.003353,0.455213,-0.000027,-0.000019,-0.000030,0.000008,-0.000054,-48.805663,0.000058,
2056,2833,-4.43213579578618,4.0898285659559,-0.0233343519782352,0.002472,-0.000436,-0.002369,0.120393,-0.046695,318.265204,24.404159,0.999105,0.988651,0.004215,0.299603,-0.000043,-0.000009,-0.000017,-0.000002,-0.000049,-67.941090,0.000058,
2026,2803,-5.078789343475,3.43639080102579,-0.0329943204432084,0.002724,-0.000632,-0.003011,0.133569,-0.047503,318.864010,24.316983,0.999573,0.993086,0.003414,0.369418,-0.000056,-0.000025,-0.000012,-0.000021,-0.000060,-70.702959,0.000084,
2506,2458,5.43055996165463,-4.06973479663863,-0.00868628079626887,0.002642,-0.000280,-0.003097,0.132882,-0.028647,323.903367,23.344714,0.999296,0.986961,0.004491,0.375230,0.000037,-0.000030,0.000029,0.000048,-0.000040,20.510468,0.000051,
2461,2083,4.52649818708734,-12.2879432102128,0.0264356679959405,0.001922,-0.000267,-0.003016,0.099069,-0.040802,330.111591,22.117954,0.999196,0.980473,0.005565,0.286297,-0.000028,-0.000017,0.000005,-0.000015,-0.000030,68.150105,0.000045,
2491,2293,5.13831291361452,-7.68239909358093,0.00931268604426805,0.002682,-0.001089,0.001215,0.117619,-0.054018,326.670388,22.720655,0.999218,0.983298,0.004928,0.344828,-0.000013,-0.000004,-0.000001,-0.000004,-0.000013,-84.721355,0.000017,
2101,2968,-3.47575670883731,7.02297646180406,-0.00569779797916681,0.002563,-0.000480,-0.006518,0.137009,-0.053271,315.996960,24.450027,0.999654,0.992303,0.003409,0.308882,-0.000034,-0.000021,-0.000018,-0.000009,-0.000047,-54.984196,0.000060,
2041,2833,-4.75765902372586,4.08906369880346,-0.0253355267752227,0.002448,-0.000206,-0.004141,0.124285,-0.026855,318.339788,24.349580,0.999013,0.990007,0.004037,0.355913,-0.000049,-0.000009,-0.000018,-0.000002,-0.000056,-68.927525,0.000066,
2431,3283,3.63045949270473,13.8827390234403,-0.00470606236473259,0.002486,-0.000732,-0.002135,0.121983,-0.050918,310.276153,26.290168,0.999766,0.994640,0.003018,0.331660,0.000008,-0.000056,-0.000005,0.000008,-0.000057,-4.168766,0.000061,
2071,2908,-4.11821486367588,5.71900949298314,-0.0163527444988745,0.002468,-0.000862,0.000770,0.111212,-0.047923,317.012597,24.366662,0.999539,0.993113,0.003474,0.336502,-0.000033,-0.000019,-0.000026,0.000000,-0.000053,-52.632040,0.000061,
2416,3148,3.33321834513767,10.9505525009357,0.0279566868682082,0.002204,-0.000935,0.001835,0.094308,-0.038431,312.719762,25.748470,0.999741,0.994857,0.003007,0.384036,-0.000020,0.000000,0.000000,0.000000,-0.000020,-89.461647,0.000023,
2386,2953,2.71596378333077,6.71511185393247,-0.00923564889308182,0.002182,-0.001323,0.002527,0.090569,-0.088081,315.567564,25.109276,0.999180,0.989438,0.004200,0.293551,-0.000042,-0.000016,-0.000010,-0.000013,-0.000045,-71.429336,0.000060,
2356,2803,2.09201194983043,3.45186557377445,-0.0200816596134246,0.002272,-0.000102,-0.006178,0.126094,-0.036489,317.947576,24.648729,0.999830,0.995411,0.003115,0.349910,-0.000028,-0.000005,-0.000013,0.000001,-0.000034,-66.571475,0.000038,
2221,2143,-0.726826387590691,-10.9658254847432,0.00919587439642555,0.002817,0.000583,-0.009080,0.158294,-0.012898,329.063504,23.656624,0.998907,0.983268,0.005180,0.352952,-0.000040,-0.000036,-0.000022,-0.000015,-0.000060,-47.909163,0.000080,
2476,2218,4.82608197529356,-9.32429405446393,0.010742864553265,0.002306,-0.000282,-0.003672,0.119293,-0.036249,327.856181,22.607096,0.998967,0.981154,0.005652,0.243841,-0.000005,-0.000029,-0.000016,0.000003,-0.000037,-26.657522,0.000041,
2311,2578,1.15373841717541,-1.45124909322632,-0.0291239231752911,0.002462,-0.000468,-0.002250,0.120527,-0.038493,321.538294,24.161118,0.999465,0.991702,0.003780,0.306978,-0.000031,0.000003,-0.000025,0.000016,-0.000045,-62.000615,0.000045,
2011,2803,-5.40425907958424,3.43566396846065,-0.0348568815356316,0.002757,-0.000611,-0.004037,0.137800,-0.056191,318.948787,24.295271,0.999561,0.993338,0.003405,0.368577,-0.000064,-0.000028,-0.000007,-0.000027,-0.000066,-79.285919,0.000095,
2236,2293,-0.427277066567687,-7.68066332735905,-0.00833778373737459,0.002771,-0.000346,-0.003828,0.139372,-0.058107,326.448636,23.772949,0.999123,0.986656,0.004595,0.344531,-0.000035,-0.000021,-0.000024,-0.000003,-0.000053,-52.866118,0.000063,
2086,3013,-3.8081231358892,7.99730488898255,0.00201123612231413,0.002567,-0.000753,-0.002716,0.125938,-0.048901,315.392795,24.328622,0.999683,0.994538,0.002967,0.391459,-0.000034,-0.000009,-0.000013,-0.000004,-0.000040,-67.081711,0.000048,
2401,3133,3.00985169800581,10.6251789875936,0.0174594182884107,0.002494,-0.000487,-0.001305,0.119321,-0.018504,312.885962,25.691554,0.999790,0.995205,0.002946,0.352143,-0.000015,0.000007,0.000001,0.000007,-0.000015,88.466969,0.000015,
2206,2083,-1.04435383794998,-12.2821183991795,0.017527976404665,0.002401,-0.000583,0.000109,0.109493,-0.039972,330.086726,23.662889,0.999138,0.979650,0.005486,0.323940,-0.000032,-0.000025,-0.000024,-0.000005,-0.000052,-49.212400,0.000063,
2326,2698,1.45810078705984,1.16392466267411,-0.0266713295265504,0.002391,-0.000440,-0.000807,0.112455,-0.026635,319.593236,24.314276,0.999544,0.991749,0.003796,0.425428,-0.000040,0.000005,-0.000024,0.000015,-0.000050,-66.650782,0.000051,
2491,2308,5.13511442284093,-7.35279779320495,0.00736756506046277,0.002442,-0.000631,-0.002388,0.120636,-0.047201,326.413652,22.856640,0.998821,0.980909,0.005368,0.276818,-0.000008,0.000007,-0.000003,0.000008,-0.000009,-79.033639,0.000010,
2266,2443,0.199973764595583,-4.40074828991224,-0.00866030448844413,0.002701,-0.000815,-0.004188,0.137490,-0.085614,323.965361,24.035157,0.999556,0.990253,0.004121,0.204484,-0.000036,-0.000017,-0.000025,0.000000,-0.000053,-55.291310,0.000062,
2191,2053,-1.36667240962662,-12.9383110911409,0.00810046095114103,0.002692,-0.000101,-0.004480,0.137310,-0.040342,330.558975,23.747505,0.999154,0.983955,0.004995,0.296152,-0.000026,-0.000024,-0.000010,-0.000015,-0.000035,-47.122121,0.000051,
2506,2473,5.42677671523051,-3.74124978330126,-0.0129194773811037,0.002389,-0.000602,-0.002491,0.118802,-0.035634,323.610036,23.429543,0.999454,0.986040,0.004450,0.346064,0.000023,-0.000045,0.000015,0.000026,-0.000048,11.977165,0.000048,
2056,2848,-4.43432789813155,4.41566205699813,-0.0262243874861383,0.002587,-0.000228,-0.005759,0.135316,-0.049500,318.012417,24.368531,0.999334,0.991631,0.003735,0.326920,-0.000040,-0.000009,-0.000024,0.000004,-0.000053,-61.788668,0.000059,
2131,3088,-2.84276540726721,9.62667285959995,0.020151377561433,0.002867,-0.000433,-0.006091,0.150264,-0.047032,314.133083,24.524336,0.999830,0.995719,0.003021,0.355440,-0.000042,-0.000016,-0.000021,-0.000004,-0.000054,-60.615014,0.000065,
2341,2743,1.7765746178691,2.14475388992492,-0.0240086600637142,0.002603,-0.000880,-0.001150,0.123258,-0.055100,318.889659,24.471639,0.999499,0.991166,0.003801,0.348074,-0.000033,0.000002,-0.000010,0.000005,-0.000036,-75.208148,0.000039,
2026,2818,-5.08091732183123,3.76194350659412,-0.0301435160661754,0.002735,-0.000696,-0.002553,0.132861,-0.037586,318.643805,24.277489,0.999346,0.992980,0.003499,0.409084,-0.000050,-0.000015,-0.000010,-0.000013,-0.000053,-75.669074,0.000069,
2371,2863,2.40650617122339,4.75842511946272,-0.0215905766445985,0.002345,-0.000592,-0.001343,0.112322,-0.039548,316.946622,24.826308,0.999535,0.991689,0.003695,0.346066,-0.000041,-0.000004,-0.000016,0.000002,-0.000047,-69.559283,0.000054,
2116,3028,-3.15961032038826,8.32518202064675,0.00475469098387293,0.002592,-0.000437,-0.004019,0.131207,-0.036046,315.030353,24.459773,0.999340,0.991911,0.003662,0.365068,-0.000030,-0.000007,-0.000008,-0.000005,-0.000032,-73.400958,0.000040,
2281,2503,0.514750281305826,-3.08891620807676,-0.0223860748417906,0.002646,-0.000521,-0.002185,0.128583,-0.041867,322.848611,24.079784,0.999688,0.992429,0.003768,0.280514,-0.000029,-0.000020,-0.000026,0.000002,-0.000051,-50.355418,0.000058,
2041,2848,-4.75973464220854,4.41550787707989,-0.0351453337427756,0.003012,0.000286,-0.008589,0.162762,-0.030962,318.052515,24.319401,0.999166,0.991297,0.003922,0.374235,-0.000046,-0.000007,-0.000026,0.000006,-0.000059,-63.214587,0.000065,
2176,1993,-1.68245235505065,-14.2572374549485,0.0359280058316358,0.002521,-0.000038,-0.003068,0.124994,-0.046228,331.786916,23.852829,0.999247,0.983396,0.005137,0.216928,0.000028,-0.000042,-0.000007,0.000028,-0.000043,-5.858027,0.000044,
2416,3163,3.33063241533301,11.2763878218679,0.02525448278044,0.002492,-0.000592,-0.001813,0.121013,-0.038945,312.477721,25.805107,0.999704,0.994257,0.003116,0.373572,-0.000019,0.000001,0.000001,0.000001,-0.000019,88.428939,0.000022,
2461,2098,4.52313065565847,-11.958071531424,0.0229507176279071,0.002066,-0.000981,-0.000891,0.097421,-0.066608,329.838750,22.216829,0.999554,0.981715,0.005312,0.219366,-0.000027,-0.000015,-0.000002,-0.000015,-0.000027,-82.995490,0.000043,
2236,2308,-0.429850579417149,-7.35149250175022,-0.0132919682078523,0.003001,0.000060,-0.006085,0.157375,-0.034944,326.182751,23.821235,0.998885,0.986039,0.004745,0.342751,-0.000037,-0.000014,-0.000021,-0.000001,-0.000050,-59.135398,0.000058,
2431,3298,3.62676298959856,14.2077386101215,-0.0111487797806831,0.002341,-0.000648,-0.001400,0.112582,-0.053664,309.966164,26.290186,0.999724,0.994585,0.003035,0.377326,0.000012,-0.000062,-0.000010,0.000014,-0.000064,-7.605164,0.000067,
2356,2818,2.0894108479732,3.77779923182194,-0.0173074599093752,0.002552,-0.000485,-0.002930,0.127350,-0.045654,317.727874,24.667808,0.999673,0.993207,0.003476,0.360345,-0.000031,-0.000007,-0.000010,-0.000003,-0.000034,-69.519380,0.000041,
2386,2968,2.71293137081036,7.04204015926578,-0.0146354044366603,0.002281,-0.001214,0.000058,0.104113,-0.075406,315.290301,25.182155,0.999510,0.991406,0.003868,0.276138,-0.000044,-0.000015,-0.000008,-0.000013,-0.000046,-75.753351,0.000062,
2086,3028,-3.81041363122732,8.32300725407798,0.00455369301903374,0.002560,-0.000431,-0.002220,0.124251,-0.038751,315.167688,24.355793,0.999516,0.993317,0.003319,0.372492,-0.000032,-0.000007,-0.000014,0.000000,-0.000039,-65.856908,0.000045,
2146,3163,-2.53003827975046,11.2538562219026,0.0271574931375085,0.002561,-0.000468,-0.003582,0.128795,-0.038454,312.882601,24.630348,0.999573,0.992743,0.003483,0.347217,-0.000045,-0.000009,-0.000023,0.000002,-0.000056,-64.184469,0.000064,
2011,2818,-5.40646995774076,3.76119802420651,-0.0344526420354327,0.002925,-0.000723,-0.001588,0.138806,-0.065671,318.710064,24.254541,0.999146,0.992317,0.003649,0.387773,-0.000056,-0.000020,-0.000004,-0.000019,-0.000056,-84.422841,0.000079,
2506,2488,5.42371813273949,-3.41376506564735,-0.0102891173003741,0.002331,-0.000502,-0.001153,0.111006,-0.033240,323.380635,23.481536,0.999469,0.986300,0.004518,0.358628,0.000025,-0.000073,0.000004,0.000026,-0.000073,2.346161,0.000074,
2101,2983,-3.47847557496381,7.34809114407441,-0.00107634117540556,0.002265,-0.000735,-0.002040,0.110144,-0.039669,315.764621,24.423122,0.999648,0.993810,0.003196,0.349866,-0.000036,-0.000024,-0.000015,-0.000014,-0.000046,-56.773926,0.000063,
2251,2353,-0.111051466444298,-6.36927922422263,0.00439486254248322,0.002015,-0.000833,0.001238,0.088108,-0.048071,325.505607,23.855488,0.999011,0.986351,0.004894,0.311309,-0.000041,-0.000010,-0.000026,0.000004,-0.000056,-60.641769,0.000062,
2401,3148,3.00763323813225,10.949278272781,0.0312372980505984,0.002340,-0.000733,0.001665,0.101330,-0.025119,312.738253,25.690791,0.999770,0.995415,0.002886,0.390546,-0.000014,0.000000,0.000000,0.000000,-0.000014,88.032352,0.000016,
2476,2233,4.82304231031764,-8.9969503938091,0.0136486797183579,0.002112,-0.000646,-0.003297,0.108861,-0.059799,327.628125,22.590251,0.999164,0.982954,0.005399,0.296282,-0.000003,-0.000012,-0.000012,0.000006,-0.000020,-35.141429,0.000021,
2071,2923,-4.11981766722917,6.04404948422901,-0.010092783135633,0.002662,-0.000785,-0.002203,0.128725,-0.043117,316.838538,24.337861,0.999386,0.992760,0.003575,0.366453,-0.000033,-0.000019,-0.000020,-0.000006,-0.000047,-54.832810,0.000058,
2056,2863,-4.43609901316719,4.74055611610765,-0.0163640276198294,0.002634,-0.000533,-0.004377,0.133467,-0.059107,317.849596,24.352439,0.999390,0.992130,0.003661,0.327655,-0.000041,-0.000010,-0.000024,0.000004,-0.000054,-61.455545,0.000061,
2026,2833,-5.08299609396505,4.08862167780147,-0.0308714368071605,0.002836,-0.000374,-0.005092,0.144517,-0.050802,318.405574,24.341286,0.999640,0.994667,0.003335,0.321972,-0.000057,-0.000007,-0.000017,-0.000001,-0.000062,-72.699175,0.000073,
2296,2548,0.832818084011024,-2.10682281938535,-0.0250361797019991,0.002443,-0.000298,-0.001433,0.116858,-0.038189,322.068533,24.089259,0.999288,0.989969,0.004176,0.337008,-0.000030,-0.000011,-0.000027,0.000008,-0.000049,-54.457814,0.000052,
2221,2158,-0.729118817190216,-10.6369137678412,0.00778846093874108,0.003278,0.000323,-0.007903,0.175639,-0.028672,328.827703,23.700644,0.998843,0.985048,0.005194,0.314614,-0.000039,-0.000035,-0.000021,-0.000016,-0.000058,-47.256998,0.000078,
2176,2008,-1.68627318742437,-13.9264319699509,0.0173098017371558,0.002346,0.000015,-0.004393,0.121032,-0.019667,331.387382,23.773891,0.999262,0.986189,0.004755,0.339476,0.000003,-0.000015,-0.000007,0.000006,-0.000018,-19.783119,0.000018,
2341,2758,1.77355496181923,2.47161544763425,-0.0212698871853263,0.002222,-0.000463,-0.000752,0.104571,-0.020972,318.649379,24.515654,0.999532,0.991173,0.003850,0.375122,-0.000031,0.000004,-0.000006,0.000005,-0.000032,-79.901584,0.000035,
2311,2593,1.15174009634896,-1.12536787900144,-0.0203741446156869,0.002600,-0.000286,-0.001746,0.125264,-0.012474,321.373038,24.126649,0.999562,0.992086,0.003650,0.400223,-0.000031,-0.000005,-0.000023,0.000008,-0.000045,-59.770498,0.000048,
2491,2323,5.13090626712277,-7.02291305467573,-0.00592893813558248,0.002201,-0.000180,-0.005303,0.120963,-0.035506,326.059451,22.906597,0.998597,0.981880,0.005394,0.300037,-0.000013,0.000016,0.000012,0.000020,-0.000018,70.551655,0.000022,
2041,2863,-4.76181506224978,4.74049556660713,-0.0230752379393948,0.002753,-0.000298,-0.004647,0.139698,-0.038871,317.886976,24.326911,0.999251,0.991515,0.003991,0.350770,-0.000046,-0.000009,-0.000026,0.000005,-0.000060,-62.728673,0.000066,
2191,2068,-1.36987020329912,-12.6100252302829,0.00541154929499044,0.002458,-0.000675,-0.000402,0.113699,-0.066197,330.272752,23.697161,0.999470,0.985468,0.004902,0.338668,-0.000024,-0.000032,-0.000009,-0.000018,-0.000038,-33.105621,0.000057,
2206,2098,-1.04671675705371,-11.9528672954162,0.0157090585958031,0.002632,-0.000506,-0.000921,0.123356,-0.043768,329.844235,23.698683,0.999050,0.982582,0.005283,0.304405,-0.000035,-0.000022,-0.000024,-0.000004,-0.000053,-52.571618,0.000064,
2116,3043,-3.16172430882733,8.65061152992282,0.0205872184704958,0.002402,-0.001353,0.003446,0.100051,-0.059120,314.887044,24.586489,0.999616,0.993699,0.003324,0.217534,-0.000031,-0.000008,-0.000011,-0.000004,-0.000036,-68.616803,0.000044,
2446,1993,4.21661000937871,-14.2630234650239,0.0200172472751774,0.002504,-0.000370,-0.003355,0.126772,-0.052445,331.503511,21.948172,0.999360,0.977284,0.005686,0.204349,-0.000085,-0.000004,-0.000014,-0.000001,-0.000087,-80.500194,0.000101,
2371,2878,2.40404343783877,5.08457184683855,-0.0150328194241638,0.002454,-0.001108,0.001322,0.107666,-0.046374,316.752150,24.907342,0.999556,0.993743,0.003417,0.298747,-0.000041,-0.000011,-0.000014,-0.000006,-0.000047,-68.723077,0.000058,
2011,2833,-5.40774664899419,4.08754366374264,-0.0228929422603414,0.002982,-0.000536,-0.005728,0.152750,-0.065800,318.576541,24.367259,0.999651,0.994935,0.003316,0.262669,-0.000060,-0.000007,-0.000009,-0.000006,-0.000062,-80.535832,0.000075,
2266,2458,0.19625366706196,-4.07111793652408,-0.0237334612535847,0.002818,-0.000487,-0.003267,0.139961,-0.050682,323.598473,24.074264,0.999698,0.991316,0.003951,0.227599,-0.000036,-0.000014,-0.000017,-0.000004,-0.000045,-61.302746,0.000055,
2326,2713,1.45515106958254,1.49270144786645,-0.0316525230488196,0.002405,-0.000265,-0.003623,0.122891,-0.033036,319.317164,24.498999,0.999092,0.987754,0.004426,0.269404,-0.000039,0.000003,-0.000022,0.000012,-0.000048,-66.880821,0.000050,
2086,3043,-3.81230636418447,8.64735643107812,0.0175777279684439,0.002332,-0.000641,-0.001052,0.110305,-0.043624,315.018521,24.345890,0.999610,0.992724,0.003423,0.375754,-0.000033,-0.000008,-0.000018,0.000002,-0.000043,-62.551722,0.000049,
2416,3178,3.32773539121278,11.6018286826543,0.0238415171161819,0.002554,-0.000585,-0.003093,0.128575,-0.044623,312.227457,25.842477,0.999610,0.993201,0.003329,0.376872,-0.000016,0.000000,-0.000001,0.000000,-0.000016,-86.552299,0.000018,
2281,2518,0.51233357209663,-2.76338124447474,-0.0182591870120064,0.002615,-0.000633,-0.002247,0.127333,-0.049080,322.639682,23.983525,0.999730,0.992773,0.003699,0.398157,-0.000031,-0.000011,-0.000025,0.000006,-0.000049,-55.889645,0.000053,
2461,2113,4.5198775737417,-11.6285493003789,0.0157635136351928,0.002635,-0.001040,0.001434,0.114679,-0.043144,329.553972,22.200092,0.999469,0.979353,0.005598,0.317162,-0.000025,-0.000011,-0.000004,-0.000010,-0.000026,-76.563184,0.000037,
2056,2878,-4.43827725838246,5.06629562635389,-0.0158837933718132,0.002880,-0.000649,-0.002574,0.139701,-0.055955,317.616093,24.335481,0.999236,0.991013,0.003976,0.341905,-0.000040,-0.000004,-0.000025,0.000008,-0.000052,-62.931281,0.000056,
2131,3103,-2.84527666370801,9.95173902451582,0.0234746854981154,0.002796,-0.000660,-0.003580,0.139374,-0.054893,313.905252,24.534699,0.999793,0.996136,0.002862,0.341690,-0.000046,-0.000013,-0.000020,-0.000004,-0.000055,-64.710297,0.000066,
2506,2503,5.42044244747506,-3.08542357574387,-0.0146064458344881,0.002426,-0.000616,-0.002472,0.120412,-0.057412,323.110140,23.580027,0.999282,0.986914,0.004747,0.298298,0.000015,-0.000086,0.000002,0.000015,-0.000086,1.106918,0.000092,
2026,2848,-5.08603268868207,4.41382071567116,-0.050638642612455,0.002778,0.000460,-0.013227,0.164477,-0.055543,318.017618,24.123221,0.999645,0.995670,0.003168,0.525772,-0.000053,-0.000005,-0.000025,0.000005,-0.000064,-67.151741,0.000071,
2236,2323,-0.432966630325499,-7.02407257317063,-0.0137250532677058,0.002795,-0.000603,-0.002255,0.135309,-0.054861,325.915453,23.803199,0.998734,0.987495,0.004642,0.364034,-0.000042,-0.000003,-0.000024,0.000008,-0.000054,-64.340456,0.000058,
2176,2023,-1.68798438861531,-13.5976523083346,0.0222604221956431,0.002729,0.000099,-0.005002,0.140506,-0.015546,331.207290,23.806719,0.998773,0.986173,0.004894,0.326315,-0.000007,-0.000014,-0.000005,-0.000005,-0.000016,-27.712152,0.000022,
2146,3178,-2.53244757072724,11.5783884998074,0.0337953067929107,0.002447,-0.000665,-0.000420,0.113837,-0.043340,312.678228,24.626358,0.999490,0.991819,0.003547,0.352729,-0.000046,-0.000011,-0.000023,0.000001,-0.000058,-63.592995,0.000066,
2101,2998,-3.48070567101419,7.67410742377665,-0.00444230932754408,0.002614,-0.000635,-0.003138,0.129482,-0.033104,315.511135,24.435425,0.999633,0.994355,0.003130,0.344950,-0.000038,-0.000015,-0.000006,-0.000013,-0.000040,-75.377517,0.000055,
2476,2248,4.82039366939307,-8.66943299781262,0.0139099104188176,0.002365,-0.000372,-0.004843,0.126418,-0.063055,327.405869,22.546537,0.999121,0.983194,0.005219,0.395795,-0.000002,0.000005,-0.000013,0.000016,-0.000012,-52.560405,0.000017,
2041,2878,-4.7642109629745,5.0665981597448,-0.0253294206621604,0.002970,-0.000809,-0.002086,0.142357,-0.065478,317.627155,24.353039,0.998975,0.988445,0.004395,0.290247,-0.000042,-0.000003,-0.000027,0.000010,-0.000056,-62.929859,0.000059,
2071,2938,-4.12169182607894,6.36988350070027,-0.00923783886162255,0.002846,-0.000390,-0.006446,0.149440,-0.041595,316.622151,24.350540,0.999343,0.992323,0.003597,0.351529,-0.000034,-0.000019,-0.000020,-0.000005,-0.000048,-55.820064,0.000059,
2491,2338,5.12752827865986,-6.69457760947154,-0.000598541528177066,0.001711,-0.000367,-0.002408,0.087393,-0.049913,325.827181,23.031340,0.998935,0.985727,0.005250,0.221446,-0.000013,0.000018,0.000022,0.000030,-0.000025,62.545552,0.000032,
2401,3163,3.00443559770277,11.2752507452762,0.0263171973536487,0.002373,-0.000974,0.000577,0.106725,-0.042732,312.456357,25.763511,0.999596,0.993701,0.003286,0.344419,-0.000013,-0.000001,0.000000,-0.000001,-0.000013,88.021745,0.000016,
2446,2008,4.21461590814353,-13.9357732922951,0.0297891137076931,0.002667,-0.000268,-0.003815,0.135950,-0.040816,331.353329,21.887069,0.999338,0.977577,0.005778,0.332436,-0.000076,-0.000018,-0.000006,-0.000017,-0.000076,-83.996256,0.000099,
2341,2773,1.77165350398155,2.7980448793469,-0.0163565707122757,0.002767,-0.000624,-0.000731,0.129477,-0.026442,318.471183,24.580426,0.999624,0.992867,0.003485,0.341321,-0.000031,-0.000008,-0.000008,-0.000006,-0.000033,-72.424823,0.000042,
2296,2563,0.830746419808683,-1.77988935789427,-0.0155136262606561,0.002449,-0.000343,-0.000770,0.114901,-0.025645,321.902732,24.162792,0.998867,0.988743,0.004700,0.306617,-0.000031,-0.000002,-0.000031,0.000018,-0.000051,-57.372322,0.000051,
2251,2368,-0.114784457132295,-6.03937763389989,-0.00935437141663442,0.002033,-0.000983,0.002861,0.083590,-0.037320,325.143427,23.918934,0.999436,0.988963,0.004543,0.284206,-0.000050,-0.000020,-0.000029,-0.000002,-0.000067,-58.894630,0.000079,
2191,2083,-1.37152609928109,-12.2800039398455,0.0102190589499855,0.002861,-0.000398,-0.002284,0.138127,-0.052553,330.095314,23.853673,0.999368,0.984579,0.005049,0.213283,-0.000022,-0.000029,-0.000013,-0.000012,-0.000039,-36.851043,0.000053,
2221,2173,-0.731918554635424,-10.3091266902515,0.0108278526679442,0.002867,0.000319,-0.007395,0.155165,-0.019851,328.591441,23.670297,0.998959,0.985144,0.005001,0.375591,-0.000042,-0.000032,-0.000020,-0.000016,-0.000057,-51.756617,0.000077,
2356,2833,2.08631422649876,4.10453220493391,-0.0187755926831414,0.002598,-0.000783,-0.000569,0.121043,-0.053292,317.464675,24.730895,0.999708,0.991568,0.003750,0.328241,-0.000030,-0.000003,-0.000008,-0.000001,-0.000032,-74.179109,0.000038,
2011,2848,-5.41050386528076,4.41214193678142,-0.0241801003321029,0.002638,-0.000770,-0.004409,0.133312,-0.060126,318.303634,24.220800,0.999693,0.995488,0.003228,0.402591,-0.000056,-0.000002,-0.000015,0.000002,-0.000060,-75.328852,0.000068,
2311,2608,1.14879682181292,-0.798322965874448,-0.0217163633471387,0.002521,-0.000458,-0.001695,0.121405,-0.030434,321.114637,24.159672,0.999558,0.992075,0.003630,0.382297,-0.000034,-0.000005,-0.000021,0.000006,-0.000045,-62.687308,0.000049,
2386,2983,2.71082982982798,7.36767590121118,-0.00846053437913952,0.002542,-0.000687,-0.000552,0.118516,-0.051279,315.111232,25.208666,0.999492,0.990479,0.004060,0.316406,-0.000042,-0.000012,-0.000010,-0.000009,-0.000045,-73.065247,0.000058,
2086,3058,-3.81411900405809,8.97265779400788,0.014430108600493,0.002809,-0.000374,-0.006198,0.147282,-0.043863,314.784489,24.316136,0.999525,0.992981,0.003379,0.403506,-0.000030,-0.000016,-0.000022,0.000000,-0.000046,-53.822952,0.000053,
2116,3058,-3.16391668678714,8.97473404748381,0.0132919324528871,0.002779,-0.000699,-0.002147,0.134139,-0.058791,314.616018,24.421265,0.999595,0.993514,0.003444,0.386132,-0.000028,-0.000017,-0.000016,-0.000006,-0.000039,-55.248892,0.000049,
2056,2893,-4.44076905753972,5.39270442641894,-0.0145530133511329,0.002673,-0.000501,-0.002235,0.129336,-0.038307,317.372678,24.376002,0.999384,0.993266,0.003667,0.313173,-0.000038,-0.000006,-0.000026,0.000008,-0.000052,-61.129890,0.000056,
2266,2473,0.193994631369375,-3.74592602675386,-0.013456383735388,0.002519,-0.000487,-0.002659,0.124268,-0.029928,323.426616,23.961633,0.999761,0.992249,0.003788,0.387750,-0.000030,-0.000016,-0.000014,-0.000008,-0.000038,-58.851388,0.000049,
2026,2863,-5.08719454359914,4.74085161061191,-0.0340149887582015,0.003235,-0.000092,-0.007927,0.170890,-0.035054,317.918152,24.324360,0.999351,0.993010,0.003728,0.334624,-0.000055,-0.000007,-0.000024,0.000003,-0.000065,-67.262476,0.000073,
2506,2518,5.41682890963609,-2.75838488256624,-0.0154640659723668,0.002254,-0.001253,0.000577,0.100483,-0.068445,322.839606,23.582627,0.999364,0.987855,0.004589,0.347060,0.000005,-0.000076,0.000000,0.000005,-0.000076,-0.008766,0.000085,
2176,2038,-1.69072668783558,-13.2678037146722,0.0229544746982242,0.002570,-0.000156,-0.002801,0.126367,-0.031367,330.957894,23.914039,0.999027,0.985968,0.004808,0.219003,-0.000010,-0.000013,-0.000007,-0.000004,-0.000019,-38.388083,0.000024,
2416,3193,3.32541064175821,11.9272728440574,0.0285603910959935,0.002819,-0.000569,-0.002868,0.139953,-0.043330,312.032282,25.913131,0.999561,0.992280,0.003434,0.354112,-0.000013,0.000000,0.000001,0.000000,-0.000013,85.413614,0.000015,
2206,2113,-1.04931629482433,-11.6241652680952,0.0144771945296043,0.002503,-0.000194,-0.003069,0.124378,-0.044662,329.593986,23.693623,0.998612,0.983846,0.005164,0.328324,-0.000035,-0.000014,-0.000023,0.000001,-0.000050,-57.232163,0.000057,
2146,3193,-2.53495719745599,11.9034302803212,0.0326431910993961,0.002449,-0.000958,-0.001813,0.118069,-0.060291,312.427598,24.638548,0.999602,0.993492,0.003205,0.330292,-0.000048,-0.000020,-0.000026,-0.000004,-0.000063,-59.133830,0.000076,
2461,2128,4.51722026364211,-11.2992476354745,0.0178278766799167,0.002668,-0.000595,-0.000715,0.124463,-0.025555,329.338599,22.275577,0.999478,0.977643,0.005783,0.316640,-0.000019,-0.000017,-0.000003,-0.000015,-0.000021,-50.916161,0.000036,
2371,2893,2.40133132681423,5.41012278913887,-0.0155721900459866,0.002259,-0.000448,-0.003705,0.116784,-0.044111,316.512318,24.876286,0.999445,0.992723,0.003598,0.373070,-0.000041,-0.000017,-0.000010,-0.000014,-0.000045,-70.107951,0.000061,
2281,2533,0.510012002467786,-2.43745979647436,-0.0135450585871126,0.002538,-0.000791,-0.003715,0.128620,-0.083379,322.438029,23.959140,0.999626,0.993346,0.003557,0.417002,-0.000030,-0.000014,-0.000028,0.000008,-0.000051,-52.785964,0.000055,
2011,2863,-5.41275839230871,4.73908421535735,-0.0250870694430887,0.002724,-0.000345,-0.004087,0.136542,-0.040577,318.055095,24.282934,0.999430,0.992084,0.003860,0.347571,-0.000060,-0.000006,-0.000015,-0.000002,-0.000064,-75.666740,0.000075,
2446,2023,4.2113755145122,-13.6051183832182,0.0270760661849749,0.002667,-0.000270,-0.003834,0.136068,-0.041981,331.088648,22.012375,0.999329,0.980022,0.005340,0.261766,-0.000062,-0.000006,-0.000009,-0.000004,-0.000063,-80.952580,0.000076,
2041,2893,-4.76634407041448,5.39132948831752,-0.0136882172206469,0.002506,-0.000868,-0.001111,0.118298,-0.055555,317.456934,24.322321,0.999219,0.992687,0.003641,0.322512,-0.000039,-0.000005,-0.000028,0.000011,-0.000054,-60.611498,0.000057,
2131,3118,-2.84807453085176,10.2774504144846,0.0194201584548637,0.002794,-0.000594,-0.003050,0.137735,-0.046276,313.624511,24.545718,0.999681,0.996023,0.002963,0.344047,-0.000047,-0.000011,-0.000021,-0.000001,-0.000057,-65.252011,0.000067,
2101,3013,-3.48271042736627,7.99872766152287,-0.00435724997714715,0.002886,-0.000595,-0.005474,0.148833,-0.055551,315.287215,24.375905,0.999389,0.992682,0.003449,0.382464,-0.000035,-0.000009,-0.000008,-0.000007,-0.000037,-73.935255,0.000048,
2071,2953,-4.12464769279466,6.69575983253215,-0.010356342549585,0.002539,-0.000465,-0.003219,0.126097,-0.029234,316.345321,24.346772,0.999240,0.992503,0.003645,0.364016,-0.000033,-0.000028,-0.000020,-0.000010,-0.000051,-48.223727,0.000065,
2326,2728,1.45263209489897,1.81865929528298,-0.032424491052268,0.002660,-0.000412,-0.004578,0.137806,-0.049942,319.082096,24.474351,0.999344,0.989942,0.004054,0.311599,-0.000039,-0.000003,-0.000017,0.000004,-0.000046,-68.225943,0.000051,
2476,2263,4.81743064940718,-8.3393989305286,0.00936772174145517,0.002564,0.000157,-0.008304,0.148861,-0.053874,327.147075,22.676746,0.999078,0.981101,0.005191,0.333715,-0.000008,-0.000004,-0.000017,0.000011,-0.000023,-48.297406,0.000023,
2236,2338,-0.435535250932965,-6.69637356208418,-0.00515858838855365,0.002349,-0.000821,-0.000606,0.109420,-0.083445,325.718901,23.912959,0.998966,0.987528,0.004661,0.248498,-0.000045,-0.000010,-0.000023,0.000001,-0.000056,-64.097624,0.000064,
2086,3073,-3.81694553345408,9.29868165930869,0.0133507272936413,0.002536,-0.000453,-0.005157,0.131690,-0.040183,314.514957,24.366837,0.999465,0.992136,0.003469,0.354579,-0.000031,-0.000009,-0.000023,0.000005,-0.000045,-57.797654,0.000049,
2191,2098,-1.37477206190065,-11.9516634968983,-0.00268500376472502,0.003071,-0.000415,-0.001162,0.144271,-0.033698,329.753734,23.662957,0.999387,0.986730,0.004945,0.440933,-0.000024,-0.000026,-0.000013,-0.000012,-0.000039,-42.631024,0.000053,
2056,2908,-4.44319072816575,5.71790339463394,-0.011932748798813,0.002555,-0.000640,-0.000309,0.118417,-0.032849,317.140037,24.330860,0.999439,0.993216,0.003525,0.358120,-0.000039,-0.000016,-0.000027,0.000001,-0.000057,-56.654537,0.000065,
2356,2848,2.08287238683461,4.43146864188396,-0.0271232840916582,0.002594,-0.000711,-0.001238,0.123279,-0.048898,317.152289,24.753845,0.999646,0.991553,0.003693,0.348328,-0.000033,-0.000001,-0.000008,0.000001,-0.000034,-77.281013,0.000039,
2341,2788,1.76857846373648,3.12435326631837,-0.0186115729996459,0.002536,-0.000654,-0.002630,0.125464,-0.043533,318.204271,24.594003,0.999645,0.993944,0.003328,0.347375,-0.000029,-0.000006,-0.000006,-0.000005,-0.000030,-75.404805,0.000038,
2491,2353,5.12555208805827,-6.36806296111534,0.00660421132170086,0.002360,-0.000395,-0.000581,0.110122,-0.019003,325.667633,22.966456,0.998954,0.986243,0.005247,0.377657,-0.000008,0.000042,0.000027,0.000054,-0.000020,66.170636,0.000055,
2221,2188,-0.734905371578289,-9.9799348085869,0.00750826473728239,0.002795,0.000020,-0.005902,0.147016,-0.047098,328.314069,23.742018,0.998880,0.983265,0.005189,0.298337,-0.000044,-0.000030,-0.000027,-0.000009,-0.000065,-52.291712,0.000081,
2401,3178,3.00145375519652,11.6008151433148,0.020944152425443,0.002429,-0.000526,-0.003364,0.123722,-0.045401,312.182310,25.785509,0.999518,0.993482,0.003381,0.364292,-0.000010,-0.000003,0.000000,-0.000002,-0.000010,-86.202344,0.000013,
2506,2533,5.41403769129094,-2.42944769668696,-0.0171227445466684,0.002591,-0.000559,-0.000932,0.122088,-0.038794,322.602775,23.716339,0.999542,0.989416,0.004210,0.305254,0.000008,-0.000081,-0.000001,0.000008,-0.000081,-0.892464,0.000089,
2446,2038,4.20835650840393,-13.2764196820534,0.0319052346149533,0.002526,-0.000620,-0.000594,0.117442,-0.038735,330.868704,22.045552,0.999221,0.979345,0.005537,0.287422,-0.000057,-0.000018,0.000001,-0.000018,-0.000057,88.451726,0.000078,
2146,3208,-2.53718328670927,12.2286016889331,0.0343790562487811,0.002562,-0.000435,-0.002933,0.126938,-0.028950,312.205295,24.635233,0.999632,0.994447,0.003053,0.371604,-0.000046,-0.000016,-0.000027,-0.000001,-0.000062,-59.909098,0.000072,
2416,3208,3.32244630287348,12.2527528927569,0.0262743915487249,0.002717,-0.000347,-0.006235,0.147686,-0.044811,311.774664,25.952513,0.999479,0.991741,0.003668,0.359793,-0.000012,-0.000011,-0.000002,-0.000009,-0.000013,-48.123819,0.000023,
2251,2383,-0.116332160905632,-5.71377130746836,-0.0129218510370492,0.002936,-0.001129,-0.003166,0.144647,-0.076606,324.933692,23.744082,0.999208,0.987307,0.004647,0.444799,-0.000047,-0.000024,-0.000027,-0.000006,-0.000065,-56.394660,0.000079,
2116,3073,-3.16680174348298,9.30161815810121,0.0051449937363941,0.002771,-0.000190,-0.003971,0.139369,-0.037811,314.307598,24.489248,0.999745,0.993301,0.003586,0.341577,-0.000030,-0.000010,-0.000018,0.000001,-0.000041,-59.420832,0.000047,
2176,2053,-1.69318184745541,-12.9385881238049,0.0182323490342924,0.002883,-0.000263,-0.003177,0.141865,-0.030881,330.693383,23.892377,0.999151,0.985533,0.004729,0.256982,-0.000012,-0.000025,-0.000006,-0.000010,-0.000027,-20.357011,0.000038,
2026,2878,-5.08911612628029,5.06592133036396,-0.0253964482124616,0.003316,-0.000407,-0.004142,0.164076,-0.041829,317.739917,24.315965,0.998979,0.989284,0.004282,0.325881,-0.000049,-0.000007,-0.000026,0.000005,-0.000061,-64.670235,0.000068,
2386,2998,2.70830562246892,7.69280002291413,-0.00115296382159613,0.002303,-0.000844,-0.001022,0.109244,-0.043438,314.918223,25.215342,0.999538,0.991296,0.003835,0.360331,-0.000038,-0.000012,-0.000009,-0.000009,-0.000040,-72.518950,0.000053,
2311,2623,1.14617079441426,-0.472365356388828,-0.0150714104862573,0.002232,-0.000977,-0.000700,0.104502,-0.061354,320.910309,24.178819,0.999436,0.990443,0.003858,0.364658,-0.000032,0.000001,-0.000020,0.000010,-0.000042,-64.360793,0.000044,
2041,2908,-4.76819316586316,5.71701418450115,-0.0114684571734074,0.002707,-0.000500,-0.003355,0.133954,-0.041131,317.247121,24.309502,0.999392,0.992884,0.003510,0.341857,-0.000036,-0.000012,-0.000028,0.000006,-0.000054,-56.933501,0.000060,
2266,2488,0.190731891910687,-3.41861282057734,-0.0213149527655219,0.002615,-0.000896,-0.001041,0.123173,-0.050449,323.117463,23.922048,0.999687,0.991684,0.003842,0.433654,-0.000032,-0.000020,-0.000020,-0.000005,-0.000047,-53.081591,0.000057,
2011,2878,-5.41461047831169,5.06522813064002,-0.0236728660109975,0.003108,-0.000156,-0.003225,0.151999,-0.018367,317.838324,24.290520,0.999171,0.991179,0.003942,0.350073,-0.000051,-0.000011,-0.000018,-0.000005,-0.000058,-69.193361,0.000070,
2206,2128,-1.05185816764366,-11.2946884672537,0.011598744325795,0.002480,0.000435,-0.006252,0.133589,-0.018494,329.337633,23.719961,0.998784,0.982997,0.005225,0.348079,-0.000036,-0.000017,-0.000024,0.000000,-0.000052,-55.602320,0.000060,
2296,2578,0.828349157545368,-1.45283162579128,-0.0198748314545014,0.002778,-0.000413,-0.005203,0.144961,-0.052188,321.653325,24.168905,0.999254,0.990209,0.004149,0.304932,-0.000028,0.000003,-0.000034,0.000025,-0.000050,-57.470317,0.000050,
2086,3088,-3.81938415812674,9.62382165317769,0.01497636446652,0.002482,-0.000390,-0.004073,0.126117,-0.036138,314.278313,24.357123,0.999477,0.991633,0.003583,0.366264,-0.000037,-0.000015,-0.000023,-0.000001,-0.000051,-57.873700,0.000060,
2461,2143,4.51362189780781,-10.9691296615035,0.00854105755337287,0.002663,-0.000190,-0.003298,0.134119,-0.036162,329.028395,22.336946,0.998952,0.978055,0.005804,0.302298,-0.000017,-0.000005,-0.000008,-0.000001,-0.000021,-62.025961,0.000025,
2191,2113,-1.37578638336477,-11.6234309485936,0.0120155737379832,0.003219,-0.000265,-0.006180,0.166777,-0.072737,329.657337,23.827210,0.998905,0.983611,0.005238,0.254534,-0.000024,-0.000016,-0.000014,-0.000006,-0.000034,-52.637274,0.000043,
2281,2548,0.506465959182265,-2.10732464344032,-0.0228029685303568,0.002564,-0.000548,-0.001302,0.121878,-0.043426,322.109391,24.127192,0.999398,0.990865,0.003978,0.318067,-0.000032,-0.000010,-0.000025,0.000006,-0.000048,-56.954320,0.000052,
2491,2368,5.12210473106478,-6.03844988262023,-0.00229377329759473,0.002704,-0.000166,-0.001197,0.128347,-0.011039,325.367875,23.056037,0.998628,0.983765,0.005349,0.357052,0.000001,0.000038,0.000028,0.000053,-0.000015,61.477999,0.000055,
2071,2968,-4.12701690361856,7.02120329278384,-0.011044555177989,0.002711,-0.000754,-0.001315,0.128491,-0.043054,316.097949,24.336494,0.999060,0.991423,0.003872,0.356561,-0.000025,-0.000024,-0.000021,-0.000004,-0.000046,-45.862356,0.000055,
2101,3028,-3.48525348702397,8.32444044116611,-0.00317996948973587,0.002632,-0.000208,-0.006598,0.140574,-0.038529,315.044091,24.388951,0.999234,0.992231,0.003612,0.386856,-0.000033,-0.000007,-0.000010,-0.000004,-0.000036,-71.652248,0.000044,
2041,2923,-4.77023327710938,6.0423194638356,-0.0122558661369112,0.002860,-0.000178,-0.006268,0.149208,-0.042444,317.012035,24.260021,0.999378,0.993043,0.003508,0.382133,-0.000035,-0.000011,-0.000022,0.000002,-0.000049,-59.027359,0.000055,
2371,2908,2.39826837667392,5.7366651476966,-0.0190680725936545,0.002416,-0.000549,-0.002740,0.120629,-0.029755,316.241842,24.907494,0.999292,0.991573,0.003818,0.396880,-0.000042,-0.000016,-0.000007,-0.000014,-0.000044,-75.565065,0.000061,
2236,2353,-0.437990206015552,-6.36877370752386,-0.00148419703276659,0.002371,-0.000901,0.001188,0.104606,-0.066259,325.502505,23.924017,0.998660,0.986440,0.004907,0.277532,-0.000047,-0.000016,-0.000024,-0.000003,-0.000060,-61.438555,0.000072,
2341,2803,1.76550511991209,3.45161657571136,-0.0244313605257389,0.002634,-0.000511,-0.003869,0.134335,-0.037113,317.919777,24.649208,0.999545,0.993409,0.003456,0.335245,-0.000029,-0.000005,-0.000008,-0.000003,-0.000032,-73.048956,0.000038,
2476,2278,4.81338426434213,-8.00890291757592,0.00148389971451479,0.002492,-0.000029,-0.005413,0.134572,-0.032311,326.823252,22.809035,0.999451,0.981796,0.005075,0.282168,-0.000008,0.000003,-0.000015,0.000014,-0.000019,-54.181199,0.000019,
2326,2743,1.45017782609812,2.14469867527369,-0.0266174326625332,0.002708,-0.000515,-0.002560,0.133079,-0.039433,318.882030,24.486865,0.999560,0.991343,0.003796,0.344028,-0.000039,-0.000002,-0.000013,0.000002,-0.000043,-72.553215,0.000048,
2446,2053,4.2054434449703,-12.9477867003834,0.0332536630929212,0.002665,-0.000850,0.001333,0.116557,-0.047728,330.637659,22.050869,0.999112,0.980203,0.005479,0.328666,-0.000051,-0.000024,0.000008,-0.000022,-0.000053,74.262814,0.000077,
2056,2923,-4.44511429855232,6.04327536908464,-0.00973196106838259,0.002721,-0.000603,-0.002314,0.131725,-0.041168,316.927899,24.316120,0.999439,0.993600,0.003448,0.358592,-0.000040,-0.000016,-0.000021,-0.000004,-0.000052,-59.501210,0.000063,
2131,3133,-2.85044490818494,10.6022545907415,0.0250505411240169,0.002688,-0.000825,-0.000974,0.126551,-0.049273,313.415596,24.548715,0.999665,0.995599,0.002963,0.342403,-0.000050,-0.000009,-0.000022,0.000001,-0.000059,-66.420767,0.000068,
2011,2893,-5.41700201803517,5.3905419717979,-0.0237304782980914,0.002754,-0.000236,-0.007191,0.146404,-0.044317,317.588971,24.263278,0.999363,0.993146,0.003438,0.338890,-0.000047,-0.000020,-0.000018,-0.000011,-0.000056,-63.377078,0.000072,
2506,2548,5.41206252610886,-2.10266383503544,-0.00469445930332313,0.002422,-0.000361,-0.003865,0.125729,-0.049478,322.466702,23.822899,0.999808,0.991229,0.003794,0.249482,0.000013,-0.000100,-0.000005,0.000013,-0.000100,-2.556601,0.000108,
2251,2398,-0.118823326113496,-5.38547124468183,-0.00959545396887052,0.002918,-0.001392,-0.002281,0.140852,-0.090711,324.714898,23.862157,0.999354,0.989962,0.004228,0.337447,-0.000043,-0.000007,-0.000027,0.000008,-0.000057,-61.762439,0.000062,
2146,3223,-2.53948793477174,12.5531134418076,0.0387636414422445,0.002594,-0.000580,-0.001475,0.123982,-0.023229,311.993749,24.615366,0.999616,0.994921,0.002931,0.403754,-0.000045,-0.000010,-0.000029,0.000006,-0.000061,-60.915690,0.000067,
2176,2068,-1.69570965520045,-12.6106090005359,0.0218827399888255,0.002640,-0.000385,-0.002262,0.127856,-0.043385,330.469392,23.869966,0.999364,0.985806,0.004826,0.282392,-0.000012,-0.000032,-0.000005,-0.000010,-0.000033,-13.618644,0.000045,
2026,2893,-5.09176411154354,5.39086929098828,-0.0178962680050176,0.002556,-0.000831,-0.003405,0.126886,-0.065569,317.522260,24.308313,0.999267,0.993307,0.003500,0.299532,-0.000046,-0.000011,-0.000027,0.000004,-0.000060,-61.775871,0.000068,
2221,2203,-0.737740755863225,-9.65161685408158,0.00506102823464971,0.002772,-0.000131,-0.004910,0.142754,-0.054806,328.048090,23.729338,0.999107,0.984825,0.004930,0.325108,-0.000044,-0.000032,-0.000031,-0.000007,-0.000070,-50.430555,0.000085,
2116,3088,-3.16881437590885,9.62638602651517,0.0112833723626977,0.002826,-0.000643,-0.004021,0.141955,-0.052093,314.116976,24.493385,0.999703,0.993176,0.003435,0.325581,-0.000037,-0.000017,-0.000020,-0.000005,-0.000049,-58.759692,0.000059,
2491,2383,5.11836776279622,-5.7105907509817,-0.00174575413797129,0.002334,-0.000779,0.002645,0.096431,-0.036437,325.097493,23.115881,0.998636,0.982113,0.005403,0.332235,0.000002,0.000022,0.000014,0.000029,-0.000005,63.331857,0.000031,
2416,3223,3.31902288457027,12.5780533528027,0.0252281467489865,0.002397,-0.000632,-0.005361,0.129679,-0.051775,311.501699,25.992099,0.999431,0.991523,0.003715,0.359467,-0.000012,-0.000014,-0.000003,-0.000010,-0.000016,-32.980607,0.000026,
2356,2863,2.08009792704994,4.75774142766429,-0.0290868741387271,0.002672,-0.000552,-0.003100,0.133507,-0.046420,316.901488,24.770402,0.999593,0.991410,0.003702,0.373131,-0.000035,-0.000005,-0.000013,0.000000,-0.000040,-69.771950,0.000046,
2401,3193,2.99874360883767,11.9262620143997,0.0257449717558984,0.002384,-0.000635,-0.001855,0.116188,-0.037597,311.968875,25.850476,0.999455,0.992865,0.003457,0.351142,-0.000008,-0.000003,0.000002,-0.000002,-0.000009,72.231099,0.000012,
2206,2143,-1.05411703532559,-10.9647968376181,0.00956178686931253,0.002907,0.000408,-0.006327,0.153373,-0.017593,329.098590,23.824102,0.999302,0.984342,0.004936,0.264335,-0.000041,-0.000030,-0.000021,-0.000014,-0.000057,-52.312243,0.000075,
2086,3103,-3.82130727922229,9.94900150765552,0.0154902978032396,0.002861,-0.000356,-0.005458,0.147631,-0.037073,314.059261,24.352712,0.999736,0.994563,0.003009,0.367890,-0.000038,-0.000013,-0.000021,-0.000001,-0.000050,-60.506239,0.000058,
2461,2158,4.51080445884836,-10.6393514159686,0.00741551367792681,0.002750,0.000541,-0.006063,0.148770,-0.025822,328.790993,22.440126,0.998983,0.977324,0.005762,0.266667,-0.000022,-0.000030,-0.000014,-0.000012,-0.000040,-37.356671,0.000055,
2266,2503,0.188213794554965,-3.089923002665,-0.0213964354459222,0.002550,-0.000455,-0.004279,0.131041,-0.052577,322.881068,24.066675,0.999666,0.992370,0.003852,0.313600,-0.000036,-0.000025,-0.000021,-0.000009,-0.000052,-53.054544,0.000066,
2386,3013,2.7062907089479,8.01853465462143,0.00653011682652505,0.002529,-0.000479,-0.001706,0.122220,-0.029700,314.750207,25.277883,0.999614,0.991981,0.003622,0.353904,-0.000038,-0.000011,-0.000009,-0.000009,-0.000041,-73.926754,0.000053,
2311,2638,1.14354903858304,-0.14491257868842,-0.0178007370463433,0.002440,-0.000683,-0.002520,0.120392,-0.058798,320.659601,24.226160,0.999293,0.989825,0.003930,0.352619,-0.000033,0.000001,-0.000020,0.000010,-0.000043,-65.549661,0.000044,
2446,2068,4.20171808867859,-12.6174771527338,0.0286166949030076,0.002315,-0.000663,0.001107,0.101498,-0.041837,330.341682,22.133242,0.998867,0.978637,0.005839,0.307808,-0.000046,-0.000008,0.000007,-0.000007,-0.000047,80.133798,0.000058,
2506,2563,5.40910824245632,-1.77687172322565,-0.00216337992446825,0.002704,-0.000599,0.000303,0.122495,-0.028095,322.241448,23.722326,0.999812,0.991753,0.003753,0.433521,0.000011,-0.000082,0.000001,0.000011,-0.000082,0.555214,0.000089,
2191,2128,-1.37830190698537,-11.2943961424452,0.00852777513034653,0.003279,0.000218,-0.008673,0.177492,-0.051859,329.397738,23.811861,0.998555,0.982131,0.005437,0.308334,-0.000025,-0.000019,-0.000015,-0.000006,-0.000038,-50.752768,0.000047,
2011,2908,-5.41878750431116,5.71566599897997,-0.0138682178748013,0.002753,-0.000418,-0.005569,0.141911,-0.039137,317.423186,24.263118,0.999281,0.993048,0.003465,0.331504,-0.000047,-0.000014,-0.000020,-0.000004,-0.000056,-64.984591,0.000068,
2071,2983,-4.12867424964295,7.34560047275093,-0.00437137008930222,0.002893,-0.000914,-0.003311,0.142472,-0.072508,315.924014,24.300099,0.999350,0.992358,0.003536,0.359706,-0.000028,-0.000028,-0.000019,-0.000009,-0.000048,-45.206124,0.000061,
2281,2563,0.503657705164702,-1.78039145753612,-0.0272493402898704,0.002482,-0.000146,-0.005386,0.131924,-0.045876,321.839350,24.092404,0.999216,0.989591,0.004301,0.379059,-0.000033,-0.000003,-0.000031,0.000016,-0.000052,-57.756748,0.000053,
2101,3043,-3.48743688525839,8.6497067337648,0.00911863519803546,0.002430,-0.000749,-0.001485,0.116102,-0.047745,314.877951,24.463897,0.999535,0.993216,0.003393,0.302766,-0.000034,-0.000008,-0.000014,-0.000002,-0.000040,-66.783243,0.000047,
2476,2293,4.81019860413807,-7.68319280182838,0.00909463185178083,0.002344,-0.001149,0.002070,0.098976,-0.049055,326.609617,22.703901,0.999517,0.982717,0.004995,0.429264,-0.000006,0.000000,-0.000008,0.000005,-0.000011,-56.141117,0.000011,
2026,2908,-5.09334530487019,5.71602759286391,-0.00843067790356145,0.002608,-0.000549,-0.004990,0.133740,-0.051275,317.364356,24.299291,0.999237,0.993207,0.003525,0.312537,-0.000046,-0.000012,-0.000028,0.000003,-0.000061,-60.640463,0.000069,
2041,2938,-4.77337727784787,6.36803843477391,-0.0116335966321799,0.002402,-0.000413,0.000256,0.109847,-0.028582,316.734033,24.247864,0.999279,0.992157,0.003665,0.399960,-0.000032,-0.000015,-0.000021,-0.000001,-0.000046,-56.404963,0.000053,
2326,2758,1.44675071562879,2.47120327525685,-0.0286720116171182,0.002422,-0.000760,0.000019,0.110954,-0.042431,318.598718,24.497326,0.999626,0.992512,0.003618,0.365163,-0.000039,0.000000,-0.000010,0.000002,-0.000041,-76.163422,0.000046,
2236,2368,-0.440826281375134,-6.03935077392986,-0.0107450987435413,0.002484,-0.000289,-0.003380,0.124812,-0.044252,325.202540,23.976040,0.999265,0.988423,0.004545,0.270759,-0.000055,-0.000026,-0.000026,-0.000011,-0.000070,-59.479191,0.000088,
2491,2398,5.1152718261953,-5.38196221640444,-0.00714453909063195,0.002414,-0.000825,-0.001761,0.116934,-0.064165,324.829658,23.196372,0.999380,0.988479,0.004461,0.284667,0.000008,0.000023,0.000017,0.000034,-0.000003,57.074795,0.000038,
2251,2413,-0.121650913863377,-5.0574872654425,-0.00374106788376594,0.002472,-0.000969,-0.000065,0.113334,-0.052340,324.493282,23.927571,0.999248,0.989325,0.004216,0.335158,-0.000037,-0.000010,-0.000033,0.000012,-0.000059,-55.878071,0.000063,
2296,2593,0.826687972517128,-1.12692324590794,-0.0077206767576854,0.002947,0.000016,-0.005166,0.152775,-0.020829,321.519499,24.160178,0.999595,0.992499,0.003552,0.375581,-0.000029,-0.000004,-0.000031,0.000017,-0.000050,-55.903212,0.000050,
2416,3238,3.31542944324312,12.9040246131562,0.0173013753089322,0.002521,-0.000685,-0.003719,0.129353,-0.048013,311.188266,26.047910,0.999384,0.992081,0.003628,0.353869,-0.000011,-0.000019,-0.000001,-0.000011,-0.000019,-7.082564,0.000030,
2056,2938,-4.44733602371259,6.36900383825694,-0.0118293545677943,0.002719,-0.000328,-0.006535,0.143591,-0.056382,316.678278,24.314630,0.999330,0.992849,0.003550,0.339213,-0.000038,-0.000018,-0.000021,-0.000005,-0.000051,-57.454313,0.000062,
2341,2818,1.7625351291096,3.77779218114421,-0.0243661101670796,0.002618,-0.000570,-0.002019,0.127122,-0.037062,317.668841,24.660855,0.999292,0.990356,0.003840,0.360356,-0.000033,-0.000004,-0.000007,-0.000002,-0.000034,-76.626567,0.000041,
2086,3118,-3.82381773113059,10.2740581172653,0.0188288591926948,0.002679,-0.000523,-0.003648,0.133895,-0.043436,313.828733,24.363862,0.999747,0.994733,0.002916,0.348146,-0.000043,-0.000009,-0.000022,0.000002,-0.000054,-63.789532,0.000061,
2131,3148,-2.85313867063561,10.9273362024371,0.027956047938801,0.002288,-0.000443,-0.001194,0.108891,-0.030693,313.177128,24.542362,0.999598,0.994573,0.003078,0.371626,-0.000050,-0.000007,-0.000022,0.000002,-0.000059,-67.080606,0.000067,
2506,2578,5.40458664040578,-1.44666436309571,-0.0174362614741312,0.002532,-0.000534,-0.000524,0.117877,-0.021716,321.863891,23.890975,0.999619,0.988563,0.004368,0.333724,0.000005,-0.000064,0.000011,0.000007,-0.000066,8.899700,0.000072,
2371,2923,2.39560530615872,6.06302761846347,-0.0138184211002113,0.002367,-0.000491,-0.000828,0.111631,-0.015393,316.031638,24.989206,0.999227,0.991169,0.003909,0.370013,-0.000044,-0.000017,-0.000011,-0.000013,-0.000048,-69.543377,0.000064,
2176,2083,-1.69841671672636,-12.2803257780383,0.0147962865738123,0.002761,-0.000192,-0.004271,0.139685,-0.051811,330.180918,23.940112,0.999477,0.986469,0.004861,0.219620,-0.000010,-0.000026,-0.000010,-0.000006,-0.000031,-26.127597,0.000039,
2446,2083,4.19792113997034,-12.2860903725167,0.0208997480318089,0.002143,-0.000233,0.000766,0.095066,-0.007824,330.027980,22.257970,0.998735,0.976831,0.006183,0.273227,-0.000044,-0.000013,0.000003,-0.000013,-0.000045,84.492879,0.000060,
2356,2878,2.07779260251864,5.08318613251316,-0.0176896503604098,0.002536,-0.000872,-0.000487,0.117900,-0.054038,316.736891,24.823479,0.999555,0.992451,0.003591,0.350492,-0.000036,-0.000012,-0.000012,-0.000007,-0.000041,-67.734008,0.000052,
2386,3028,2.70296560516908,8.34465901810238,0.00151385963386019,0.002469,-0.000667,-0.002072,0.120723,-0.042415,314.461309,25.321635,0.999575,0.991684,0.003715,0.339791,-0.000035,-0.000005,-0.000008,-0.000003,-0.000037,-76.058254,0.000045,
2461,2173,4.50747934524077,-10.3106789149043,0.00402633650082862,0.002778,-0.000042,-0.005634,0.148212,-0.049866,328.520186,22.458232,0.998995,0.979598,0.005499,0.282061,-0.000022,-0.000020,-0.000013,-0.000007,-0.000034,-46.267521,0.000045,
2011,2923,-5.42071928053107,6.04110762126884,-0.00882706235927344,0.002827,-0.000220,-0.005053,0.144031,-0.020888,317.223501,24.247656,0.999365,0.993296,0.003308,0.352825,-0.000049,-0.000012,-0.000018,-0.000004,-0.000056,-68.083701,0.000068,
2401,3208,2.99611147752814,12.2509690266088,0.0287992178604668,0.002355,-0.000796,-0.002848,0.118345,-0.059621,311.750965,25.869972,0.999347,0.992634,0.003655,0.353826,-0.000008,-0.000013,-0.000001,-0.000007,-0.000013,-7.720641,0.000021,
2266,2518,0.185836156629581,-2.76433189550267,-0.0140580567192501,0.002205,-0.000545,-0.005698,0.119887,-0.057099,322.688974,24.001523,0.999615,0.992220,0.003765,0.400749,-0.000038,-0.000015,-0.000019,-0.000004,-0.000049,-60.851717,0.000059,
2206,2158,-1.05691522796771,-10.6373545185562,0.00553341808904406,0.002840,0.000031,-0.007478,0.153867,-0.054889,328.825180,23.727408,0.999156,0.985555,0.004905,0.343471,-0.000040,-0.000029,-0.000021,-0.000013,-0.000056,-52.379573,0.000073,
2026,2923,-5.09560982518155,6.04171095361242,-0.00815840134691825,0.002725,-0.000388,-0.003342,0.134680,-0.033986,317.123622,24.273049,0.999332,0.993402,0.003485,0.345927,-0.000046,-0.000013,-0.000023,-0.000001,-0.000058,-63.024668,0.000068,
2191,2143,-1.38117880744617,-10.9656386052295,0.012011471294386,0.003029,-0.000165,-0.003540,0.149866,-0.025205,329.157705,23.846278,0.998962,0.983392,0.005161,0.318051,-0.000031,-0.000028,-0.000015,-0.000015,-0.000044,-47.659191,0.000062,
2416,3253,3.31185593406945,13.2295521921143,0.0146481653471824,0.002548,-0.001133,0.001734,0.110474,-0.042941,310.900595,26.095800,0.999188,0.990960,0.003843,0.357132,-0.000011,-0.000023,0.000000,-0.000011,-0.000023,0.785443,0.000034,
2491,2413,5.11208722714977,-5.05483912039567,-0.0127036430059775,0.002509,-0.000657,-0.004915,0.133423,-0.066996,324.557041,23.118286,0.999439,0.989254,0.004325,0.420687,-0.000002,0.000010,0.000020,0.000025,-0.000017,53.306507,0.000026,
2116,3103,-3.17050863669214,9.95118127373278,0.0213438216976556,0.003046,-0.000724,-0.002542,0.147710,-0.051983,313.962094,24.513405,0.999833,0.995854,0.002904,0.307929,-0.000041,-0.000014,-0.000019,-0.000004,-0.000051,-62.954889,0.000061,
2326,2773,1.44476050566408,2.79837990498423,-0.0227247051278709,0.002708,-0.000685,-0.000939,0.127405,-0.042409,318.420312,24.633700,0.999769,0.994937,0.003181,0.263204,-0.000037,-0.000012,-0.000012,-0.000007,-0.000042,-68.075117,0.000054,
2281,2578,0.501957075316646,-1.45454287204706,-0.0157238151064121,0.002526,-0.000363,-0.006955,0.139082,-0.064482,321.700002,24.118997,0.999091,0.987892,0.004564,0.361953,-0.000030,0.000002,-0.000033,0.000022,-0.000051,-57.887575,0.000051,
2476,2308,4.80774922396689,-7.35250118386054,0.00733538805172884,0.002542,-0.000378,-0.004878,0.134672,-0.035127,326.386621,22.934140,0.999160,0.977946,0.005783,0.271701,-0.000004,0.000003,-0.000008,0.000008,-0.000009,-56.675589,0.000010,
2041,2953,-4.7749332882374,6.69409778533054,-0.0098101208012622,0.002620,0.000171,-0.007050,0.140491,-0.017049,316.535395,24.281557,0.999544,0.993941,0.003165,0.369634,-0.000029,-0.000027,-0.000024,-0.000003,-0.000052,-45.925211,0.000063,
2146,3238,-2.54275826593323,12.8794005066183,0.0278415951427178,0.002526,-0.000585,-0.002304,0.123265,-0.041067,311.655641,24.699324,0.999646,0.994810,0.002949,0.308362,-0.000045,-0.000016,-0.000032,0.000005,-0.000066,-56.843554,0.000074,
2506,2593,5.40077986785582,-1.11765430915391,-0.0264866510942738,0.002573,-0.000621,-0.000981,0.121444,-0.044458,321.547137,24.039646,0.999829,0.994578,0.003451,0.224372,0.000003,-0.000057,0.000004,0.000004,-0.000057,3.342190,0.000064,
2221,2218,-0.740380930914188,-9.32231149616614,0.00564394116031508,0.002657,-0.000112,-0.005132,0.138197,-0.037647,327.806223,23.819062,0.999000,0.984142,0.004971,0.273952,-0.000043,-0.000036,-0.000033,-0.000006,-0.000073,-47.783935,0.000088,
2071,2998,-4.12995228569199,7.67087154064166,0.00947348864877995,0.002937,-0.000321,-0.006505,0.153794,-0.054234,315.806484,24.348221,0.999585,0.993358,0.003243,0.325699,-0.000034,-0.000015,-0.000012,-0.000009,-0.000040,-63.624901,0.000052,
2086,3133,-3.82587369706345,10.5991524561305,0.0224807928636892,0.002770,-0.000333,-0.004413,0.140349,-0.042685,313.620771,24.376710,0.999749,0.994247,0.002930,0.334077,-0.000047,-0.000006,-0.000025,0.000006,-0.000059,-64.341063,0.000065,
2311,2653,1.1406867990577,0.182308223644547,-0.0203009386017925,0.002462,-0.000598,-0.003398,0.124411,-0.062805,320.399001,24.265770,0.999457,0.990678,0.003821,0.341799,-0.000034,-0.000003,-0.000023,0.000009,-0.000046,-62.140159,0.000049,
2056,2953,-4.44944168693432,6.69440645508643,-0.00607911968290864,0.002678,-0.000248,-0.005465,0.138784,-0.034060,316.477363,24.305089,0.999257,0.993316,0.003491,0.364945,-0.000034,-0.000029,-0.000023,-0.000008,-0.000055,-47.796483,0.000069,
2251,2428,-0.124219552143874,-4.73003053172339,-0.0101982485603571,0.002705,0.000060,-0.004182,0.137849,-0.027262,324.221503,23.846000,0.998917,0.987579,0.004411,0.466825,-0.000034,-0.000022,-0.000037,0.000009,-0.000066,-49.630660,0.000071,
2461,2188,4.504010741523,-9.98076791232529,-0.00704044659920555,0.003406,-0.000369,-0.003925,0.170411,-0.037689,328.207449,22.478082,0.999607,0.988151,0.004616,0.331704,-0.000014,-0.000009,-0.000019,0.000007,-0.000031,-48.510335,0.000032,
2356,2893,2.07543429261851,5.4094028099851,-0.0098957716120367,0.002357,-0.000578,-0.001351,0.112854,-0.045349,316.552199,24.907789,0.999481,0.992641,0.003566,0.313344,-0.000037,-0.000020,-0.000009,-0.000017,-0.000041,-67.157048,0.000059,
2401,3223,2.99279959479047,12.5765060750937,0.0243872694221068,0.002299,-0.000895,-0.003110,0.116665,-0.067349,311.466058,25.912486,0.999417,0.992696,0.003525,0.347721,-0.000009,-0.000014,-0.000001,-0.000009,-0.000015,-10.400647,0.000023,
2131,3163,-2.85515177893884,11.252163237001,0.0285878874212813,0.002672,-0.000717,-0.002137,0.129348,-0.047051,312.957861,24.537083,0.999488,0.992587,0.003448,0.365068,-0.000048,-0.000007,-0.000025,0.000004,-0.000060,-64.990386,0.000066,
2026,2938,-5.0983316936098,6.36714029976927,-0.00462803092426611,0.002422,-0.000878,0.002140,0.105535,-0.033678,316.880279,24.267580,0.999160,0.991886,0.003816,0.341204,-0.000044,-0.000016,-0.000021,-0.000005,-0.000055,-61.882227,0.000066,
2236,2383,-0.442674486638303,-5.71332602488697,-0.00438585158030946,0.002831,-0.000699,-0.002811,0.138747,-0.051078,325.027927,23.902692,0.999419,0.988530,0.004476,0.359740,-0.000049,-0.000029,-0.000024,-0.000013,-0.000065,-56.580756,0.000084,
2101,3058,-3.48910722436188,8.97408694864062,0.0123908454374373,0.002798,-0.000326,-0.004448,0.141936,-0.031034,314.686733,24.375112,0.999681,0.994211,0.003211,0.408712,-0.000030,-0.000016,-0.000018,-0.000004,-0.000042,-55.128242,0.000051,
2176,2098,-1.70151001016492,-11.9512393799481,-0.000600482048014328,0.003040,0.000136,-0.006347,0.159010,-0.039285,329.831528,23.795822,0.999375,0.985165,0.005011,0.392592,-0.000013,-0.000020,-0.000010,-0.000007,-0.000027,-34.746323,0.000035,
2506,2608,5.39782233516518,-0.791837570506409,-0.0236164810378341,0.002423,-0.000670,-0.001539,0.116695,-0.054535,321.323065,23.990906,0.999859,0.994082,0.003534,0.324660,-0.000001,-0.000040,-0.000009,0.000000,-0.000042,-12.099566,0.000048,
2341,2833,1.7601146394859,4.10449969838059,-0.0225541678576064,0.002841,-0.000686,-0.002542,0.139193,-0.047152,317.451473,24.749004,0.999638,0.991961,0.003622,0.298448,-0.000033,0.000002,-0.000005,0.000002,-0.000033,-81.393215,0.000037,
2296,2608,0.822686803655319,-0.798435589580805,-0.0179807823267311,0.002616,-0.000240,-0.002851,0.129685,-0.022279,321.166809,24.231460,0.999447,0.990975,0.003829,0.333871,-0.000033,-0.000005,-0.000026,0.000010,-0.000048,-59.286928,0.000051,
2011,2938,-5.42324697949342,6.36640859788439,-0.00994210267577955,0.002783,-0.000703,-0.002672,0.135415,-0.037160,316.962038,24.213800,0.999473,0.994085,0.003302,0.357789,-0.000045,-0.000012,-0.000014,-0.000007,-0.000050,-70.150320,0.000062,
2491,2428,5.10936840613227,-4.72568492057376,-0.0113749282627964,0.002906,-0.000290,-0.003327,0.145710,-0.025814,324.336235,23.253012,0.999400,0.988004,0.004473,0.387433,-0.000006,0.000012,0.000022,0.000026,-0.000020,56.188992,0.000028,
2371,2938,2.39270741189003,6.38880957256318,-0.00944485200722056,0.002081,-0.000589,0.000194,0.094800,-0.014472,315.806566,25.028259,0.999222,0.990329,0.003982,0.372314,-0.000041,-0.000016,-0.000013,-0.000010,-0.000047,-67.145362,0.000061,
2191,2158,-1.38305219938905,-10.638885763772,0.0228583346540745,0.002825,-0.000280,-0.004859,0.144644,-0.070172,329.002332,23.852501,0.999168,0.985667,0.004890,0.283637,-0.000031,-0.000028,-0.000016,-0.000013,-0.000046,-48.475697,0.000062,
2446,2098,4.19516902217559,-11.9566536579263,0.0131395004255523,0.002517,-0.000133,-0.005568,0.135768,-0.052711,329.762429,22.289482,0.999311,0.980063,0.005684,0.252228,-0.000044,-0.000013,-0.000002,-0.000013,-0.000044,-85.640645,0.000060,
2386,3043,2.6998024536173,8.67066422556635,-0.00263161347874075,0.002381,-0.000428,-0.003970,0.123629,-0.032821,314.183950,25.342615,0.999635,0.992909,0.003528,0.371038,-0.000034,0.000004,-0.000003,0.000005,-0.000034,-85.732971,0.000037,
2041,2968,-4.77704795325515,7.01863799319337,-0.00734637222035417,0.002629,0.000021,-0.007957,0.143320,-0.044199,316.315322,24.222559,0.999561,0.993748,0.003160,0.393217,-0.000019,-0.000024,-0.000024,0.000003,-0.000046,-41.753884,0.000051,
2146,3253,-2.54564015933975,13.2045728894511,0.019083115318324,0.002642,-0.000429,-0.004039,0.133991,-0.034030,311.347297,24.673076,0.999664,0.994408,0.003015,0.348038,-0.000043,-0.000013,-0.000030,0.000005,-0.000061,-58.293877,0.000068,
2416,3268,3.30783406037577,13.5553036015158,0.00367887630392261,0.002290,-0.000978,0.000929,0.101640,-0.034056,310.553012,26.118848,0.999554,0.992554,0.003496,0.389300,-0.000009,-0.000034,-0.000004,-0.000008,-0.000035,-9.687023,0.000045,
2476,2323,4.80406886228816,-7.02448846162184,0.00031758086413447,0.002601,-0.000625,-0.003699,0.132827,-0.049605,326.083675,22.901053,0.999013,0.979986,0.005527,0.349068,-0.000007,0.000011,0.000007,0.000013,-0.000010,70.863350,0.000014,
2461,2203,4.50002943587139,-9.65173858496092,-0.0107862538793029,0.002818,-0.000311,-0.003341,0.141338,-0.047611,327.904643,22.523162,0.999210,0.983050,0.005189,0.333881,-0.000013,-0.000022,-0.000019,0.000002,-0.000037,-38.465557,0.000041,
2401,3238,2.98949297823077,12.9025463717175,0.0179126471085169,0.002380,-0.000658,-0.003784,0.122964,-0.052979,311.171378,25.972112,0.999399,0.992766,0.003462,0.346712,-0.000009,-0.000021,0.000000,-0.000009,-0.000021,0.079498,0.000031,
2266,2533,0.18295908397419,-2.43715588991977,-0.0222814334333634,0.002474,-0.000758,-0.007418,0.137801,-0.095771,322.395635,23.980316,0.999685,0.995608,0.003198,0.409995,-0.000037,-0.000016,-0.000021,-0.000003,-0.000051,-58.117601,0.000060,
2071,3013,-4.13249698547228,7.99560911009936,0.0147921315652297,0.002605,-0.000624,-0.003944,0.131115,-0.056078,315.584318,24.312501,0.999432,0.992510,0.003487,0.355585,-0.000035,-0.000008,-0.000013,-0.000003,-0.000040,-67.431922,0.000048,
2281,2593,0.498926768140347,-1.12629482268712,-0.0213368977646269,0.002671,-0.000180,-0.006215,0.143377,-0.038544,321.413504,24.175967,0.999282,0.989364,0.004197,0.359814,-0.000029,-0.000004,-0.000031,0.000016,-0.000050,-56.218084,0.000051,
2026,2953,-5.099565024155,6.69268430554559,-0.00393538680526717,0.002912,-0.000258,-0.006828,0.152980,-0.038496,316.689287,24.261407,0.999490,0.992881,0.003414,0.332242,-0.000042,-0.000027,-0.000024,-0.000010,-0.000060,-53.659005,0.000075,
2506,2623,5.39511722095718,-0.466959423707451,-0.0169463457245342,0.002181,-0.000922,-0.002298,0.108473,-0.068270,321.127675,23.896286,0.999887,0.994635,0.003253,0.467065,-0.000012,-0.000044,-0.000023,0.000000,-0.000056,-27.510557,0.000064,
2326,2788,1.44168592061051,3.1237210841217,-0.0304320262121678,0.002775,-0.000564,-0.003907,0.140795,-0.052209,318.125768,24.509043,0.999638,0.994373,0.003327,0.412590,-0.000035,-0.000011,-0.000008,-0.000008,-0.000037,-72.357232,0.000049,
2056,2968,-4.45144745195058,7.01958487208709,-0.00353042468083231,0.002963,-0.000300,-0.003953,0.147550,-0.054068,316.263523,24.298288,0.999274,0.992297,0.003574,0.345691,-0.000025,-0.000025,-0.000023,-0.000002,-0.000048,-44.589465,0.000057,
2116,3118,-3.17349475249003,10.2761716508341,0.0213076728430792,0.002582,-0.000684,-0.001782,0.124119,-0.040131,313.693431,24.479658,0.999782,0.996093,0.002809,0.356138,-0.000043,-0.000011,-0.000021,-0.000001,-0.000053,-63.929651,0.000062,
2011,2953,-5.42517764642528,6.69184111873593,-0.00482467975854206,0.002734,-0.000533,-0.004271,0.137561,-0.029857,316.762920,24.216328,0.999669,0.995091,0.002928,0.349997,-0.000037,-0.000023,-0.000018,-0.000010,-0.000050,-55.973148,0.000064,
2086,3148,-3.8282121978032,10.9237407943068,0.03207517433151,0.002385,-0.000405,-0.002333,0.116592,-0.031439,313.432483,24.372031,0.999791,0.995783,0.002739,0.347774,-0.000047,-0.000004,-0.000027,0.000009,-0.000060,-64.028403,0.000065,
2206,2173,-1.05979970856587,-10.3091357746221,0.00822991580128019,0.002408,-0.000325,-0.006090,0.129536,-0.049592,328.582059,23.736251,0.999312,0.987163,0.004601,0.359532,-0.000040,-0.000024,-0.000020,-0.000011,-0.000053,-55.924704,0.000069,
2311,2668,1.13782826859494,0.510456635947833,-0.0244674549105639,0.002573,-0.000398,-0.004871,0.134668,-0.037967,320.130027,24.352851,0.999774,0.993169,0.003445,0.312529,-0.000035,0.000001,-0.000023,0.000013,-0.000046,-63.693754,0.000048,
2101,3073,-3.49141770731189,9.30014190170001,0.0134582310170117,0.002785,-0.000171,-0.005674,0.144974,-0.028259,314.453612,24.443774,0.999573,0.991869,0.003623,0.342957,-0.000031,-0.000009,-0.000020,0.000003,-0.000042,-59.221566,0.000048,
2176,2113,-1.70393320715397,-11.6226680152506,0.00493981221097783,0.002663,-0.000029,-0.007235,0.144451,-0.059541,329.622073,23.872448,0.999068,0.981737,0.005408,0.311016,-0.000014,-0.000011,-0.000009,-0.000003,-0.000022,-50.061116,0.000027,
2356,2908,2.07224158258379,5.7360077540834,-0.0176874803014471,0.002602,-0.000649,-0.001495,0.124636,-0.034960,316.253787,24.917207,0.999282,0.991918,0.003762,0.353034,-0.000040,-0.000019,-0.000006,-0.000018,-0.000041,-74.364040,0.000061,
2251,2443,-0.12692185756875,-4.40035342389652,-0.0123893569880238,0.002885,-0.000442,-0.003290,0.143003,-0.049333,323.964831,24.060509,0.999465,0.990492,0.004063,0.255162,-0.000036,-0.000018,-0.000032,0.000006,-0.000061,-52.878631,0.000066,
2341,2848,1.75657186412908,4.43071022279504,-0.027441803793181,0.002675,-0.000739,-0.000111,0.123023,-0.051245,317.150044,24.739648,0.999708,0.992249,0.003518,0.340077,-0.000035,0.000004,-0.000005,0.000005,-0.000036,-82.618579,0.000039,
2401,3253,2.98580509743501,13.2285846125645,0.00598709536461683,0.002693,-0.000740,-0.002186,0.131491,-0.058271,310.833237,26.025471,0.999471,0.992422,0.003494,0.332121,-0.000009,-0.000025,0.000002,-0.000009,-0.000025,7.530006,0.000035,
2476,2338,4.80042181369263,-6.69582280132231,0.00332747186018878,0.002080,-0.001032,0.000001,0.094761,-0.075689,325.827509,23.044283,0.998733,0.982027,0.005469,0.238190,-0.000008,0.000011,0.000014,0.000018,-0.000015,61.482531,0.000019,
2221,2233,-0.742994747810229,-8.99466610808062,0.00760780105076719,0.002598,-0.000053,-0.003372,0.129898,-0.049013,327.572999,23.805105,0.998940,0.984271,0.005076,0.297937,-0.000044,-0.000030,-0.000034,-0.000003,-0.000072,-51.171391,0.000084,
2191,2173,-1.38693512604441,-10.3086857783344,0.0078041683738661,0.002505,-0.000198,-0.004676,0.129399,-0.034149,328.620017,23.821957,0.999257,0.969755,0.005981,0.368472,-0.000032,-0.000022,-0.000015,-0.000011,-0.000043,-54.039080,0.000057,
2026,2968,-5.10186438631409,7.01773881285298,-0.00322276141179145,0.002807,-0.000215,-0.007962,0.151192,-0.057981,316.449771,24.229203,0.999518,0.992802,0.003353,0.334452,-0.000029,-0.000024,-0.000025,-0.000002,-0.000052,-47.783219,0.000061,
2416,3283,3.30453933534803,13.8814998559937,-0.00691466681263364,0.002521,-0.000843,-0.002489,0.124810,-0.053659,310.240451,26.218622,0.999722,0.992691,0.003431,0.315942,-0.000003,-0.000054,-0.000009,-0.000002,-0.000055,-9.620460,0.000065,
2461,2218,4.49748634559801,-9.32422316916546,-0.00193693427121389,0.002650,-0.000602,-0.002443,0.130201,-0.045346,327.725198,22.554365,0.999518,0.986375,0.004919,0.361544,-0.000016,-0.000027,-0.000017,-0.000003,-0.000040,-35.705700,0.000048,
2011,2968,-5.42736735520838,7.01715638670121,-0.00143039239304699,0.002723,-0.000463,-0.002597,0.132529,-0.029638,316.542327,24.206702,0.999650,0.995195,0.002886,0.347126,-0.000022,-0.000019,-0.000023,0.000002,-0.000043,-46.698681,0.000049,
2371,2953,2.38980145953563,6.71474268402245,-0.00986670373384868,0.002081,-0.000963,0.000182,0.094624,-0.051243,315.558101,25.088927,0.999321,0.990219,0.004023,0.315415,-0.000038,-0.000016,-0.000010,-0.000012,-0.000041,-68.700943,0.000056,
2041,2983,-4.77935703125355,7.34407014316483,0.00137821850040609,0.002548,-0.000568,-0.000977,0.119990,-0.046582,316.120794,24.267538,0.999355,0.992794,0.003482,0.337467,-0.000021,-0.000031,-0.000024,-0.000001,-0.000051,-39.092903,0.000059,
2506,2638,5.39204859568103,-0.138547176709359,-0.0181442916537549,0.002417,-0.001036,-0.001280,0.115275,-0.074994,320.879691,24.056394,0.999760,0.992449,0.003679,0.362045,-0.000017,-0.000026,-0.000032,0.000011,-0.000053,-40.931714,0.000056,
2236,2398,-0.446118337889544,-5.38412641653512,-0.014623394688897,0.002644,-0.000512,-0.004047,0.134244,-0.059902,324.695250,23.967363,0.999480,0.990544,0.004067,0.309346,-0.000045,-0.000010,-0.000025,0.000003,-0.000058,-62.654972,0.000065,
2446,2113,4.19293041299876,-11.6286973760603,0.0220581931707216,0.002694,-0.000273,-0.003840,0.137395,-0.044152,329.596684,22.320589,0.999487,0.980150,0.005544,0.284383,-0.000040,-0.000009,-0.000005,-0.000008,-0.000041,-81.977280,0.000053,
2401,3268,2.98121508348873,13.5551155453944,-0.0106036804303926,0.002347,-0.000566,-0.002183,0.115743,-0.035439,310.431156,26.076061,0.999641,0.992628,0.003484,0.348386,-0.000009,-0.000034,-0.000002,-0.000009,-0.000034,-4.692653,0.000046,
2296,2623,0.819240742774948,-0.472223729333301,-0.020261038611352,0.002225,-0.000851,-0.000760,0.104415,-0.049805,320.879636,24.194103,0.999419,0.990045,0.003888,0.374193,-0.000032,0.000000,-0.000024,0.000012,-0.000045,-62.047025,0.000046,
2491,2443,5.10631089467372,-4.39770312665112,-0.00643260520024569,0.002670,-0.000617,-0.001595,0.128128,-0.041045,324.116395,23.375437,0.999052,0.984284,0.004845,0.309915,0.000005,-0.000029,0.000027,0.000021,-0.000045,28.756799,0.000045,
2131,3178,-2.85766182636169,11.577170855019,0.0315902951127214,0.002510,-0.000766,-0.001485,0.119968,-0.040514,312.728391,24.543525,0.999216,0.988902,0.003979,0.369451,-0.000050,-0.000009,-0.000025,0.000003,-0.000061,-64.679198,0.000069,
2101,3088,-3.49357063029413,9.62449033327258,0.018202473848703,0.002831,-0.000585,-0.004752,0.144198,-0.055414,314.248313,24.412383,0.999402,0.987829,0.004227,0.347478,-0.000037,-0.000015,-0.000021,-0.000002,-0.000049,-58.767658,0.000059,
2071,3028,-4.13534665748856,8.32161865826558,0.0116909025613268,0.002511,-0.000494,-0.001153,0.118856,-0.045122,315.301499,24.328528,0.999539,0.993772,0.003274,0.346540,-0.000033,-0.000006,-0.000014,0.000000,-0.000039,-66.612800,0.000045,
2386,3058,2.69741441177421,8.99620104223424,0.00697529301487521,0.002277,-0.000418,-0.002196,0.112494,-0.025884,314.007820,25.417005,0.999643,0.993046,0.003465,0.345982,-0.000029,0.000001,0.000000,0.000001,-0.000029,89.530920,0.000033,
2056,2983,-4.45395233688336,7.34534469051561,-0.00042643543935128,0.002862,-0.000433,-0.000105,0.132005,-0.050692,316.029644,24.329307,0.999219,0.990703,0.003771,0.311762,-0.000027,-0.000030,-0.000022,-0.000006,-0.000051,-42.729928,0.000063,
2281,2608,0.495183059936668,-0.798124449375351,-0.0256761720735312,0.002446,-0.000746,0.000445,0.110620,-0.029591,321.100641,24.259364,0.999218,0.989282,0.004248,0.314025,-0.000032,-0.000004,-0.000025,0.000010,-0.000046,-59.655475,0.000048,
2146,3268,-2.54815977945115,13.5297368570839,0.0159134978893576,0.002746,-0.000292,-0.005878,0.144424,-0.033912,311.085359,24.688655,0.999670,0.995002,0.002951,0.338948,-0.000039,-0.000009,-0.000023,0.000004,-0.000051,-61.134675,0.000057,
2206,2188,-1.06261118136238,-9.98033416298072,0.0114269944302237,0.002277,-0.000826,-0.000996,0.107261,-0.051790,328.344778,23.815932,0.998998,0.983258,0.005117,0.296919,-0.000038,-0.000021,-0.000024,-0.000004,-0.000055,-54.727750,0.000066,
2416,3298,3.30024927081834,14.2066670621221,-0.0201744173018028,0.002395,-0.000957,-0.000569,0.111922,-0.056897,309.869735,26.198032,0.999680,0.993044,0.003395,0.379508,-0.000003,-0.000060,-0.000015,0.000001,-0.000063,-13.696196,0.000073,
2326,2803,1.43854635644674,3.45098844707026,-0.0299479562335137,0.002203,-0.000135,-0.006448,0.123427,-0.046295,317.867706,24.614241,0.999412,0.993926,0.003538,0.347621,-0.000034,-0.000011,-0.000009,-0.000008,-0.000038,-70.293375,0.000049,
2086,3163,-3.83122168177805,11.2496709888571,0.0215315344573241,0.002408,-0.000470,-0.003337,0.120576,-0.035468,313.102959,24.387837,0.999801,0.995783,0.002815,0.325807,-0.000048,-0.000003,-0.000032,0.000014,-0.000065,-62.359535,0.000068,
2176,2128,-1.70658247336608,-11.293656355635,0.00567568967238685,0.002653,-0.000568,-0.004245,0.134566,-0.069910,329.377122,23.932076,0.998946,0.982039,0.005354,0.256198,-0.000018,-0.000016,-0.000011,-0.000005,-0.000028,-47.630887,0.000036,
2506,2653,5.38800702435499,0.190698667724448,-0.0296868823260183,0.002351,-0.000882,-0.002697,0.117868,-0.050429,320.540416,24.179961,0.999587,0.989071,0.004281,0.325032,-0.000020,-0.000011,-0.000038,0.000022,-0.000053,-48.113381,0.000053,
2476,2353,4.79776566611045,-6.36769684834884,0.00384352644562114,0.002556,-0.000969,0.001398,0.111339,-0.036044,325.605258,23.052450,0.998938,0.983961,0.005367,0.328350,-0.000006,0.000029,0.000018,0.000036,-0.000013,66.924018,0.000037,
2266,2548,0.180464926070893,-2.10784495179623,-0.0208205890535851,0.002764,-0.000340,-0.004622,0.142081,-0.042124,322.167646,24.154489,0.999582,0.992869,0.003612,0.315918,-0.000038,-0.000013,-0.000019,-0.000003,-0.000048,-62.275474,0.000057,
2221,2248,-0.745617546888209,-8.6661626641052,-0.00334232873262863,0.003119,0.000076,-0.006166,0.162807,-0.048160,327.273132,23.729743,0.998784,0.984112,0.005144,0.395800,-0.000042,-0.000036,-0.000029,-0.000009,-0.000068,-47.909258,0.000084,
2041,2998,-4.78108059735395,7.66979731564404,0.00261637029137773,0.002926,-0.000442,-0.003597,0.144817,-0.036239,315.911418,24.279084,0.999112,0.991229,0.003833,0.327962,-0.000028,-0.000014,-0.000020,0.000000,-0.000042,-55.023701,0.000049,
2191,2188,-1.38960345210603,-9.97968458288155,0.0106724575394992,0.002464,-0.000690,-0.000264,0.113576,-0.034909,328.386379,23.914704,0.998720,0.979755,0.005513,0.292017,-0.000028,-0.000016,-0.000021,-0.000001,-0.000044,-53.375505,0.000051,
2446,2128,4.18991734668615,-11.2991199284007,0.0200885780654971,0.002804,0.000236,-0.004399,0.144731,-0.022136,329.345230,22.372641,0.999402,0.979688,0.005733,0.309893,-0.000034,-0.000015,-0.000005,-0.000014,-0.000035,-76.726009,0.000050,
2311,2683,1.13522650487759,0.836305322104756,-0.0214839963936697,0.002593,-0.000346,-0.003695,0.131630,-0.026347,319.908550,24.306169,0.999716,0.992411,0.003603,0.403330,-0.000036,0.000010,-0.000023,0.000019,-0.000046,-67.375270,0.000046,
2026,2983,-5.10455790768992,7.34344697940617,-0.00185454613745151,0.002616,-0.000142,-0.003363,0.129801,-0.031986,316.195577,24.220389,0.999306,0.992400,0.003616,0.358808,-0.000030,-0.000031,-0.000024,-0.000006,-0.000055,-44.389171,0.000068,
2251,2458,-0.129647187594149,-4.07354737192489,-0.0114408782330884,0.002808,-0.000705,-0.002235,0.135965,-0.059478,323.723454,24.034720,0.999759,0.991710,0.003906,0.295231,-0.000036,-0.000013,-0.000024,0.000003,-0.000052,-57.904278,0.000058,
2401,3283,2.97798451101583,13.8803867488757,-0.018391239851212,0.002622,-0.000606,-0.002673,0.130081,-0.051569,310.133754,26.103047,0.999685,0.992152,0.003582,0.349073,-0.000005,-0.000051,-0.000008,-0.000003,-0.000053,-9.493948,0.000063,
2011,2983,-5.43024283342638,7.34309946608453,-0.00601193536590472,0.002544,-0.000506,-0.000238,0.117848,-0.021800,316.245236,24.196386,0.999148,0.992645,0.003508,0.352712,-0.000024,-0.000024,-0.000022,-0.000002,-0.000047,-45.225808,0.000055,
2116,3133,-3.17605204734904,10.6020378016787,0.01828002953539,0.002852,-0.000823,0.000645,0.129310,-0.045300,313.428022,24.528980,0.999859,0.997371,0.002501,0.303855,-0.000046,-0.000009,-0.000022,0.000002,-0.000056,-65.009658,0.000064,
2371,2968,2.38711925415061,7.04151200615257,-0.00968215774025794,0.002284,-0.000958,0.000477,0.102938,-0.047384,315.322479,25.194424,0.999501,0.990501,0.004080,0.254196,-0.000040,-0.000014,-0.000007,-0.000012,-0.000042,-75.013556,0.000057,
2431,1993,3.88919094997813,-14.2632878285786,0.030803949088579,0.002473,-0.000431,-0.002067,0.120490,-0.037683,331.558366,22.098515,0.999264,0.977175,0.005765,0.175102,-0.000074,0.000000,-0.000012,0.000001,-0.000076,-81.161190,0.000087,
2491,2458,5.10294244945733,-4.06945609595593,-0.00943390739297456,0.002703,-0.000471,-0.000837,0.126850,-0.035040,323.846375,23.431343,0.999297,0.986145,0.004521,0.320333,0.000010,-0.000031,0.000029,0.000025,-0.000046,27.410746,0.000046,
2146,3283,-2.55152195928536,13.8549899075747,0.00906586420131816,0.002557,-0.000475,-0.003127,0.127257,-0.038167,310.765051,24.701039,0.999651,0.994995,0.002968,0.328383,-0.000038,-0.000010,-0.000016,-0.000002,-0.000045,-65.290924,0.000054,
2356,2923,2.06939322972416,6.06225322755146,-0.016274783567269,0.002430,-0.000497,-0.002302,0.119668,-0.025871,316.015659,24.965789,0.999224,0.992014,0.003762,0.351809,-0.000042,-0.000018,-0.000010,-0.000015,-0.000045,-69.697021,0.000062,
2281,2623,0.492470524517628,-0.471728772564013,-0.0261610503634984,0.002392,-0.000764,-0.000667,0.111826,-0.039158,320.854728,24.236455,0.999322,0.988935,0.004158,0.355883,-0.000031,-0.000002,-0.000021,0.000009,-0.000042,-62.026828,0.000044,
2236,2413,-0.450505118789632,-5.0533562799681,-0.0319474703078413,0.002403,-0.000939,-0.000003,0.109962,-0.051375,324.282911,24.097751,0.999576,0.991865,0.003733,0.210870,-0.000042,-0.000014,-0.000032,0.000007,-0.000063,-56.769968,0.000069,
2341,2863,1.75407624442429,4.75616959368855,-0.0202837896068218,0.002295,-0.000753,-0.002171,0.112711,-0.059221,316.955419,24.759211,0.999660,0.992037,0.003613,0.348859,-0.000038,0.000000,-0.000010,0.000002,-0.000041,-75.741800,0.000046,
2071,3043,-4.13781078755622,8.64764810222236,0.00731691401978196,0.002657,-0.000589,-0.002033,0.128117,-0.036633,315.029376,24.344933,0.999540,0.993592,0.003301,0.334648,-0.000035,-0.000007,-0.000019,0.000003,-0.000044,-63.014393,0.000050,
2206,2203,-1.06527862365011,-9.65040137956045,0.00631055902522348,0.002553,-0.000519,-0.000449,0.118305,-0.031376,328.071002,23.894106,0.999078,0.982848,0.005166,0.258730,-0.000038,-0.000024,-0.000029,-0.000002,-0.000060,-51.683405,0.000071,
2476,2368,4.79406718666737,-6.03733377373727,-0.00919081305431746,0.002479,-0.000125,-0.005011,0.132443,-0.034745,325.273618,23.177287,0.999605,0.987070,0.004829,0.263647,0.000002,0.000023,0.000021,0.000036,-0.000011,58.553456,0.000036,
2506,2668,5.38580799110894,0.516681737745628,-0.0232705869241272,0.002787,-0.000704,-0.001749,0.134237,-0.048808,320.366683,24.182219,0.999498,0.987878,0.004421,0.385754,-0.000024,-0.000022,-0.000044,0.000021,-0.000066,-45.588221,0.000068,
2056,2998,-4.45633210558156,7.67086784571238,0.00188459793400853,0.002572,-0.000378,-0.002192,0.124597,-0.036005,315.797209,24.325612,0.999210,0.990915,0.003828,0.323915,-0.000033,-0.000015,-0.000016,-0.000005,-0.000043,-60.171767,0.000053,
2131,3193,-2.86031385606228,11.9022518934672,0.0304059392375393,0.002439,-0.000832,-0.001489,0.116595,-0.061455,312.469955,24.562977,0.999528,0.992560,0.003422,0.333443,-0.000052,-0.000018,-0.000028,-0.000003,-0.000067,-60.409069,0.000079,
2461,2233,4.49445800584936,-8.99533027019882,0.00662529585491711,0.002194,-0.000642,0.000431,0.098529,-0.038557,327.521963,22.708099,0.999228,0.982725,0.005239,0.271623,-0.000011,-0.000013,-0.000015,0.000004,-0.000027,-43.354410,0.000030,
2401,3298,2.9744138412733,14.2051909000602,-0.0229770985615687,0.002559,-0.000817,0.000089,0.117121,-0.051598,309.835931,26.092869,0.999668,0.993160,0.003485,0.403190,-0.000005,-0.000058,-0.000014,-0.000001,-0.000061,-13.773230,0.000072,
2041,3013,-4.78381364319018,7.9965548409578,-0.00444831545246416,0.002850,-0.000036,-0.005439,0.146582,-0.020576,315.609258,24.328498,0.999351,0.992335,0.003723,0.285700,-0.000030,-0.000003,-0.000016,0.000005,-0.000038,-65.184505,0.000041,
2101,3103,-3.495853863013,9.95012736213593,0.0225296616187052,0.002825,-0.000680,-0.003088,0.139031,-0.052366,314.034288,24.470196,0.999682,0.993343,0.003252,0.292851,-0.000039,-0.000013,-0.000020,-0.000002,-0.000050,-61.655296,0.000059,
2431,2008,3.88666696228184,-13.9346979651006,0.0318372055583609,0.002670,-0.000025,-0.004096,0.137145,-0.037222,331.342561,22.070483,0.999264,0.976460,0.005950,0.257087,-0.000069,-0.000014,-0.000004,-0.000014,-0.000070,-86.353563,0.000089,
2086,3178,-3.83262219342159,11.572934333947,0.0330144584107188,0.002658,-0.000512,-0.004194,0.134562,-0.045498,312.968603,24.299833,0.999711,0.995920,0.002763,0.401582,-0.000050,-0.000003,-0.000033,0.000014,-0.000067,-62.909942,0.000070,
2176,2143,-1.70873674293801,-10.9656653234605,0.0137287271243736,0.002740,-0.000637,0.000314,0.124477,-0.039418,329.192868,23.941654,0.998821,0.981428,0.005381,0.291934,-0.000025,-0.000026,-0.000012,-0.000013,-0.000038,-43.067524,0.000053,
2326,2818,1.43588756443138,3.7762930155052,-0.0183390338061145,0.001936,-0.000837,-0.000157,0.089132,-0.062751,317.686658,24.650398,0.999524,0.992247,0.003635,0.329078,-0.000037,-0.000010,-0.000009,-0.000007,-0.000040,-72.496818,0.000050,
2221,2263,-0.748912713013848,-8.33686450192705,-0.00500399081886371,0.002608,-0.000518,-0.005038,0.135565,-0.055508,326.989843,23.836659,0.998847,0.983551,0.005207,0.302884,-0.000039,-0.000038,-0.000028,-0.000011,-0.000066,-45.821220,0.000083,
2386,3073,2.69461685246455,9.32213063861719,0.000820885019891193,0.002701,-0.000230,-0.004258,0.139390,-0.038514,313.737639,25.448520,0.999628,0.992378,0.003562,0.344068,-0.000026,0.000005,0.000000,0.000005,-0.000026,89.144315,0.000028,
2266,2563,0.177733313128108,-1.78242608520974,-0.0186851537693542,0.002549,-0.000606,-0.004578,0.131986,-0.061223,321.933213,24.055081,0.999508,0.990863,0.003960,0.422534,-0.000039,-0.000007,-0.000027,0.000009,-0.000054,-60.315741,0.000058,
2026,2998,-5.10636293099821,7.6686311765925,0.00476939049445946,0.002783,-0.000404,-0.002391,0.134780,-0.035378,316.011749,24.232051,0.999282,0.993123,0.003492,0.333012,-0.000036,-0.000013,-0.000022,0.000000,-0.000049,-59.168551,0.000057,
2191,2203,-1.39215977329317,-9.6506179170628,0.00254991524889192,0.002677,-0.000095,-0.004652,0.137289,-0.034020,328.100903,23.901627,0.998764,0.980420,0.005509,0.323440,-0.000027,-0.000016,-0.000024,0.000003,-0.000046,-51.477058,0.000051,
2146,3298,-2.55410043945747,14.1791503713543,0.0108610506189848,0.002488,-0.000602,-0.001753,0.119834,-0.050260,310.527237,24.671443,0.999675,0.995667,0.002742,0.352327,-0.000031,-0.000004,-0.000020,0.000007,-0.000041,-62.564716,0.000044,
2251,2473,-0.132054624463091,-3.74738060688804,-0.00457277320441563,0.002523,-0.000528,-0.002575,0.124038,-0.042267,323.526553,23.982381,0.999663,0.991496,0.003876,0.389527,-0.000033,-0.000016,-0.000019,-0.000003,-0.000045,-56.635592,0.000054,
2011,2998,-5.43184453624658,7.66803913344506,0.00187609035259584,0.002691,-0.000406,-0.001422,0.127845,-0.024659,316.077069,24.193507,0.999264,0.993053,0.003446,0.339936,-0.000030,-0.000005,-0.000021,0.000007,-0.000042,-60.027809,0.000045,
2491,2473,5.09994679706078,-3.74159653471327,-0.0124173861609052,0.002661,-0.000262,-0.005388,0.142418,-0.044401,323.593583,23.472528,0.999368,0.986226,0.004530,0.330047,-0.000004,-0.000041,0.000015,0.000001,-0.000047,19.273413,0.000053,
2431,2023,3.88266864700233,-13.6047012976476,0.0283154472904243,0.002203,-0.000916,-0.000940,0.103831,-0.062870,331.038193,22.150974,0.999103,0.977032,0.005825,0.204721,-0.000060,-0.000005,-0.000006,-0.000005,-0.000061,-84.033286,0.000073,
2416,1993,3.56215622268478,-14.2648130278235,0.0410217365071617,0.002582,-0.000230,-0.003853,0.131998,-0.050564,331.631462,22.155083,0.999027,0.976130,0.006098,0.211710,-0.000080,0.000000,-0.000022,0.000006,-0.000086,-75.643133,0.000096,
2371,2983,2.3849770257863,7.36658189228725,-0.00630235565949988,0.002453,-0.000480,-0.003308,0.124331,-0.045037,315.127450,25.170899,0.999476,0.990671,0.003974,0.320569,-0.000038,-0.000011,-0.000009,-0.000009,-0.000041,-72.573616,0.000053,
2446,2143,4.18568605764411,-10.9691516595958,0.00805481703275746,0.002538,-0.000198,-0.004811,0.133908,-0.052488,328.991909,22.410354,0.999101,0.979474,0.005850,0.297436,-0.000033,-0.000007,-0.000010,-0.000004,-0.000036,-70.877502,0.000044,
2506,2683,5.38157881227326,0.845634851739185,-0.0377866947531516,0.002713,-0.000604,-0.003992,0.139536,-0.065927,320.005438,24.307348,0.999627,0.991068,0.003793,0.305480,-0.000031,-0.000009,-0.000035,0.000016,-0.000057,-53.720164,0.000059,
2461,2248,4.49245543208654,-8.66736770070578,0.00863172089339059,0.002672,-0.000211,-0.004216,0.138006,-0.035349,327.335954,22.716827,0.999074,0.980304,0.005318,0.322577,-0.000008,0.000000,-0.000017,0.000013,-0.000021,-52.151843,0.000021,
2071,3058,-4.13996474971002,8.97214582102308,0.00691654580577961,0.002788,-0.000799,-0.004119,0.140090,-0.049966,314.793883,24.272570,0.999345,0.992851,0.003414,0.389707,-0.000032,-0.000014,-0.000022,0.000001,-0.000047,-55.787992,0.000054,
2311,2698,1.13236833105728,1.16269432577791,-0.0203661182404176,0.002556,-0.000579,-0.001793,0.123324,-0.039613,319.666018,24.322858,0.999734,0.992951,0.003545,0.405785,-0.000041,0.000006,-0.000022,0.000014,-0.000050,-68.458968,0.000052,
2206,2218,-1.06760814105036,-9.32166288673598,0.00260419800645195,0.002800,-0.000030,-0.003681,0.140031,-0.016190,327.820128,23.889074,0.998969,0.983323,0.005224,0.298038,-0.000038,-0.000031,-0.000032,-0.000002,-0.000067,-48.302768,0.000079,
2356,2938,2.06628606723546,6.38832638563106,-0.0135368860353537,0.002219,-0.000645,0.001057,0.098096,-0.018523,315.772021,25.013687,0.999195,0.990732,0.003909,0.349462,-0.000039,-0.000015,-0.000011,-0.000011,-0.000043,-68.845920,0.000057,
2476,2383,4.79051196428371,-5.70896457083341,-0.0164002361620987,0.002519,0.000011,-0.005771,0.137237,-0.027605,324.975046,23.176780,0.999606,0.986254,0.004872,0.329863,-0.000002,0.000010,0.000010,0.000016,-0.000008,59.538268,0.000016,
2131,3208,-2.86223229260389,12.2275528527775,0.0353305748258776,0.002519,-0.000323,-0.004326,0.129075,-0.025610,312.277841,24.585390,0.999689,0.994709,0.003036,0.351509,-0.000051,-0.000016,-0.000028,-0.000001,-0.000067,-60.814571,0.000078,
2236,2428,-0.451831932009704,-4.72824557040983,-0.0200084056884293,0.002715,-0.000598,-0.001628,0.129698,-0.033615,324.160573,23.983800,0.999450,0.990787,0.003951,0.364848,-0.000040,-0.000025,-0.000033,0.000001,-0.000067,-51.267508,0.000077,
2056,3013,-4.45920675600677,7.99592534120134,0.00263933801318217,0.002143,-0.000650,-0.000051,0.098758,-0.034964,315.533688,24.286096,0.998923,0.988371,0.004466,0.358565,-0.000037,-0.000006,-0.000016,0.000001,-0.000043,-67.385816,0.000049,
2296,2638,0.817185772049307,-0.14542082933194,-0.0207638618360306,0.002644,-0.000500,-0.004759,0.137273,-0.065760,320.664896,24.219176,0.999341,0.989028,0.004025,0.363598,-0.000034,0.000000,-0.000022,0.000011,-0.000046,-63.649920,0.000048,
2041,3028,-4.78594288328593,8.32035290323311,0.00175508100937805,0.002744,-0.000231,-0.004391,0.138639,-0.040542,315.409652,24.234238,0.999472,0.992411,0.003738,0.351722,-0.000023,0.000000,-0.000015,0.000007,-0.000030,-64.181057,0.000032,
2101,3118,-3.49863529468878,10.2751337150775,0.0189319723079961,0.002728,-0.000665,-0.002961,0.134213,-0.050789,313.754655,24.425590,0.999756,0.995124,0.002870,0.339325,-0.000042,-0.000010,-0.000022,0.000001,-0.000053,-63.214483,0.000061,
2116,3148,-3.17885968034388,10.9261923828173,0.0245637884558505,0.002333,-0.000703,0.004084,0.095254,-0.026511,313.201928,24.457756,0.999726,0.995751,0.002840,0.396017,-0.000046,-0.000006,-0.000022,0.000004,-0.000056,-65.758700,0.000062,
2341,2878,1.75078543743836,5.0822745494839,-0.0294606128668988,0.002351,-0.000683,-0.004419,0.123176,-0.060942,316.644648,24.715417,0.999590,0.992012,0.003681,0.427542,-0.000039,-0.000007,-0.000008,-0.000005,-0.000041,-75.996973,0.000051,
2491,2488,5.09744098815075,-3.41418745351395,-0.0067052970253485,0.002761,-0.000094,-0.005361,0.146962,-0.037567,323.402310,23.541125,0.999478,0.986543,0.004422,0.328140,0.000003,-0.000064,0.000005,0.000003,-0.000065,3.940659,0.000073,
2281,2638,0.490276935007849,-0.14470400046514,-0.027091097774246,0.002618,-0.000295,-0.005513,0.138586,-0.053122,320.630236,24.276510,0.999298,0.987147,0.004289,0.330016,-0.000032,-0.000002,-0.000020,0.000007,-0.000042,-63.674484,0.000045,
2086,3193,-3.83484484015147,11.8984223975334,0.0347933953713095,0.002834,-0.000476,-0.002993,0.139217,-0.040787,312.742671,24.347448,0.999432,0.995111,0.002949,0.356401,-0.000051,-0.000010,-0.000036,0.000011,-0.000072,-59.651015,0.000078,
2431,2038,3.87983632154653,-13.2761591905463,0.0337931804782556,0.002158,-0.001081,0.002224,0.090078,-0.045608,330.828579,22.162894,0.999086,0.976942,0.005837,0.263476,-0.000059,-0.000015,0.000002,-0.000014,-0.000059,87.737190,0.000078,
2176,2158,-1.71470631782262,-10.6301044175216,-0.0388324279615517,0.002370,0.000236,-0.006648,0.129312,-0.063277,328.517295,24.053959,0.999421,0.959822,0.006884,0.173141,-0.000025,-0.000026,-0.000015,-0.000011,-0.000041,-44.452290,0.000054,
2191,2218,-1.39424851228369,-9.3223239574984,0.00179962140668977,0.003004,0.000049,-0.006854,0.159238,-0.057083,327.875214,23.924854,0.998743,0.981956,0.005512,0.294012,-0.000031,-0.000022,-0.000030,0.000004,-0.000057,-48.951674,0.000063,
2161,1993,-2.01039045792964,-14.2534802827154,0.0200114547170642,0.002798,0.000651,-0.007022,0.149874,-0.030805,331.727967,24.065468,0.999123,0.983498,0.005135,0.125915,0.000003,-0.000041,-0.000014,0.000006,-0.000045,-15.855420,0.000049,
2416,2008,3.55942945506914,-13.9369540237385,0.0450435131904214,0.002725,-0.000314,-0.000642,0.126820,-0.026764,331.418921,22.070281,0.999129,0.974356,0.006162,0.371713,-0.000072,-0.000011,-0.000012,-0.000009,-0.000074,-79.123603,0.000091,
2026,3013,-5.10870896849246,7.99489607250348,-0.000458338638168243,0.002791,-0.000237,-0.006965,0.147798,-0.039829,315.736492,24.267932,0.999466,0.993987,0.003408,0.282303,-0.000039,0.000001,-0.000015,0.000006,-0.000044,-71.699874,0.000048,
2266,2578,0.174717552202733,-1.45389042276773,-0.0252868744810826,0.002748,-0.000552,-0.003873,0.138799,-0.052497,321.641066,24.141789,0.999324,0.989180,0.004227,0.371224,-0.000036,-0.000001,-0.000030,0.000017,-0.000054,-60.350070,0.000055,
2011,3013,-5.43398729893523,7.99266307032484,0.00327744672352992,0.002664,-0.000698,-0.002911,0.130600,-0.041517,315.847782,24.135119,0.999446,0.993625,0.003426,0.368859,-0.000035,0.000008,-0.000012,0.000011,-0.000038,-75.619205,0.000039,
2476,2398,4.78774216641596,-5.38159473902032,-0.0075427394327221,0.002249,-0.000515,-0.003661,0.116661,-0.033795,324.785372,23.257889,0.999578,0.987153,0.004645,0.300494,0.000001,0.000014,0.000014,0.000023,-0.000008,58.013668,0.000023,
2506,2698,5.3790801780956,1.1717292058028,-0.0292396397897505,0.002546,-0.000556,-0.004512,0.133904,-0.075560,319.827277,24.357452,0.999629,0.991933,0.003620,0.306813,-0.000029,0.000000,-0.000038,0.000027,-0.000055,-55.321796,0.000055,
2326,2833,1.43282115342931,4.10507700831722,-0.0327186934234192,0.002506,-0.000439,-0.003492,0.127026,-0.048331,317.358732,24.782193,0.999844,0.993671,0.003381,0.246248,-0.000035,-0.000005,-0.000007,-0.000003,-0.000037,-78.011550,0.000045,
2386,3088,2.69193956323193,9.64653322328547,0.0118481860764064,0.002422,-0.000936,0.000406,0.109488,-0.064524,313.555227,25.466788,0.999463,0.991128,0.003768,0.342031,-0.000024,0.000007,-0.000004,0.000007,-0.000024,-81.945602,0.000025,
2221,2278,-0.750922375528415,-8.00923450542381,8.41691577306847E-05,0.002870,-0.000912,-0.004332,0.145193,-0.062172,326.800149,23.863999,0.998705,0.983882,0.005180,0.289561,-0.000037,-0.000035,-0.000029,-0.000007,-0.000065,-45.555275,0.000079,
2461,2263,4.48893929060378,-8.3378001910745,0.000816270651625928,0.002625,-0.000374,-0.006865,0.145744,-0.050912,327.035589,22.796068,0.999150,0.980661,0.005343,0.284562,-0.000012,-0.000008,-0.000023,0.000013,-0.000033,-48.032370,0.000033,
2251,2488,-0.135009536498799,-3.41969680578489,-0.0104427728463179,0.002681,-0.000635,-0.001936,0.129177,-0.047169,323.239961,23.978439,0.999629,0.990700,0.003822,0.413100,-0.000035,-0.000024,-0.000025,-0.000004,-0.000055,-51.548987,0.000066,
2041,3043,-4.78802810754987,8.64536922558317,0.00752388496874801,0.002643,-0.000210,-0.004489,0.134319,-0.033901,315.209206,24.225826,0.999695,0.995191,0.002996,0.358228,-0.000026,-0.000003,-0.000022,0.000011,-0.000040,-58.799858,0.000041,
2056,3028,-4.46114796506263,8.3211078442998,0.0011363951729777,0.002605,-0.000685,-0.000905,0.122411,-0.051160,315.300497,24.264086,0.999400,0.992393,0.003643,0.358121,-0.000034,-0.000003,-0.000017,0.000004,-0.000041,-66.198074,0.000045,
2446,2158,4.18288454447054,-10.6406227454446,0.0143855708749356,0.002461,-0.000286,-0.001936,0.119689,-0.050145,328.788271,22.487017,0.999208,0.980560,0.005493,0.277700,-0.000035,-0.000030,-0.000015,-0.000018,-0.000048,-50.012309,0.000068,
2071,3073,-4.14231970443124,9.29736126857843,0.0106143494538173,0.002611,-0.000709,-0.003882,0.131278,-0.049499,314.571409,24.282902,0.999382,0.992542,0.003524,0.375628,-0.000030,-0.000008,-0.000023,0.000006,-0.000044,-58.202919,0.000048,
2356,2953,2.06360010420718,6.71400385300472,-0.0156741378361858,0.002343,-0.000820,-0.001564,0.112910,-0.050686,315.524340,25.034279,0.999380,0.990607,0.003831,0.335002,-0.000036,-0.000015,-0.000008,-0.000012,-0.000039,-70.129980,0.000054,
2371,2998,2.38261283610789,7.69191203348197,0.00235402834141496,0.002216,-0.000598,-0.004238,0.116757,-0.042625,314.947379,25.210750,0.999503,0.992043,0.003710,0.323174,-0.000036,-0.000012,-0.000009,-0.000009,-0.000039,-71.491129,0.000051,
2206,2233,-1.0699543980628,-8.99499187284707,0.00786478887204112,0.002860,-0.000694,-0.000334,0.132006,-0.049076,327.615179,23.841591,0.999057,0.984346,0.005248,0.331742,-0.000042,-0.000026,-0.000033,0.000000,-0.000069,-51.815376,0.000079,
2176,2173,-1.72009505623103,-10.2959348014593,-0.0877462061390588,0.001750,0.000968,-0.022168,0.149088,-0.068803,327.887195,24.072418,0.999827,0.926435,0.008921,0.166427,-0.000028,-0.000020,-0.000015,-0.000008,-0.000039,-52.942544,0.000051,
2431,2053,3.87707815408303,-12.9458499043691,0.0244802471216303,0.002803,-0.000936,-0.001926,0.134900,-0.063883,330.554039,22.210973,0.998832,0.977237,0.005925,0.250599,-0.000057,-0.000023,0.000007,-0.000021,-0.000058,79.279047,0.000082,
2131,3223,-2.86471527236051,12.5522190731311,0.035974663106856,0.002565,-0.000341,-0.003336,0.128257,-0.022343,312.037120,24.560441,0.999639,0.994939,0.002969,0.383879,-0.000051,-0.000011,-0.000031,0.000005,-0.000068,-61.514847,0.000075,
2416,2023,3.55463008833143,-13.6042571048799,0.0338380659342761,0.002049,-0.001118,0.002382,0.084589,-0.059362,331.040556,22.316068,0.998735,0.974703,0.006174,0.145239,-0.000060,-0.000004,-0.000011,-0.000002,-0.000062,-79.786972,0.000073,
2086,3208,-3.83687663144147,12.2231250541254,0.0396434055795112,0.002829,-0.000405,-0.004630,0.143736,-0.042835,312.542598,24.350774,0.999532,0.994692,0.003070,0.348641,-0.000052,-0.000012,-0.000037,0.000010,-0.000074,-59.285305,0.000080,
2491,2503,5.09356414224049,-3.0861694235054,-0.00982261473416202,0.002416,-0.000395,-0.003183,0.122720,-0.047587,323.108228,23.606446,0.999478,0.987477,0.004412,0.313152,-0.000002,-0.000076,0.000003,-0.000001,-0.000076,2.175404,0.000089,
2026,3028,-5.11049764080562,8.31890672161727,0.00748835548614579,0.002878,-0.000365,-0.006302,0.149974,-0.040098,315.561295,24.184498,0.999457,0.992581,0.003698,0.354935,-0.000031,0.000003,-0.000010,0.000006,-0.000034,-74.995444,0.000036,
2161,2008,-2.01272106144159,-13.9252295266941,0.0179260438806637,0.003079,0.000422,-0.006432,0.160880,-0.027951,331.481644,23.966007,0.999026,0.986036,0.004873,0.241985,-0.000015,-0.000013,-0.000013,-0.000001,-0.000027,-47.346364,0.000032,
2101,3133,-3.50046025566629,10.6005715341609,0.0231393104209019,0.002931,-0.000406,-0.005363,0.150720,-0.042932,313.561102,24.466689,0.999811,0.995918,0.002708,0.305993,-0.000045,-0.000007,-0.000024,0.000004,-0.000057,-63.875059,0.000063,
2116,3163,-3.18084939256536,11.2513114900758,0.0273754648449653,0.002332,-0.000579,-0.000662,0.109329,-0.032124,312.994342,24.481677,0.999564,0.994129,0.003252,0.368773,-0.000045,-0.000005,-0.000025,0.000007,-0.000057,-63.857683,0.000062,
2011,3028,-5.43574235529112,8.31767976792323,0.0123092993654268,0.002707,-0.000873,-0.002210,0.130686,-0.034432,315.679059,24.143425,0.999514,0.993461,0.003491,0.354538,-0.000024,0.000012,-0.000004,0.000013,-0.000025,-83.953043,0.000025,
2236,2443,-0.4537519345328,-4.40009859135372,-0.0141030452177233,0.002900,-0.000578,-0.003028,0.142722,-0.054454,323.979911,24.133119,0.999629,0.992427,0.003815,0.216813,-0.000041,-0.000021,-0.000028,-0.000001,-0.000061,-54.826076,0.000071,
2041,3058,-4.78979774201213,8.96987599237427,0.0172215191233249,0.002707,-0.000389,-0.003183,0.133613,-0.026148,315.045291,24.198118,0.999648,0.994812,0.003114,0.385173,-0.000025,-0.000009,-0.000027,0.000011,-0.000045,-53.397147,0.000047,
2281,2653,0.487694121119841,0.182318198983268,-0.0275489972698892,0.002674,-0.000064,-0.006935,0.145939,-0.060914,320.390182,24.318976,0.999457,0.989829,0.003991,0.308070,-0.000032,-0.000004,-0.000021,0.000007,-0.000044,-61.405141,0.000047,
2311,2713,1.12914730667156,1.49009854993447,-0.0236994675459528,0.002226,-0.000431,-0.003464,0.113909,-0.045028,319.384603,24.393294,0.999492,0.991250,0.003840,0.362657,-0.000042,0.000002,-0.000020,0.000009,-0.000050,-68.528784,0.000053,
2506,2713,5.37629352955797,1.49937656802295,-0.0260435339956757,0.002652,-0.000372,-0.003867,0.136382,-0.049354,319.611483,24.474441,0.999618,0.991374,0.003727,0.277362,-0.000035,0.000009,-0.000040,0.000032,-0.000059,-59.398255,0.000059,
2191,2233,-1.39662157591951,-8.99379517220711,0.00261471481468334,0.003127,-0.000087,-0.006394,0.163408,-0.051460,327.644437,23.962472,0.998821,0.983435,0.005262,0.278954,-0.000036,-0.000019,-0.000033,0.000006,-0.000062,-52.139535,0.000068,
2341,2893,1.74911356914575,5.40888845734963,-0.0174652993665063,0.002639,-0.000430,-0.003760,0.134231,-0.048236,316.510959,24.863318,0.999374,0.991932,0.003726,0.328239,-0.000042,-0.000018,-0.000005,-0.000016,-0.000043,-77.957164,0.000062,
2446,2173,4.18051243931924,-10.3116694280694,0.019619084360329,0.002635,-0.000483,-0.002423,0.129391,-0.056802,328.599228,22.604158,0.999466,0.985487,0.004769,0.208536,-0.000034,-0.000021,-0.000012,-0.000014,-0.000041,-59.360155,0.000058,
2266,2593,0.171909889914563,-1.1264340750644,-0.0274220866162977,0.002859,-0.000327,-0.002702,0.140134,-0.031632,321.381049,24.161778,0.999227,0.987781,0.004425,0.398497,-0.000035,-0.000003,-0.000027,0.000013,-0.000051,-60.344580,0.000053,
2476,2413,4.78527945914148,-5.05478894900811,-0.00167902799319108,0.002288,-0.000338,-0.004383,0.121302,-0.030292,324.596221,23.252841,0.999519,0.988166,0.004510,0.367043,-0.000008,0.000003,0.000018,0.000017,-0.000021,53.301986,0.000022,
2056,3043,-4.4634445610058,8.64653989364535,0.00347002022431298,0.002641,-0.000905,0.000868,0.119033,-0.044673,315.072098,24.271937,0.999666,0.995020,0.003095,0.350532,-0.000036,-0.000005,-0.000024,0.000008,-0.000049,-61.343862,0.000053,
2026,3043,-5.11264390665331,8.64346754017206,0.0121799833353862,0.002874,-0.000307,-0.004497,0.144882,-0.029436,315.351324,24.122377,0.999445,0.992709,0.003684,0.417087,-0.000036,0.000002,-0.000018,0.000008,-0.000043,-68.470850,0.000046,
2491,2518,5.08999716549252,-2.7589923477725,-0.0154391873293775,0.002529,-0.000814,-0.001672,0.121931,-0.068426,322.817223,23.588125,0.999483,0.987892,0.004263,0.370609,-0.000008,-0.000072,0.000000,-0.000008,-0.000072,-0.078907,0.000089,
2176,2188,-1.71702163127807,-9.97813978553064,-0.000190562945988404,0.002658,-0.000282,-0.002626,0.129955,-0.047937,328.358214,24.018610,0.999201,0.948972,0.007484,0.252325,-0.000027,-0.000015,-0.000021,0.000000,-0.000042,-53.250976,0.000049,
2251,2503,-0.138434505408572,-3.09037275184661,-0.017027660698659,0.002342,-0.000351,-0.002518,0.115634,-0.049005,322.927802,24.120957,0.999550,0.990015,0.004028,0.293527,-0.000040,-0.000030,-0.000023,-0.000011,-0.000058,-51.037592,0.000075,
2356,2968,2.06130339291692,7.04028857412128,-0.0122724313010849,0.002599,-0.000874,-0.002033,0.126330,-0.051734,315.321028,25.122470,0.999552,0.992156,0.003598,0.283821,-0.000038,-0.000014,-0.000007,-0.000012,-0.000040,-75.748303,0.000054,
2461,2278,4.48626943266843,-8.0092843612306,0.00770443893100037,0.002530,0.000177,-0.005518,0.136617,-0.018210,326.840877,22.886047,0.999404,0.981077,0.005328,0.283879,-0.000013,0.000001,-0.000023,0.000018,-0.000030,-53.676451,0.000030,
2161,2023,-2.01529729922026,-13.5963178004763,0.0150220887924775,0.003065,0.000231,-0.007515,0.163488,-0.031069,331.219753,23.929278,0.998878,0.985312,0.004949,0.289453,-0.000021,-0.000009,-0.000011,-0.000003,-0.000028,-59.128591,0.000034,
2416,2038,3.55090868708985,-13.2746641839169,0.0230642909510266,0.001973,-0.000483,0.000407,0.088561,-0.022054,330.713265,22.220746,0.998786,0.975301,0.006098,0.329817,-0.000057,-0.000012,-0.000004,-0.000011,-0.000058,-85.660433,0.000074,
2296,2653,0.813350827222045,0.182438402696839,-0.0285065460997771,0.002208,-0.000555,-0.003574,0.113236,-0.066339,320.332258,24.270133,0.999355,0.989096,0.003991,0.342939,-0.000034,-0.000003,-0.000024,0.000011,-0.000048,-61.553965,0.000050,
2086,3223,-3.83910782841988,12.5480192308155,0.0431007360265312,0.002897,-0.000302,-0.003360,0.143302,-0.030162,312.325700,24.352237,0.999516,0.993966,0.003297,0.357706,-0.000052,-0.000010,-0.000039,0.000013,-0.000076,-59.045725,0.000081,
2206,2248,-1.07329702309875,-8.66500877124826,-0.00418966990201852,0.002805,-0.000644,-0.001828,0.134221,-0.036805,327.274753,23.878517,0.998870,0.983927,0.005179,0.326609,-0.000040,-0.000031,-0.000030,-0.000006,-0.000066,-49.483546,0.000080,
2326,2848,1.43058098279951,4.42944321640267,-0.024365526246811,0.002477,-0.000360,-0.002751,0.123129,-0.053765,317.181146,24.703941,0.999782,0.992920,0.003478,0.353006,-0.000038,-0.000001,-0.000006,0.000000,-0.000039,-80.839265,0.000045,
2431,2068,3.87342876783023,-12.6156493225969,0.0195947791592062,0.002461,-0.000558,-0.002810,0.122648,-0.051093,330.258883,22.274231,0.998481,0.975454,0.006302,0.253742,-0.000055,-0.000009,0.000005,-0.000009,-0.000055,84.347704,0.000069,
2131,3238,-2.86763521699125,12.8777116427379,0.0263063641685335,0.002724,-0.000564,-0.004316,0.138368,-0.045921,311.720734,24.583810,0.999601,0.994952,0.002881,0.341065,-0.000051,-0.000019,-0.000034,0.000003,-0.000073,-57.618367,0.000083,
2101,3148,-3.50308537816716,10.9242710373883,0.0329752816292057,0.002500,-0.000569,0.000480,0.113630,-0.041774,313.362022,24.392010,0.999882,0.996930,0.002530,0.382013,-0.000046,-0.000005,-0.000025,0.000007,-0.000058,-64.586084,0.000063,
2011,3043,-5.43782481549506,8.64273036269862,0.0134055084291731,0.002782,-0.000497,-0.003397,0.137410,-0.035312,315.450709,24.113525,0.999456,0.993849,0.003515,0.370919,-0.000026,0.000011,-0.000013,0.000015,-0.000030,-72.777578,0.000030,
2071,3088,-4.14504086477598,9.62228756139344,0.0140697683967232,0.002322,-0.000895,0.000149,0.106342,-0.047441,314.330926,24.267019,0.999304,0.992002,0.003629,0.389343,-0.000035,-0.000014,-0.000023,0.000001,-0.000050,-56.939639,0.000057,
2236,2458,-0.456719397974883,-4.07365858695039,-0.0106870373674042,0.002307,-0.000742,-0.002974,0.115236,-0.066784,323.738890,24.098860,0.999475,0.990576,0.004127,0.261111,-0.000039,-0.000016,-0.000020,-0.000004,-0.000051,-59.912000,0.000061,
2386,3103,2.68937033169781,9.97191256590773,0.0149861941133622,0.002364,-0.000813,-0.001400,0.113417,-0.052032,313.339841,25.489416,0.999187,0.989645,0.004001,0.374062,-0.000021,0.000011,0.000000,0.000011,-0.000021,-89.718565,0.000021,
2221,2293,-0.753036791195971,-7.68119210545827,-0.000996961135740548,0.003077,0.000161,-0.008995,0.169946,-0.049901,326.573946,23.852570,0.998974,0.986106,0.004748,0.334485,-0.000038,-0.000023,-0.000025,-0.000005,-0.000056,-53.158931,0.000068,
2041,3073,-4.79216593532275,9.29494267833169,0.0183789104626726,0.002636,-0.000288,-0.002815,0.129350,-0.024778,314.806281,24.176133,0.999369,0.993403,0.003549,0.400104,-0.000020,-0.000005,-0.000026,0.000015,-0.000040,-52.732955,0.000040,
2506,2728,5.37341562914668,1.82543361288775,-0.0224817005233149,0.002556,-0.000609,-0.004064,0.132687,-0.046099,319.393417,24.475256,0.999421,0.990141,0.003980,0.341265,-0.000039,0.000012,-0.000034,0.000029,-0.000055,-63.623028,0.000055,
2371,3013,2.37971633321503,8.01765770253978,0.00557076666206058,0.002172,-0.000521,-0.001291,0.104311,-0.022754,314.716550,25.237914,0.999544,0.991838,0.003698,0.356099,-0.000038,-0.000010,-0.000010,-0.000007,-0.000041,-72.454501,0.000052,
2191,2248,-1.39931422368862,-8.66611287057658,0.00325896562316075,0.002894,-0.000192,-0.006563,0.153222,-0.050455,327.398308,23.930816,0.998704,0.984431,0.005138,0.328276,-0.000035,-0.000021,-0.000031,0.000003,-0.000059,-51.445895,0.000067,
2446,2188,4.17736081199933,-9.98319997905742,0.0217962812255337,0.002549,-0.000631,0.000494,0.114560,-0.029061,328.360222,22.615197,0.999605,0.986944,0.004599,0.280243,-0.000030,-0.000011,-0.000014,-0.000003,-0.000037,-61.787705,0.000045,
2491,2533,5.08717364016255,-2.43091410289382,-0.0168123755126999,0.002837,-0.000620,-0.002499,0.139321,-0.059262,322.579130,23.665946,0.999687,0.990497,0.003776,0.361836,-0.000006,-0.000072,-0.000003,-0.000006,-0.000072,-2.666238,0.000087,
2311,2728,1.12666052845412,1.81636425274446,-0.0229813111620842,0.002549,-0.000794,-0.002127,0.124072,-0.061826,319.157104,24.407998,0.999395,0.990613,0.003981,0.363416,-0.000042,-0.000006,-0.000017,0.000000,-0.000048,-68.532552,0.000056,
2086,3238,-3.84230262540972,12.8731770349999,0.0348349158747965,0.002692,-0.000610,-0.002926,0.132461,-0.043388,312.000424,24.340907,0.999630,0.994659,0.003051,0.353372,-0.000053,-0.000018,-0.000043,0.000011,-0.000081,-56.115463,0.000088,
2341,2908,1.74648826476966,5.73538376002277,-0.0188508812082659,0.002816,-0.000295,-0.005415,0.148259,-0.034182,316.268402,24.905361,0.999133,0.991445,0.003904,0.336658,-0.000045,-0.000017,-0.000005,-0.000017,-0.000046,-80.519477,0.000065,
2281,2668,0.48516095785369,0.510031994370117,-0.0281700983071573,0.002933,-0.000416,-0.006512,0.156377,-0.058903,320.151359,24.418457,0.999670,0.992261,0.003731,0.238725,-0.000035,-0.000003,-0.000020,0.000006,-0.000044,-64.260951,0.000048,
2461,2293,4.48280378856965,-7.68243084386006,0.0096042581266147,0.002335,-0.000517,-0.000644,0.109092,-0.024136,326.587207,22.816708,0.999358,0.980647,0.005328,0.403904,-0.000012,0.000001,-0.000017,0.000012,-0.000023,-55.851194,0.000023,
2416,2053,3.54893728017176,-12.9456877609992,0.0263549239418808,0.002406,-0.000615,-0.003147,0.121253,-0.052615,330.531950,22.300809,0.998648,0.976350,0.006082,0.269855,-0.000053,-0.000022,0.000003,-0.000022,-0.000053,85.467130,0.000077,
2161,2038,-2.01856925234202,-13.2663533112684,0.0105926554288089,0.002688,0.000012,-0.005300,0.139367,-0.040019,330.917962,23.983162,0.999074,0.985297,0.004894,0.240745,-0.000019,-0.000012,-0.000010,-0.000005,-0.000026,-54.725033,0.000033,
2266,2608,0.168783964860111,-0.798897257714877,-0.0308425004167248,0.002531,-0.000449,-0.004542,0.131093,-0.053892,321.100048,24.226197,0.999257,0.988358,0.004351,0.338175,-0.000036,0.000000,-0.000020,0.000009,-0.000045,-66.165389,0.000048,
2476,2428,4.78207516296074,-4.72665300561254,-0.00292325809579097,0.002440,-0.000501,-0.002077,0.119453,-0.033733,324.340599,23.313774,0.999457,0.987971,0.004448,0.360832,-0.000011,0.000005,0.000018,0.000017,-0.000022,57.367028,0.000023,
2116,3178,-3.1824905082806,11.5756770916566,0.0335439629974985,0.002677,-0.000688,-0.002101,0.129440,-0.049013,312.821165,24.470752,0.999546,0.993052,0.003354,0.364807,-0.000047,-0.000007,-0.000026,0.000006,-0.000059,-63.884367,0.000065,
2101,3163,-3.50566995655918,11.2499621159442,0.0258089583981018,0.002672,-0.000530,-0.001950,0.128719,-0.044784,313.071829,24.405265,0.999762,0.995721,0.002828,0.365781,-0.000047,-0.000004,-0.000028,0.000010,-0.000061,-63.502015,0.000065,
2356,2983,2.05867602781067,7.3659448267062,-0.00972880484590632,0.002462,-0.000465,-0.004108,0.127526,-0.039120,315.098478,25.137023,0.999408,0.989661,0.004047,0.320287,-0.000038,-0.000010,-0.000008,-0.000007,-0.000040,-74.672789,0.000051,
2026,3058,-5.11480478049106,8.96910430023685,0.01370861179862,0.002856,-0.000369,-0.005948,0.147931,-0.052481,315.122663,24.175574,0.999182,0.991172,0.003872,0.329984,-0.000038,-0.000004,-0.000025,0.000009,-0.000051,-62.444546,0.000055,
2056,3058,-4.46533334372176,8.9719978780796,0.00313304897701983,0.002980,-0.000879,-0.001754,0.142130,-0.041410,314.847663,24.271691,0.999518,0.993966,0.003302,0.347790,-0.000034,-0.000012,-0.000028,0.000007,-0.000053,-55.461988,0.000058,
2296,2668,0.811135549421245,0.509727493234855,-0.0231543734234947,0.002293,-0.000446,-0.004161,0.119207,-0.048164,320.138870,24.364429,0.999612,0.991352,0.003734,0.297175,-0.000036,0.000001,-0.000024,0.000013,-0.000048,-64.307380,0.000050,
2131,3253,-2.87048739947812,13.202561004177,0.0256104389168854,0.002514,-0.000676,-0.003005,0.124784,-0.034892,311.455782,24.568610,0.999682,0.995429,0.002781,0.371529,-0.000050,-0.000015,-0.000034,0.000005,-0.000071,-58.672898,0.000079,
2506,2743,5.36863082269952,2.15423169733515,-0.03180917417194,0.002164,-0.000817,0.001698,0.092351,-0.034282,319.029317,24.621070,0.999602,0.990524,0.003901,0.268791,-0.000046,0.000032,-0.000036,0.000046,-0.000060,-68.682459,0.000063,
2251,2518,-0.141436017189246,-2.7633539108713,-0.0184562458490518,0.002072,-0.000607,-0.002771,0.103982,-0.060557,322.661586,24.114182,0.999381,0.988131,0.004313,0.313285,-0.000040,-0.000018,-0.000022,-0.000005,-0.000054,-58.779505,0.000065,
2176,2203,-1.71920440895807,-9.65072849293448,0.00534415927808141,0.002658,-0.000444,-0.001501,0.126447,-0.058577,328.159798,24.009331,0.998513,0.977120,0.005848,0.265579,-0.000025,-0.000014,-0.000023,0.000004,-0.000044,-51.774077,0.000048,
2431,2083,3.86935605535669,-12.2845062003982,0.0115875550275746,0.002189,-0.000506,-0.000826,0.102938,-0.029076,329.929698,22.386078,0.998831,0.977935,0.006091,0.217735,-0.000056,-0.000013,0.000001,-0.000013,-0.000056,89.069251,0.000073,
2011,3058,-5.43951495198077,8.9673148060897,0.0234193261899804,0.002755,-0.000432,-0.004039,0.137929,-0.042374,315.290745,24.108612,0.999249,0.992951,0.003527,0.355698,-0.000027,0.000008,-0.000018,0.000016,-0.000034,-66.878660,0.000034,
2191,2263,-1.40260693764805,-8.33658142599047,-0.00483238987226287,0.002684,0.000034,-0.006517,0.143522,-0.038294,327.079071,23.973105,0.998835,0.982855,0.005269,0.315397,-0.000035,-0.000024,-0.000029,0.000000,-0.000059,-50.362452,0.000068,
2041,3088,-4.7946183409962,9.62121244229263,0.0130425298883665,0.002908,-0.000589,-0.002007,0.139553,-0.036993,314.526883,24.240930,0.999645,0.994898,0.003008,0.314348,-0.000025,-0.000015,-0.000027,0.000008,-0.000048,-49.956853,0.000051,
2206,2263,-1.0757995709388,-8.33790736966852,0.0021599240429282,0.002330,-0.000742,-0.002927,0.115878,-0.053462,327.068074,23.875382,0.998935,0.982821,0.005189,0.331938,-0.000041,-0.000033,-0.000028,-0.000009,-0.000065,-48.674075,0.000081,
2071,3103,-4.14636798392256,9.9475058787059,0.0220079014956127,0.002705,-0.000394,-0.002940,0.133077,-0.025240,314.178917,24.289400,0.999568,0.993679,0.003217,0.384877,-0.000035,-0.000013,-0.000021,0.000000,-0.000047,-58.948671,0.000055,
2326,2863,1.42816985972927,4.75501509022025,-0.020086060141125,0.002565,-0.000949,-0.002388,0.125728,-0.080200,316.975454,24.730497,0.999750,0.992479,0.003553,0.334308,-0.000040,-0.000005,-0.000011,-0.000002,-0.000043,-74.679550,0.000051,
2086,3253,-3.84461915877032,13.1975224840796,0.040246277600545,0.002598,-0.000729,-0.000979,0.122469,-0.045360,311.790530,24.324648,0.999750,0.995451,0.002848,0.365053,-0.000051,-0.000010,-0.000044,0.000018,-0.000078,-57.581861,0.000082,
2371,3028,2.37671007181072,8.34422071121532,0.000881285080538419,0.002220,-0.000110,-0.003689,0.115170,-0.020393,314.442484,25.309014,0.999491,0.991254,0.003825,0.327888,-0.000035,-0.000005,-0.000009,-0.000003,-0.000037,-75.135467,0.000045,
2461,2308,4.47963569427312,-7.35144090053942,-0.00258851813754291,0.002817,-0.000130,-0.005564,0.149808,-0.029238,326.282382,22.988928,0.999196,0.977418,0.005650,0.283405,-0.000009,0.000002,-0.000016,0.000014,-0.000021,-55.002124,0.000021,
2386,3118,2.68639884089255,10.2980408824877,0.0173769920161817,0.002246,-0.000793,0.000360,0.101660,-0.046149,313.102084,25.586632,0.999594,0.992997,0.003396,0.324908,-0.000017,0.000009,0.000001,0.000009,-0.000017,88.199439,0.000017,
2446,2203,4.17339879137578,-9.65375377960844,0.0131357413130218,0.002114,-0.000045,-0.001776,0.103335,-0.015311,328.034214,22.621015,0.999638,0.985946,0.004695,0.343307,-0.000029,-0.000021,-0.000012,-0.000013,-0.000037,-53.736422,0.000052,
2416,2068,3.54579361230536,-12.6151600282438,0.0153518938913066,0.002602,0.000390,-0.009286,0.153014,-0.046755,330.230013,22.332535,0.998790,0.977630,0.006083,0.295571,-0.000050,-0.000011,0.000002,-0.000011,-0.000050,87.195079,0.000065,
2236,2473,-0.459255947400663,-3.74764832193707,-0.00777019388766576,0.002169,-0.000544,-0.003011,0.109120,-0.047522,323.515034,23.993454,0.999503,0.991323,0.003987,0.408330,-0.000035,-0.000016,-0.000016,-0.000007,-0.000043,-60.479029,0.000055,
2221,2308,-0.7559796368154,-7.35323688765202,-0.00110304459315103,0.002919,-0.000150,-0.006169,0.153609,-0.045339,326.314837,23.856030,0.999088,0.987722,0.004387,0.356576,-0.000040,-0.000016,-0.000022,-0.000003,-0.000053,-58.921432,0.000063,
2056,3073,-4.46762272299773,9.29638639961171,0.00969430863762,0.002641,-0.000675,-0.001973,0.127210,-0.030050,314.643375,24.213416,0.999411,0.993179,0.003584,0.411022,-0.000029,-0.000007,-0.000028,0.000012,-0.000048,-55.810160,0.000050,
2491,2548,5.08355827254521,-2.1032812463494,-0.0186454958783884,0.002414,-0.000842,-0.003064,0.121987,-0.068955,322.302616,23.722832,0.999678,0.989831,0.003989,0.355088,-0.000003,-0.000082,-0.000006,-0.000002,-0.000082,-4.300676,0.000097,
2356,2998,2.05595501481435,7.69160450085064,-0.00441149797853768,0.002284,-0.000649,-0.002772,0.114596,-0.035936,314.884974,25.183911,0.999592,0.992798,0.003517,0.314474,-0.000037,-0.000010,-0.000009,-0.000007,-0.000039,-73.114153,0.000050,
2101,3178,-3.50804420369045,11.5743362199383,0.020169666740685,0.002991,-0.000787,-0.003846,0.148885,-0.065664,312.800082,24.328919,0.999800,0.996041,0.002716,0.421542,-0.000049,-0.000004,-0.000029,0.000010,-0.000063,-64.142474,0.000068,
2476,2443,4.77827578110363,-4.39789785722083,-0.00905767731563856,0.002272,-0.000763,-0.001411,0.109116,-0.056703,324.035394,23.410394,0.999294,0.986608,0.004654,0.299593,0.000002,-0.000034,0.000023,0.000013,-0.000045,26.219961,0.000046,
2026,3073,-5.11706521737731,9.2933833019075,0.0182321465024984,0.002862,-0.000991,-0.002349,0.138134,-0.061876,314.906707,24.113346,0.999077,0.992899,0.003690,0.372201,-0.000033,-0.000002,-0.000022,0.000010,-0.000045,-62.666274,0.000047,
2311,2743,1.12424013933245,2.14302334911371,-0.0188717926944832,0.002559,-0.000450,-0.002493,0.125931,-0.038666,318.949114,24.450382,0.999487,0.991427,0.003830,0.376542,-0.000041,-0.000006,-0.000013,-0.000002,-0.000045,-72.060904,0.000053,
2131,3268,-2.87323432557929,13.5280058096247,0.0160535261110795,0.002857,-0.000666,-0.003735,0.142748,-0.050527,311.147919,24.589802,0.999694,0.995633,0.002764,0.338997,-0.000047,-0.000010,-0.000028,0.000004,-0.000061,-61.686066,0.000069,
2341,2923,1.74325006010026,6.06178372847095,-0.0179396044409827,0.002487,-0.000353,-0.003386,0.126062,-0.023055,316.008802,24.962494,0.998983,0.990651,0.004021,0.326641,-0.000047,-0.000016,-0.000009,-0.000013,-0.000050,-74.526470,0.000066,
2086,3268,-3.84741763885634,13.5232509263926,0.0304357563437634,0.002782,-0.000449,-0.002267,0.134819,-0.029107,311.474770,24.336792,0.999732,0.996031,0.002748,0.366825,-0.000045,-0.000012,-0.000039,0.000015,-0.000071,-56.462544,0.000075,
2281,2683,0.482230645678655,0.835712095706128,-0.0257955858414789,0.002813,-0.000609,-0.002694,0.138036,-0.051370,319.909694,24.355253,0.999663,0.992481,0.003607,0.337683,-0.000032,0.000000,-0.000021,0.000011,-0.000043,-63.760573,0.000044,
2116,3193,-3.18510560376153,11.9008970175447,0.0329529501940442,0.002601,-0.000731,-0.001806,0.124986,-0.054733,312.566491,24.490849,0.999605,0.993137,0.003468,0.341327,-0.000050,-0.000015,-0.000029,0.000001,-0.000066,-60.123930,0.000076,
2011,3073,-5.44199645943619,9.29273238667733,0.0184380356196243,0.002864,-0.000508,-0.004101,0.143151,-0.032759,315.009811,24.070134,0.999205,0.994041,0.003462,0.390983,-0.000022,0.000010,-0.000013,0.000015,-0.000027,-69.775384,0.000027,
2431,2098,3.86664822813234,-11.9558009340907,0.014742398772853,0.002179,-0.000670,-0.001134,0.103604,-0.057875,329.715016,22.454970,0.999468,0.981558,0.005695,0.172731,-0.000058,-0.000013,-0.000006,-0.000012,-0.000058,-82.480300,0.000075,
2161,2053,-2.02020930462532,-12.9385697767822,0.01763596956539,0.002973,0.000066,-0.005908,0.154314,-0.029653,330.751044,23.952885,0.999128,0.985006,0.004886,0.294300,-0.000018,-0.000022,-0.000005,-0.000015,-0.000026,-36.234596,0.000041,
2506,2758,5.3650748065072,2.47995839661932,-0.033781279258335,0.001962,-0.001176,0.002761,0.078840,-0.047606,318.755232,24.573378,0.999640,0.991427,0.003716,0.364242,-0.000039,0.000024,-0.000033,0.000038,-0.000053,-66.894082,0.000055,
2041,3103,-4.79682943135462,9.94584963841645,0.0157832457030622,0.002669,-0.000240,-0.005475,0.138308,-0.028573,314.304074,24.190415,0.999672,0.995235,0.002925,0.364676,-0.000026,-0.000014,-0.000024,0.000005,-0.000045,-52.400406,0.000049,
2191,2278,-1.40501404329345,-8.00855785220624,-0.00221048995274487,0.002789,-0.000343,-0.004051,0.140524,-0.034558,326.856140,24.000637,0.998749,0.982249,0.005361,0.308145,-0.000035,-0.000028,-0.000033,0.000002,-0.000065,-47.956454,0.000074,
2296,2683,0.808316186904026,0.835967454626719,-0.022879032598496,0.002380,-0.000448,-0.001539,0.114381,-0.024410,319.892800,24.318949,0.999648,0.990882,0.003770,0.396792,-0.000036,0.000007,-0.000024,0.000018,-0.000046,-66.048704,0.000047,
2461,2323,4.47630107991781,-7.02457752407937,-0.000996675398994284,0.002669,-0.000700,-0.002004,0.129459,-0.052142,326.033233,22.945072,0.999155,0.979522,0.005423,0.360603,-0.000011,0.000009,-0.000002,0.000009,-0.000011,-84.507341,0.000012,
2251,2533,-0.144432243011611,-2.43443743660294,-0.0297450314554908,0.002502,-0.000457,-0.003300,0.125545,-0.041689,322.345230,24.167756,0.999639,0.992526,0.003585,0.303263,-0.000040,-0.000016,-0.000023,-0.000002,-0.000054,-58.366918,0.000064,
2266,2623,0.166090612437529,-0.472303006257718,-0.0284573421862433,0.002446,-0.000640,-0.003141,0.122526,-0.048238,320.868144,24.230914,0.999353,0.989266,0.004207,0.365295,-0.000036,0.000000,-0.000015,0.000005,-0.000042,-69.730432,0.000046,
2176,2218,-1.72213827105702,-9.32227832174821,0.00310333525783335,0.002387,-0.000824,-0.001202,0.112937,-0.073293,327.886330,24.022708,0.998681,0.980639,0.005498,0.252582,-0.000030,-0.000020,-0.000031,0.000006,-0.000056,-49.546711,0.000062,
2071,3118,-4.14811769363821,10.2719038023353,0.035107195024068,0.002653,-0.000676,-0.001106,0.125299,-0.044496,314.036239,24.312498,0.999748,0.994999,0.002854,0.338063,-0.000041,-0.000007,-0.000021,0.000003,-0.000051,-64.205100,0.000057,
2206,2278,-1.07817895621646,-8.0095992356954,0.0031094086789949,0.002450,-0.000767,-0.002718,0.120743,-0.044256,326.838896,23.906270,0.998843,0.983779,0.005140,0.329134,-0.000039,-0.000035,-0.000029,-0.000008,-0.000066,-47.098395,0.000081,
2086,3283,-3.85021286900744,13.847717431738,0.0325718665628187,0.002498,-0.000946,0.000903,0.112353,-0.048277,311.224968,24.337986,0.999592,0.995744,0.002829,0.343803,-0.000040,-0.000018,-0.000030,0.000003,-0.000061,-54.849535,0.000069,
2116,3208,-3.18698453067812,12.2256187810497,0.0393069021682777,0.002718,-0.000585,-0.002963,0.133977,-0.037850,312.383266,24.486564,0.999640,0.994445,0.003147,0.364613,-0.000051,-0.000014,-0.000030,0.000003,-0.000068,-60.950468,0.000077,
2326,2878,1.42562801171902,5.08097377259654,-0.0160389648931414,0.002541,-0.000893,-0.002011,0.123402,-0.062193,316.762391,24.750294,0.999544,0.991848,0.003695,0.366497,-0.000040,-0.000011,-0.000007,-0.000009,-0.000042,-77.557993,0.000054,
2446,2218,4.17021999948181,-9.32434984882133,0.0034453538629009,0.002472,-0.000094,-0.005024,0.131792,-0.049747,327.739536,22.666757,0.999472,0.984897,0.004915,0.318136,-0.000028,-0.000025,-0.000010,-0.000017,-0.000036,-48.637187,0.000054,
2371,3043,2.37429200710718,8.66951445419061,0.000811975248154795,0.002539,-0.000272,-0.005507,0.136268,-0.037149,314.217976,25.317274,0.999599,0.992752,0.003517,0.343035,-0.000034,0.000004,-0.000004,0.000004,-0.000034,-84.351602,0.000037,
2491,2563,5.07988207314575,-1.77509318798513,-0.022629654017976,0.002243,-0.000618,-0.002041,0.110354,-0.050109,322.013354,23.788229,0.999554,0.990019,0.004192,0.368636,-0.000004,-0.000063,0.000002,-0.000004,-0.000063,1.764202,0.000076,
2056,3088,-4.46989995742067,9.6217145750769,0.0130571685013479,0.002555,-0.000827,-0.001563,0.121979,-0.048812,314.421678,24.254307,0.999461,0.993308,0.003399,0.344903,-0.000034,-0.000014,-0.000028,0.000006,-0.000054,-54.416687,0.000059,
2416,2083,3.54291595379611,-12.2864518723021,0.0259443418242995,0.002652,-0.000862,0.000929,0.117592,-0.059702,330.040981,22.462300,0.998639,0.977899,0.006184,0.203430,-0.000050,-0.000014,-0.000001,-0.000014,-0.000050,-88.055223,0.000066,
2386,3133,2.68420343581809,10.6234054385454,0.0239276814269829,0.002393,-0.000636,-0.000184,0.110560,-0.024526,312.920058,25.626776,0.999687,0.993514,0.003352,0.348552,-0.000015,0.000006,-0.000003,0.000006,-0.000016,-82.893496,0.000016,
2131,3283,-2.87641688529937,13.8530073159373,0.0113208817974737,0.002600,-0.000628,-0.002183,0.126258,-0.041134,310.846060,24.576552,0.999723,0.995812,0.002773,0.365860,-0.000046,-0.000012,-0.000020,-0.000003,-0.000055,-65.432753,0.000065,
2026,3088,-5.11918067501255,9.61974923691752,0.0210047711920538,0.002825,-0.000551,-0.003704,0.140407,-0.027618,314.686804,24.191844,0.999586,0.995360,0.003010,0.317057,-0.000036,-0.000014,-0.000024,0.000001,-0.000052,-57.151805,0.000059,
2011,3088,-5.44436389205687,9.61791903298772,0.0252502911720853,0.002432,-0.000337,-0.003463,0.121543,-0.019861,314.800601,24.086719,0.999566,0.995693,0.002922,0.374156,-0.000025,-0.000009,-0.000017,0.000002,-0.000036,-57.204844,0.000041,
2356,3013,2.05305346942682,8.01681863613079,-0.00108215900070263,0.002160,-0.000834,-0.000364,0.100269,-0.046417,314.653666,25.193464,0.999569,0.992071,0.003634,0.332460,-0.000039,-0.000008,-0.000010,-0.000005,-0.000042,-72.904829,0.000052,
2101,3193,-3.51037655050086,11.8996300088389,0.0302178012472041,0.002539,-0.000579,-0.002847,0.125151,-0.057130,312.615030,24.404574,0.999613,0.994762,0.003047,0.354018,-0.000052,-0.000012,-0.000032,0.000006,-0.000070,-60.834033,0.000078,
2161,2068,-2.02281798761629,-12.6101425904739,0.0198080171819583,0.002800,-0.000201,-0.003859,0.140044,-0.029813,330.514309,23.942398,0.999359,0.985756,0.004813,0.318267,-0.000016,-0.000027,-0.000003,-0.000016,-0.000027,-13.236841,0.000043,
2506,2773,5.36287086966975,2.80657261138092,-0.0338640328806719,0.002400,-0.000763,-0.002729,0.120340,-0.051436,318.551528,24.617121,0.999669,0.991936,0.003653,0.377944,-0.000046,0.000012,-0.000034,0.000028,-0.000062,-65.466342,0.000062,
2476,2458,4.77554545646402,-4.07013230448745,-0.0070248158223194,0.002444,-0.000557,-0.001243,0.116419,-0.048341,323.816218,23.466578,0.999305,0.987507,0.004528,0.309656,0.000004,-0.000034,0.000026,0.000017,-0.000047,26.852729,0.000047,
2236,2488,-0.462246905916103,-3.41845348374513,-0.0182192997259563,0.002654,-0.000713,-0.001494,0.126436,-0.056549,323.201777,24.090089,0.999518,0.989801,0.004043,0.325391,-0.000037,-0.000024,-0.000020,-0.000009,-0.000052,-53.744421,0.000066,
2431,2113,3.86411842684508,-11.6287393188331,0.0246874586418926,0.002078,-0.000858,0.002173,0.086705,-0.041324,329.539706,22.407421,0.999382,0.980617,0.005702,0.289854,-0.000055,-0.000008,-0.000009,-0.000006,-0.000057,-79.378256,0.000070,
2086,3298,-3.85350239190227,14.1731723614652,0.0176981198740691,0.002393,-0.000653,-0.002292,0.116873,-0.042307,310.859068,24.317306,0.999593,0.995175,0.002910,0.367956,-0.000035,-0.000020,-0.000037,0.000010,-0.000065,-50.790346,0.000070,
2221,2323,-0.75944843362976,-7.02421586625807,-0.0123728935474787,0.002962,-0.000330,-0.004212,0.149255,-0.050276,325.974371,23.860924,0.999160,0.988191,0.004370,0.368019,-0.000042,-0.000006,-0.000023,0.000006,-0.000053,-63.722245,0.000059,
2311,2758,1.12102717239842,2.46977897503579,-0.0236062783824309,0.002349,-0.000503,-0.004064,0.121618,-0.046272,318.661188,24.466527,0.999644,0.992597,0.003645,0.385323,-0.000041,-0.000001,-0.000011,0.000002,-0.000044,-75.481155,0.000050,
2416,2098,3.53951323807204,-11.956640498447,0.0151758186518691,0.002672,-0.000202,-0.003899,0.136380,-0.058710,329.728197,22.448649,0.998982,0.978357,0.006012,0.269296,-0.000049,-0.000013,-0.000008,-0.000011,-0.000051,-78.644806,0.000066,
2281,2698,0.479597346821361,1.16239241345386,-0.0205611943918029,0.002546,-0.000483,-0.002170,0.124059,-0.050104,319.695673,24.417678,0.999794,0.994052,0.003357,0.304457,-0.000038,-0.000006,-0.000022,0.000005,-0.000049,-63.489947,0.000054,
2461,2338,4.47303833572467,-6.69602948112705,0.00191150278607211,0.002410,-0.001084,0.000468,0.108151,-0.058001,325.793030,23.056189,0.998989,0.979748,0.005387,0.299800,-0.000009,0.000005,0.000005,0.000007,-0.000011,72.919032,0.000011,
2056,3103,-4.47143792766313,9.94643958670201,0.01937430693539,0.002828,-0.000584,-0.004391,0.142649,-0.040927,314.250444,24.235123,0.999483,0.993151,0.003375,0.365703,-0.000033,-0.000012,-0.000025,0.000005,-0.000049,-56.129774,0.000055,
2041,3118,-4.79920275440071,10.2704365934382,0.0186437023818371,0.002672,-0.000592,-0.002221,0.129219,-0.044787,314.074559,24.164100,0.999649,0.995349,0.002905,0.366344,-0.000031,-0.000001,-0.000025,0.000013,-0.000045,-60.518587,0.000046,
2296,2698,0.805156539335034,1.16332256985608,-0.0284346118766621,0.002320,-0.000429,-0.002220,0.113933,-0.033027,319.601983,24.365045,0.999730,0.992891,0.003520,0.372604,-0.000041,0.000002,-0.000024,0.000012,-0.000051,-65.948762,0.000053,
2191,2293,-1.40758503373842,-7.68029649698422,-0.00226086790502222,0.002746,-0.000094,-0.004012,0.138514,-0.019353,326.611755,24.016413,0.998730,0.984246,0.005151,0.324383,-0.000038,-0.000020,-0.000033,0.000005,-0.000063,-52.826751,0.000070,
2131,3298,-2.87876128481437,14.1775416342142,0.0112989424470697,0.002636,-0.000598,-0.004270,0.134240,-0.041185,310.608163,24.559161,0.999640,0.994486,0.003097,0.387176,-0.000041,-0.000007,-0.000023,0.000005,-0.000053,-63.239092,0.000058,
2251,2548,-0.146737235961218,-2.10855228550886,-0.0229485699999259,0.002566,-0.000827,-0.000355,0.118739,-0.039253,322.152648,24.126695,0.999739,0.994140,0.003310,0.370781,-0.000040,-0.000013,-0.000020,-0.000002,-0.000051,-62.102349,0.000060,
2071,3133,-4.15069563889202,10.5973182651318,0.0259220099852087,0.002759,-0.000502,-0.005782,0.143535,-0.059174,313.732784,24.289897,0.999578,0.994740,0.002940,0.341892,-0.000045,-0.000003,-0.000026,0.000009,-0.000057,-64.435125,0.000062,
2446,2233,4.16786946088678,-8.99593912730131,0.0121064602267893,0.002454,0.000313,-0.004602,0.129558,-0.036158,327.566890,22.769982,0.999157,0.981268,0.005322,0.282841,-0.000022,-0.000012,-0.000010,-0.000006,-0.000028,-58.325534,0.000037,
2206,2293,-1.08006741309289,-7.68048985626613,-0.00285422697868398,0.003003,0.000349,-0.010256,0.170334,-0.044343,326.596475,23.955073,0.998981,0.986163,0.004831,0.299029,-0.000040,-0.000025,-0.000027,-0.000004,-0.000060,-53.114088,0.000072,
2011,3103,-5.44651193893423,9.94333020341758,0.0257934546766592,0.002424,-0.000044,-0.005671,0.127312,-0.007395,314.566105,24.087986,0.999489,0.995418,0.003004,0.372323,-0.000026,-0.000007,-0.000015,0.000001,-0.000034,-61.665038,0.000039,
2266,2638,0.163780895112581,-0.145212149453506,-0.0280523184479193,0.002762,-0.000357,-0.003504,0.138333,-0.046636,320.643760,24.272741,0.999255,0.988498,0.004235,0.351109,-0.000036,-0.000002,-0.000014,0.000003,-0.000041,-70.643222,0.000046,
2371,3058,2.3713331982768,8.9953342892825,0.00322284664514427,0.002596,-0.000862,-0.001321,0.123801,-0.043959,313.980247,25.384345,0.999684,0.993918,0.003226,0.309341,-0.000030,0.000000,-0.000001,0.000000,-0.000030,-88.005575,0.000035,
2341,2938,1.7409911314709,6.38643271689438,-0.0119805073434236,0.002638,-0.000797,-0.002792,0.130763,-0.043865,315.819269,24.929948,0.998955,0.989978,0.004060,0.374456,-0.000043,-0.000012,-0.000010,-0.000009,-0.000046,-73.689253,0.000059,
2026,3103,-5.1215429714085,9.94457175185956,0.0209605688373813,0.002729,-0.000289,-0.004733,0.138901,-0.021153,314.440458,24.141935,0.999531,0.994887,0.003156,0.362768,-0.000037,-0.000012,-0.000021,0.000000,-0.000049,-60.516872,0.000056,
2491,2578,5.07777507463473,-1.44820450185172,-0.0138370211400343,0.002693,-0.000903,0.000491,0.121158,-0.048593,321.853889,23.868492,0.998914,0.983534,0.005068,0.349234,-0.000008,-0.000049,0.000012,-0.000005,-0.000052,15.211530,0.000063,
2356,3028,2.05063251269074,8.34280225748853,0.00365967315559601,0.002138,-0.000565,-0.001483,0.103285,-0.046211,314.450998,25.276146,0.999588,0.992688,0.003551,0.288000,-0.000036,-0.000003,-0.000010,0.000000,-0.000039,-74.671597,0.000045,
2326,2893,1.42265344290513,5.40750365809552,-0.0157429078757332,0.002365,-0.000877,-0.001707,0.114297,-0.053927,316.510896,24.808880,0.999293,0.991629,0.003754,0.350146,-0.000043,-0.000020,-0.000003,-0.000019,-0.000043,-82.473926,0.000064,
2101,1993,-3.31902770040764,-14.2545576000371,0.0337399503761162,0.002544,-0.000326,-0.005152,0.131526,-0.053956,332.067144,24.419672,0.999637,0.991028,0.004215,0.169384,-0.000002,-0.000088,0.000007,-0.000001,-0.000089,4.417456,0.000103,
2386,3148,2.68185087371256,10.9482043751344,0.0299325018677905,0.002418,-0.000666,-0.000823,0.113943,-0.038496,312.728344,25.649999,0.999617,0.993109,0.003387,0.353501,-0.000014,-0.000002,-0.000003,-0.000001,-0.000015,-78.526191,0.000018,
2101,3208,-3.51224088349345,12.2249712521689,0.0361341192704003,0.002707,-0.000630,-0.003626,0.135273,-0.047491,312.429044,24.461899,0.999614,0.994760,0.003056,0.306355,-0.000054,-0.000013,-0.000032,0.000005,-0.000071,-61.251283,0.000080,
2506,2788,5.35996070167578,3.13349657231596,-0.0316354361468143,0.002351,-0.000630,-0.003359,0.120553,-0.055407,318.325495,24.712056,0.999571,0.991375,0.003814,0.340043,-0.000048,0.000013,-0.000042,0.000034,-0.000069,-63.115049,0.000069,
2161,2083,-2.02505143243716,-12.2801003200803,0.0192932721140551,0.002858,0.000157,-0.006818,0.151883,-0.044344,330.280460,24.068857,0.999284,0.985170,0.004958,0.190348,-0.000014,-0.000022,-0.000006,-0.000011,-0.000025,-29.065808,0.000037,
2476,2473,4.77164748906327,-3.7412032374485,-0.0235556230361453,0.002914,-0.000774,-0.002095,0.141113,-0.060774,323.459136,23.483657,0.999539,0.990409,0.004063,0.338634,-0.000005,-0.000042,0.000013,-0.000001,-0.000046,17.744273,0.000054,
2176,2233,-1.7245365583561,-8.99403124376726,0.00141393107247723,0.002574,-0.000771,-0.001445,0.122296,-0.061580,327.640121,24.002331,0.998780,0.983007,0.005152,0.299327,-0.000035,-0.000019,-0.000033,0.000007,-0.000061,-51.774439,0.000067,
2116,3223,-3.18944252011167,12.5499604456332,0.0392819150442278,0.002840,-0.000983,-0.001500,0.135090,-0.059937,312.139216,24.452524,0.999652,0.995175,0.003030,0.378795,-0.000052,-0.000010,-0.000032,0.000007,-0.000069,-61.902149,0.000076,
2431,2128,3.86183243254138,-11.3001109004868,0.0320155963295861,0.001940,-0.000216,-0.000718,0.091298,-0.023629,329.363291,22.477354,0.999543,0.981485,0.005757,0.290144,-0.000050,-0.000013,-0.000010,-0.000011,-0.000052,-75.644739,0.000068,
2146,1993,-2.33790403751275,-14.2550091926436,0.0225867872979393,0.002600,0.000028,-0.004748,0.133482,-0.020021,331.788043,24.012968,0.999268,0.983452,0.004956,0.294630,-0.000004,-0.000056,-0.000012,-0.000002,-0.000058,-12.787171,0.000068,
2056,3118,-4.47374422613929,10.2714549395883,0.0231744844955983,0.002778,-0.000778,-0.002534,0.135031,-0.054801,314.029989,24.251829,0.999491,0.994261,0.003107,0.328552,-0.000037,-0.000003,-0.000025,0.000010,-0.000050,-61.526028,0.000053,
2041,3133,-4.8009592987546,10.5953696993583,0.0237122219124899,0.002781,-0.000664,-0.005197,0.142592,-0.052386,313.885505,24.178051,0.999378,0.993549,0.003348,0.335938,-0.000036,0.000007,-0.000029,0.000022,-0.000051,-63.269768,0.000051,
2236,2503,-0.465221377367282,-3.09081969840307,-0.022058176059943,0.002544,-0.000426,-0.001859,0.122705,-0.044644,322.923111,24.089258,0.999522,0.988857,0.004125,0.360565,-0.000040,-0.000030,-0.000018,-0.000016,-0.000054,-52.803467,0.000073,
2416,2113,3.53753447586714,-11.6286216458822,0.0251576188861122,0.002734,0.000079,-0.005180,0.144005,-0.041379,329.577281,22.487803,0.999030,0.979277,0.005813,0.297870,-0.000047,-0.000007,-0.000011,-0.000004,-0.000050,-75.365520,0.000060,
2011,3118,-5.44860429867013,10.2685807087877,0.0212167703925275,0.002986,-0.000268,-0.004362,0.149525,-0.035482,314.305460,24.086874,0.999633,0.995756,0.002861,0.332594,-0.000026,0.000010,-0.000015,0.000016,-0.000031,-70.161905,0.000031,
2221,2338,-0.763383338490279,-6.6943685067608,-0.0225193111656381,0.002603,-0.000714,-0.000333,0.120261,-0.054699,325.618100,23.958681,0.999676,0.990838,0.004007,0.287318,-0.000044,-0.000013,-0.000021,-0.000002,-0.000054,-63.129557,0.000064,
2071,3148,-4.15309885245766,10.9223317229212,0.030218619057564,0.002657,-0.000421,-0.003131,0.131366,-0.036770,313.511541,24.280498,0.999733,0.996170,0.002682,0.369361,-0.000047,-0.000003,-0.000028,0.000011,-0.000060,-63.947349,0.000064,
2461,2353,4.46908523534595,-6.3668193810443,-0.00761062113178923,0.002250,-0.001125,0.000102,0.102187,-0.057569,325.464260,23.104760,0.999223,0.983756,0.005166,0.308310,-0.000009,0.000019,0.000009,0.000022,-0.000011,73.446261,0.000022,
2101,2008,-3.32119682567972,-13.9276744265004,0.037140904111709,0.002619,-0.000252,-0.002651,0.127718,-0.038714,331.852339,24.243640,0.999684,0.991931,0.004170,0.365568,-0.000018,-0.000064,-0.000003,-0.000018,-0.000064,-3.100045,0.000086,
2251,2563,-0.149078435401563,-1.78187725929602,-0.0234499184672359,0.002731,-0.000714,-0.002838,0.134420,-0.067609,321.921424,24.128291,0.999607,0.992025,0.003654,0.365169,-0.000040,-0.000007,-0.000028,0.000009,-0.000056,-60.327642,0.000060,
2026,3118,-5.12391503679079,10.2699372641354,0.0202333599993949,0.002796,-0.000482,-0.003635,0.138866,-0.039657,314.189680,24.166529,0.999659,0.995193,0.003013,0.308761,-0.000036,0.000004,-0.000020,0.000012,-0.000044,-67.854057,0.000046,
2311,2773,1.11875733601657,2.79594752368936,-0.0133208799118734,0.002250,-0.000511,-0.001742,0.109165,-0.036792,318.490596,24.534270,0.999648,0.993095,0.003514,0.358870,-0.000037,-0.000014,-0.000014,-0.000007,-0.000043,-64.305242,0.000055,
2476,2488,4.76917177033087,-3.41405153396939,-0.0181708461940389,0.002574,-0.000028,-0.007707,0.147138,-0.052261,323.266769,23.524627,0.999519,0.987859,0.004290,0.363910,0.000003,-0.000059,0.000003,0.000003,-0.000059,2.336075,0.000067,
2281,2713,0.476900379521606,1.48855599517775,-0.0206217763859513,0.002413,-0.000336,-0.004208,0.124846,-0.037444,319.452374,24.382194,0.999738,0.993617,0.003401,0.380894,-0.000039,-0.000010,-0.000020,0.000001,-0.000049,-63.159976,0.000057,
2296,2713,0.801478122400695,1.4906887705011,-0.0391616773545138,0.002297,-0.000593,-0.000553,0.107190,-0.046507,319.261665,24.380514,0.999746,0.993680,0.003408,0.373904,-0.000041,-0.000003,-0.000022,0.000007,-0.000051,-65.542399,0.000055,
2506,2803,5.35623698882649,3.4606462941223,-0.0331826429340367,0.002119,-0.000738,-0.000331,0.098174,-0.045647,318.044960,24.789248,0.999119,0.987394,0.004763,0.333743,-0.000041,0.000019,-0.000033,0.000034,-0.000055,-66.328317,0.000056,
2446,2248,4.16481081247497,-8.66711613711066,0.011797408874429,0.002684,-0.000218,-0.001519,0.128429,-0.023954,327.320479,22.824281,0.999107,0.980702,0.005387,0.295482,-0.000019,-0.000003,-0.000013,0.000004,-0.000026,-60.679174,0.000028,
2146,2008,-2.33930049342993,-13.9267808939111,0.0259200126292285,0.003133,0.000902,-0.008509,0.169582,-0.028257,331.611655,23.983413,0.998937,0.984088,0.005076,0.327070,-0.000022,-0.000026,-0.000012,-0.000012,-0.000035,-40.037071,0.000049,
2161,2098,-2.02757649480732,-11.9518489069385,0.0189178749810708,0.002880,0.000250,-0.005615,0.149291,-0.031557,330.034126,24.011985,0.999568,0.985724,0.004828,0.273370,-0.000016,-0.000018,-0.000005,-0.000012,-0.000022,-37.834188,0.000035,
2371,3073,2.36907161200817,9.32077517152677,0.00437124452611215,0.002760,-0.000418,-0.005936,0.147900,-0.045168,313.768611,25.406361,0.999592,0.992756,0.003471,0.326123,-0.000028,0.000005,-0.000001,0.000005,-0.000028,-87.586437,0.000029,
2116,3238,-3.19275026204705,12.8754875251891,0.0316673840702038,0.002520,-0.000928,-0.001369,0.119910,-0.061676,311.814723,24.468411,0.999674,0.995476,0.002829,0.363030,-0.000054,-0.000016,-0.000035,0.000004,-0.000074,-59.280530,0.000083,
2341,2953,1.73851196758214,6.71293387850178,-0.0106359257869713,0.002670,-0.000266,-0.005542,0.142004,-0.043272,315.596570,25.017643,0.999334,0.991968,0.003668,0.323299,-0.000039,-0.000015,-0.000009,-0.000012,-0.000042,-71.506765,0.000057,
2356,3043,2.04817254082181,8.66852079112766,-0.00182969770622776,0.002791,-0.000277,-0.003535,0.140708,-0.037881,314.197144,25.262489,0.999585,0.992927,0.003488,0.348189,-0.000035,0.000004,-0.000005,0.000004,-0.000036,-82.597266,0.000039,
2326,2908,1.41997969390481,5.7336604852534,-0.0132556199245073,0.002330,-0.000975,-0.001332,0.111411,-0.039366,316.284000,24.846835,0.999149,0.991371,0.003878,0.360692,-0.000043,-0.000019,-0.000002,-0.000019,-0.000044,-84.827609,0.000064,
2206,2308,-1.08241360716113,-7.35340102411254,0.000162809639846273,0.003032,0.000148,-0.009715,0.169905,-0.045065,326.379686,23.915591,0.998946,0.986278,0.004709,0.356420,-0.000041,-0.000021,-0.000027,-0.000003,-0.000060,-55.242783,0.000071,
2191,2308,-1.41051604602319,-7.3533013702909,-0.00265202421587674,0.002237,-0.000479,-0.005817,0.120673,-0.056539,326.349575,23.970533,0.998573,0.984516,0.005175,0.349499,-0.000040,-0.000022,-0.000034,0.000004,-0.000066,-52.244775,0.000074,
2266,2653,0.160973741792034,0.182598159228007,-0.0309842529746902,0.002861,-0.000527,-0.003417,0.142567,-0.054352,320.379606,24.366566,0.999503,0.990814,0.003954,0.275605,-0.000033,-0.000005,-0.000016,0.000002,-0.000040,-66.236639,0.000045,
2431,2143,3.85783230665012,-10.9694983107364,0.0141671729602422,0.002389,-0.000894,-0.000543,0.110945,-0.057041,328.991947,22.513377,0.999315,0.980877,0.005554,0.274200,-0.000049,-0.000009,-0.000014,-0.000005,-0.000054,-72.009418,0.000065,
2416,2128,3.53306215260724,-11.2971241786166,0.0113276117788814,0.002540,-0.000242,-0.002645,0.125791,-0.028924,329.200871,22.596069,0.999297,0.981095,0.005485,0.253532,-0.000040,-0.000012,-0.000013,-0.000007,-0.000045,-69.166576,0.000056,
2026,3133,-5.12598022322952,10.5946786550927,0.0225649041073552,0.002817,-0.000452,-0.005389,0.144712,-0.034056,313.970338,24.132466,0.999600,0.994463,0.003164,0.337644,-0.000040,0.000013,-0.000026,0.000023,-0.000050,-68.044633,0.000050,
2386,3163,2.67873012628501,11.2739186341471,0.0252120577569599,0.002510,-0.000636,-0.001588,0.120883,-0.049392,312.449798,25.693281,0.999391,0.991651,0.003760,0.341390,-0.000014,-0.000004,-0.000003,-0.000003,-0.000015,-73.571452,0.000020,
2056,3133,-4.47603950624844,10.5964349157655,0.0183469601396382,0.002905,-0.000715,-0.006645,0.152473,-0.073026,313.762382,24.219990,0.999083,0.993544,0.003293,0.335732,-0.000042,0.000002,-0.000030,0.000017,-0.000057,-63.092130,0.000058,
2101,3223,-3.51433046919579,12.5493514150345,0.0414389850643602,0.002814,-0.000534,-0.002458,0.136785,-0.043031,312.229787,24.435324,0.999614,0.994738,0.003082,0.337175,-0.000056,-0.000010,-0.000034,0.000008,-0.000074,-61.764070,0.000081,
2491,2593,5.07484328633002,-1.12065092470768,-0.0148333381576435,0.002686,-0.000792,-0.002388,0.131917,-0.055702,321.612307,23.937139,0.999821,0.994831,0.003393,0.333120,-0.000009,-0.000050,0.000008,-0.000007,-0.000051,10.930486,0.000063,
2176,2248,-1.7270295093132,-8.66586138086024,-0.000726885258529819,0.002431,-0.000547,-0.005628,0.128762,-0.070833,327.387326,23.996637,0.998794,0.982560,0.005222,0.310687,-0.000033,-0.000022,-0.000030,0.000003,-0.000057,-50.218560,0.000065,
2236,2518,-0.468246086234583,-2.76288060769647,-0.025232948006078,0.002329,-0.000519,-0.002431,0.114612,-0.067357,322.645535,24.162294,0.999503,0.989169,0.004067,0.286820,-0.000039,-0.000016,-0.000016,-0.000008,-0.000047,-62.901393,0.000059,
2011,3133,-5.45116606835054,10.5937875058148,0.0188972857857266,0.002859,-0.000360,-0.004537,0.144185,-0.030884,314.036006,24.067700,0.999646,0.995019,0.002973,0.343067,-0.000027,0.000018,-0.000022,0.000027,-0.000036,-67.532123,0.000038,
2041,3148,-4.80314414600686,10.9198330522528,0.0323353362364855,0.002551,-0.000525,-0.003181,0.126379,-0.045802,313.696778,24.159467,0.999624,0.994393,0.003167,0.352244,-0.000041,0.000005,-0.000030,0.000020,-0.000056,-63.761845,0.000056,
2446,2263,4.16199409424528,-8.33870980676111,0.0109309382047513,0.002778,-0.000778,-0.003616,0.140286,-0.047520,327.082740,22.875757,0.999044,0.980163,0.005536,0.274699,-0.000024,-0.000009,-0.000020,0.000005,-0.000038,-55.466822,0.000042,
2476,2503,4.76617989002694,-3.08670640902298,-0.0131055398021545,0.002462,-0.000146,-0.004752,0.130799,-0.040993,323.049129,23.581878,0.999570,0.988951,0.004167,0.375578,0.000003,-0.000071,0.000000,0.000003,-0.000071,-0.203191,0.000080,
2071,3163,-4.15518976721699,11.2483554522787,0.0300557610391365,0.002850,-0.000062,-0.005280,0.146538,-0.027988,313.279769,24.354133,0.999726,0.995441,0.002854,0.300151,-0.000048,-0.000002,-0.000034,0.000016,-0.000066,-62.044372,0.000069,
2251,2578,-0.151550458710293,-1.45440669641969,-0.0209601499016117,0.002713,-0.000297,-0.003102,0.134673,-0.041809,321.698939,24.179751,0.999472,0.990182,0.003958,0.363631,-0.000040,-0.000001,-0.000032,0.000017,-0.000058,-60.515888,0.000059,
2506,2818,5.35375089550649,3.78718708626348,-0.0258451647439415,0.002467,-0.000928,0.003841,0.097968,-0.025710,317.861158,24.872431,0.999346,0.989464,0.004223,0.331343,-0.000035,0.000011,-0.000011,0.000013,-0.000038,-77.714083,0.000038,
2161,2113,-2.03059862654707,-11.6227944612639,0.0146025782379411,0.002618,-0.000025,-0.005331,0.136326,-0.043075,329.744413,24.015218,0.999331,0.984003,0.005076,0.272151,-0.000015,-0.000012,-0.000003,-0.000010,-0.000016,-60.169279,0.000027,
2116,3253,-3.19554825593435,13.201359219293,0.0300999328485432,0.002356,-0.000723,-0.000683,0.110521,-0.033664,311.546114,24.524938,0.999771,0.996723,0.002462,0.336443,-0.000054,-0.000012,-0.000034,0.000007,-0.000073,-60.754164,0.000080,
2101,2023,-3.32465402390375,-13.5958755909783,0.0263747755811892,0.002420,-0.000436,0.000973,0.108003,-0.028206,331.501843,24.365111,0.999353,0.987270,0.004927,0.260160,-0.000021,-0.000076,-0.000007,-0.000021,-0.000077,-7.361550,0.000102,
2011,3148,-5.45333522186518,10.917740176314,0.0239162001252566,0.002729,-0.000555,-0.004071,0.136843,-0.043692,313.826419,23.999147,0.999627,0.994578,0.003167,0.385717,-0.000028,0.000013,-0.000023,0.000023,-0.000039,-65.834377,0.000039,
2356,3058,2.04550343007383,8.99368343549244,0.00652423638774735,0.002611,-0.000859,0.000108,0.119427,-0.037369,314.000657,25.300265,0.999629,0.993788,0.003272,0.348708,-0.000033,-0.000001,-0.000002,-0.000001,-0.000033,-86.578322,0.000038,
2296,2728,0.799560827124957,1.81679346093492,-0.0310871723986565,0.002534,-0.000789,-0.000377,0.117434,-0.050250,319.095646,24.427324,0.999540,0.992117,0.003687,0.353335,-0.000040,-0.000011,-0.000020,-0.000001,-0.000050,-62.853492,0.000058,
2311,2788,1.11601535032304,3.12169765433082,-0.0121325564582548,0.002162,-0.000482,-0.002019,0.106012,-0.054624,318.253659,24.523309,0.999723,0.994684,0.003262,0.384311,-0.000032,-0.000013,-0.000011,-0.000008,-0.000037,-65.820819,0.000048,
2386,3178,2.67576324074655,11.5996531299241,0.0246129704221971,0.002499,-0.000548,-0.001505,0.120163,-0.038208,312.197890,25.745373,0.999453,0.992726,0.003491,0.342533,-0.000011,-0.000006,-0.000004,-0.000004,-0.000013,-61.046778,0.000018,
2221,2353,-0.765674817816315,-6.36831929170575,-0.0152405873251382,0.002494,-0.001137,0.001357,0.109734,-0.067601,325.426923,23.894162,0.999395,0.989353,0.004306,0.359303,-0.000045,-0.000019,-0.000023,-0.000006,-0.000058,-59.876655,0.000070,
2176,2263,-1.72918107814643,-8.33645610252395,0.00161547445179622,0.002592,0.000131,-0.006006,0.137550,-0.032320,327.173071,24.107235,0.998953,0.981921,0.005389,0.252824,-0.000033,-0.000026,-0.000030,0.000001,-0.000060,-48.026592,0.000069,
2281,2728,0.473828400928912,1.8156280497647,-0.0259976683767604,0.002639,-0.000754,-0.001623,0.126446,-0.044890,319.165108,24.412059,0.999670,0.993020,0.003460,0.371606,-0.000037,-0.000016,-0.000019,-0.000005,-0.000049,-59.541706,0.000059,
2491,2608,5.07202774831334,-0.794410002215365,-0.00673008452201884,0.002520,-0.000940,0.000648,0.112686,-0.037109,321.417083,23.942730,0.999854,0.994439,0.003457,0.405707,-0.000010,-0.000036,0.000000,-0.000010,-0.000036,0.038878,0.000048,
2266,2668,0.158275423994056,0.508540445546444,-0.0314253512491405,0.002911,-0.000870,-0.002913,0.143079,-0.066202,320.133382,24.318851,0.999547,0.991872,0.003763,0.337590,-0.000035,-0.000007,-0.000016,0.000000,-0.000042,-66.318963,0.000048,
2461,2368,4.46689795205642,-6.03848610704751,-0.0018394604226728,0.002256,-0.000356,-0.004302,0.119308,-0.047636,325.286283,23.218281,0.999620,0.987876,0.004769,0.260727,-0.000001,0.000012,0.000013,0.000021,-0.000009,58.063551,0.000021,
2146,2023,-2.34254426860626,-13.596482557872,0.020452893004574,0.003055,-0.000126,-0.002779,0.148392,-0.028158,331.304155,24.040083,0.998637,0.983739,0.005133,0.282554,-0.000028,-0.000026,-0.000011,-0.000015,-0.000038,-46.817440,0.000055,
2371,3088,2.36617632202427,9.64551883796495,0.0138765577130471,0.002415,-0.000796,-0.000586,0.112828,-0.056295,313.568064,25.431116,0.999464,0.990907,0.003830,0.330293,-0.000025,0.000004,-0.000008,0.000006,-0.000027,-75.784391,0.000028,
2041,3163,-4.80552928024149,11.2450278773568,0.0301860974340684,0.002758,-0.000500,-0.001512,0.131277,-0.039850,313.438678,24.146863,0.999589,0.994177,0.003274,0.362085,-0.000044,0.000005,-0.000036,0.000024,-0.000063,-62.161735,0.000064,
2326,2923,1.41727939280145,6.05924768194667,-0.0103679795611811,0.002178,-0.000426,-0.001681,0.105803,-0.031285,316.057975,24.845608,0.998619,0.989169,0.004358,0.404044,-0.000044,-0.000016,-0.000007,-0.000014,-0.000046,-76.483828,0.000063,
2191,2323,-1.41309018125402,-7.02518998009303,-0.00257248115491393,0.002184,-0.000147,-0.005766,0.118207,-0.042539,326.105717,23.985356,0.999007,0.986306,0.004740,0.365424,-0.000040,-0.000019,-0.000036,0.000008,-0.000067,-53.116917,0.000074,
2431,2158,3.85585895013279,-10.6424747596056,0.0201769778180392,0.002238,-0.000284,-0.008626,0.134045,-0.077556,328.823974,22.471232,0.999282,0.979955,0.005591,0.348097,-0.000052,-0.000031,-0.000019,-0.000019,-0.000063,-59.155604,0.000086,
2011,3163,-5.45534810178755,11.2427623844993,0.0340272178445957,0.002427,-0.000390,-0.004136,0.123139,-0.031778,313.652282,24.038117,0.999458,0.994442,0.003307,0.345383,-0.000033,0.000005,-0.000035,0.000026,-0.000053,-59.493702,0.000053,
2056,3148,-4.47789142653311,10.9211670138135,0.029169371632122,0.002820,-0.000483,-0.005789,0.146235,-0.057052,313.601723,24.230836,0.999500,0.994293,0.003123,0.334201,-0.000045,0.000001,-0.000032,0.000018,-0.000061,-63.090695,0.000063,
2341,2968,1.73562495592209,7.03915262147607,-0.00894814304280089,0.002746,-0.000802,-0.002081,0.133256,-0.041157,315.356810,25.084272,0.999919,0.997853,0.002433,0.294843,-0.000041,-0.000016,-0.000009,-0.000013,-0.000044,-72.843858,0.000060,
2446,2278,4.15881935839016,-8.00950305309212,0.00910948757513097,0.002749,-0.000434,-0.003751,0.139646,-0.049623,326.823928,22.974686,0.999216,0.980512,0.005473,0.228241,-0.000026,0.000002,-0.000021,0.000013,-0.000037,-62.047627,0.000038,
2236,2533,-0.469946612830352,-2.43637142514023,-0.0132716084692674,0.002435,-0.000361,-0.001947,0.117993,-0.048218,322.505813,24.202970,0.999751,0.992224,0.003521,0.287127,-0.000038,-0.000014,-0.000018,-0.000004,-0.000047,-62.138317,0.000057,
2116,3268,-3.19794992640448,13.5263086342493,0.0255640382364959,0.002564,-0.000573,-0.003363,0.128072,-0.041152,311.280060,24.519345,0.999753,0.996194,0.002672,0.336584,-0.000051,-0.000009,-0.000028,0.000005,-0.000065,-63.414324,0.000073,
2206,2323,-1.08544589855476,-7.02530581603042,0.00114618940995115,0.002791,0.000063,-0.005286,0.144838,-0.031844,326.120763,23.938814,0.999143,0.986710,0.004442,0.365374,-0.000043,-0.000015,-0.000029,0.000003,-0.000061,-58.117515,0.000069,
2476,2518,4.76293612308769,-2.759322104937,-0.010779645815262,0.002261,-0.000737,-0.002631,0.113288,-0.062266,322.807528,23.654716,0.999332,0.986027,0.004483,0.339068,-0.000001,-0.000067,-0.000004,-0.000001,-0.000067,-3.482726,0.000078,
2101,3238,-3.51718375459736,12.8740516673674,0.0381743497125626,0.002704,-0.000824,-0.001320,0.128324,-0.052317,311.948829,24.406593,0.999673,0.995052,0.002944,0.356407,-0.000057,-0.000017,-0.000037,0.000005,-0.000079,-59.329352,0.000089,
2071,3178,-4.15751674094591,11.5726451663805,0.0305791369113422,0.002885,-0.000353,-0.005488,0.148718,-0.032409,313.041623,24.289232,0.999810,0.996746,0.002572,0.356184,-0.000050,0.000000,-0.000035,0.000018,-0.000069,-62.585358,0.000071,
2161,2128,-2.03359251696769,-11.2934890835768,0.00540450509930679,0.002734,-0.000136,-0.004703,0.139698,-0.032507,329.430201,23.972508,0.999341,0.982861,0.005188,0.338748,-0.000017,-0.000018,-0.000004,-0.000013,-0.000022,-43.890525,0.000036,
2506,2833,5.3510819279712,4.11303179050167,-0.0221609836916628,0.002136,-0.000596,-0.001417,0.103240,-0.036505,317.652736,24.898074,0.999520,0.990717,0.003930,0.355682,-0.000033,0.000026,0.000007,0.000027,-0.000033,83.691586,0.000036,
2416,2143,3.52982714001372,-10.9689398699874,0.0103870405963562,0.002420,-0.000560,-0.001457,0.115841,-0.045910,328.941553,22.577023,0.999335,0.982595,0.005018,0.306285,-0.000038,-0.000011,-0.000017,-0.000002,-0.000046,-63.782022,0.000055,
2101,2038,-3.32772204930028,-13.2671058131916,0.0141512560956585,0.002394,-0.000622,0.000090,0.109309,-0.033809,331.161799,24.217512,0.999417,0.986681,0.005059,0.407634,-0.000017,-0.000066,-0.000005,-0.000016,-0.000067,-5.973267,0.000088,
2026,3148,-5.1278967427586,10.9189495332415,0.0302821471212837,0.002856,-0.000314,-0.003956,0.142600,-0.027227,313.788176,24.090114,0.999661,0.995238,0.002990,0.375641,-0.000044,0.000010,-0.000026,0.000021,-0.000054,-68.337529,0.000055,
2461,2383,4.46336015319378,-5.71002341316995,-0.00747831519709052,0.002273,-0.000489,-0.003618,0.117497,-0.045460,324.994203,23.245798,0.999652,0.987461,0.004682,0.291849,-0.000006,0.000004,0.000004,0.000005,-0.000007,69.819419,0.000007,
2491,2623,5.06843710204091,-0.467258119330197,-0.0132635270737183,0.002493,-0.000980,-0.000117,0.114363,-0.034790,321.120174,23.926976,0.999872,0.994596,0.003287,0.483335,-0.000011,-0.000038,-0.000013,-0.000006,-0.000043,-22.479031,0.000053,
2356,3073,2.04323964924879,9.31929371894898,0.00968076444382859,0.002806,-0.000581,-0.001828,0.135324,-0.031342,313.797530,25.343142,0.999591,0.993820,0.003267,0.349818,-0.000029,0.000005,-0.000002,0.000005,-0.000029,-86.199670,0.000031,
2386,3193,2.67369737719989,11.9248151893437,0.0308105913663326,0.002899,-0.000411,-0.000852,0.136317,-0.024692,312.020006,25.786004,0.999394,0.993064,0.003358,0.357644,-0.000009,-0.000007,-0.000001,-0.000006,-0.000010,-62.618453,0.000016,
2476,2533,4.75984725057512,-2.43075834347142,-0.0161844601483381,0.002603,-0.000451,-0.003591,0.132709,-0.056248,322.537649,23.743713,0.999631,0.989532,0.003895,0.313877,0.000001,-0.000062,-0.000008,0.000003,-0.000063,-7.359151,0.000072,
2011,3178,-5.45748646844558,11.567291226489,0.0378396463680701,0.002407,-0.000415,-0.003640,0.120826,-0.038445,313.437158,24.015242,0.999692,0.996076,0.002673,0.348293,-0.000036,-0.000002,-0.000041,0.000025,-0.000064,-56.328768,0.000064,
2296,2743,0.797765916918774,2.14340197648598,-0.0262950910233144,0.002881,-0.000081,-0.003644,0.144668,-0.029703,318.918764,24.473365,0.999349,0.991155,0.003897,0.358037,-0.000039,-0.000012,-0.000016,-0.000004,-0.000047,-64.641930,0.000056,
2446,2293,4.155199573193,-7.68213754013696,0.0053518473455938,0.002381,-0.000302,-0.004356,0.125087,-0.039449,326.535885,22.878941,0.999314,0.981377,0.005338,0.388792,-0.000025,0.000003,-0.000016,0.000010,-0.000032,-65.476573,0.000033,
2101,3253,-3.51985616050782,13.1999524029576,0.0355251214076588,0.002677,-0.000477,-0.001166,0.126795,-0.025498,311.679034,24.460135,0.999744,0.995946,0.002727,0.329543,-0.000058,-0.000011,-0.000037,0.000010,-0.000078,-60.897495,0.000086,
2191,2338,-1.41498861333,-6.69719032740073,0.0100754380501371,0.002188,-0.000538,-0.002308,0.107474,-0.041309,325.957997,24.131357,0.999677,0.990314,0.004168,0.236509,-0.000043,-0.000024,-0.000035,0.000003,-0.000070,-52.774982,0.000079,
2146,2038,-2.34573691089692,-13.2669765846966,0.0160694801282375,0.002545,-0.000283,-0.003151,0.126080,-0.049113,331.004913,24.064031,0.998972,0.984435,0.005073,0.249311,-0.000026,-0.000030,-0.000011,-0.000017,-0.000039,-39.954579,0.000057,
2251,2593,-0.154294176570719,-1.12685361488806,-0.0272712464321216,0.002950,-0.000106,-0.004844,0.151322,-0.041222,321.419530,24.192104,0.999332,0.988318,0.004311,0.376053,-0.000040,-0.000002,-0.000029,0.000014,-0.000056,-61.273617,0.000058,
2431,2173,3.8524467468605,-10.3127029802238,0.019532540151431,0.002207,-0.000820,-0.004431,0.116990,-0.088544,328.558915,22.604663,0.999345,0.983696,0.004967,0.256580,-0.000050,-0.000024,-0.000016,-0.000016,-0.000057,-64.976315,0.000077,
2506,2848,5.34810714285624,4.44008258672488,-0.0214592706185499,0.002184,-0.000886,-0.001681,0.106359,-0.054568,317.416543,25.023559,0.999651,0.992595,0.003513,0.272988,-0.000036,0.000041,0.000006,0.000041,-0.000036,85.665497,0.000045,
2056,3163,-4.48010134600566,11.246334502542,0.0297181270136662,0.003044,-0.000499,-0.004431,0.152728,-0.049202,313.367704,24.230577,0.999560,0.993066,0.003349,0.335895,-0.000047,0.000002,-0.000039,0.000023,-0.000068,-61.206403,0.000070,
2266,2683,0.155375265660616,0.835622728737711,-0.0331696852545065,0.002779,-0.000705,-0.003512,0.139006,-0.071908,319.871016,24.363560,0.999542,0.992730,0.003571,0.313161,-0.000032,-0.000002,-0.000019,0.000007,-0.000042,-64.265891,0.000044,
2116,3283,-3.200960187542,13.8505965587489,0.0250134844176841,0.002323,-0.000837,0.000385,0.105694,-0.048958,311.007814,24.479183,0.999764,0.995861,0.002811,0.370869,-0.000049,-0.000013,-0.000019,-0.000005,-0.000057,-67.176008,0.000069,
2101,2053,-3.32915876732816,-12.9372521198727,0.0237164311175775,0.002684,-0.000441,0.000109,0.122636,-0.013130,331.013115,24.392175,0.999001,0.975348,0.006053,0.257821,-0.000017,-0.000056,-0.000002,-0.000017,-0.000056,-3.057241,0.000076,
2491,2638,5.06403848149045,-0.137162378783515,-0.0290109250192927,0.002469,-0.000675,-0.000627,0.115382,-0.013751,320.743934,24.090608,0.999578,0.990256,0.003901,0.400777,-0.000012,-0.000027,-0.000027,0.000009,-0.000048,-37.512765,0.000051,
2236,2548,-0.473581534092389,-2.1084476004315,-0.0257592935562343,0.002396,-0.000780,-0.000745,0.112208,-0.040929,322.152716,24.171608,0.999737,0.992893,0.003419,0.348448,-0.000038,-0.000011,-0.000016,-0.000004,-0.000045,-65.451163,0.000054,
2041,3178,-4.80764500338286,11.5698426771798,0.0292415208050443,0.002908,-0.000166,-0.004019,0.145305,-0.035149,313.199810,24.111778,0.999687,0.994583,0.003136,0.393257,-0.000051,0.000007,-0.000039,0.000026,-0.000071,-63.276455,0.000071,
2281,2743,0.471555975477752,2.14252176835834,-0.0273392539168071,0.003055,-0.000412,-0.003306,0.151278,-0.051844,318.934687,24.462344,0.999416,0.991157,0.003797,0.342115,-0.000038,-0.000016,-0.000014,-0.000009,-0.000045,-64.090520,0.000058,
2371,3103,2.3632578662521,9.97150845009049,0.0147252701260641,0.002233,-0.000831,-0.001569,0.107970,-0.047868,313.324469,25.499380,0.999470,0.991526,0.003717,0.310430,-0.000021,0.000008,-0.000004,0.000009,-0.000022,-83.096074,0.000022,
2026,3163,-5.13021700480968,11.2440337907785,0.0324495230820503,0.002718,-0.000328,-0.004355,0.137318,-0.033241,313.556155,24.104926,0.999546,0.994677,0.003201,0.343957,-0.000049,0.000006,-0.000033,0.000022,-0.000065,-64.760733,0.000066,
2071,3193,-4.16014557203411,11.8979437532024,0.0313185448259787,0.002720,-0.000366,-0.003911,0.136583,-0.027909,312.790427,24.313404,0.999605,0.995363,0.002879,0.332087,-0.000051,-0.000007,-0.000040,0.000017,-0.000074,-59.478686,0.000078,
2176,2278,-1.73181903264048,-8.01049861445896,0.0119859023262734,0.002407,-0.001145,0.003870,0.098094,-0.041687,326.979282,24.036871,0.998631,0.982130,0.005449,0.328052,-0.000034,-0.000032,-0.000034,0.000001,-0.000067,-46.068037,0.000077,
2341,2983,1.7331140371621,7.36417056352773,-0.00366557873172724,0.002582,-0.000658,-0.003007,0.128937,-0.055710,315.152155,25.085481,0.999785,0.995580,0.002904,0.314889,-0.000041,-0.000012,-0.000010,-0.000009,-0.000044,-73.510785,0.000056,
2476,2548,4.75660024919187,-2.10399711826826,-0.0143940227459893,0.002411,-0.000698,-0.001766,0.116898,-0.054260,322.293336,23.740904,0.999593,0.989049,0.004065,0.376326,0.000004,-0.000065,-0.000008,0.000005,-0.000066,-6.855151,0.000073,
2326,2938,1.41520341641289,6.38520662374352,-0.00808957566101753,0.002604,-0.000514,-0.003334,0.131041,-0.049700,315.857561,24.904448,0.998926,0.989710,0.004198,0.360534,-0.000040,-0.000010,-0.000007,-0.000009,-0.000042,-77.420614,0.000054,
2311,2803,1.11257240009547,3.44973326885831,-0.0239366366042759,0.002374,-0.000664,-0.002031,0.115817,-0.046845,317.919832,24.601281,0.999512,0.992519,0.003619,0.346459,-0.000032,-0.000013,-0.000011,-0.000008,-0.000037,-64.483466,0.000048,
2221,2368,-0.767513724139658,-6.03985228069048,-0.00839072500366456,0.002626,-0.000836,-0.000626,0.122248,-0.044253,325.253657,24.014335,0.999547,0.989761,0.004257,0.282974,-0.000049,-0.000027,-0.000025,-0.000010,-0.000066,-56.939456,0.000083,
2101,3268,-3.52239268358496,13.5247520933568,0.0315717829994355,0.002727,-0.000428,-0.003240,0.135259,-0.020347,311.408840,24.430674,0.999782,0.996557,0.002652,0.363945,-0.000055,-0.000011,-0.000033,0.000006,-0.000073,-61.950820,0.000081,
2416,2158,3.52710828582515,-10.6406167590394,0.00939962378413384,0.002559,-0.000891,-0.003573,0.129780,-0.086788,328.705713,22.599389,0.999203,0.981001,0.005270,0.293572,-0.000039,-0.000032,-0.000021,-0.000014,-0.000056,-49.918226,0.000074,
2161,2143,-2.0358936712332,-10.9647809346865,0.00358598110767616,0.003043,0.000008,-0.004139,0.152211,-0.027161,329.186459,23.966312,0.999369,0.973353,0.005995,0.363560,-0.000024,-0.000027,-0.000005,-0.000020,-0.000030,-36.366509,0.000051,
2011,3193,-5.45971329177765,11.8921196340931,0.037435731172252,0.002599,-0.000564,-0.002341,0.126136,-0.036227,313.194130,23.989680,0.999717,0.996157,0.002571,0.362769,-0.000034,0.000004,-0.000038,0.000028,-0.000058,-58.434099,0.000058,
2116,3298,-3.20340144595457,14.1759333746377,0.0164227109563626,0.002630,-0.000518,-0.004254,0.133776,-0.045322,310.717888,24.484791,0.999638,0.994018,0.003288,0.370917,-0.000044,-0.000008,-0.000021,0.000002,-0.000054,-65.235408,0.000062,
2206,2338,-1.08867911820249,-6.69618022709574,-0.0033647869203719,0.002573,-0.000208,-0.003262,0.128327,-0.041548,325.824227,24.029993,0.999548,0.989559,0.004167,0.283290,-0.000045,-0.000019,-0.000026,-0.000004,-0.000061,-58.488133,0.000073,
2296,2758,0.794573884042748,2.46978569569364,-0.0312011157191705,0.002748,-0.000538,-0.004237,0.140410,-0.051320,318.629759,24.468280,0.999451,0.991198,0.003839,0.371665,-0.000041,-0.000004,-0.000014,0.000000,-0.000045,-71.649966,0.000052,
2056,3178,-4.4822844456746,11.5708746443929,0.0366528950287375,0.002850,-0.000411,-0.003915,0.142463,-0.027871,313.170485,24.200788,0.999667,0.994764,0.003018,0.380478,-0.000052,0.000003,-0.000042,0.000026,-0.000074,-61.801171,0.000075,
2431,2188,3.85019044663204,-9.98374479808495,0.0288090424176062,0.002336,-0.000638,-0.002531,0.115981,-0.060720,328.392537,22.734851,0.999710,0.988190,0.004315,0.206538,-0.000047,-0.000013,-0.000018,-0.000006,-0.000055,-66.952748,0.000067,
2461,2398,4.46022234930318,-5.38249886922457,-0.00562415969551466,0.002072,-0.000576,-0.002878,0.105491,-0.042520,324.754708,23.264148,0.999630,0.986800,0.004664,0.332341,-0.000005,0.000011,0.000007,0.000013,-0.000008,68.745442,0.000014,
2356,3088,2.04027527413686,9.64462054420802,0.0153560023239265,0.002426,-0.000822,0.000378,0.109942,-0.046792,313.574384,25.401031,0.999581,0.993021,0.003410,0.314177,-0.000024,0.000004,-0.000010,0.000007,-0.000027,-72.279321,0.000028,
2386,3208,2.67008528389256,12.2496782628764,0.0289094417805131,0.002420,-0.000892,0.000190,0.110294,-0.051323,311.732351,25.795375,0.999370,0.993183,0.003476,0.363253,-0.000008,-0.000014,-0.000003,-0.000006,-0.000015,-20.594817,0.000022,
2191,2353,-1.41773666673754,-6.37037525405071,0.00475399423959288,0.002373,-0.000477,-0.001557,0.113624,-0.044960,325.678480,24.001785,0.999411,0.987814,0.004484,0.378876,-0.000047,-0.000028,-0.000035,-0.000002,-0.000074,-52.576788,0.000086,
2491,2653,5.06121422572287,0.190024539951189,-0.0266681282429317,0.002513,-0.000703,-0.000821,0.118104,-0.027863,320.522047,24.180744,0.999515,0.989330,0.004125,0.356015,-0.000013,-0.000017,-0.000038,0.000023,-0.000053,-43.512216,0.000054,
2146,2053,-2.34786271213025,-12.9384627085183,0.0182339703303001,0.002526,0.000126,-0.005558,0.132610,-0.025851,330.788831,24.032454,0.998929,0.983437,0.005107,0.315373,-0.000026,-0.000035,-0.000008,-0.000022,-0.000039,-29.948013,0.000062,
2476,2563,4.75279278952054,-1.77511339306456,-0.0207702192904549,0.002376,-0.000655,0.000375,0.107229,-0.020339,321.985701,23.833573,0.998741,0.984581,0.004956,0.375489,0.000001,-0.000046,-0.000001,0.000001,-0.000046,-0.810199,0.000053,
2236,2563,-0.475354077539901,-1.78383237579622,-0.0130306242535312,0.002347,-0.000824,-0.000562,0.109324,-0.046492,322.014085,24.078024,0.999710,0.992916,0.003388,0.457965,-0.000038,-0.000007,-0.000024,0.000006,-0.000051,-61.500559,0.000056,
2176,2293,-1.73396207065838,-7.68119960829581,0.00761568143246905,0.002789,-0.000661,-0.000115,0.128127,-0.030807,326.730528,24.106984,0.998617,0.984057,0.005237,0.283619,-0.000040,-0.000022,-0.000035,0.000006,-0.000067,-52.073835,0.000074,
2251,2608,-0.156966199922476,-0.800174995688316,-0.0274403817924735,0.002786,-0.000219,-0.007026,0.150896,-0.062479,321.174693,24.204441,0.999230,0.987102,0.004523,0.366237,-0.000040,0.000002,-0.000023,0.000012,-0.000050,-65.845311,0.000052,
2446,2308,4.15177525128452,-7.35079192237777,-0.00316108552095784,0.002492,0.000164,-0.006616,0.138799,-0.029607,326.234407,23.105759,0.999311,0.980911,0.005248,0.226370,-0.000022,0.000004,-0.000017,0.000013,-0.000031,-62.932714,0.000031,
2011,3208,-5.46181245238109,12.2172147140634,0.0352694051160825,0.002760,-0.000378,-0.005505,0.142311,-0.030390,312.946946,23.978698,0.999645,0.994245,0.003045,0.366472,-0.000036,0.000003,-0.000036,0.000025,-0.000058,-58.903689,0.000058,
2071,3208,-4.16200145459261,12.2219215350905,0.0354990960770465,0.002891,-0.000529,-0.005901,0.150099,-0.046006,312.594171,24.261951,0.999567,0.994933,0.002978,0.361070,-0.000051,-0.000009,-0.000041,0.000016,-0.000076,-58.839186,0.000080,
2026,3178,-5.13234659136014,11.56845819284,0.0371603990934091,0.002635,-0.000389,-0.004504,0.133864,-0.038427,313.347408,24.076771,0.999580,0.994505,0.003151,0.355929,-0.000055,0.000006,-0.000038,0.000024,-0.000073,-64.211701,0.000075,
2101,2068,-3.33119253084602,-12.609147770587,0.0210678788053542,0.002963,-0.000352,-0.002660,0.143535,-0.029404,330.771958,24.313300,0.999137,0.952105,0.008364,0.324797,-0.000016,-0.000048,0.000002,-0.000015,-0.000048,4.257586,0.000066,
2041,3193,-4.80989202377168,11.8949723408146,0.0365277076257371,0.002658,-0.000471,-0.002797,0.130337,-0.030408,313.000621,24.157861,0.999676,0.994391,0.003110,0.342832,-0.000055,0.000003,-0.000043,0.000026,-0.000078,-61.821741,0.000079,
2281,2758,0.467900568733274,2.46928933722146,-0.0314819570114082,0.002551,-0.000833,-0.001497,0.121907,-0.067602,318.626789,24.492624,0.999354,0.990877,0.003843,0.324015,-0.000040,-0.000007,-0.000011,-0.000004,-0.000043,-73.143358,0.000052,
2506,2863,5.3445142713969,4.76676851223174,-0.0305518741799915,0.002559,-0.000772,-0.000507,0.119082,-0.050781,317.108026,25.025338,0.999690,0.993146,0.003418,0.336058,-0.000039,0.000047,0.000002,0.000047,-0.000039,88.432527,0.000050,
2416,2173,3.52354502643811,-10.3108076334304,0.000674195867532035,0.002621,-0.000806,-0.003915,0.133899,-0.070922,328.394620,22.624228,0.998924,0.981151,0.005192,0.335432,-0.000039,-0.000026,-0.000017,-0.000015,-0.000050,-54.859786,0.000068,
2101,3283,-3.52572731957273,13.8492652573659,0.0232910015601533,0.002523,-0.000833,-0.001155,0.119487,-0.049926,311.078595,24.390173,0.999722,0.996555,0.002691,0.374413,-0.000052,-0.000016,-0.000023,-0.000005,-0.000063,-64.008342,0.000076,
2266,2698,0.152848248171662,1.16221291223578,-0.0282102163140507,0.002479,-0.000316,-0.004846,0.129842,-0.048921,319.659474,24.394062,0.999641,0.993120,0.003459,0.331394,-0.000037,-0.000006,-0.000020,0.000004,-0.000047,-63.874120,0.000053,
2131,1993,-2.66562258498864,-14.2545906929763,0.0241627173016354,0.002245,-0.000248,-0.002345,0.109837,-0.038403,331.836039,24.155528,0.999106,0.982082,0.005223,0.239136,-0.000017,-0.000061,-0.000006,-0.000016,-0.000062,-8.060687,0.000082,
2311,2818,1.10983383913255,3.77637219929252,-0.0217954193236096,0.002351,-0.000753,-0.000622,0.109895,-0.050499,317.687380,24.674535,0.999547,0.991034,0.003780,0.301628,-0.000034,-0.000012,-0.000012,-0.000007,-0.000039,-67.210720,0.000050,
2221,2383,-0.770081927944943,-5.712898557374,-0.011014669998815,0.002692,-0.000706,-0.002444,0.131133,-0.058888,324.998952,23.946906,0.999455,0.989406,0.004248,0.356395,-0.000041,-0.000029,-0.000023,-0.000011,-0.000059,-52.020202,0.000075,
2371,3118,2.36015485664361,10.2970711129517,0.0136792827008207,0.002204,-0.000819,-0.000069,0.101308,-0.044912,313.063366,25.525841,0.999639,0.992837,0.003487,0.326924,-0.000018,0.000007,-0.000002,0.000008,-0.000018,-84.647060,0.000018,
2056,3193,-4.48493545735233,11.8962089452779,0.0333417463327805,0.002821,-0.000574,-0.003420,0.139778,-0.019523,312.894853,24.199892,0.999611,0.994662,0.003016,0.382973,-0.000053,-0.000002,-0.000046,0.000025,-0.000080,-59.621072,0.000082,
2386,3223,2.6666896890862,12.575601753977,0.022393618926742,0.002244,-0.000929,-0.002307,0.111183,-0.059867,311.432233,25.862126,0.999490,0.993862,0.003269,0.330011,-0.000008,-0.000013,-0.000003,-0.000007,-0.000015,-26.250105,0.000022,
2011,3223,-5.46448306542472,12.5425429369684,0.0341368016959791,0.002678,-0.000694,-0.002169,0.129316,-0.039175,312.679308,24.013799,0.999500,0.993287,0.003352,0.309251,-0.000039,-0.000014,-0.000039,0.000014,-0.000067,-53.710922,0.000071,
2161,2158,-2.04112101740334,-10.6286785988331,-0.0408099666997828,0.003144,0.000105,-0.006194,0.163171,-0.024090,328.584331,24.188598,0.999865,0.945759,0.008344,0.159112,-0.000022,-0.000027,-0.000009,-0.000015,-0.000034,-37.027374,0.000050,
2461,2413,4.45807595407225,-5.05494075140491,-0.00448564583871303,0.002603,-0.000057,-0.005960,0.141622,-0.036909,324.557386,23.280638,0.999567,0.987236,0.004626,0.377408,-0.000010,-0.000001,0.000012,0.000007,-0.000018,55.664740,0.000018,
2431,2203,3.84650149874414,-9.6552027836501,0.0183274862320104,0.002219,-0.000102,-0.005543,0.121942,-0.058923,328.069208,22.650223,0.999561,0.985947,0.004709,0.346083,-0.000047,-0.000022,-0.000014,-0.000016,-0.000053,-66.270235,0.000072,
2326,2953,1.41266159711608,6.71222306227835,-0.0121486340168531,0.002910,-0.000148,-0.006787,0.157156,-0.045223,315.604312,24.997433,0.999081,0.989433,0.004349,0.305970,-0.000037,-0.000013,-0.000007,-0.000011,-0.000039,-74.476065,0.000053,
2491,2668,5.05849962806532,0.516210627342716,-0.0246909986091737,0.002588,-0.000660,-0.002215,0.126923,-0.043659,320.303674,24.181859,0.999416,0.988355,0.004257,0.398371,-0.000013,-0.000024,-0.000045,0.000027,-0.000064,-41.580615,0.000064,
2251,2623,-0.159282138275042,-0.473801065299085,-0.0207498244043904,0.002906,-0.000586,-0.003378,0.144388,-0.045488,320.980808,24.213803,0.999161,0.987507,0.004442,0.397962,-0.000041,0.000000,-0.000021,0.000009,-0.000050,-67.496639,0.000053,
2506,2878,5.34261661314057,5.09155503057099,-0.0150139897922941,0.002318,-0.000665,-0.001904,0.113454,-0.055973,316.988144,25.047505,0.999692,0.993997,0.003251,0.369296,-0.000035,0.000044,0.000003,0.000044,-0.000035,87.696033,0.000047,
2101,2083,-3.33487974417953,-12.2776840228017,-0.00334656657531696,0.002980,0.000319,-0.005618,0.153181,-0.021434,330.337500,24.282718,0.999016,0.959450,0.007817,0.369084,-0.000015,-0.000035,0.000001,-0.000015,-0.000035,4.339471,0.000051,
2341,2998,1.7301439013565,7.68986555512794,-0.000739901258725695,0.002370,-0.000802,-0.000956,0.112041,-0.040171,314.914635,25.106469,0.999888,0.997416,0.002676,0.345327,-0.000040,-0.000012,-0.000010,-0.000009,-0.000043,-72.852710,0.000056,
2026,3193,-5.13469970560744,11.8934220859533,0.0400702045167804,0.002508,-0.000366,-0.003516,0.125353,-0.021120,313.118127,24.068524,0.999588,0.994211,0.003124,0.370295,-0.000056,0.000006,-0.000039,0.000025,-0.000075,-64.290470,0.000077,
2191,2368,-1.42066441688357,-6.04081433447856,-0.0051740605769055,0.002441,0.000154,-0.004733,0.126929,-0.024391,325.366184,24.060206,0.999580,0.988644,0.004354,0.357772,-0.000051,-0.000031,-0.000036,-0.000004,-0.000078,-52.647874,0.000092,
2041,3208,-4.81213448741845,12.219422198072,0.0376661455664475,0.002646,-0.000519,-0.003882,0.132752,-0.045969,312.767733,24.128719,0.999675,0.994223,0.003013,0.347463,-0.000059,0.000001,-0.000044,0.000024,-0.000082,-62.030036,0.000084,
2011,3238,-5.46616433379772,12.866397196526,0.0421281813709129,0.002695,-0.000435,-0.004738,0.137173,-0.036099,312.509108,23.956710,0.999574,0.993989,0.003267,0.355934,-0.000041,-0.000030,-0.000047,0.000012,-0.000083,-48.300410,0.000090,
2146,2068,-2.35071705664761,-12.6092599557582,0.0201807033030263,0.002146,-0.000166,-0.002803,0.106774,-0.019490,330.538316,24.083363,0.998817,0.982340,0.005289,0.282121,-0.000025,-0.000036,-0.000004,-0.000023,-0.000037,-18.363546,0.000061,
2071,3223,-4.16427192828385,12.5468209878375,0.0379686461783422,0.002977,-0.000537,-0.004380,0.149672,-0.046388,312.369130,24.271197,0.999567,0.994341,0.003097,0.346799,-0.000052,-0.000010,-0.000043,0.000017,-0.000079,-58.024187,0.000083,
2206,2353,-1.09150351863612,-6.36937263281377,-0.00275444005899317,0.002410,-0.000644,-0.001038,0.113673,-0.044702,325.573163,23.958419,0.999697,0.990372,0.004052,0.370274,-0.000048,-0.000023,-0.000026,-0.000007,-0.000064,-58.089404,0.000079,
2176,2308,-1.7368953894331,-7.35311711417064,0.00351562083312729,0.002295,-0.000115,-0.004994,0.120716,-0.030493,326.447281,24.085100,0.998656,0.983877,0.005194,0.320246,-0.000042,-0.000027,-0.000037,0.000004,-0.000072,-50.718416,0.000081,
2266,2713,0.150575626429255,1.48853655107762,-0.0229868122108883,0.002319,-0.000096,-0.007519,0.131447,-0.038471,319.461009,24.418559,0.999744,0.993717,0.003380,0.343096,-0.000037,-0.000009,-0.000020,0.000001,-0.000047,-62.849517,0.000054,
2446,2323,4.148611803223,-7.02434907825032,0.000342245168553745,0.002379,-0.000168,-0.002397,0.117783,-0.033521,326.000674,23.023297,0.999420,0.980937,0.005127,0.359003,-0.000022,0.000010,-0.000003,0.000010,-0.000022,-83.695681,0.000022,
2296,2773,0.791878518957912,2.79644165789657,-0.029159076120834,0.002519,-0.000367,-0.005906,0.135639,-0.041305,318.397826,24.516115,0.999456,0.990161,0.003969,0.363873,-0.000037,-0.000015,-0.000016,-0.000006,-0.000045,-61.623322,0.000057,
2236,2578,-0.478454484754248,-1.45471700063488,-0.0235965879103901,0.002512,-0.000416,-0.002181,0.122328,-0.041437,321.694929,24.186035,0.999467,0.990243,0.003918,0.377376,-0.000039,-0.000001,-0.000028,0.000014,-0.000053,-62.058465,0.000056,
2416,2188,3.52200058457747,-9.98243503985721,0.0190944693858341,0.002573,-0.000387,-0.003647,0.130917,-0.050532,328.302598,22.805861,0.999279,0.984348,0.004914,0.224044,-0.000037,-0.000017,-0.000018,-0.000006,-0.000047,-59.973161,0.000059,
2101,3298,-3.52871379162127,14.1743072084693,0.0157278746179372,0.002431,-0.000701,-0.002071,0.118029,-0.041988,310.768012,24.369690,0.999558,0.994804,0.003114,0.402635,-0.000047,-0.000014,-0.000027,0.000001,-0.000062,-60.571839,0.000071,
2476,2578,4.74953739492566,-1.44721420820453,-0.0237681829612484,0.002275,-0.000602,-0.001458,0.109605,-0.033059,321.718973,23.917649,0.998475,0.985045,0.004986,0.336249,-0.000001,-0.000033,0.000007,0.000000,-0.000034,11.995559,0.000039,
2056,3208,-4.48724490161802,12.2209784471086,0.0358100751448092,0.002618,-0.000287,-0.005542,0.136406,-0.030093,312.667107,24.203512,0.999614,0.994530,0.003002,0.361999,-0.000055,-0.000004,-0.000047,0.000024,-0.000083,-59.342702,0.000085,
2131,2008,-2.66709137234615,-13.9258754850692,0.0227892731900283,0.002832,0.000622,-0.008562,0.155528,-0.024775,331.629962,24.094684,0.999154,0.985271,0.005096,0.322787,-0.000031,-0.000031,-0.000008,-0.000023,-0.000039,-44.003390,0.000063,
2386,3238,2.6628904108228,12.9016645897398,0.00808887114186518,0.002286,-0.000701,-0.004676,0.121686,-0.062215,311.076242,25.896254,0.999562,0.993636,0.003230,0.335321,-0.000008,-0.000021,-0.000003,-0.000007,-0.000022,-13.309619,0.000031,
2011,3253,-5.46845634892756,13.1918031503529,0.0392656286978195,0.002787,-0.000099,-0.006655,0.146748,-0.023949,312.249106,23.975600,0.999819,0.996237,0.002665,0.335966,-0.000036,-0.000011,-0.000057,0.000036,-0.000082,-51.156909,0.000082,
2221,2398,-0.772298604763062,-5.38374656405306,-0.00925199987187852,0.002834,-0.000245,-0.004042,0.142924,-0.045790,324.782225,24.100166,0.999570,0.991821,0.003830,0.236617,-0.000036,-0.000012,-0.000025,0.000003,-0.000052,-57.939896,0.000058,
2356,3103,2.03739671029239,9.97056424852709,0.0112991789261514,0.002521,-0.000834,-0.002124,0.123086,-0.061164,313.307912,25.456657,0.999590,0.992715,0.003550,0.282085,-0.000020,0.000007,-0.000007,0.000009,-0.000021,-76.783913,0.000021,
2431,2218,3.84430268521978,-9.32681131604134,0.0210393481099231,0.002690,-0.000031,-0.006631,0.147522,-0.051131,327.875134,22.689645,0.999576,0.985997,0.004724,0.366541,-0.000045,-0.000024,-0.000012,-0.000019,-0.000050,-66.181928,0.000071,
2281,2773,0.46543714384298,2.79524756872035,-0.0222456725104507,0.002228,-0.000935,-0.000098,0.102406,-0.050077,318.440524,24.524949,0.999305,0.989597,0.004040,0.336944,-0.000036,-0.000017,-0.000013,-0.000010,-0.000042,-62.621934,0.000056,
2461,2428,4.45433741554428,-4.72648096733546,-0.0117550407526892,0.002629,-0.000180,-0.004366,0.136760,-0.045460,324.248438,23.319623,0.999429,0.985440,0.004761,0.386015,-0.000013,0.000001,0.000010,0.000006,-0.000018,62.174830,0.000018,
2491,2683,5.05483020413977,0.843876662988748,-0.0300025227745664,0.002605,-0.001045,-0.000364,0.120399,-0.064645,320.008205,24.268455,0.999654,0.991324,0.003707,0.349850,-0.000018,-0.000009,-0.000040,0.000026,-0.000053,-48.199958,0.000053,
2011,3268,-5.47074409140145,13.5159178810832,0.0419067704000895,0.002771,-0.000076,-0.004973,0.141556,-0.007226,312.020887,23.905443,0.999818,0.996336,0.002640,0.409463,-0.000028,-0.000025,-0.000057,0.000031,-0.000084,-45.730115,0.000085,
2026,3208,-5.13668978536626,12.2179644342494,0.0415757165704917,0.002720,-0.000448,-0.004358,0.137400,-0.034242,312.897852,24.046951,0.999611,0.993952,0.003116,0.367672,-0.000060,0.000003,-0.000039,0.000022,-0.000079,-64.292796,0.000082,
2071,3238,-4.16653878302682,12.8715031088266,0.0381775128824415,0.003054,-0.000703,-0.005340,0.155967,-0.051348,312.131930,24.255609,0.999581,0.994165,0.003113,0.353008,-0.000053,-0.000019,-0.000047,0.000014,-0.000086,-55.040658,0.000092,
2041,3223,-4.8146751267372,12.544092788335,0.0381427005800106,0.002599,-0.000887,-0.001350,0.123461,-0.047338,312.517407,24.105639,0.999600,0.994442,0.002969,0.360233,-0.000063,-0.000008,-0.000047,0.000019,-0.000090,-60.248091,0.000095,
2506,2893,5.3401344297598,5.41915765426657,-0.0132192063032335,0.002430,0.000008,-0.006116,0.135272,-0.015963,316.779034,25.185960,0.999550,0.991562,0.003817,0.331668,-0.000025,0.000033,0.000002,0.000033,-0.000025,88.078390,0.000035,
2161,2173,-2.04489505027754,-10.3028254319892,-0.0549361891709736,0.002610,-0.000131,-0.008217,0.144783,-0.031033,328.209119,23.818198,0.999819,0.932500,0.008748,0.535950,-0.000025,-0.000020,-0.000007,-0.000015,-0.000030,-54.060420,0.000046,
2116,1993,-2.99395476282001,-14.2502448429563,0.00434026975278812,0.002432,-0.000226,-0.003144,0.120708,-0.043477,331.743648,24.397966,0.999651,0.990620,0.004171,0.097918,-0.000002,-0.000073,-0.000013,0.000000,-0.000075,-9.859913,0.000087,
2326,2968,1.40980997155658,7.03870179598058,-0.0103529673805838,0.002933,-0.000418,-0.004030,0.148611,-0.049658,315.365599,25.095167,0.999711,0.995592,0.002909,0.237557,-0.000040,-0.000014,-0.000008,-0.000012,-0.000042,-74.250454,0.000057,
2341,3013,1.72769003851424,8.01500846164071,0.00296319270910317,0.002384,-0.000964,-0.001911,0.115931,-0.063521,314.704810,25.124272,0.999640,0.993516,0.003358,0.340053,-0.000042,-0.000008,-0.000012,-0.000004,-0.000046,-72.460256,0.000056,
2476,2593,4.74679376943851,-1.12027795893865,-0.0216567460544184,0.002367,-0.000591,-0.001956,0.115716,-0.033520,321.498982,23.950488,0.998517,0.984428,0.004878,0.360300,-0.000001,-0.000037,0.000006,0.000000,-0.000038,8.965503,0.000044,
2101,2098,-3.33570255005194,-11.9479282754595,0.0141926782147834,0.003381,0.000156,-0.005708,0.171747,-0.022901,330.259923,24.573299,0.999259,0.958904,0.008046,0.080582,-0.000017,-0.000028,0.000005,-0.000015,-0.000030,23.095026,0.000046,
2416,2203,3.51845931399378,-9.65428463165419,0.0109615117929707,0.002472,-0.000217,-0.005526,0.133228,-0.053752,327.995401,22.715603,0.999321,0.983654,0.005102,0.361628,-0.000040,-0.000022,-0.000014,-0.000014,-0.000048,-61.141060,0.000065,
2251,2638,-0.162463202190665,-0.145645729805679,-0.0224558606720393,0.002851,-0.000615,0.001398,0.126206,-0.026016,320.704315,24.316960,0.998864,0.986766,0.004489,0.338240,-0.000041,0.000002,-0.000020,0.000010,-0.000049,-68.882001,0.000052,
2311,2833,1.1078877432861,4.10253648003028,-0.0150416984856747,0.002405,-0.000519,-0.004155,0.124592,-0.035553,317.514112,24.724378,0.999733,0.992801,0.003523,0.298626,-0.000035,-0.000009,-0.000008,-0.000006,-0.000037,-74.128709,0.000047,
2146,2083,-2.35347982649594,-12.278790768186,0.0101063571279951,0.002505,-0.000264,-0.002364,0.121911,-0.028205,330.228410,24.137443,0.998732,0.982731,0.005328,0.230872,-0.000024,-0.000031,-0.000007,-0.000020,-0.000035,-31.274120,0.000055,
2011,3283,-5.47341298842145,13.8406257841692,0.0380205075512094,0.002727,-0.000370,-0.003927,0.136549,-0.022859,311.738165,23.889951,0.999788,0.996701,0.002581,0.395701,-0.000016,-0.000033,-0.000052,0.000028,-0.000078,-40.295312,0.000079,
2176,2323,-1.74038437391283,-7.02470094465624,-0.00621443370442876,0.001901,-0.000071,-0.005870,0.105390,-0.038367,326.109177,24.051849,0.998637,0.983683,0.005175,0.360382,-0.000041,-0.000024,-0.000041,0.000009,-0.000075,-50.770084,0.000081,
2371,3133,2.35793209206586,10.6226386473399,0.0166542143465449,0.002516,-0.000766,-0.001493,0.120862,-0.031888,312.862019,25.571368,0.999610,0.992646,0.003513,0.334305,-0.000017,0.000005,-0.000006,0.000006,-0.000018,-76.414917,0.000019,
2056,3223,-4.48955771982567,12.54565149915,0.0376201851156566,0.002696,-0.000321,-0.003749,0.134894,-0.031879,312.435621,24.189164,0.999604,0.994302,0.003001,0.367714,-0.000058,-0.000009,-0.000051,0.000023,-0.000090,-58.004853,0.000093,
2386,3253,2.65955901919311,13.2276364443037,0.00103313397721649,0.002590,-0.000566,-0.002416,0.127649,-0.047960,310.776317,25.951618,0.999656,0.993332,0.003188,0.336301,-0.000008,-0.000025,-0.000001,-0.000008,-0.000025,-3.226518,0.000034,
2266,2728,0.147090884473624,1.815786503149,-0.0306259359557544,0.002289,-0.000287,-0.004579,0.120281,-0.030669,319.141996,24.431364,0.999528,0.991958,0.003622,0.363994,-0.000035,-0.000015,-0.000021,-0.000001,-0.000048,-57.417113,0.000056,
2431,2233,3.84024902359488,-8.99602645189626,0.0151726543946893,0.002332,0.000173,-0.003796,0.120791,-0.021080,327.555896,22.842100,0.999325,0.983519,0.005081,0.297023,-0.000039,-0.000011,-0.000013,-0.000006,-0.000044,-68.844025,0.000055,
2506,2908,5.33580437333626,5.7457395883634,-0.0201965728231244,0.002030,-0.000283,-0.003298,0.105776,-0.042262,316.445816,25.237894,0.999490,0.989822,0.004043,0.314096,-0.000021,0.000010,0.000007,0.000011,-0.000023,77.467468,0.000023,
2131,2023,-2.67018778653617,-13.5942746551008,0.0122973206105144,0.003135,-0.000077,-0.003797,0.154985,-0.027031,331.300831,24.215478,0.999079,0.985063,0.005168,0.209503,-0.000033,-0.000037,-0.000008,-0.000026,-0.000043,-38.689243,0.000070,
2206,2368,-1.09401048265814,-6.04030525756587,-0.00964291844542231,0.002779,-0.000248,-0.003376,0.138149,-0.024381,325.297454,24.002167,0.999527,0.989073,0.004272,0.365277,-0.000054,-0.000027,-0.000028,-0.000010,-0.000071,-57.824625,0.000088,
2446,2338,4.14620252734368,-6.69661521706888,0.00998597791118527,0.002468,-0.000923,0.000978,0.108986,-0.046793,325.829575,23.133308,0.999214,0.982000,0.005109,0.289428,-0.000019,0.000004,0.000003,0.000004,-0.000019,82.594392,0.000020,
2236,2593,-0.480536129350245,-1.12798316980211,-0.022108463602649,0.002731,-0.000206,-0.005257,0.142411,-0.050855,321.484400,24.200664,0.999398,0.988207,0.004338,0.375132,-0.000037,0.000001,-0.000026,0.000014,-0.000051,-63.298706,0.000052,
2026,3223,-5.13928832909573,12.5430377455905,0.042323715094426,0.002586,-0.000821,-0.001632,0.123675,-0.033634,312.645223,24.059912,0.999557,0.994146,0.003096,0.344172,-0.000065,-0.000009,-0.000043,0.000014,-0.000088,-61.447859,0.000094,
2011,3298,-5.47617250826302,14.1653045237569,0.0339047224381943,0.002512,-0.000532,-0.004506,0.128069,-0.042433,311.450021,23.878670,0.999390,0.993723,0.003405,0.373950,-0.000028,-0.000050,-0.000041,0.000004,-0.000082,-37.736064,0.000092,
2461,2443,4.45163398007941,-4.39852320482577,-0.0059697454832417,0.002460,-0.000082,-0.004630,0.130057,-0.047367,324.046555,23.434104,0.999224,0.985631,0.004752,0.325188,-0.000001,-0.000034,0.000014,0.000004,-0.000039,19.941203,0.000043,
2221,2413,-0.774951614567605,-5.05656943761691,-0.00639845348456447,0.002696,-0.000293,-0.002169,0.130609,-0.036367,324.551479,24.091618,0.999614,0.991751,0.003808,0.275197,-0.000034,-0.000017,-0.000033,0.000009,-0.000060,-51.955417,0.000065,
2491,2698,5.05160692244711,1.17244619323696,-0.035489132994087,0.002520,-0.000276,-0.005198,0.135390,-0.046773,319.732091,24.403076,0.999711,0.991098,0.003736,0.292718,-0.000018,0.000004,-0.000041,0.000036,-0.000050,-52.481913,0.000051,
2041,3238,-4.81666105527513,12.8689544626856,0.0367676184908987,0.002951,-0.000807,-0.003273,0.145064,-0.053745,312.282176,24.098318,0.999609,0.995557,0.002794,0.352348,-0.000068,-0.000019,-0.000053,0.000015,-0.000101,-57.396082,0.000109,
2191,2383,-1.42375597349245,-5.7137788663513,-0.00396055088663161,0.002152,-0.000594,0.000479,0.097080,-0.031788,325.104751,24.029386,0.999262,0.988143,0.004501,0.397461,-0.000045,-0.000036,-0.000034,-0.000006,-0.000074,-48.909606,0.000090,
2356,3118,2.03476290048475,10.2953405295786,0.0179806485842846,0.002223,-0.000540,-0.002110,0.109437,-0.050701,313.104902,25.451156,0.999582,0.992898,0.003516,0.335720,-0.000016,0.000005,-0.000005,0.000006,-0.000018,-76.285025,0.000018,
2281,2788,0.463221486560013,3.12170760167263,-0.0184328372781692,0.002518,-0.000818,0.000849,0.112666,-0.031188,318.238395,24.563037,0.999205,0.988451,0.004227,0.345610,-0.000030,-0.000015,-0.000011,-0.000010,-0.000036,-62.268187,0.000048,
2071,3253,-4.16966478908232,13.1969858501494,0.0338594891667867,0.002692,-0.000662,-0.004131,0.135791,-0.051819,311.830081,24.287857,0.999726,0.995477,0.002852,0.315499,-0.000051,-0.000009,-0.000048,0.000023,-0.000083,-56.917595,0.000086,
2296,2788,0.788957755090451,3.12297517065262,-0.0249981828085311,0.002303,-0.000246,-0.002237,0.113388,-0.013215,318.166003,24.555313,0.999437,0.990932,0.003838,0.382657,-0.000031,-0.000014,-0.000014,-0.000007,-0.000039,-61.209360,0.000049,
2341,3028,1.72529722425509,8.34101563807615,0.0107758851190169,0.002351,-0.000899,-0.000234,0.108557,-0.060125,314.517446,25.225822,0.999707,0.994500,0.003258,0.277593,-0.000039,-0.000004,-0.000011,-0.000001,-0.000042,-73.485489,0.000049,
2176,2338,-1.74303645958969,-6.69545001737114,-0.0112206062931364,0.002354,-0.000353,-0.002027,0.114237,-0.023532,325.833725,24.125034,0.999088,0.986125,0.004750,0.316315,-0.000044,-0.000030,-0.000041,0.000005,-0.000078,-49.995408,0.000088,
2476,2608,4.74343909471305,-0.792940964302559,-0.0250152564161112,0.002349,-0.000830,-0.001932,0.114717,-0.047173,321.225984,23.990762,0.999009,0.985614,0.004536,0.363851,-0.000005,-0.000026,0.000001,-0.000005,-0.000026,2.459481,0.000033,
2026,1993,-4.95460668244669,-14.251824627202,0.0211804065749561,0.003043,0.000412,-0.009565,0.165894,-0.044471,332.397212,24.858451,0.998851,0.984011,0.005224,0.265645,0.000054,-0.000102,0.000057,0.000073,-0.000121,18.169615,0.000122,
2326,2983,1.40705119036655,7.36317396053502,-0.00449730020699235,0.002676,-0.000730,-0.002062,0.129906,-0.051048,315.151585,25.036851,0.999924,0.997391,0.002459,0.328133,-0.000039,-0.000010,-0.000008,-0.000008,-0.000041,-75.726121,0.000053,
2146,2098,-2.35562841271704,-11.9508059795763,0.0118390144971841,0.002663,-0.000326,-0.002246,0.128806,-0.046706,330.009299,24.110849,0.999168,0.984708,0.004996,0.250015,-0.000026,-0.000028,-0.000006,-0.000021,-0.000033,-41.556892,0.000055,
2116,2008,-2.99605298686785,-13.9241660917602,0.00947460752331608,0.002348,-0.000380,-0.002881,0.116016,-0.052202,331.542745,24.194626,0.999672,0.992293,0.004105,0.299497,-0.000017,-0.000045,-0.000018,-0.000008,-0.000054,-26.229807,0.000067,
2506,2923,5.33160925416006,6.0732441709364,-0.0327271351142144,0.002168,-0.000651,-0.001317,0.104325,-0.053468,316.093590,25.325311,0.999369,0.987432,0.004227,0.276005,-0.000026,-0.000016,0.000002,-0.000015,-0.000026,79.498382,0.000042,
2161,2188,-2.04406859871667,-9.98128597277099,-0.00369985048797616,0.002621,0.000066,-0.005342,0.136565,-0.034442,328.388011,23.745501,0.999744,0.912577,0.009654,0.615998,-0.000025,-0.000015,-0.000009,-0.000009,-0.000031,-60.264576,0.000042,
2101,2113,-3.3379944204938,-11.6227994881972,0.021802685399507,0.002944,0.000063,-0.005190,0.150207,-0.045804,330.062732,24.358952,0.999047,0.979349,0.005723,0.276126,-0.000016,-0.000023,0.000006,-0.000012,-0.000027,30.419905,0.000039,
2056,3238,-4.49145105324745,12.8702629571165,0.0422967262597922,0.002899,-0.000562,-0.003908,0.144658,-0.042608,312.239300,24.197687,0.999641,0.994986,0.002923,0.341785,-0.000060,-0.000019,-0.000056,0.000020,-0.000099,-55.071313,0.000105,
2026,3238,-5.14114461085839,12.8671106497032,0.0510995325564068,0.002460,-0.000581,-0.003145,0.122017,-0.038834,312.472057,24.035435,0.999626,0.995448,0.002863,0.352213,-0.000068,-0.000023,-0.000049,0.000008,-0.000099,-57.568328,0.000110,
2266,2743,0.144840391225529,2.14200862384462,-0.0275264869567309,0.002619,-0.000338,-0.002937,0.129979,-0.038233,318.933879,24.456066,0.999289,0.989574,0.003988,0.357599,-0.000035,-0.000016,-0.000016,-0.000007,-0.000045,-59.780615,0.000056,
2416,2218,3.51483392054879,-9.32430757985194,0.00747056799411894,0.002293,-0.000552,-0.002959,0.115561,-0.045518,327.705650,22.835561,0.999392,0.984757,0.005007,0.300480,-0.000037,-0.000022,-0.000011,-0.000016,-0.000043,-62.961939,0.000061,
2026,2008,-4.95819905564392,-13.9215723073561,0.015338735670241,0.002631,-0.000437,0.001288,0.117033,-0.002199,332.059570,24.856830,0.998707,0.984592,0.005263,0.304145,0.000045,-0.000078,0.000043,0.000059,-0.000091,17.522760,0.000093,
2386,3268,2.65603368800341,13.5530476345086,-6.56107205827539E-05,0.002160,-0.000589,-0.001088,0.103092,-0.034800,310.495990,25.993950,0.999671,0.993196,0.003296,0.348589,-0.000008,-0.000031,-0.000005,-0.000007,-0.000032,-12.930127,0.000042,
2041,3253,-4.81931161978363,13.1937424537055,0.0377407464106909,0.002655,-0.000460,-0.002595,0.129651,-0.034511,312.029557,24.075804,0.999683,0.995308,0.002773,0.385042,-0.000069,-0.000007,-0.000057,0.000027,-0.000103,-59.243111,0.000106,
2251,2653,-0.165333642133017,0.180626551594429,-0.0190806461441184,0.002413,-0.000875,0.001667,0.105132,-0.024418,320.468244,24.312665,0.999267,0.989787,0.004136,0.367842,-0.000036,-0.000001,-0.000020,0.000008,-0.000045,-65.573343,0.000047,
2131,2038,-2.67336456143304,-13.2669157097556,0.0127931758662498,0.002605,-0.000855,0.000883,0.116535,-0.050589,331.027098,24.101580,0.999247,0.985266,0.005157,0.309327,-0.000028,-0.000037,-0.000007,-0.000024,-0.000040,-28.299665,0.000065,
2071,3268,-4.17271417428176,13.5222430317477,0.0228747755629684,0.002706,-0.000413,-0.004803,0.138456,-0.042210,311.495167,24.256857,0.999802,0.996372,0.002663,0.351660,-0.000045,-0.000013,-0.000045,0.000018,-0.000077,-54.911634,0.000080,
2491,2713,5.04813846422056,1.49891783953606,-0.0366617449812452,0.002429,-0.000261,-0.002760,0.121890,-0.029310,319.464453,24.385721,0.999661,0.990518,0.004039,0.386648,-0.000024,0.000011,-0.000042,0.000039,-0.000052,-56.343073,0.000054,
2311,2848,1.10541438641015,4.42720212370747,-0.0104830356774528,0.002444,-0.000442,-0.002930,0.122245,-0.024250,317.306190,24.627147,0.999828,0.993283,0.003460,0.439228,-0.000036,-0.000007,-0.000006,-0.000006,-0.000038,-78.078780,0.000047,
2461,2458,4.44860479249541,-4.07013762647239,-0.00487853960152052,0.002162,0.000605,-0.007180,0.126282,-0.013963,323.808024,23.513023,0.999445,0.987269,0.004499,0.335668,0.000000,-0.000034,0.000016,0.000007,-0.000040,21.151903,0.000043,
2431,2248,3.83651557271068,-8.66697261994859,0.00823435628495872,0.002255,-0.000191,-0.002383,0.111950,-0.010175,327.246572,22.850469,0.999154,0.981073,0.005373,0.352275,-0.000035,-0.000004,-0.000016,0.000003,-0.000042,-66.753783,0.000047,
2206,2383,-1.09696415060574,-5.7126724575519,-0.0136590612236773,0.002701,-0.000677,-0.002792,0.132595,-0.052017,325.016530,23.996308,0.999286,0.987513,0.004428,0.362240,-0.000046,-0.000030,-0.000026,-0.000011,-0.000065,-53.679571,0.000082,
2446,2353,4.14316921462722,-6.3690248169842,0.00691263256544516,0.002368,-0.000816,-0.002899,0.118886,-0.053583,325.571335,23.103070,0.999346,0.983441,0.005141,0.367059,-0.000016,0.000014,0.000006,0.000015,-0.000017,79.372709,0.000019,
2371,3148,2.35569946588587,10.9478377543505,0.0206189622335842,0.002737,-0.000669,-0.002968,0.136278,-0.040752,312.665048,25.614294,0.999620,0.991855,0.003551,0.322488,-0.000015,-0.000002,-0.000006,0.000001,-0.000018,-69.025152,0.000020,
2236,2608,-0.483108995043114,-0.801342865692796,-0.0217128578468078,0.002850,-0.000495,-0.003935,0.143483,-0.066694,321.245800,24.208307,0.999186,0.986802,0.004542,0.373320,-0.000034,0.000004,-0.000021,0.000013,-0.000043,-66.355546,0.000044,
2476,2623,4.74073686057522,-0.465054021268472,-0.0248000478962922,0.002625,-0.000608,-0.002669,0.130259,-0.048193,320.998962,24.104464,0.999641,0.991512,0.003652,0.306202,-0.000005,-0.000025,-0.000009,-0.000001,-0.000029,-21.887024,0.000034,
2056,3253,-4.49426379625404,13.1953752273812,0.0416331141332194,0.002556,-0.000794,-0.003389,0.127286,-0.050577,311.971045,24.222979,0.999770,0.995919,0.002785,0.301550,-0.000059,-0.000008,-0.000058,0.000030,-0.000097,-56.698956,0.000100,
2281,2803,0.459996538289129,3.44930857149419,-0.0280247484136567,0.002542,-0.000560,-0.001509,0.121765,-0.026170,317.922650,24.620799,0.999277,0.989570,0.004111,0.320576,-0.000030,-0.000017,-0.000010,-0.000011,-0.000035,-60.927583,0.000049,
2356,3133,2.03217025401563,10.6209086078999,0.0205914218933003,0.002363,-0.000767,-0.001073,0.112213,-0.049073,312.883817,25.505421,0.999496,0.992380,0.003662,0.320616,-0.000016,0.000003,-0.000008,0.000006,-0.000019,-68.950650,0.000019,
2191,2398,-1.42571974509183,-5.38630817857334,-0.000871227503012051,0.002104,-0.000050,-0.005363,0.113362,-0.032139,324.904544,24.053893,0.999144,0.986984,0.004803,0.388512,-0.000045,-0.000018,-0.000037,0.000008,-0.000071,-54.661142,0.000078,
2026,3253,-5.14419379907675,13.1929824637741,0.0345983651726556,0.002507,-0.000146,-0.007206,0.135504,-0.037577,312.101835,24.031791,0.999835,0.996694,0.002506,0.345875,-0.000068,-0.000009,-0.000054,0.000024,-0.000100,-59.398326,0.000105,
2026,2023,-4.96009122735102,-13.5933241234602,0.0189305309700671,0.002615,-0.000030,0.000042,0.119864,0.004454,331.852369,24.820744,0.998693,0.983891,0.005391,0.340545,0.000038,-0.000138,0.000020,0.000040,-0.000141,6.503327,0.000145,
2386,3283,2.6533961100439,13.8778439063392,-0.00103731684771446,0.002394,-0.000624,-0.002455,0.118756,-0.044632,310.257326,26.006884,0.999688,0.992381,0.003433,0.367911,-0.000004,-0.000046,-0.000013,-0.000001,-0.000050,-15.400838,0.000058,
2296,2803,0.785709724265764,3.45008175860453,-0.0314425665317231,0.002243,-0.000537,-0.002699,0.112106,-0.023352,317.866434,24.607671,0.999364,0.990431,0.003895,0.350177,-0.000030,-0.000015,-0.000014,-0.000006,-0.000038,-59.527356,0.000048,
2161,2203,-2.04655132168742,-9.64959633066689,-0.00149993969984052,0.002664,-0.000497,-0.002578,0.129911,-0.039353,328.156531,24.086012,0.998939,0.962392,0.006621,0.283081,-0.000024,-0.000015,-0.000012,-0.000007,-0.000032,-54.803418,0.000042,
2506,2938,5.33020848142469,6.39841978845693,-0.018622291695408,0.002530,-0.000484,-0.002913,0.127186,-0.050922,315.989778,25.378200,0.999558,0.991098,0.003752,0.286052,-0.000033,-0.000031,-0.000005,-0.000027,-0.000037,-48.451494,0.000064,
2041,3268,-4.82204429536671,13.5194130341745,0.0343752932674875,0.002651,-0.000572,-0.000174,0.122732,-0.021719,311.748670,24.120684,0.999581,0.994791,0.002952,0.343868,-0.000066,-0.000021,-0.000054,0.000016,-0.000102,-56.267239,0.000110,
2341,3043,1.7220553751639,8.66614125264377,0.00448731354998699,0.002311,-0.000857,-0.001545,0.111371,-0.053729,314.222649,25.153640,0.999647,0.993755,0.003329,0.391992,-0.000038,0.000001,-0.000008,0.000003,-0.000039,-78.748521,0.000044,
2176,2353,-1.74559513516704,-6.36776914806938,-0.0110228076135286,0.002416,-0.000294,0.000001,0.110829,-0.022007,325.590052,24.124600,0.998690,0.981925,0.005363,0.332391,-0.000050,-0.000034,-0.000040,-0.000002,-0.000083,-50.812152,0.000097,
2221,2428,-0.776714664124516,-4.73309188134525,0.0043905841842502,0.002666,-0.000436,-0.003248,0.132627,-0.037245,324.402900,23.834006,0.999680,0.991279,0.003847,0.551826,-0.000033,-0.000029,-0.000032,0.000001,-0.000063,-46.522302,0.000072,
2116,2023,-2.99774012506266,-13.5946978853255,0.0122110537661797,0.002851,-0.000201,-0.002702,0.138616,-0.038051,331.347185,24.254617,0.999281,0.985975,0.005286,0.260334,-0.000021,-0.000053,-0.000020,-0.000011,-0.000063,-25.834908,0.000080,
2146,2113,-2.35735680418643,-11.6238917538491,0.025453493791872,0.002388,-0.000097,-0.003094,0.118844,-0.042992,329.872164,24.098822,0.999348,0.985689,0.004879,0.275994,-0.000025,-0.000020,-0.000003,-0.000019,-0.000027,-63.432548,0.000046,
2101,2128,-3.34094864460193,-11.2944148228193,0.0170151313365636,0.002692,-0.000555,-0.004210,0.135619,-0.078179,329.768079,24.321174,0.998888,0.987836,0.004926,0.286131,-0.000017,-0.000032,0.000005,-0.000015,-0.000033,17.778328,0.000050,
2071,3283,-4.17570310660457,13.8472932484021,0.015481958535986,0.002675,-0.000379,-0.003612,0.133720,-0.024972,311.182860,24.223959,0.999751,0.996663,0.002630,0.397049,-0.000041,-0.000021,-0.000035,0.000005,-0.000068,-52.997654,0.000076,
2491,2728,5.04501271490713,1.8263409422886,-0.036959606123844,0.002345,-0.000469,-0.003550,0.120981,-0.038367,319.216300,24.494030,0.999575,0.992325,0.003562,0.328494,-0.000030,0.000011,-0.000036,0.000032,-0.000051,-59.657101,0.000052,
2026,2038,-4.96180117967277,-13.2651595105678,0.0186013350017902,0.002744,0.000557,-0.005779,0.141882,-0.015268,331.631904,24.764294,0.998737,0.981094,0.005468,0.370999,0.000037,-0.000141,0.000025,0.000041,-0.000144,7.797915,0.000149,
2326,2998,1.40454300302276,7.68849881992807,0.00115670451901906,0.002631,-0.000718,-0.000853,0.123685,-0.041839,314.947806,25.048348,0.999777,0.995399,0.002938,0.359459,-0.000038,-0.000010,-0.000008,-0.000008,-0.000041,-74.372675,0.000052,
2416,2233,3.51221270655078,-8.99604444899786,0.0107099493059195,0.002473,-0.000591,-0.001542,0.118629,-0.038635,327.493427,22.875396,0.999415,0.985736,0.004906,0.317539,-0.000032,-0.000011,-0.000012,-0.000005,-0.000037,-66.022697,0.000046,
2131,2053,-2.67514429192644,-12.9371779423402,0.0134252851405563,0.002927,-0.000307,-0.002876,0.142711,-0.043752,330.817356,24.180634,0.998763,0.981739,0.005403,0.246054,-0.000026,-0.000038,-0.000004,-0.000025,-0.000039,-15.788969,0.000065,
2026,3268,-5.14707480877277,13.5179869752041,0.0260074528890755,0.002749,-0.000286,-0.002964,0.134978,-0.026589,311.783995,23.988177,0.999815,0.997162,0.002438,0.389389,-0.000064,-0.000025,-0.000053,0.000012,-0.000101,-55.196226,0.000110,
2056,3268,-4.49708747114395,13.5202983259332,0.0384204816317606,0.002386,-0.000427,-0.002448,0.116878,-0.035082,311.688263,24.197243,0.999722,0.995802,0.002776,0.335960,-0.000053,-0.000017,-0.000055,0.000023,-0.000093,-54.041088,0.000097,
2386,3298,2.64906233245113,14.2040624789855,-0.0184307382650104,0.002403,-0.000605,-0.001547,0.115876,-0.049225,309.861547,26.061710,0.999682,0.993200,0.003450,0.350097,-0.000005,-0.000051,-0.000020,0.000002,-0.000058,-20.462670,0.000066,
2251,2668,-0.16811174815621,0.507086143193199,-0.0191083988763694,0.002294,-0.001024,0.001695,0.099549,-0.032295,320.219148,24.310824,0.999473,0.991681,0.003796,0.385731,-0.000037,-0.000005,-0.000020,0.000004,-0.000047,-64.461662,0.000052,
2371,3163,2.35294793385547,11.2728904086573,0.0220523108439465,0.002649,-0.000547,-0.004277,0.136885,-0.044299,312.432029,25.626606,0.999506,0.992175,0.003628,0.346680,-0.000015,-0.000005,-0.000008,0.000000,-0.000019,-61.882859,0.000022,
2071,3298,-4.17856968398781,14.1720555132764,0.016085060421517,0.002308,-0.000547,-0.001820,0.111570,-0.033359,310.920287,24.237668,0.999581,0.995440,0.002874,0.369910,-0.000044,-0.000024,-0.000041,0.000008,-0.000077,-51.712127,0.000084,
2446,2368,4.13985565570104,-6.03987567560736,0.00100995209390931,0.002407,-0.000601,-0.004598,0.127103,-0.066412,325.286967,23.199609,0.999430,0.986164,0.004812,0.311829,-0.000007,0.000005,0.000009,0.000010,-0.000012,61.715240,0.000013,
2236,2623,-0.485877604249826,-0.473544321857638,-0.0234183701252277,0.002715,-0.000204,-0.005607,0.142805,-0.056132,320.987141,24.282581,0.999196,0.986894,0.004549,0.331606,-0.000036,0.000002,-0.000020,0.000010,-0.000045,-66.804342,0.000047,
2476,2638,4.73717273003492,-0.138025520280927,-0.0269599788239816,0.002251,-0.000349,-0.003148,0.115054,-0.032537,320.721569,24.107374,0.999665,0.991328,0.003640,0.376242,-0.000008,-0.000015,-0.000021,0.000009,-0.000033,-40.218836,0.000034,
2506,2953,5.32810290162183,6.72324573168679,-0.00597690563643027,0.002615,-0.000936,-0.000920,0.123209,-0.059783,315.847004,25.402406,0.999594,0.991666,0.003719,0.313595,-0.000025,-0.000027,-0.000001,-0.000024,-0.000027,-15.062549,0.000051,
2266,2758,0.141446261656395,2.46949701145852,-0.0343220474526902,0.002597,-0.000328,-0.000321,0.120363,-0.021179,318.623088,24.498600,0.999273,0.989819,0.004004,0.357646,-0.000038,-0.000009,-0.000013,-0.000003,-0.000044,-69.008426,0.000052,
2026,2053,-4.9642380256564,-12.9348494067504,0.0212358946048994,0.002479,-0.000287,-0.003532,0.123341,-0.027436,331.394338,24.934278,0.999709,0.993444,0.003480,0.182515,0.000033,-0.000106,0.000020,0.000036,-0.000109,8.045542,0.000111,
2461,2473,4.44522110909032,-3.74242401459585,-0.00912335794674846,0.002508,-0.000360,-0.002993,0.126023,-0.038163,323.529087,23.543507,0.999513,0.988197,0.004355,0.336713,-0.000007,-0.000041,0.000005,-0.000006,-0.000041,8.594747,0.000052,
2041,3283,-4.82456343180667,13.8439052662601,0.0289160708841791,0.002749,-0.000551,-0.001673,0.131448,-0.031235,311.466421,24.071937,0.999578,0.994662,0.002976,0.374081,-0.000067,-0.000031,-0.000043,-0.000002,-0.000096,-56.174887,0.000112,
2281,2818,0.457904843720524,3.77417458711354,-0.0170928705686606,0.002348,-0.000741,-0.001720,0.113419,-0.050115,317.762226,24.618070,0.999333,0.990447,0.003850,0.326783,-0.000031,-0.000013,-0.000010,-0.000009,-0.000036,-65.378237,0.000047,
2026,3283,-5.14902288979287,13.8421730563156,0.0352941152037829,0.002706,-0.000780,-0.001178,0.127941,-0.042951,311.609527,23.998416,0.999776,0.996753,0.002550,0.351574,-0.000060,-0.000033,-0.000045,0.000001,-0.000094,-53.162011,0.000108,
2146,2128,-2.35915250043421,-11.2942503533128,0.0202261364663059,0.003098,0.000319,-0.007112,0.163674,-0.044670,329.632087,24.140599,0.999229,0.983719,0.005089,0.243308,-0.000027,-0.000026,-0.000004,-0.000022,-0.000031,-49.587643,0.000053,
2206,2398,-1.09928089809125,-5.3847661588932,-0.00958945259287702,0.002619,-0.000586,-0.003432,0.130885,-0.029450,324.806145,24.048196,0.999408,0.989590,0.004221,0.351041,-0.000045,-0.000014,-0.000029,0.000003,-0.000062,-59.100693,0.000070,
2056,3283,-4.49967421822268,13.8451155298462,0.0302442935589511,0.002692,-0.000302,-0.002615,0.131585,-0.022194,311.388938,24.141440,0.999735,0.996125,0.002706,0.397922,-0.000051,-0.000027,-0.000044,0.000007,-0.000085,-52.668964,0.000094,
2341,3058,1.71916868653062,8.99157238038958,0.00232163030904076,0.002445,-0.001024,-0.001166,0.116159,-0.052724,313.964105,25.146648,0.999658,0.994485,0.003109,0.435877,-0.000037,-0.000005,-0.000005,-0.000004,-0.000038,-81.368853,0.000046,
2356,3148,2.0299130544662,10.9460730840555,0.0220781659759268,0.002705,-0.000870,-0.002892,0.134321,-0.056924,312.672827,25.528595,0.999528,0.992663,0.003600,0.327447,-0.000015,-0.000002,-0.000007,0.000001,-0.000018,-65.902272,0.000020,
2296,2818,0.783689304961946,3.77555212779832,-0.0244063585248568,0.002493,-0.000589,-0.002004,0.121181,-0.043723,317.690539,24.627691,0.999490,0.991282,0.003749,0.339362,-0.000032,-0.000012,-0.000014,-0.000005,-0.000039,-63.022876,0.000049,
2116,2038,-3.00049356330659,-13.266574430789,0.00995544075112775,0.002561,-0.000497,-0.003169,0.126616,-0.058380,331.076664,24.175878,0.999143,0.984686,0.005236,0.325973,-0.000019,-0.000047,-0.000017,-0.000011,-0.000055,-25.075112,0.000071,
2431,2263,3.83283041746738,-8.33723996469612,-0.000558748514265517,0.002649,-0.000889,0.002303,0.112447,-0.048131,326.930936,22.956998,0.999105,0.981266,0.005406,0.260402,-0.000037,-0.000008,-0.000024,0.000005,-0.000051,-60.735930,0.000056,
2191,2413,-1.42891054289744,-5.05700582021939,-0.0139593458092122,0.002222,-0.000010,-0.007206,0.124590,-0.035273,324.563863,24.099885,0.999055,0.987666,0.004623,0.355702,-0.000042,-0.000024,-0.000044,0.000011,-0.000078,-50.937531,0.000084,
2491,2743,5.04159981430121,2.15338588005171,-0.0401927513230476,0.002279,-0.000399,-0.003574,0.118089,-0.033027,318.941668,24.534395,0.999642,0.992235,0.003612,0.352534,-0.000035,0.000030,-0.000039,0.000048,-0.000053,-64.665648,0.000059,
2221,2443,-0.779725693007951,-4.40208517473266,-0.00790959522305457,0.002973,-0.000254,-0.005411,0.153719,-0.051989,324.077456,24.066775,0.999231,0.988923,0.004400,0.325105,-0.000034,-0.000025,-0.000027,-0.000002,-0.000057,-49.944973,0.000067,
2176,2368,-1.74791288855977,-6.03933769127735,-0.0151266918225588,0.002604,0.000216,-0.004033,0.132114,-0.016268,325.334768,24.151814,0.999104,0.987451,0.004573,0.325045,-0.000053,-0.000033,-0.000039,-0.000003,-0.000084,-52.266880,0.000098,
2086,1993,-3.64668276003794,-14.2528726845827,0.023341134800603,0.002616,0.000424,-0.007138,0.140613,-0.019878,332.060798,24.488715,0.999103,0.984980,0.004957,0.240131,0.000020,-0.000099,0.000034,0.000029,-0.000108,14.781538,0.000112,
2311,2863,1.10262249837393,4.75424853868122,-0.0118537021164116,0.002567,-0.000500,-0.002415,0.126078,-0.038607,317.053770,24.734229,0.999694,0.992598,0.003563,0.349669,-0.000039,-0.000010,-0.000012,-0.000006,-0.000043,-70.243657,0.000053,
2041,3298,-4.82715987743568,14.1689577657766,0.026490648054164,0.002655,-0.000602,-0.002095,0.128221,-0.040883,311.197304,24.095677,0.999553,0.995096,0.003063,0.331257,-0.000082,-0.000038,-0.000043,-0.000012,-0.000108,-58.847635,0.000132,
2401,1993,3.23339713150372,-14.2645356567196,0.0376429845472899,0.002344,-0.000629,-0.001711,0.113102,-0.043140,331.564682,22.200460,0.998612,0.971884,0.006514,0.280831,-0.000054,0.000003,-0.000031,0.000016,-0.000067,-66.612403,0.000070,
2101,2143,-3.34413250295895,-10.9644853413712,0.0120402595525206,0.002505,-0.000580,0.001082,0.111646,-0.051751,329.461348,24.369669,0.998688,0.984266,0.005297,0.268529,-0.000020,-0.000030,0.000002,-0.000020,-0.000031,11.095750,0.000051,
2056,2008,-4.30343020994846,-13.9247751777333,0.0276086301158784,0.002424,-0.000742,-0.001779,0.116006,-0.078532,331.988437,24.643661,0.998656,0.982426,0.005527,0.234970,0.000029,-0.000081,0.000034,0.000039,-0.000091,15.970108,0.000091,
2161,2218,-2.04894693837236,-9.32167543216735,0.00164283062576942,0.002470,-0.000537,-0.003255,0.123084,-0.061635,327.934716,24.114709,0.998688,0.980474,0.005482,0.244644,-0.000029,-0.000022,-0.000020,-0.000005,-0.000045,-49.778693,0.000056,
2026,3298,-5.15175645492577,14.1669711909207,0.03138713048412,0.002577,-0.000666,-0.000963,0.121462,-0.032942,311.324831,23.970392,0.999438,0.994428,0.003189,0.378163,-0.000076,-0.000042,-0.000040,-0.000015,-0.000103,-56.474990,0.000128,
2416,2248,3.50952393296154,-8.66765388335619,0.0122975659609779,0.002473,-0.000337,-0.003184,0.124701,-0.022312,327.270291,22.905261,0.999228,0.983790,0.005118,0.354025,-0.000030,-0.000005,-0.000017,0.000003,-0.000038,-63.699688,0.000043,
2506,2968,5.32490039009378,7.0499118188608,-0.00717577444288509,0.002433,-0.000429,-0.003010,0.123196,-0.042396,315.591132,25.476617,0.999576,0.990696,0.003952,0.317137,-0.000018,-0.000023,0.000006,-0.000014,-0.000027,35.496184,0.000041,
2056,3298,-4.50258095264974,14.1703955229708,0.0241983712199385,0.002648,-0.000149,-0.001183,0.125538,-0.018909,311.086526,24.154137,0.999533,0.994619,0.003044,0.381501,-0.000061,-0.000030,-0.000049,0.000006,-0.000096,-53.908002,0.000108,
2476,2653,4.73433779123454,0.188782043701224,-0.0250066706329335,0.002342,-0.000569,-0.002729,0.117506,-0.050169,320.496412,24.162628,0.999645,0.991251,0.003670,0.360502,-0.000012,-0.000009,-0.000030,0.000020,-0.000041,-46.366563,0.000041,
2086,2008,-3.64911654876457,-13.9252071440379,0.0269736585467513,0.002409,-0.000545,-0.004478,0.123162,-0.063583,331.834193,24.445745,0.999318,0.987399,0.004722,0.241957,0.000002,-0.000080,0.000021,0.000007,-0.000085,13.503205,0.000095,
2371,3178,2.34960237608349,11.598336700101,0.0201287020723271,0.002445,-0.000625,-0.002808,0.122226,-0.050541,312.155352,25.661732,0.999508,0.992708,0.003464,0.344742,-0.000011,-0.000007,-0.000009,0.000000,-0.000018,-51.551436,0.000021,
2446,2383,4.13634234382378,-5.71053493790627,-0.0021825270454201,0.002061,-0.000019,-0.005859,0.116187,-0.038752,325.005606,23.305306,0.999751,0.988913,0.004422,0.287815,-0.000009,-0.000003,0.000002,-0.000002,-0.000009,74.727928,0.000012,
2131,2068,-2.67722151029549,-12.6085008571707,0.0183988416353031,0.002706,0.000294,-0.005977,0.141990,-0.016727,330.617144,24.196525,0.998248,0.977435,0.005908,0.266062,-0.000023,-0.000038,0.000000,-0.000023,-0.000038,-1.784031,0.000062,
2251,2683,-0.170399731548127,0.833636816851104,-0.0198757936524316,0.002493,-0.000759,-0.001434,0.118974,-0.051787,319.988775,24.327337,0.999463,0.991581,0.003732,0.373396,-0.000036,0.000000,-0.000023,0.000011,-0.000047,-64.415147,0.000049,
2326,3013,1.40199567606169,8.01445761003049,-0.00043412251625341,0.002793,-0.000719,-0.003664,0.140796,-0.065347,314.706544,25.105581,0.999396,0.990079,0.003866,0.312443,-0.000038,-0.000008,-0.000010,-0.000005,-0.000041,-73.573107,0.000050,
2491,2758,5.0390616322044,2.47869251512329,-0.0309442039749683,0.002364,-0.000855,0.000348,0.106768,-0.052168,318.763855,24.542897,0.999523,0.989995,0.003895,0.383479,-0.000026,0.000025,-0.000036,0.000044,-0.000044,-62.866518,0.000051,
2206,2413,-1.10067531958727,-5.05762815248609,0.0124345295011494,0.002633,-0.000328,0.001984,0.114506,-0.002507,324.730627,24.200185,0.999630,0.992040,0.003823,0.243566,-0.000043,-0.000019,-0.000036,0.000007,-0.000069,-53.994474,0.000076,
2296,2833,0.781334714992841,4.10172274274258,-0.0201185142190639,0.002427,-0.000545,-0.003875,0.124473,-0.046964,317.485404,24.677675,0.999715,0.993217,0.003473,0.316005,-0.000033,-0.000012,-0.000009,-0.000009,-0.000036,-69.702197,0.000047,
2146,2143,-2.36285921310047,-10.9649900657029,0.00558985015067037,0.002810,0.000177,-0.006685,0.149145,-0.024942,329.254945,24.031740,0.999448,0.983363,0.005065,0.383767,-0.000032,-0.000031,-0.000003,-0.000029,-0.000034,-51.204127,0.000063,
2281,2833,0.454814551069422,4.10057634643758,-0.0218244450420571,0.002280,-0.000751,-0.002277,0.112188,-0.052097,317.477196,24.619323,0.999497,0.992019,0.003698,0.351050,-0.000031,-0.000016,-0.000006,-0.000014,-0.000033,-71.059394,0.000047,
2461,2488,4.44230877777926,-3.41530465746082,-0.0080267740128761,0.002471,-0.000425,-0.003727,0.127066,-0.056862,323.296172,23.568344,0.999520,0.986693,0.004534,0.348663,0.000000,-0.000056,-0.000005,0.000001,-0.000056,-5.140958,0.000065,
2116,2053,-3.00255805312408,-12.9371338602407,0.0122571300983623,0.002801,-0.000312,-0.001694,0.133374,-0.045511,330.861573,24.240445,0.998628,0.980820,0.005440,0.281004,-0.000019,-0.000042,-0.000013,-0.000013,-0.000048,-24.040992,0.000065,
2506,2983,5.32160897842811,7.37582031081672,-0.00931803124876751,0.002437,-0.000689,-0.002803,0.122484,-0.045267,315.327069,25.499171,0.999384,0.989051,0.004139,0.352265,-0.000011,-0.000025,0.000009,-0.000006,-0.000030,25.139180,0.000038,
2176,2383,-1.75049476066106,-5.71318737945972,-0.0103561608864311,0.002645,-0.000717,0.002616,0.113145,-0.027704,325.114243,24.078708,0.999038,0.989430,0.004420,0.400657,-0.000049,-0.000034,-0.000038,-0.000002,-0.000081,-50.686941,0.000095,
2056,2023,-4.3058559781828,-13.5936634686408,0.0180615470029011,0.002726,-0.000076,-0.003412,0.134600,-0.026353,331.686509,24.674421,0.998679,0.984198,0.005275,0.255027,0.000031,-0.000115,0.000015,0.000032,-0.000117,5.841133,0.000121,
2236,2638,-0.488414294921881,-0.146752066130375,-0.0220379437122915,0.002914,-0.000317,-0.002713,0.142573,-0.038626,320.755025,24.288608,0.999019,0.987758,0.004516,0.364728,-0.000036,0.000005,-0.000019,0.000012,-0.000044,-68.818926,0.000045,
2041,1993,-4.62876324217313,-14.2523042727046,0.0189747100356499,0.002332,-0.000238,-0.003865,0.117603,-0.029010,332.242318,24.705652,0.998646,0.983956,0.005322,0.329467,0.000031,-0.000102,0.000049,0.000047,-0.000118,18.235594,0.000119,
2311,2878,1.09924661416471,5.08144340913424,-0.0204455416274527,0.002524,-0.000423,-0.003517,0.127920,-0.038488,316.738805,24.792142,0.999542,0.991272,0.003794,0.323795,-0.000038,-0.000017,-0.000008,-0.000014,-0.000041,-71.450969,0.000057,
2071,1993,-3.97456356485367,-14.2522331459077,0.0206947636969517,0.002319,0.000080,-0.002866,0.114500,-0.019727,332.088541,24.585175,0.998416,0.980767,0.005686,0.249127,0.000049,-0.000101,0.000048,0.000063,-0.000115,16.465431,0.000115,
2356,3163,2.02709622836526,11.2710200049494,0.0279885638777841,0.002385,-0.000715,-0.001599,0.115109,-0.044117,312.457475,25.541429,0.999506,0.992486,0.003738,0.365136,-0.000014,-0.000004,-0.000009,0.000001,-0.000020,-59.419310,0.000022,
2056,1993,-4.30127383930492,-14.2531975371576,0.0238957796865975,0.002589,-0.000320,-0.001597,0.123143,-0.037507,332.204437,24.620241,0.998539,0.981571,0.005570,0.301136,0.000032,-0.000101,0.000046,0.000046,-0.000115,17.551422,0.000116,
2431,2278,3.82939445273435,-8.00981877255627,-0.000674401552544168,0.002108,-0.000607,0.001304,0.091461,-0.048265,326.666896,22.908660,0.999105,0.979431,0.005689,0.360644,-0.000038,0.000004,-0.000025,0.000016,-0.000050,-65.135804,0.000051,
2191,2428,-1.43067235434716,-4.73032836620565,-0.0113530652030249,0.002849,-0.000156,-0.006642,0.151532,-0.062022,324.370631,24.083761,0.998743,0.985916,0.004990,0.360964,-0.000042,-0.000037,-0.000038,-0.000002,-0.000077,-46.561217,0.000090,
2416,2263,3.50612223168244,-8.33872040330148,0.0119807286574769,0.002155,-0.000334,-0.001855,0.105315,-0.039973,327.005610,23.004417,0.999119,0.984396,0.005026,0.287273,-0.000032,-0.000009,-0.000022,0.000005,-0.000045,-58.831588,0.000050,
2266,2773,0.139264609515479,2.79545206224041,-0.0273470854541529,0.002614,-0.000605,-0.000119,0.120385,-0.032904,318.437633,24.542036,0.999207,0.988900,0.004122,0.328185,-0.000035,-0.000016,-0.000016,-0.000007,-0.000044,-60.518530,0.000055,
2341,3073,1.71652345868916,9.31854050067117,0.00161756678079428,0.002453,-0.000668,-0.004209,0.127261,-0.051123,313.723240,25.294371,0.999655,0.994610,0.003050,0.325412,-0.000033,0.000001,-0.000005,0.000002,-0.000034,-80.927971,0.000038,
2086,2023,-3.65259744282205,-13.5944479377563,0.0153123063063845,0.002163,-0.000712,-0.001310,0.102772,-0.056468,331.476256,24.466316,0.999030,0.984493,0.005192,0.232075,-0.000006,-0.000096,0.000009,-0.000005,-0.000096,5.597414,0.000114,
2401,2008,3.23035713376767,-13.9336104316806,0.031088352198708,0.002850,-0.000411,-0.000475,0.131904,-0.032588,331.286905,22.288201,0.998556,0.969826,0.006608,0.252994,-0.000049,-0.000007,-0.000020,0.000001,-0.000057,-68.140135,0.000065,
2476,2668,4.73113702618558,0.515084603696323,-0.0278135960132886,0.002542,-0.000924,-0.001302,0.121140,-0.060982,320.232841,24.129457,0.999488,0.988934,0.004046,0.440184,-0.000010,-0.000013,-0.000036,0.000024,-0.000048,-43.900767,0.000048,
2491,2773,5.03610315928975,2.8061105262987,-0.0297178566511889,0.002310,-0.000767,-0.000531,0.107690,-0.048577,318.529978,24.663207,0.999167,0.988432,0.004204,0.325695,-0.000037,0.000012,-0.000036,0.000032,-0.000056,-61.929021,0.000056,
2221,2458,-0.783061141188416,-4.0743783969848,-0.011822416492862,0.002251,-0.000016,-0.008987,0.132075,-0.058472,323.780692,24.073937,0.999009,0.986844,0.004801,0.331744,-0.000030,-0.000019,-0.000019,-0.000005,-0.000045,-53.173867,0.000055,
2101,2158,-3.34608860764699,-10.6362138095722,0.0174714244250822,0.002491,-0.000436,0.000313,0.113253,-0.048566,329.267121,24.406976,0.998844,0.984381,0.005212,0.238338,-0.000015,-0.000027,-0.000006,-0.000012,-0.000029,-23.140978,0.000043,
2041,2008,-4.63181281022383,-13.9217673085113,0.0143809340676739,0.001973,-0.000497,-0.000567,0.091980,-0.054334,331.938143,24.811750,0.997929,0.981555,0.005807,0.194734,0.000025,-0.000077,0.000038,0.000037,-0.000090,18.252655,0.000090,
2161,2233,-2.05105289358167,-8.99444087728433,0.00698690482846587,0.002403,-0.000468,-0.004107,0.122661,-0.056429,327.737686,24.080812,0.998756,0.981526,0.005267,0.295886,-0.000033,-0.000021,-0.000023,-0.000004,-0.000051,-52.442800,0.000061,
2506,2998,5.31846203140967,7.70196373940336,-0.00628301924808738,0.002143,-0.000738,-0.002644,0.108300,-0.057630,315.092700,25.592423,0.999518,0.990505,0.003806,0.306865,-0.000009,-0.000033,0.000010,-0.000006,-0.000036,19.548373,0.000045,
2371,3193,2.34759137769987,11.923557570375,0.0261302202169986,0.002807,-0.000492,-0.003306,0.140745,-0.039875,311.978195,25.709594,0.999411,0.992983,0.003491,0.347601,-0.000008,-0.000008,-0.000006,-0.000002,-0.000014,-44.090542,0.000018,
2056,2038,-4.30776312876479,-13.2641629969853,0.00931823483227845,0.003324,0.000437,-0.007740,0.174333,-0.035524,331.413252,24.635417,0.998601,0.982560,0.005365,0.283202,0.000036,-0.000113,0.000016,0.000037,-0.000114,5.950713,0.000116,
2326,3028,1.39924372443863,8.34002247393807,0.00395779748112091,0.002566,-0.000726,-0.002931,0.127837,-0.059273,314.485217,25.141090,0.999588,0.992389,0.003543,0.316513,-0.000033,-0.000004,-0.000008,-0.000003,-0.000035,-76.297223,0.000042,
2206,2428,-1.10394845239433,-4.7328249809422,0.00782886983063236,0.002320,-0.001515,0.003339,0.095439,-0.044823,324.432625,23.958794,0.999164,0.988594,0.004449,0.461087,-0.000042,-0.000032,-0.000033,-0.000004,-0.000070,-49.209260,0.000083,
2446,2398,4.13284169827859,-5.38270574513206,-0.00850158644311705,0.002370,-0.000531,-0.002300,0.116903,-0.036616,324.710684,23.273619,0.999700,0.988128,0.004532,0.375742,-0.000008,0.000006,0.000006,0.000008,-0.000011,69.641854,0.000011,
2071,2008,-3.97696541574142,-13.9222775017095,0.0116283928773555,0.002519,-0.000100,-0.006553,0.134102,-0.049182,331.792594,24.592103,0.998808,0.983418,0.005260,0.213651,0.000034,-0.000083,0.000033,0.000042,-0.000092,14.810295,0.000092,
2251,2698,-0.173116372947884,1.16062757774539,-0.0234959660704135,0.002580,-0.000479,-0.003013,0.128288,-0.045804,319.724089,24.340257,0.999483,0.991982,0.003528,0.390159,-0.000041,-0.000005,-0.000024,0.000007,-0.000053,-63.583320,0.000058,
2296,2848,0.778784830379557,4.42719593757995,-0.0198320572906709,0.002647,-0.000363,-0.003162,0.132264,-0.042326,317.251588,24.629536,0.999706,0.993344,0.003488,0.398517,-0.000034,-0.000010,-0.000006,-0.000009,-0.000035,-77.129747,0.000047,
2041,2023,-4.63345556183427,-13.5935452480063,0.0154674478399102,0.002234,-0.000213,-0.004315,0.114357,-0.022280,331.729532,24.720060,0.998285,0.981192,0.005699,0.314329,0.000022,-0.000127,0.000016,0.000024,-0.000128,6.057299,0.000136,
2086,2038,-3.65399481877919,-13.265543012389,0.014183194665577,0.002770,0.000233,-0.006940,0.147096,-0.034221,331.270614,24.427879,0.999085,0.984693,0.005106,0.295034,-0.000002,-0.000085,0.000009,-0.000001,-0.000086,5.862802,0.000100,
2176,2398,-1.75259475334876,-5.38500759287147,-0.0119778674919075,0.002727,-0.000133,-0.003756,0.136834,-0.009867,324.881859,24.105095,0.998950,0.987464,0.004660,0.405961,-0.000050,-0.000016,-0.000041,0.000011,-0.000078,-56.152931,0.000084,
2146,2158,-2.36566992881914,-10.6345973573542,0.00186281040345193,0.002652,0.000028,-0.007185,0.143361,-0.045605,328.976335,24.190010,0.999719,0.966582,0.006374,0.215597,-0.000030,-0.000030,-0.000008,-0.000022,-0.000037,-45.423168,0.000060,
2461,2503,4.43917707376113,-3.08768885532095,-0.00752913739739824,0.002331,-0.000502,-0.003696,0.120528,-0.050085,323.050201,23.612537,0.999460,0.987662,0.004320,0.367105,0.000001,-0.000067,-0.000007,0.000002,-0.000067,-5.994665,0.000077,
2281,2848,0.451729861185754,4.42834344877853,-0.0256756941012668,0.002343,-0.000536,-0.000336,0.108689,-0.032256,317.196350,24.735931,0.999625,0.993516,0.003574,0.282247,-0.000032,-0.000014,-0.000002,-0.000014,-0.000033,-83.361434,0.000047,
2491,2788,5.03298630177496,3.1333478600017,-0.031225699626475,0.002267,-0.000625,-0.002092,0.111776,-0.050244,318.276453,24.755255,0.999277,0.988677,0.004162,0.290990,-0.000039,0.000012,-0.000043,0.000037,-0.000064,-60.320757,0.000064,
2431,2293,3.82686143001858,-7.68155400789804,0.00542646592248275,0.002106,-0.000858,0.001844,0.089287,-0.044033,326.472857,23.000679,0.999119,0.981383,0.005366,0.324789,-0.000036,0.000007,-0.000020,0.000015,-0.000044,-68.041109,0.000045,
2071,2083,-3.98966509540052,-12.2762700097522,-0.00195526001186863,0.002240,-0.000091,-0.002703,0.110433,-0.019267,330.453934,24.558088,0.998765,0.969411,0.006602,0.279993,0.000012,-0.000037,0.000012,0.000015,-0.000040,12.677770,0.000040,
2116,2068,-3.00471396376069,-12.6081279761328,0.00953625609440678,0.002924,-0.000112,-0.005630,0.150662,-0.056542,330.615656,24.238755,0.998668,0.971981,0.006436,0.278566,-0.000019,-0.000039,-0.000008,-0.000016,-0.000041,-19.750871,0.000059,
2506,3013,5.31586617873529,8.02795332404823,-0.00508050782553937,0.002381,-0.000583,-0.004520,0.126569,-0.055359,314.875457,25.648166,0.999492,0.991366,0.003631,0.313901,-0.000012,-0.000021,0.000012,-0.000003,-0.000030,34.439897,0.000036,
2476,2683,4.72769004251456,0.843500221380651,-0.0320395767084278,0.002440,-0.000874,-0.002119,0.119583,-0.062037,319.950969,24.273994,0.999615,0.990472,0.003841,0.351670,-0.000014,0.000001,-0.000031,0.000025,-0.000038,-51.896288,0.000039,
2236,2653,-0.491320233061057,0.180368738474847,-0.0111563305420077,0.002137,-0.000432,0.001049,0.094704,-0.009994,320.554220,24.397861,0.999227,0.989888,0.004305,0.305548,-0.000032,0.000000,-0.000018,0.000008,-0.000040,-65.551806,0.000043,
2401,2023,3.22622058959594,-13.6040924216839,0.0242585647380338,0.002205,-0.000743,-0.000113,0.100989,-0.072722,330.957938,22.301903,0.998667,0.972182,0.006425,0.248595,-0.000043,0.000000,-0.000018,0.000006,-0.000049,-70.215232,0.000054,
2221,2473,-0.785733466569106,-3.74666407376669,-0.0153736859106175,0.002514,0.000108,-0.007608,0.139811,-0.049650,323.516070,24.075183,0.999305,0.987850,0.004515,0.359579,-0.000028,-0.000017,-0.000015,-0.000006,-0.000039,-55.162736,0.000049,
2266,2788,0.136692086284373,3.12118955189577,-0.0234876846565157,0.002467,-0.000786,0.000107,0.112757,-0.048898,318.218608,24.549097,0.999270,0.989053,0.004195,0.330271,-0.000031,-0.000015,-0.000014,-0.000006,-0.000039,-60.026298,0.000049,
2056,2053,-4.31005535868346,-12.9348005569641,0.00900313219818827,0.003339,0.000761,-0.006907,0.172856,-0.032599,331.168601,24.672522,0.998013,0.979295,0.005819,0.247079,0.000031,-0.000084,0.000014,0.000033,-0.000085,6.913594,0.000086,
2416,2278,3.50266860075103,-8.00967316578019,0.00405930337802829,0.002159,-0.000212,-0.003441,0.111355,-0.037836,326.702915,23.022381,0.999182,0.984782,0.004904,0.321743,-0.000031,0.000004,-0.000023,0.000016,-0.000043,-63.748229,0.000043,
2131,2083,-2.68035218736604,-12.2787955242674,0.00513478383498978,0.002985,-0.000246,-0.003675,0.147777,-0.046330,330.272078,24.166632,0.998666,0.980604,0.005554,0.275783,-0.000022,-0.000031,-0.000002,-0.000021,-0.000032,-12.852195,0.000053,
2341,3088,1.7135284507845,9.64388977869066,0.000505403857573583,0.002587,-0.000933,-0.001360,0.123375,-0.059867,313.464759,25.304832,0.999678,0.994643,0.002995,0.341885,-0.000028,-0.000002,-0.000014,0.000005,-0.000034,-66.515147,0.000037,
2356,3178,2.0243306476428,11.5965805735903,0.0285854749039913,0.002433,-0.000592,-0.001533,0.117115,-0.046402,312.218544,25.597390,0.999536,0.993174,0.003557,0.344339,-0.000010,-0.000008,-0.000011,0.000001,-0.000020,-47.818325,0.000022,
2101,2173,-3.34841700738044,-10.3066262954563,0.00691412710227723,0.002947,-0.000180,-0.003316,0.144858,-0.033365,328.969512,24.387503,0.998974,0.985169,0.004999,0.277254,-0.000021,-0.000016,-0.000003,-0.000014,-0.000022,-62.867439,0.000037,
2311,2893,1.09627353045834,5.40851761341337,-0.0259387708677536,0.002580,-0.000285,-0.005603,0.137631,-0.049995,316.457611,24.878544,0.999498,0.992214,0.003626,0.257779,-0.000042,-0.000025,-0.000004,-0.000024,-0.000043,-76.327989,0.000067,
2071,2023,-3.9791018178002,-13.5930022807329,0.00747266485649334,0.002852,0.000357,-0.007335,0.151749,-0.030131,331.535339,24.550949,0.998898,0.984480,0.005138,0.274474,0.000028,-0.000107,0.000016,0.000030,-0.000109,6.728662,0.000113,
2446,2413,4.13037461932922,-5.05454446983892,-0.00347211035267492,0.002447,-0.000121,-0.002902,0.122867,-0.017640,324.515188,23.369131,0.999687,0.988538,0.004571,0.352888,-0.000011,-0.000005,0.000010,0.000002,-0.000019,53.907729,0.000020,
2086,2053,-3.65581724648347,-12.9372078126471,0.0267813938780819,0.002772,-0.000272,-0.001875,0.132420,-0.001048,331.119948,24.485439,0.998820,0.981785,0.005348,0.272749,-0.000003,-0.000068,0.000010,-0.000002,-0.000070,8.141632,0.000082,
2191,2443,-1.43382504298127,-4.40233341739539,-0.0140949541919326,0.002561,-0.000752,-0.004638,0.131849,-0.059657,324.085556,24.113935,0.998875,0.986482,0.004881,0.349210,-0.000043,-0.000033,-0.000033,-0.000005,-0.000071,-48.980899,0.000085,
2371,3208,2.34431860892947,12.2482640875815,0.0253013799477912,0.002677,-0.000892,-0.000720,0.125452,-0.045894,311.710260,25.690234,0.999248,0.993174,0.003621,0.400644,-0.000005,-0.000014,-0.000008,-0.000001,-0.000018,-30.617001,0.000021,
2056,2068,-4.31308508294644,-12.6066765225803,0.0133699575819151,0.002706,-0.000443,-0.000017,0.124102,-0.045311,330.916284,24.669966,0.998744,0.980542,0.005345,0.235137,0.000027,-0.000059,0.000018,0.000031,-0.000062,11.447960,0.000062,
2251,2713,-0.176379305331128,1.4879123194422,-0.0300282509728049,0.002322,-0.000487,-0.004763,0.122132,-0.055731,319.419520,24.377586,0.999489,0.992097,0.003556,0.366719,-0.000041,-0.000007,-0.000023,0.000005,-0.000053,-63.015086,0.000058,
2161,2248,-2.05359054387918,-8.66551763565336,-0.00195557989866302,0.002853,-0.000552,-0.005233,0.146727,-0.063102,327.445667,24.070921,0.998740,0.980883,0.005209,0.312039,-0.000031,-0.000024,-0.000020,-0.000007,-0.000048,-49.524017,0.000060,
2071,2098,-3.9900883434511,-11.949924942988,0.022342260715277,0.002596,-0.000314,-0.002278,0.125489,-0.034997,330.430694,24.625310,0.998781,0.978270,0.005577,0.195848,0.000007,-0.000027,0.000014,0.000012,-0.000032,19.780789,0.000032,
2041,2038,-4.63537426257137,-13.2655548533113,0.018177371988827,0.002358,-0.000126,-0.004159,0.119692,-0.038301,331.517627,24.678743,0.998636,0.980934,0.005542,0.335362,0.000024,-0.000132,0.000019,0.000027,-0.000134,6.897163,0.000142,
2491,2803,5.03003060847647,3.45989662754228,-0.0302198175440935,0.002440,-0.000539,-0.000438,0.113450,-0.031306,318.041698,24.787345,0.999234,0.987803,0.004463,0.336543,-0.000033,0.000016,-0.000035,0.000034,-0.000052,-62.261578,0.000053,
2206,2443,-1.1087130992799,-4.40160494962436,-0.0186223358582538,0.001713,-0.001031,-0.000276,0.079153,-0.066547,323.952264,24.085442,0.998605,0.985141,0.005137,0.331870,-0.000043,-0.000027,-0.000028,-0.000006,-0.000064,-52.829048,0.000078,
2146,2173,-2.36616716383898,-10.3111911276932,0.0362522572686999,0.002507,-0.000118,-0.003755,0.126307,-0.037409,329.005780,24.091770,0.999839,0.945230,0.008074,0.331191,-0.000032,-0.000020,-0.000005,-0.000018,-0.000034,-72.175926,0.000053,
2461,2518,4.4363057821719,-2.76047815579997,-0.00463052939943509,0.002188,-0.000686,-0.004449,0.116711,-0.071384,322.827240,23.674038,0.999207,0.985462,0.004503,0.339523,-0.000004,-0.000061,-0.000010,-0.000002,-0.000063,-9.619210,0.000074,
2116,2083,-3.00712998169191,-12.278632080279,0.00871810246587756,0.002931,-0.000168,-0.005532,0.150687,-0.049393,330.367857,24.290415,0.998657,0.977563,0.006034,0.240931,-0.000019,-0.000029,-0.000008,-0.000014,-0.000033,-29.342625,0.000048,
2281,2863,0.449036320465893,4.7542701061089,-0.0259887428911725,0.002424,-0.000977,0.000092,0.110791,-0.053392,316.951697,24.755271,0.999684,0.993779,0.003445,0.269128,-0.000035,-0.000015,-0.000007,-0.000013,-0.000037,-71.377165,0.000052,
2506,3028,5.31314779046992,8.35344155879514,6.61738804410561E-05,0.002398,-0.000409,-0.003572,0.123833,-0.034368,314.670270,25.669141,0.999598,0.993116,0.003430,0.374144,-0.000010,-0.000004,0.000006,0.000000,-0.000014,59.863559,0.000016,
2431,2308,3.82478422769893,-7.35208380613222,0.00661392353947576,0.002489,0.000005,-0.003420,0.126597,-0.018110,326.276682,23.136396,0.999313,0.983912,0.004877,0.267079,-0.000032,0.000005,-0.000020,0.000014,-0.000041,-66.539490,0.000041,
2236,2668,-0.49344531599208,0.506648022462343,-0.0124687779031092,0.002401,-0.000276,-0.003640,0.122040,-0.024742,320.327444,24.374744,0.999394,0.991169,0.003940,0.335313,-0.000035,-0.000007,-0.000019,0.000002,-0.000044,-63.368128,0.000050,
2326,3043,1.39655031823197,8.66529850764591,0.00919579110359336,0.002319,-0.000790,-0.002383,0.114632,-0.050624,314.270777,25.156428,0.999638,0.993107,0.003461,0.343250,-0.000031,0.000000,-0.000004,0.000001,-0.000032,-82.381674,0.000036,
2476,2698,4.72477713413431,1.17068305557644,-0.0273143538840372,0.002274,-0.000715,-0.001080,0.108104,-0.046087,319.734392,24.366656,0.999662,0.990167,0.003982,0.331927,-0.000018,0.000012,-0.000032,0.000032,-0.000039,-57.738997,0.000041,
2296,2863,0.775756297449824,4.75436735343293,-0.0219183480294873,0.002490,-0.000688,-0.003624,0.126447,-0.058537,316.983529,24.745134,0.999657,0.993359,0.003447,0.296496,-0.000037,-0.000013,-0.000010,-0.000010,-0.000041,-69.766226,0.000053,
2086,2068,-3.6589830416592,-12.6069829491613,0.00863028314421399,0.002733,0.000150,-0.006903,0.145265,-0.035888,330.741542,24.446144,0.998789,0.962834,0.007358,0.280295,-0.000004,-0.000056,0.000013,-0.000001,-0.000059,13.299294,0.000068,
2446,2428,4.12614538059458,-4.72565398527765,-0.0156486785220977,0.002319,-0.000814,-0.001736,0.112395,-0.063359,324.159742,23.438288,0.999292,0.986074,0.004794,0.292037,-0.000012,-0.000004,0.000007,0.000000,-0.000016,60.938199,0.000019,
2266,2803,0.13389475993495,3.44822571568849,-0.0289329608864932,0.002568,-0.000645,-0.002499,0.126098,-0.046643,317.942041,24.589646,0.999204,0.988951,0.004472,0.317684,-0.000031,-0.000016,-0.000013,-0.000009,-0.000038,-59.987391,0.000050,
2071,2038,-3.98076216743509,-13.2644761306606,0.0102818519985135,0.003142,0.000734,-0.009497,0.171343,-0.023494,331.337955,24.538074,0.999074,0.985813,0.004825,0.294106,0.000030,-0.000099,0.000015,0.000032,-0.000101,6.614323,0.000104,
2401,2038,3.22313643668123,-13.2746841292574,0.0228320676256999,0.001997,-0.000297,-0.002052,0.098649,-0.053133,330.702090,22.312917,0.998676,0.973209,0.006297,0.306492,-0.000045,-0.000010,-0.000013,-0.000006,-0.000049,-71.397029,0.000061,
2131,2098,-2.68266128967053,-11.9493287270658,0.00574672070968063,0.003265,-0.000568,-0.000118,0.149900,-0.034920,330.038055,24.233108,0.999026,0.984689,0.004947,0.229394,-0.000023,-0.000028,-0.000001,-0.000023,-0.000028,-6.963575,0.000051,
2416,2293,3.49964829294793,-7.68170019003956,0.00384055935683136,0.002293,-0.001025,-0.001126,0.108716,-0.071674,326.456220,23.061759,0.998743,0.980811,0.005559,0.298409,-0.000029,0.000007,-0.000018,0.000015,-0.000037,-67.356582,0.000037,
2101,2188,-3.35122767560996,-9.97823928430754,0.00251210804947277,0.002752,-0.000204,-0.003388,0.136111,-0.052995,328.683396,24.364926,0.998959,0.984726,0.005071,0.284377,-0.000022,-0.000001,0.000003,0.000000,-0.000022,82.635043,0.000025,
2176,2413,-1.75491129661757,-5.0571609214659,-0.0136675205532697,0.002735,0.000241,-0.008094,0.150743,-0.012451,324.639343,24.125981,0.998702,0.985723,0.004877,0.396381,-0.000047,-0.000022,-0.000047,0.000014,-0.000084,-52.269039,0.000090,
2341,3103,1.71190173159495,9.96857377728445,0.0140809788427418,0.002661,-0.000940,-0.002556,0.130950,-0.063834,313.340900,25.345502,0.999616,0.993774,0.003287,0.332564,-0.000024,0.000005,-0.000011,0.000009,-0.000027,-70.911259,0.000028,
2056,2083,-4.3163238602558,-12.2768547691074,0.00460635266955478,0.002338,-0.000670,0.001375,0.103230,-0.040269,330.582033,24.664652,0.999080,0.981929,0.005109,0.244119,0.000021,-0.000034,0.000015,0.000024,-0.000037,14.345575,0.000038,
2041,2053,-4.6393501491212,-12.9311300761472,-0.0193544672046642,0.002888,-0.000021,-0.004266,0.144335,-0.033152,330.988607,24.759078,0.999656,0.992798,0.003651,0.257660,0.000018,-0.000098,0.000017,0.000020,-0.000101,8.308183,0.000107,
2356,3193,2.02118262629707,11.9226868568673,0.023548005641203,0.002479,-0.000525,-0.002191,0.121598,-0.043815,311.934511,25.669587,0.999493,0.992985,0.003523,0.312179,-0.000007,-0.000011,-0.000009,0.000000,-0.000018,-37.998533,0.000021,
2311,2908,1.09414277616431,5.73323954741136,-0.0138651259729272,0.002369,-0.000544,-0.004884,0.125381,-0.061123,316.302343,24.879587,0.999550,0.993241,0.003496,0.277067,-0.000041,-0.000023,-0.000004,-0.000022,-0.000042,-77.346828,0.000065,
2491,2818,5.02749729809721,3.78580217820024,-0.0266475327197213,0.002664,-0.000586,-0.000616,0.124370,-0.040818,317.838072,24.812472,0.999258,0.988657,0.004451,0.360742,-0.000029,0.000006,-0.000018,0.000014,-0.000036,-67.510316,0.000036,
2371,3223,2.3411284681126,12.5738032767528,0.0239847837466414,0.002474,-0.001175,-0.000678,0.115776,-0.067213,311.443442,25.764076,0.999473,0.993729,0.003314,0.345008,-0.000004,-0.000012,-0.000009,0.000001,-0.000018,-32.960124,0.000020,
2221,2488,-0.788462353475222,-3.41888741051692,-0.0170297176655367,0.002678,-0.000287,-0.005022,0.138955,-0.045365,323.258533,24.109393,0.999418,0.988324,0.004239,0.349881,-0.000031,-0.000022,-0.000019,-0.000007,-0.000046,-51.050648,0.000058,
2191,2458,-1.43652704026897,-4.07443617357212,-0.0210018423248357,0.002652,-0.000302,-0.007757,0.145950,-0.060956,323.799517,24.105362,0.998987,0.987833,0.004710,0.372577,-0.000039,-0.000025,-0.000024,-0.000007,-0.000057,-53.480086,0.000070,
2506,3043,5.30991527828953,8.68035016796278,0.000193644885541744,0.002413,-0.000575,-0.001708,0.117187,-0.041263,314.418449,25.819396,0.999709,0.993392,0.003569,0.277275,-0.000008,0.000008,0.000015,0.000018,-0.000018,59.202904,0.000020,
2071,2053,-3.98330800969076,-12.9367418399706,0.0176167549307706,0.002727,-0.000125,-0.004317,0.137316,-0.026801,331.125032,24.518719,0.998524,0.978778,0.005722,0.310382,0.000024,-0.000076,0.000014,0.000026,-0.000078,7.659483,0.000080,
2116,2098,-3.00894353383825,-11.9499551860044,0.0142637867220401,0.003231,-0.000514,-0.003866,0.159426,-0.061327,330.181834,24.361541,0.999033,0.976859,0.005962,0.164239,-0.000021,-0.000024,-0.000004,-0.000018,-0.000027,-35.277286,0.000046,
2071,2113,-3.99242449797332,-11.6208231498273,0.0159544711825674,0.002786,-0.000235,-0.004618,0.140919,-0.043460,330.152392,24.605225,0.998922,0.982570,0.005253,0.207798,0.000002,-0.000022,0.000011,0.000006,-0.000026,21.015999,0.000027,
2161,2263,-2.05696818732647,-8.3357008211841,-0.00852783238894972,0.002708,-0.000702,-0.000442,0.125391,-0.048289,327.127383,24.151965,0.998634,0.981539,0.005447,0.258552,-0.000033,-0.000030,-0.000022,-0.000009,-0.000053,-46.803462,0.000068,
2401,2053,3.22017456658627,-12.9432819470554,0.0145479066594021,0.002565,-0.000715,-0.002913,0.127560,-0.047722,330.419540,22.449018,0.998994,0.977486,0.005965,0.224796,-0.000044,-0.000024,-0.000007,-0.000022,-0.000046,-73.044791,0.000069,
2281,2878,0.446998888446906,5.07859333128755,-0.0208191795094876,0.002456,-0.000627,-0.003503,0.124443,-0.053200,316.764975,24.650372,0.999748,0.993711,0.003410,0.401610,-0.000036,-0.000018,-0.000006,-0.000016,-0.000038,-74.004600,0.000056,
2041,2068,-4.64131188476813,-12.6041289370193,-0.0140889317598862,0.002834,-0.000070,-0.003768,0.140498,-0.047907,330.789022,24.667743,0.999696,0.992723,0.003555,0.329979,0.000014,-0.000062,0.000024,0.000021,-0.000069,15.933753,0.000070,
2176,2428,-1.75744491136664,-4.72864762334352,-0.0195000488416781,0.003015,0.000367,-0.009425,0.167771,-0.035439,324.365168,24.194384,0.998930,0.986506,0.004785,0.318811,-0.000047,-0.000037,-0.000041,-0.000001,-0.000084,-48.545053,0.000097,
2296,2878,0.772940895467098,5.07994736896,-0.0224247275948528,0.002374,-0.000534,-0.004700,0.124852,-0.047782,316.733456,24.703668,0.999639,0.992763,0.003527,0.378361,-0.000037,-0.000019,-0.000007,-0.000016,-0.000040,-71.093680,0.000058,
2206,2458,-1.1099989265179,-4.0744635129039,-0.0130362441837519,0.002251,-0.000306,-0.005296,0.120013,-0.046638,323.797013,24.102901,0.998972,0.986182,0.004921,0.351940,-0.000039,-0.000020,-0.000020,-0.000007,-0.000052,-57.777609,0.000064,
2431,2323,3.82148298783364,-7.02439195931675,0.00199232146536588,0.002414,0.000181,-0.004862,0.128546,-0.026764,325.997768,23.091505,0.999245,0.983181,0.004908,0.355444,-0.000031,0.000010,-0.000007,0.000011,-0.000032,-81.067385,0.000033,
2086,2083,-3.6635868799465,-12.2734416456546,-0.0288887405841933,0.002879,0.000237,-0.005864,0.149021,-0.015607,330.191679,24.449040,0.999012,0.949226,0.008825,0.301851,-0.000006,-0.000039,0.000011,-0.000003,-0.000042,16.512071,0.000050,
2266,2818,0.131649080067906,3.77392106345484,-0.0224165375796588,0.002521,-0.000440,-0.002750,0.124836,-0.042251,317.751298,24.601073,0.999358,0.990457,0.004041,0.335995,-0.000033,-0.000011,-0.000013,-0.000005,-0.000038,-64.952018,0.000048,
2251,2728,-0.178944643035795,1.81494478301911,-0.0329598892465697,0.002462,-0.000202,-0.007081,0.136248,-0.054696,319.165182,24.415106,0.999408,0.991521,0.003658,0.353722,-0.000039,-0.000014,-0.000026,0.000002,-0.000055,-57.864816,0.000062,
2476,2713,4.72164867514321,1.49676565182466,-0.0264049014696752,0.002167,-0.000583,-0.000459,0.100903,-0.035127,319.490750,24.336167,0.999631,0.990742,0.003983,0.430261,-0.000025,0.000017,-0.000032,0.000035,-0.000042,-61.674041,0.000045,
2461,2533,4.43332175916401,-2.43167092984348,-0.00929434917412664,0.002615,-0.000324,-0.004553,0.136835,-0.044991,322.564066,23.771035,0.999462,0.989002,0.004082,0.324407,-0.000001,-0.000057,-0.000015,0.000002,-0.000060,-14.116769,0.000069,
2416,2308,3.4975467947881,-7.35355477183462,0.00626929566919898,0.002546,-0.000185,-0.006046,0.138604,-0.049160,326.263682,23.092051,0.999246,0.985804,0.004659,0.340123,-0.000026,0.000005,-0.000017,0.000012,-0.000033,-66.315021,0.000033,
2146,2188,-2.36864634955088,-9.98225810665592,0.026587456679863,0.002930,0.000062,-0.006238,0.153262,-0.041007,328.711136,24.046282,0.999381,0.955445,0.007060,0.384105,-0.000031,-0.000010,-0.000004,-0.000009,-0.000032,-80.744059,0.000043,
2356,3208,2.01853353844973,12.2472979127139,0.0283987533329082,0.002386,-0.000585,-0.001210,0.113878,-0.034144,311.721726,25.658571,0.999438,0.993471,0.003436,0.370649,-0.000004,-0.000015,-0.000010,0.000002,-0.000021,-30.534531,0.000023,
2236,2683,-0.496209214657586,0.833780105735613,-0.022080676574717,0.002811,-0.000125,-0.005575,0.147247,-0.033869,320.028829,24.360713,0.999356,0.989932,0.004032,0.362075,-0.000037,-0.000002,-0.000021,0.000008,-0.000047,-64.817361,0.000050,
2326,3058,1.39343112659218,8.99079647737713,0.00725388644809755,0.002293,-0.001022,-0.000472,0.106808,-0.040732,314.001456,25.147675,0.999681,0.994226,0.003150,0.395531,-0.000030,-0.000005,-0.000003,-0.000005,-0.000030,-82.797625,0.000038,
2371,3238,2.33815597736793,12.9000258700511,0.0186001716102169,0.002467,-0.000318,-0.004963,0.131110,-0.031399,311.166802,25.824858,0.999704,0.994582,0.003002,0.359778,-0.000003,-0.000021,-0.000010,0.000001,-0.000025,-23.080080,0.000028,
2341,3118,1.70944805634756,10.2938525991011,0.0231220436224362,0.002359,-0.000686,-0.002385,0.116555,-0.053491,313.156678,25.400681,0.999603,0.993660,0.003364,0.323399,-0.000019,0.000003,-0.000010,0.000007,-0.000023,-68.093007,0.000023,
2446,2443,4.12413812371943,-4.39956822527074,-0.000374743418262824,0.002296,-0.000807,0.001172,0.100487,-0.063110,324.032702,23.468002,0.998728,0.983206,0.005095,0.315589,-0.000002,-0.000035,0.000011,0.000001,-0.000038,16.854475,0.000044,
2056,2098,-4.31784601308999,-11.9492456370168,0.00676585605111768,0.002700,-0.000541,-0.002171,0.129866,-0.057716,330.386545,24.605991,0.999026,0.981352,0.005263,0.282843,0.000015,-0.000023,0.000018,0.000022,-0.000030,21.964243,0.000031,
2491,2833,5.02422276692124,4.11197029090773,-0.0268908051816084,0.002358,-0.000794,-0.002115,0.115982,-0.058824,317.583002,24.845429,0.999322,0.989312,0.004199,0.368409,-0.000027,0.000020,-0.000004,0.000021,-0.000028,-84.927064,0.000029,
2071,2068,-3.98521336613257,-12.6089523592947,0.0315185492715955,0.002327,-0.000505,-0.002672,0.114196,-0.051840,330.977250,24.603061,0.998187,0.968221,0.006896,0.200747,0.000019,-0.000058,0.000016,0.000022,-0.000061,11.186512,0.000062,
2101,2203,-3.35364276151086,-9.64991534386651,0.00339191710042996,0.002730,-0.000287,-0.001706,0.130203,-0.036143,328.443629,24.361294,0.998411,0.982590,0.005351,0.308765,-0.000019,-0.000002,-0.000001,-0.000002,-0.000019,-87.399692,0.000023,
2311,2923,1.09118600418817,6.05921309141556,-0.0154284615553593,0.002412,0.000038,-0.003352,0.122403,-0.020471,316.041412,24.849541,0.999186,0.991568,0.003800,0.379640,-0.000043,-0.000021,-0.000010,-0.000017,-0.000046,-69.127795,0.000066,
2131,2113,-2.68517857930385,-11.6212632407494,0.00856162429755614,0.002870,-0.000376,-0.001337,0.135489,-0.034201,329.806508,24.211861,0.999086,0.984905,0.004967,0.260127,-0.000020,-0.000022,0.000001,-0.000019,-0.000023,27.792463,0.000042,
2506,3058,5.30717387462531,9.00428155146379,0.0085094440024136,0.002268,-0.001191,0.000811,0.100481,-0.069571,314.226711,25.773764,0.999717,0.993287,0.003670,0.354621,-0.000007,0.000000,0.000006,0.000003,-0.000011,59.329773,0.000011,
2161,2278,-2.05901647408803,-8.00908171889992,0.00268045021579155,0.002605,-0.001162,0.003088,0.109735,-0.044023,326.963886,24.137252,0.998204,0.980292,0.005809,0.289523,-0.000036,-0.000037,-0.000026,-0.000010,-0.000063,-44.536304,0.000078,
2071,2128,-3.9951936199622,-11.291542347192,0.00827298257001985,0.002831,-0.000264,-0.003679,0.140308,-0.031705,329.847134,24.573696,0.999020,0.984835,0.005052,0.251189,-0.000003,-0.000031,0.000008,0.000000,-0.000033,14.950830,0.000038,
2041,2083,-4.64189897040509,-12.2779027626195,0.0126930379337864,0.002662,0.000106,-0.006432,0.140051,-0.049691,330.771004,24.734138,0.999395,0.987689,0.004369,0.256114,0.000005,-0.000029,0.000021,0.000016,-0.000039,25.699545,0.000039,
2176,2443,-1.76019513637011,-4.40180126948486,-0.0187383815057274,0.002898,-0.000164,-0.006773,0.154003,-0.044499,324.115799,24.163884,0.999164,0.987037,0.004686,0.353883,-0.000051,-0.000032,-0.000038,-0.000002,-0.000080,-52.156226,0.000094,
2281,2893,0.444108457315195,5.40606680260781,-0.0249564777562341,0.002590,-0.000451,-0.003559,0.130907,-0.033913,316.491576,24.752159,0.999663,0.992948,0.003414,0.346603,-0.000040,-0.000024,-0.000002,-0.000024,-0.000041,-82.017773,0.000065,
2116,2113,-3.01172352456724,-11.6229838181645,0.013938994898524,0.002995,-0.000925,-0.001180,0.140567,-0.067967,329.920539,24.212952,0.999192,0.986278,0.004820,0.312666,-0.000020,-0.000018,-0.000001,-0.000017,-0.000020,-60.541359,0.000038,
2431,2338,3.81840830330564,-6.69580401167511,0.00124679659109006,0.002715,-0.000663,-0.000775,0.126961,-0.032866,325.746987,23.169967,0.999100,0.983874,0.004781,0.322555,-0.000029,0.000002,0.000000,0.000002,-0.000029,-89.776054,0.000032,
2086,2098,-3.6649242406203,-11.9450991710819,-0.0140539472427008,0.002875,0.000498,-0.006406,0.150508,-0.016865,330.075485,24.582687,0.998976,0.967694,0.006887,0.168539,-0.000008,-0.000029,0.000014,-0.000001,-0.000037,26.900566,0.000043,
2221,2503,-0.791206060155307,-3.09119021924504,-0.0200338480511846,0.002878,-0.000221,-0.003029,0.141780,-0.038651,322.993392,24.126758,0.999464,0.988448,0.004211,0.359580,-0.000035,-0.000027,-0.000018,-0.000013,-0.000049,-51.208665,0.000066,
2461,2548,4.42999212730923,-2.10362663355788,-0.00756090394042985,0.002285,-0.000458,-0.003237,0.116721,-0.044370,322.314351,23.886195,0.999743,0.992260,0.003614,0.265253,0.000003,-0.000057,-0.000012,0.000005,-0.000059,-11.361876,0.000066,
2296,2893,0.770584533956065,5.40640056801158,-0.020872024550215,0.002529,-0.000280,-0.006333,0.137614,-0.040336,316.514416,24.765063,0.999608,0.992713,0.003459,0.354053,-0.000041,-0.000026,-0.000003,-0.000026,-0.000041,-77.719572,0.000067,
2356,3223,2.01527810460207,12.5729551713174,0.026418856889336,0.002219,-0.000692,-0.000185,0.102524,-0.040138,311.447569,25.723792,0.999451,0.993297,0.003366,0.336704,-0.000004,-0.000012,-0.000011,0.000004,-0.000019,-34.221975,0.000021,
2146,2203,-2.37359439859308,-9.64987874114087,-0.00158328764837279,0.002517,-0.000704,-0.002929,0.124086,-0.061609,328.205328,24.145671,0.998811,0.979396,0.005500,0.275925,-0.000028,-0.000011,-0.000006,-0.000009,-0.000030,-71.431981,0.000040,
2401,2068,3.21655626379698,-12.6137518979887,0.00198258442821952,0.002630,-0.000296,-0.005771,0.141041,-0.039282,330.086889,22.370606,0.999392,0.980817,0.005762,0.360986,-0.000044,-0.000016,-0.000006,-0.000014,-0.000045,-78.832254,0.000062,
2476,2728,4.7190972052049,1.82478776190369,-0.0255559414729305,0.002431,-0.000530,-0.002540,0.120953,-0.046712,319.272941,24.510309,0.999602,0.991818,0.003586,0.301305,-0.000031,0.000013,-0.000025,0.000024,-0.000042,-66.177591,0.000042,
2491,2848,5.02148895830971,4.43947500907032,-0.0231065816279852,0.002363,-0.000641,-0.002400,0.117360,-0.056947,317.370543,25.015981,0.999521,0.992247,0.003673,0.258291,-0.000030,0.000034,-0.000007,0.000035,-0.000031,-83.588617,0.000038,
2236,2698,-0.499440348389601,1.16096477584999,-0.0276708354850825,0.002681,-0.000177,-0.004583,0.138013,-0.032351,319.729178,24.379784,0.999446,0.991722,0.003632,0.366085,-0.000040,-0.000009,-0.000022,0.000002,-0.000052,-62.521300,0.000058,
2056,2113,-4.31991503098918,-11.6211591088128,0.00501466122409511,0.002826,-0.000572,-0.004666,0.142652,-0.077821,330.144597,24.556131,0.999039,0.982796,0.005282,0.310426,0.000009,-0.000018,0.000016,0.000016,-0.000026,25.242116,0.000026,
2506,3073,5.30335868093936,9.3308871024858,-0.00286364496446367,0.002322,-0.000899,-0.001419,0.111762,-0.056555,313.896385,25.809766,0.999639,0.992752,0.003778,0.391947,-0.000005,0.000008,0.000004,0.000009,-0.000006,75.294067,0.000009,
2371,3253,2.33503045444522,13.2250715903377,0.0146839079951064,0.002737,-0.000669,-0.002248,0.133700,-0.048246,310.890507,25.842359,0.999678,0.993876,0.003129,0.365106,-0.000001,-0.000026,-0.000007,0.000001,-0.000028,-14.897695,0.000032,
2446,2458,4.12104312614759,-4.07049948199054,-0.00865116536454025,0.002208,0.000293,-0.007078,0.127630,-0.030902,323.746789,23.523061,0.999290,0.986535,0.004622,0.346714,0.000000,-0.000036,0.000011,0.000003,-0.000039,16.292062,0.000044,
2191,2473,-1.43915277695634,-3.74654263666624,-0.0222982366477709,0.002921,-0.000548,-0.003859,0.146059,-0.052271,323.546021,24.144069,0.999117,0.985677,0.004980,0.358301,-0.000037,-0.000022,-0.000019,-0.000010,-0.000050,-56.061595,0.000064,
2416,2323,3.49422076588429,-7.02465122887458,0.0058719347740066,0.002263,-0.000093,-0.005314,0.123034,-0.037420,326.001680,23.179440,0.999146,0.984000,0.004848,0.314485,-0.000026,0.000009,-0.000006,0.000010,-0.000027,-81.153464,0.000028,
2266,2833,0.128529031513509,4.10055815541451,-0.0262723095078172,0.002496,-0.000643,-0.001053,0.118072,-0.036655,317.467931,24.623155,0.999314,0.990898,0.003895,0.344957,-0.000033,-0.000014,-0.000009,-0.000011,-0.000036,-68.402647,0.000049,
2086,2158,-3.67347538773272,-10.6347503008979,0.00234117285594948,0.002789,-0.000669,-0.001751,0.132834,-0.057849,329.232782,24.453441,0.999033,0.985413,0.004948,0.264193,-0.000011,-0.000025,-0.000005,-0.000009,-0.000027,-17.591419,0.000038,
2101,2218,-3.35622627170581,-9.32053797584953,-0.00166610439077886,0.002741,0.000049,-0.002900,0.134310,-0.011156,328.163948,24.389130,0.998104,0.983060,0.005482,0.310124,-0.000023,-0.000004,-0.000006,-0.000002,-0.000025,-73.101109,0.000030,
2311,2938,1.08858857883408,6.38493726395349,-0.0155146469577403,0.002548,-0.000288,-0.003970,0.130686,-0.030384,315.804389,24.861825,0.999048,0.990259,0.004025,0.389126,-0.000040,-0.000013,-0.000010,-0.000010,-0.000043,-71.652751,0.000056,
2206,2473,-1.11266537066261,-3.74638977775368,-0.0228239754964648,0.002564,0.000165,-0.009072,0.146498,-0.047264,323.499135,24.088813,0.999288,0.984910,0.005034,0.383896,-0.000039,-0.000017,-0.000016,-0.000008,-0.000048,-61.448679,0.000061,
2326,3073,1.39095228860419,9.31765335647634,0.00818944131924582,0.002439,-0.000505,-0.001938,0.118749,-0.033793,313.775215,25.289768,0.999695,0.995490,0.002828,0.293678,-0.000026,0.000000,-0.000004,0.000001,-0.000027,-81.012092,0.000031,
2071,2143,-3.99740959042621,-10.9632978742365,0.010855848527342,0.002794,-0.000174,-0.002648,0.135680,-0.009151,329.623225,24.553450,0.999016,0.985109,0.005055,0.293868,-0.000007,-0.000023,0.000003,-0.000006,-0.000024,11.381358,0.000032,
2341,3133,1.70617305479269,10.6194197452228,0.0183952365300115,0.002295,-0.000827,-0.002105,0.112582,-0.061423,312.867503,25.418814,0.999489,0.992953,0.003518,0.332603,-0.000018,0.000004,-0.000012,0.000009,-0.000023,-66.629277,0.000023,
2371,3268,2.33091729875225,13.5507720363097,0.00805313080667247,0.002143,-0.000736,-0.000677,0.100786,-0.037857,310.555369,25.882556,0.999699,0.994441,0.003078,0.374927,0.000000,-0.000030,-0.000011,0.000004,-0.000034,-18.480474,0.000037,
2131,2128,-2.6877734395312,-11.2926007570164,0.00527951648621183,0.002735,-0.000008,-0.003533,0.135991,-0.035454,329.538929,24.186093,0.998780,0.982964,0.005224,0.293574,-0.000021,-0.000028,0.000001,-0.000021,-0.000028,6.445095,0.000049,
2356,3238,2.01196068113434,12.8981839521309,0.0238597989352911,0.001958,-0.000683,-0.000150,0.090349,-0.042229,311.167840,25.746374,0.999560,0.993363,0.003262,0.349478,-0.000002,-0.000021,-0.000011,0.000003,-0.000026,-24.836857,0.000029,
2041,2098,-4.64341719245708,-11.9500722996888,0.0150775456201586,0.003073,-0.000141,-0.008674,0.165064,-0.065271,330.575684,24.695351,0.999205,0.982411,0.005085,0.274794,-0.000003,-0.000018,0.000025,0.000015,-0.000036,36.502488,0.000036,
2491,2863,5.01869884867734,4.76499283684979,-0.0224802555043198,0.002592,-0.000874,-0.002383,0.127702,-0.067233,317.141664,24.996241,0.999573,0.992042,0.003624,0.326272,-0.000031,0.000039,-0.000012,0.000041,-0.000033,-80.644529,0.000044,
2176,2458,-1.76281234216156,-4.07513002390822,-0.0154563279647846,0.002568,-0.000345,-0.006692,0.138548,-0.063391,323.885748,24.155330,0.999163,0.987400,0.004670,0.357239,-0.000048,-0.000021,-0.000028,-0.000003,-0.000066,-57.930582,0.000078,
2116,2128,-3.0143782709228,-11.2944389321177,0.0135638762902204,0.002700,-0.000823,-0.001578,0.128273,-0.071097,329.664418,24.209081,0.998725,0.984112,0.005263,0.319898,-0.000021,-0.000026,-0.000001,-0.000021,-0.000026,-6.841172,0.000047,
2056,2128,-4.32299940029403,-11.2911250534993,0.00198333673239404,0.002436,-0.000759,-0.000569,0.113169,-0.038769,329.848626,24.616786,0.998852,0.982654,0.005438,0.286701,0.000005,-0.000028,0.000015,0.000010,-0.000034,20.751807,0.000035,
2476,2743,4.71569195483374,2.15161297225256,-0.0317877227041095,0.002514,-0.000577,-0.003505,0.128462,-0.040347,318.983841,24.504581,0.999688,0.992834,0.003499,0.370511,-0.000034,0.000026,-0.000027,0.000036,-0.000044,-69.194763,0.000047,
2401,2083,3.21449360130341,-12.2854864892355,0.0193964724340958,0.002254,-0.000218,-0.003907,0.117129,-0.027684,329.966148,22.511337,0.998978,0.977814,0.005998,0.280269,-0.000045,-0.000019,-0.000008,-0.000016,-0.000047,-74.727160,0.000066,
2431,2353,3.81504936475773,-6.36751320450052,-0.00344850004171349,0.002465,-0.000707,-0.003848,0.126800,-0.058182,325.464919,23.207024,0.999025,0.983533,0.004994,0.312219,-0.000024,0.000009,0.000001,0.000010,-0.000025,87.611252,0.000025,
2461,2563,4.42550516224838,-1.77500199552345,-0.0255312666524219,0.002449,-0.000309,-0.001542,0.117968,-0.028143,321.921218,23.870098,0.999413,0.989437,0.004224,0.353646,0.000001,-0.000039,-0.000005,0.000002,-0.000040,-7.647756,0.000045,
2416,2338,3.49098320636412,-6.69573095241562,0.00188495408826839,0.002297,-0.000186,-0.005337,0.124642,-0.029129,325.726932,23.241587,0.998947,0.983346,0.004930,0.310478,-0.000026,0.000000,0.000000,0.000000,-0.000026,-89.489351,0.000030,
2236,2713,-0.502548424050374,1.48744500967804,-0.0315407141103492,0.002540,-0.000778,-0.003755,0.128669,-0.053755,319.444136,24.376326,0.999321,0.991166,0.003659,0.369780,-0.000040,-0.000010,-0.000022,0.000002,-0.000051,-62.531033,0.000058,
2251,2743,-0.181183054555216,2.1413272549545,-0.0279299231767141,0.002695,-0.000420,-0.004715,0.139141,-0.056750,318.966292,24.464336,0.999263,0.989841,0.004018,0.325900,-0.000039,-0.000017,-0.000021,-0.000004,-0.000052,-58.653512,0.000062,
2161,2293,-2.06053352096863,-7.68080096592739,-0.00652803540799596,0.003357,-0.000099,-0.008973,0.181491,-0.066553,326.717285,24.099316,0.998545,0.983135,0.005329,0.317206,-0.000041,-0.000027,-0.000029,-0.000004,-0.000063,-51.827322,0.000075,
2221,2518,-0.793789121479982,-2.76481987678019,-0.0169105766835855,0.002602,-0.000429,-0.003941,0.131971,-0.061782,322.767365,24.112798,0.999360,0.987464,0.004308,0.370092,-0.000034,-0.000016,-0.000014,-0.000009,-0.000042,-61.291100,0.000054,
2506,3088,5.3012463600451,9.65704144492721,0.00330414089222586,0.002400,-0.000449,-0.005920,0.132971,-0.048890,313.723192,25.926466,0.999686,0.993553,0.003356,0.342893,-0.000010,0.000030,0.000011,0.000033,-0.000013,75.166131,0.000033,
2266,2848,0.126602933767732,4.42629475202263,-0.0191277529643799,0.002807,-0.000557,-0.000197,0.129551,-0.028603,317.294956,24.646995,0.999513,0.992848,0.003628,0.354510,-0.000034,-0.000014,-0.000005,-0.000013,-0.000036,-76.850694,0.000050,
2101,2233,-3.3577966048335,-8.99252488474333,-0.00415823928079817,0.003309,0.000429,-0.008593,0.177103,-0.026940,327.944836,24.365337,0.998438,0.984493,0.005178,0.321670,-0.000024,0.000002,-0.000005,0.000002,-0.000025,-80.113839,0.000027,
2086,2173,-3.67513773201346,-10.306546810838,0.00412212589918681,0.003127,-0.000234,-0.004826,0.157347,-0.023071,329.030963,24.419658,0.999126,0.985892,0.004736,0.334424,-0.000020,-0.000015,-0.000003,-0.000014,-0.000022,-60.324683,0.000035,
2446,2473,4.11790039559406,-3.74307917414529,-0.00118370507539112,0.001916,-0.000373,-0.001512,0.093266,-0.041049,323.531413,23.620814,0.999546,0.988417,0.004324,0.292186,-0.000004,-0.000041,0.000001,-0.000004,-0.000041,2.051112,0.000050,
2296,2908,0.76830841700335,5.73164830057971,-0.0107789248777976,0.002469,-0.000739,-0.003404,0.124797,-0.051532,316.341799,24.799715,0.999596,0.993329,0.003362,0.337693,-0.000039,-0.000023,-0.000004,-0.000022,-0.000040,-77.977711,0.000063,
2206,2488,-1.11574966558748,-3.41780053060762,-0.0260570459858513,0.002469,-0.000031,-0.006273,0.133261,-0.032020,323.215695,24.172408,0.999299,0.986619,0.004672,0.333228,-0.000041,-0.000022,-0.000020,-0.000009,-0.000053,-57.694133,0.000067,
2281,2908,0.441592855436056,5.7320044732752,-0.025235848308796,0.002733,-0.000480,-0.004697,0.141294,-0.037163,316.255123,24.767765,0.999701,0.993759,0.003171,0.355095,-0.000040,-0.000023,-0.000004,-0.000022,-0.000041,-78.785003,0.000064,
2326,3088,1.38856186091067,9.64130925547679,0.0150877274351728,0.002428,-0.000937,-0.000599,0.113423,-0.052643,313.583270,25.204446,0.999666,0.994971,0.003000,0.393669,-0.000022,-0.000004,-0.000014,0.000003,-0.000030,-61.743948,0.000032,
2041,2113,-4.64589060962947,-11.6220366655333,0.0173201239020386,0.002880,-0.000606,-0.005331,0.146799,-0.060755,330.335878,24.658933,0.998783,0.981318,0.005560,0.311239,-0.000011,-0.000013,0.000022,0.000010,-0.000035,43.354843,0.000036,
2086,2113,-3.66607796932672,-11.6203508821956,0.00482442783970782,0.002848,-0.000318,-0.005922,0.147646,-0.073962,329.990519,24.491718,0.998850,0.984377,0.005101,0.203566,-0.000009,-0.000025,0.000013,-0.000002,-0.000032,29.274190,0.000038,
2371,3283,2.32787165333835,13.8760999506269,0.000738193468293957,0.002338,-0.000666,-0.003360,0.119357,-0.044026,310.266177,25.905648,0.999660,0.993774,0.003223,0.385307,0.000004,-0.000043,-0.000018,0.000010,-0.000049,-18.912164,0.000052,
2476,2758,4.71333139525037,2.47636879554723,-0.0205694609539364,0.002484,-0.000863,-0.000835,0.116825,-0.041254,318.822406,24.459015,0.999575,0.990992,0.003789,0.471716,-0.000028,0.000023,-0.000024,0.000032,-0.000037,-68.631166,0.000040,
2356,3253,2.00904694214424,13.2228203301171,0.0250555033379101,0.001996,-0.001134,0.002284,0.083354,-0.054119,310.925020,25.749091,0.999654,0.993150,0.003248,0.372093,-0.000001,-0.000027,-0.000008,0.000001,-0.000029,-16.874118,0.000033,
2491,2878,5.0159310538609,5.09021014597091,-0.0170981318813688,0.002250,-0.000562,-0.004626,0.120718,-0.069500,316.935238,24.979974,0.999523,0.993272,0.003438,0.398945,-0.000027,0.000038,-0.000009,0.000039,-0.000028,-82.529278,0.000040,
2071,2158,-4.00003838413721,-10.635814858057,0.0101806620673983,0.002570,-0.000737,-0.001238,0.121231,-0.041072,329.363134,24.488353,0.999180,0.985905,0.004877,0.326634,-0.000007,-0.000023,-0.000012,0.000000,-0.000030,-28.278622,0.000034,
2311,2953,1.08655035337089,6.71089995540171,-0.0141117782908395,0.002876,-0.000227,-0.008030,0.159666,-0.043748,315.600309,24.914037,0.999274,0.991756,0.003721,0.355318,-0.000039,-0.000013,-0.000010,-0.000009,-0.000042,-71.387919,0.000055,
2056,2143,-4.32468480393418,-10.9636385297607,0.00319956139935584,0.002653,-0.000295,-0.004819,0.135254,-0.059651,329.640608,24.556080,0.998886,0.984220,0.005322,0.323802,0.000004,-0.000017,0.000012,0.000009,-0.000022,23.585844,0.000022,
2176,2473,-1.76551283929878,-3.74691594445562,-0.0163108132113052,0.002748,-0.000611,-0.002133,0.132648,-0.051612,323.629806,24.223724,0.999260,0.985869,0.004931,0.314245,-0.000047,-0.000018,-0.000023,-0.000005,-0.000060,-61.293776,0.000072,
2341,3148,1.70425051411694,10.9447784985834,0.0222107878350926,0.002789,-0.000835,-0.003712,0.140953,-0.065870,312.682182,25.470546,0.999489,0.993932,0.003451,0.312030,-0.000018,0.000000,-0.000010,0.000004,-0.000022,-67.321926,0.000024,
2146,2218,-2.37586624164217,-9.32222797692573,0.0079807932417566,0.002167,-0.000540,-0.000991,0.102254,-0.038479,328.021774,24.170899,0.998682,0.980346,0.005436,0.283749,-0.000032,-0.000018,-0.000014,-0.000009,-0.000041,-58.343471,0.000053,
2401,2098,3.21125369687708,-11.9558755505181,0.0146828836735153,0.002392,-0.000294,-0.002880,0.119744,-0.042202,329.687650,22.561569,0.998789,0.974694,0.006357,0.264228,-0.000046,-0.000017,-0.000013,-0.000012,-0.000051,-68.984678,0.000067,
2506,3103,5.29847772038381,9.98203179844455,0.00647753218237312,0.002520,-0.000592,-0.005111,0.135336,-0.053485,313.506589,25.932450,0.999660,0.993100,0.003393,0.392359,-0.000017,0.000031,0.000021,0.000038,-0.000025,69.669628,0.000039,
2461,2578,4.42168461864554,-1.44726858753793,-0.0354473234247052,0.002639,-0.000595,0.000436,0.119113,-0.028685,321.595600,23.866587,0.999599,0.991975,0.003994,0.412212,-0.000001,-0.000027,0.000000,-0.000001,-0.000027,-0.135541,0.000031,
2251,2758,-0.185015150237508,2.46916616045817,-0.0369919689466087,0.002454,-0.000421,-0.000868,0.115480,-0.039543,318.622449,24.520868,0.999240,0.989924,0.004062,0.310248,-0.000042,-0.000011,-0.000018,-0.000003,-0.000051,-65.234364,0.000060,
2116,2143,-3.01729105946363,-10.964871566057,0.0123005275937658,0.002454,-0.000842,0.001741,0.107198,-0.048252,329.391447,24.268458,0.998041,0.979371,0.006084,0.290188,-0.000026,-0.000027,-0.000002,-0.000025,-0.000028,-34.527406,0.000052,
2191,2488,-1.44230425430339,-3.41848173572971,-0.024729481129782,0.002405,-0.000102,-0.004873,0.125698,-0.034612,323.262460,24.183934,0.998933,0.984096,0.005245,0.352029,-0.000040,-0.000025,-0.000022,-0.000009,-0.000055,-54.642835,0.000070,
2161,2308,-2.06357458136307,-7.35183663595599,-0.00423715286774495,0.002729,-0.000100,-0.007591,0.148456,-0.064605,326.461103,24.220891,0.998798,0.983252,0.005190,0.209631,-0.000044,-0.000028,-0.000033,-0.000002,-0.000070,-51.574008,0.000082,
2236,2728,-0.504876944385561,1.81431465308351,-0.030118535814097,0.002593,-0.000353,-0.005899,0.138213,-0.047961,319.221627,24.428964,0.999298,0.990560,0.003841,0.344084,-0.000040,-0.000016,-0.000025,0.000000,-0.000055,-57.774825,0.000064,
2431,2368,3.81227393705634,-6.0396925891777,0.00145788961941662,0.002300,-0.000540,-0.003444,0.117801,-0.076513,325.254043,23.292971,0.999003,0.984426,0.004918,0.259560,-0.000018,-0.000001,0.000005,0.000000,-0.000019,76.028089,0.000022,
2131,2143,-2.69047624358593,-10.9641751335577,0.00586788956400142,0.002530,-0.000145,-0.001341,0.119998,-0.011626,329.286894,24.161125,0.998999,0.984419,0.005097,0.351054,-0.000025,-0.000031,0.000001,-0.000024,-0.000032,8.306241,0.000056,
2416,2353,3.48789206844816,-6.36714957788821,-0.00438284890884688,0.002424,0.000094,-0.008240,0.141165,-0.040060,325.448311,23.275229,0.998653,0.982391,0.005134,0.315720,-0.000021,0.000005,0.000002,0.000005,-0.000021,85.347329,0.000022,
2356,3268,2.00475726495145,13.5498509331592,0.0044173366647442,0.002183,-0.001002,0.002644,0.090810,-0.042399,310.512235,25.832538,0.999624,0.993640,0.003188,0.338063,-0.000002,-0.000028,-0.000012,0.000003,-0.000033,-21.113255,0.000036,
2476,2773,4.70940207997327,2.80521740526893,-0.0292317246814946,0.002340,-0.001028,-0.000820,0.110098,-0.050689,318.497571,24.645692,0.999178,0.988248,0.004221,0.332431,-0.000039,0.000008,-0.000027,0.000021,-0.000052,-65.503926,0.000052,
2446,2488,4.11549209418927,-3.41661864166185,-0.00347841888054745,0.002378,-0.000350,-0.005306,0.128584,-0.077086,323.305049,23.570714,0.999466,0.987288,0.004407,0.359483,0.000003,-0.000056,-0.000008,0.000005,-0.000057,-7.783021,0.000063,
2371,3298,2.32435501026505,14.201898126587,-0.00883323157302129,0.002520,-0.000681,-0.002429,0.124418,-0.045923,309.944190,25.960554,0.999627,0.993707,0.003333,0.367939,0.000002,-0.000042,-0.000026,0.000014,-0.000055,-24.888268,0.000057,
2266,2863,0.124792627168823,4.75111639283475,-0.00570999984745413,0.002653,-0.000637,-0.001059,0.125297,-0.041257,317.159144,24.657160,0.999704,0.994531,0.003351,0.356640,-0.000037,-0.000014,-0.000010,-0.000010,-0.000040,-70.124336,0.000054,
2086,2128,-3.66924467799687,-11.2909153640417,-0.000616884341184232,0.002505,-0.000435,-0.003195,0.124016,-0.058331,329.680723,24.495780,0.998934,0.985631,0.005012,0.217580,-0.000011,-0.000034,0.000011,-0.000007,-0.000038,21.685310,0.000048,
2101,2248,-3.36100588834666,-8.66466639948948,-0.0068891331674763,0.002603,0.000176,-0.008855,0.145391,-0.057583,327.649640,24.345649,0.998458,0.986307,0.005079,0.314552,-0.000026,0.000006,-0.000003,0.000006,-0.000027,-84.766988,0.000028,
2041,2128,-4.64834149817948,-11.2922219136549,0.00976352312591189,0.003074,-0.000091,-0.005890,0.157404,-0.031123,330.042562,24.658803,0.998464,0.978764,0.006097,0.336787,-0.000015,-0.000024,0.000018,0.000000,-0.000038,38.333792,0.000045,
2221,2533,-0.796346230419136,-2.43613075032853,-0.0191663826976765,0.002750,-0.000223,-0.004742,0.141389,-0.051033,322.514316,24.233729,0.999599,0.990372,0.003842,0.280071,-0.000033,-0.000014,-0.000014,-0.000007,-0.000041,-62.692026,0.000051,
2086,2188,-3.67789390194751,-9.97841066755353,0.00589119768289947,0.002716,-0.000425,-0.002523,0.131789,-0.038891,328.779395,24.435262,0.998867,0.984770,0.005043,0.304587,-0.000021,0.000004,0.000004,0.000004,-0.000022,80.250407,0.000023,
2281,2923,0.439135472250829,6.05720885075623,-0.0144279235500449,0.002657,-0.000941,0.001457,0.116999,-0.044199,316.076964,24.803016,0.999622,0.993331,0.003382,0.339897,-0.000041,-0.000019,-0.000009,-0.000016,-0.000044,-71.268568,0.000062,
2491,2893,5.01228672027281,5.41874543737175,-0.0267028138304681,0.002614,-0.000639,-0.003224,0.132095,-0.056022,316.619946,25.148086,0.998652,0.988743,0.004289,0.302861,-0.000020,0.000028,-0.000009,0.000029,-0.000021,-79.935863,0.000030,
2326,3103,1.38637883612018,9.96703305902686,0.0149949646942105,0.002697,-0.000741,-0.005366,0.142312,-0.067529,313.365891,25.264710,0.999594,0.994077,0.003239,0.351809,-0.000020,0.000002,-0.000012,0.000007,-0.000025,-67.127520,0.000026,
2056,2158,-4.32718823946454,-10.6341459797608,0.00296294302938804,0.002603,-0.000561,-0.001891,0.124638,-0.043335,329.386723,24.630981,0.999102,0.986859,0.004833,0.262701,0.000004,-0.000020,-0.000008,0.000006,-0.000022,-17.075304,0.000023,
2071,2173,-4.00219344783825,-10.3070253752682,0.00882305737752631,0.002688,-0.000514,-0.002736,0.130997,-0.033195,329.120517,24.500775,0.999076,0.986669,0.004795,0.321873,-0.000019,-0.000014,-0.000011,-0.000005,-0.000028,-51.669217,0.000035,
2206,2503,-1.11798502685631,-3.09195951696125,-0.0165936299843565,0.002472,-0.000425,-0.001454,0.118003,-0.036737,323.037270,24.144699,0.999557,0.989147,0.004170,0.373948,-0.000043,-0.000027,-0.000017,-0.000016,-0.000054,-57.254059,0.000073,
2506,3118,5.29536500962727,10.3083106688991,0.00946678120993738,0.002441,-0.000877,-0.002860,0.122878,-0.056720,313.272831,26.058371,0.999492,0.992316,0.003633,0.323158,-0.000025,0.000049,0.000018,0.000053,-0.000029,76.846228,0.000053,
2296,2923,0.765620224976519,6.056165789997,-0.00265725739052414,0.002268,-0.000752,0.001275,0.099660,-0.047198,316.140623,24.740517,0.999525,0.993602,0.003322,0.430610,-0.000041,-0.000020,-0.000009,-0.000016,-0.000044,-69.588642,0.000062,
2341,3163,1.70147300076171,11.270496009194,0.0275814789341666,0.002560,-0.000268,-0.002030,0.124843,-0.023629,312.464895,25.521589,0.999579,0.993841,0.003484,0.338570,-0.000017,-0.000003,-0.000011,0.000004,-0.000023,-61.384736,0.000025,
2461,2593,4.41970632921492,-1.12129706422516,-0.0204385177281665,0.002491,-0.000840,0.000967,0.110227,-0.049188,321.468822,23.943339,0.999207,0.988869,0.004308,0.369497,-0.000002,-0.000032,0.000000,-0.000002,-0.000032,-0.682109,0.000038,
2386,1993,2.90518854905295,-14.2641890142731,0.0386052341078198,0.002283,-0.000980,0.000656,0.101679,-0.044131,331.545762,22.310264,0.998743,0.964219,0.007084,0.276601,-0.000050,0.000012,-0.000019,0.000017,-0.000055,-74.104643,0.000056,
2146,2233,-2.37827875554371,-8.99329336754938,0.00196272787115959,0.002334,0.000056,-0.004767,0.121526,-0.030289,327.749303,24.171236,0.998814,0.981739,0.005224,0.302233,-0.000036,-0.000018,-0.000017,-0.000008,-0.000046,-58.589339,0.000059,
2251,2773,-0.186721620927063,2.79403381148012,-0.02570632611463,0.002482,-0.000402,-0.002467,0.122009,-0.050447,318.480021,24.497218,0.999325,0.989561,0.004014,0.346074,-0.000039,-0.000018,-0.000021,-0.000005,-0.000052,-58.216497,0.000063,
2116,2158,-3.0195134914639,-10.6347304024645,-0.000926151023691091,0.003074,-0.000182,-0.004191,0.153341,-0.057045,329.086061,24.289458,0.998894,0.985351,0.005071,0.266976,-0.000020,-0.000023,-0.000008,-0.000014,-0.000029,-40.300437,0.000044,
2416,2368,3.48523721921964,-6.04070641955899,0.00400189823318442,0.002453,-0.000739,-0.003092,0.123352,-0.062215,325.258339,23.272591,0.999035,0.984515,0.004851,0.345324,-0.000017,-0.000006,0.000005,-0.000004,-0.000019,70.477157,0.000025,
2356,3283,2.00120902490214,13.8754177665656,-0.00819744616654816,0.002235,-0.000966,-0.000337,0.103719,-0.048319,310.172857,25.848702,0.999575,0.993307,0.003279,0.353164,-0.000001,-0.000040,-0.000018,0.000006,-0.000047,-21.379257,0.000052,
2401,2113,3.20835690148995,-11.6273982325705,0.0240760240521354,0.001988,-0.000544,0.001127,0.086695,-0.017640,329.490882,22.628998,0.998946,0.976784,0.005946,0.269938,-0.000046,-0.000011,-0.000015,-0.000005,-0.000052,-69.921833,0.000063,
2476,2788,4.70656057009829,3.13235508404732,-0.0288059350507979,0.002383,-0.000550,-0.002399,0.118255,-0.032268,318.264281,24.723284,0.999193,0.987042,0.004342,0.329874,-0.000042,0.000005,-0.000033,0.000021,-0.000059,-62.836945,0.000060,
2161,2323,-2.06613480773592,-7.0253621363203,-0.00462034591555494,0.002673,-0.000393,-0.007319,0.144918,-0.079463,326.213417,24.109931,0.999020,0.985014,0.004908,0.317817,-0.000042,-0.000024,-0.000038,0.000005,-0.000072,-51.824150,0.000080,
2101,2263,-3.36379471220441,-8.33753707691335,-0.00233302610018882,0.002240,-0.000597,-0.003068,0.111595,-0.076560,327.413009,24.327455,0.998656,0.985025,0.005070,0.317328,-0.000028,-0.000002,-0.000001,-0.000002,-0.000028,-87.950437,0.000034,
2116,2308,-3.04371062087789,-7.35240087019717,-0.00601678742913236,0.002829,0.000174,-0.006104,0.147987,-0.041273,326.625126,24.314740,0.999036,0.985961,0.004907,0.316483,-0.000042,-0.000026,-0.000021,-0.000011,-0.000057,-55.074149,0.000073,
2491,2908,5.00891471831747,5.74479049534872,-0.0172680456076364,0.001749,-0.000916,-0.000550,0.081980,-0.057530,316.403599,25.244716,0.998909,0.987427,0.004523,0.262825,-0.000023,0.000010,-0.000003,0.000010,-0.000023,-84.640762,0.000023,
2281,2938,0.436448474021944,6.38283780760876,-0.0129827876033914,0.002504,-0.000684,0.000353,0.113742,-0.045767,315.841282,24.808509,0.999539,0.992607,0.003553,0.359926,-0.000039,-0.000008,-0.000009,-0.000005,-0.000042,-75.395126,0.000051,
2236,2743,-0.507659392795109,2.14074000317036,-0.027627801837582,0.002544,-0.000742,-0.002040,0.123306,-0.060002,318.983868,24.471505,0.999114,0.988346,0.004364,0.310722,-0.000041,-0.000019,-0.000021,-0.000006,-0.000054,-58.391001,0.000066,
2431,2383,3.80895716835755,-5.71061173528848,-0.00487012775244011,0.002433,-0.000372,-0.003977,0.125956,-0.052718,324.965884,23.348267,0.999543,0.987481,0.004532,0.279955,-0.000018,-0.000008,0.000000,-0.000008,-0.000018,-89.885978,0.000026,
2056,2173,-4.32952049626675,-10.3055971212974,-0.000786100733080275,0.002781,-0.000514,-0.001428,0.131528,-0.046297,329.121663,24.607173,0.999095,0.989215,0.004477,0.281346,-0.000012,-0.000011,-0.000009,-0.000003,-0.000020,-45.690797,0.000025,
2266,2878,0.121994969755271,5.07736139798499,-0.0121999108021669,0.002807,-0.000301,-0.003981,0.142116,-0.054694,316.877380,24.655444,0.999661,0.992809,0.003508,0.370391,-0.000039,-0.000015,-0.000007,-0.000013,-0.000041,-74.581470,0.000056,
2446,2503,4.11220129541146,-3.08869933131196,-0.00448875959625639,0.002419,-0.000845,-0.002348,0.119261,-0.064668,323.043578,23.622941,0.999544,0.989544,0.004077,0.373185,0.000004,-0.000065,-0.000010,0.000006,-0.000066,-8.157324,0.000073,
2386,2008,2.90198661671803,-13.9327742196157,0.0311365007488575,0.002606,-0.000749,0.001101,0.114948,-0.025957,331.254624,22.424420,0.998598,0.973101,0.006281,0.227928,-0.000047,0.000006,-0.000009,0.000007,-0.000048,-80.257704,0.000052,
2311,2968,1.08438562976544,7.03670133912377,-0.000384813126004246,0.002603,-0.000430,-0.006152,0.140559,-0.056204,315.451195,25.039792,0.999921,0.997689,0.002395,0.248277,-0.000041,-0.000011,-0.000010,-0.000008,-0.000044,-72.247366,0.000056,
2326,3118,1.38334991655822,10.2933143935701,0.0157575588562509,0.002470,-0.000315,-0.004661,0.129656,-0.034260,313.113519,25.337732,0.999486,0.992905,0.003480,0.345469,-0.000016,-0.000001,-0.000010,0.000004,-0.000022,-63.351274,0.000023,
2506,3133,5.29200122416744,10.6344265539139,0.00485573244299076,0.002362,-0.000426,-0.005194,0.128537,-0.029895,312.993366,26.096018,0.999561,0.992452,0.003520,0.372513,-0.000018,0.000037,0.000014,0.000040,-0.000022,76.187543,0.000040,
2176,2488,-1.76846637644933,-3.41932673331437,-0.0181311977179348,0.002348,-0.000390,-0.003322,0.118003,-0.039405,323.357349,24.230710,0.999062,0.985357,0.005002,0.332930,-0.000050,-0.000017,-0.000026,-0.000003,-0.000064,-61.155195,0.000076,
2356,3298,1.99836902364985,14.2014235343748,-0.0135081705715265,0.002526,-0.000794,-0.002117,0.123505,-0.046832,309.901235,25.942621,0.999694,0.993334,0.003364,0.298027,-0.000008,-0.000040,-0.000026,0.000007,-0.000055,-29.702757,0.000060,
2086,2203,-3.68058391895124,-9.64935830783974,0.00127218789435801,0.002544,-0.000066,-0.003908,0.128041,-0.024682,328.495907,24.442717,0.998479,0.982800,0.005276,0.313290,-0.000018,0.000005,0.000001,0.000005,-0.000018,87.111854,0.000018,
2131,2158,-2.69173694385618,-10.6369465732371,0.0200072863576679,0.002164,0.000336,-0.010093,0.129486,-0.053771,329.173311,24.242282,0.999725,0.991977,0.004013,0.235478,-0.000020,-0.000028,-0.000005,-0.000018,-0.000031,-25.198026,0.000049,
2296,2938,0.762976994102093,6.3840530858954,-0.00651628363777945,0.002412,-0.000385,-0.002147,0.118105,-0.017459,315.880968,24.884496,0.999289,0.991527,0.003754,0.345733,-0.000039,-0.000009,-0.000010,-0.000006,-0.000041,-73.505220,0.000052,
2221,2548,-0.798726270468112,-2.10993590968758,-0.0133566368369884,0.002652,-0.000442,-0.003353,0.132429,-0.036381,322.311229,24.198897,0.999749,0.992290,0.003458,0.349139,-0.000033,-0.000011,-0.000010,-0.000007,-0.000036,-68.506363,0.000047,
2071,2188,-4.00438311845292,-9.9779070362488,0.00175598480996086,0.003203,0.000215,-0.002980,0.155612,-0.022724,328.845112,24.485994,0.998904,0.985662,0.005090,0.346786,-0.000025,0.000009,-0.000001,0.000009,-0.000025,-87.821110,0.000025,
2191,2503,-1.44440869394944,-3.09198425206472,-0.0181847087387723,0.002484,-0.000353,-0.003487,0.124874,-0.049840,323.073900,24.199942,0.999184,0.986796,0.004728,0.336240,-0.000038,-0.000030,-0.000019,-0.000015,-0.000053,-51.109632,0.000072,
2491,2923,5.00516051908555,6.07232714141688,-0.0308394534131935,0.002187,-0.000629,-0.000822,0.103295,-0.042531,316.065391,25.301037,0.999341,0.987886,0.004222,0.280344,-0.000028,-0.000013,-0.000004,-0.000012,-0.000029,-75.707125,0.000042,
2416,2383,3.48300432206499,-5.711898907912,0.00920228505219711,0.002570,-0.000250,-0.005418,0.137444,-0.051900,325.072346,23.427006,0.999688,0.988325,0.004318,0.250383,-0.000019,-0.000011,0.000002,-0.000011,-0.000019,78.729646,0.000031,
2461,2608,4.41689571555431,-0.794551826524419,-0.0175233186051287,0.002341,-0.001334,-0.000582,0.108985,-0.072926,321.248339,23.993023,0.999018,0.985910,0.004664,0.351230,-0.000007,-0.000023,-0.000004,-0.000006,-0.000024,-13.317885,0.000031,
2086,2143,-3.6712810709865,-10.9640840563101,0.0040412765218889,0.002422,-0.000014,-0.003906,0.122405,-0.040146,329.477713,24.374242,0.998980,0.985474,0.004968,0.359053,-0.000015,-0.000029,0.000006,-0.000012,-0.000031,19.663414,0.000045,
2386,2023,2.8987538675985,-13.6022355893942,0.0184279043801325,0.002729,0.000018,-0.005690,0.145166,-0.045253,330.937517,22.443535,0.998701,0.970991,0.006622,0.236729,-0.000042,0.000012,-0.000008,0.000013,-0.000044,-81.619842,0.000045,
2056,2188,-4.33175785474726,-9.97806084404299,0.00639365469390896,0.002547,-0.000416,0.001772,0.111867,-0.032954,328.921045,24.595621,0.998868,0.986010,0.004952,0.303402,-0.000020,0.000016,0.000003,0.000016,-0.000020,84.656812,0.000021,
2101,2278,-3.36545055127432,-8.00907354812337,-0.00476531488391174,0.002849,-0.000029,-0.006822,0.150731,-0.048663,327.190032,24.317980,0.998580,0.983817,0.005188,0.358073,-0.000031,-0.000012,-0.000004,-0.000011,-0.000032,-78.824679,0.000044,
2206,2518,-1.12063500767426,-2.76466559974072,-0.0234180737669476,0.002596,-0.000348,-0.005263,0.135824,-0.040828,322.755523,24.106223,0.999447,0.988812,0.004237,0.426487,-0.000040,-0.000018,-0.000013,-0.000012,-0.000046,-65.173839,0.000061,
2116,2173,-3.02206895131144,-10.3067656203978,0.00558979157631256,0.002353,-0.000172,-0.005924,0.125367,-0.045323,328.871354,24.308044,0.998966,0.985677,0.004975,0.266189,-0.000025,-0.000012,-0.000003,-0.000011,-0.000026,-76.927182,0.000038,
2251,2788,-0.189134750048257,3.12024546205241,-0.0245870687441538,0.002581,-0.000666,-0.003480,0.129804,-0.061008,318.253298,24.520767,0.999466,0.989910,0.003958,0.335077,-0.000035,-0.000016,-0.000020,-0.000004,-0.000047,-57.586567,0.000057,
2341,3178,1.69877802979874,11.5960252127214,0.0239137813173897,0.002936,-0.000223,-0.002551,0.143986,-0.025180,312.207425,25.548414,0.999636,0.994516,0.003505,0.345819,-0.000013,-0.000007,-0.000013,0.000003,-0.000023,-50.833717,0.000025,
2476,2803,4.70343628090882,3.45898177446313,-0.0280927408211937,0.002416,-0.000829,-0.000405,0.112097,-0.043308,318.019375,24.789978,0.999289,0.986351,0.004507,0.308862,-0.000039,0.000008,-0.000027,0.000020,-0.000052,-65.456502,0.000052,
2446,2518,4.10872893963569,-2.75998073787139,-0.0124535460551556,0.002401,-0.000258,-0.004808,0.127855,-0.040886,322.741520,23.679391,0.999274,0.987560,0.004374,0.394087,0.000000,-0.000058,-0.000012,0.000003,-0.000060,-10.995154,0.000068,
2506,3148,5.28959883577942,10.9599139913401,0.0138070057190589,0.002464,-0.000393,-0.003171,0.125305,-0.042589,312.819151,26.202088,0.999552,0.991616,0.003615,0.313443,-0.000016,0.000020,0.000014,0.000024,-0.000021,71.442273,0.000026,
2401,2128,3.20650963275712,-11.2980788997198,0.0275352650118634,0.002512,0.000057,-0.002356,0.123463,0.004080,329.314241,22.715763,0.999279,0.981022,0.005351,0.252935,-0.000041,-0.000014,-0.000017,-0.000006,-0.000049,-64.241622,0.000061,
2146,2248,-2.38059923785928,-8.66458549075458,-0.00479427921129627,0.002610,0.000400,-0.009053,0.147265,-0.030801,327.477201,24.158012,0.998756,0.982217,0.005257,0.325334,-0.000033,-0.000021,-0.000015,-0.000011,-0.000043,-55.948574,0.000058,
2116,2323,-3.04648092253683,-7.02407416652626,-0.00855290957952093,0.002602,-0.000130,-0.006241,0.137853,-0.056568,326.352184,24.351437,0.999254,0.987718,0.004539,0.270010,-0.000041,-0.000024,-0.000029,-0.000003,-0.000063,-53.241725,0.000074,
2266,2893,0.118825122821779,5.40408536324048,-0.0134088901799601,0.002569,-0.000662,-0.001983,0.124513,-0.040581,316.604863,24.713945,0.999595,0.991607,0.003615,0.350994,-0.000042,-0.000018,-0.000003,-0.000018,-0.000042,-83.058716,0.000062,
2371,1993,2.57678444895487,-14.2626370120967,0.0342284838487785,0.002261,-0.000640,0.001254,0.098731,-0.028829,331.494729,22.452674,0.998937,0.969877,0.006801,0.256388,-0.000034,0.000024,-0.000008,0.000025,-0.000035,-82.288682,0.000036,
2281,2953,0.434302528129688,6.7090569556829,-0.0129482982488867,0.002774,-0.000460,-0.003842,0.140315,-0.041293,315.623192,24.856331,0.999270,0.990468,0.003934,0.343757,-0.000037,-0.000008,-0.000010,-0.000005,-0.000040,-73.256433,0.000049,
2161,2338,-2.069204291758,-6.69639905995091,-0.00782523630408605,0.002593,-0.000551,-0.002843,0.127548,-0.032841,325.926846,24.142541,0.999348,0.988578,0.004293,0.344062,-0.000044,-0.000028,-0.000037,0.000003,-0.000074,-51.045916,0.000084,
2086,2218,-3.68261165986689,-9.32094500818357,0.00151988652777391,0.002735,0.000156,-0.005198,0.140576,-0.000937,328.269133,24.438713,0.998380,0.984002,0.005160,0.342540,-0.000022,0.000005,-0.000003,0.000005,-0.000022,-83.859218,0.000023,
2311,2983,1.08190384182346,7.36123088951893,0.00540356569342748,0.002665,-0.000699,-0.003405,0.133925,-0.057352,315.248691,24.985088,0.999749,0.995430,0.002882,0.333309,-0.000040,-0.000006,-0.000010,-0.000004,-0.000043,-75.047440,0.000052,
2176,2503,-1.77096390643109,-3.09229711153369,-0.0215907953857482,0.002473,-0.000639,-0.005125,0.129242,-0.072438,323.097480,24.221699,0.998908,0.984814,0.005107,0.322266,-0.000046,-0.000023,-0.000023,-0.000009,-0.000060,-58.368798,0.000076,
2236,2758,-0.510381565318351,2.46760789478769,-0.0289803414480616,0.002591,-0.000508,-0.001525,0.123894,-0.045925,318.729079,24.502416,0.999310,0.989686,0.004026,0.315073,-0.000044,-0.000015,-0.000018,-0.000006,-0.000053,-64.398522,0.000064,
2431,2398,3.80598563084844,-5.38282418707354,-0.00856276051371196,0.002697,-0.000312,-0.004409,0.139723,-0.046058,324.705948,23.333352,0.999732,0.988262,0.004471,0.353174,-0.000017,0.000002,0.000004,0.000003,-0.000018,77.654419,0.000019,
2386,2038,2.89518509706079,-13.2728443793777,0.0164054485003362,0.002329,-0.000210,-0.004175,0.121397,-0.048148,330.655426,22.469131,0.998943,0.975335,0.006117,0.255241,-0.000044,-0.000002,-0.000007,-0.000001,-0.000045,-81.120190,0.000053,
2191,2518,-1.44665953194103,-2.76636959599824,-0.0100945244359423,0.002376,-0.000698,-0.001085,0.112321,-0.045471,322.886787,24.133408,0.999337,0.989127,0.004393,0.422455,-0.000035,-0.000022,-0.000014,-0.000013,-0.000045,-56.970843,0.000060,
2131,2383,-2.72993525499739,-5.71297515351176,-0.00945779568422722,0.002337,0.000166,-0.005083,0.122582,-0.011839,325.297704,24.273239,0.998830,0.986718,0.004684,0.366292,-0.000043,-0.000030,-0.000034,-0.000002,-0.000072,-50.423815,0.000084,
2296,2953,0.760394975346752,6.71035267701217,-0.00778006160362565,0.002508,-0.000278,-0.004377,0.130146,-0.018755,315.637480,24.936261,0.999044,0.989642,0.004116,0.322204,-0.000036,-0.000008,-0.000010,-0.000005,-0.000040,-72.355535,0.000049,
2101,2293,-3.36821880227322,-7.68037825554481,-0.00821608722145584,0.002676,-0.000151,-0.006534,0.141920,-0.044132,326.910776,24.348420,0.999021,0.986688,0.004815,0.335703,-0.000034,-0.000008,-0.000011,-0.000005,-0.000038,-70.529366,0.000047,
2416,2398,3.4794084841229,-5.38459546387467,0.0026917125820205,0.002800,-0.000957,-0.000930,0.131301,-0.061641,324.769405,23.356134,0.999608,0.987790,0.004465,0.361217,-0.000018,0.000000,0.000007,0.000002,-0.000020,70.947475,0.000022,
2476,2818,4.70075091648396,3.78501672409657,-0.0250783077419214,0.002494,-0.000712,-0.000796,0.117184,-0.043774,317.805155,24.813451,0.999318,0.987567,0.004489,0.341343,-0.000039,-0.000003,-0.000016,0.000003,-0.000044,-69.391971,0.000050,
2371,2008,2.57308101559531,-13.9311848553668,0.0247064518437128,0.002372,-0.001008,0.003783,0.094705,-0.021724,331.169337,22.558195,0.998643,0.974063,0.006320,0.203232,-0.000033,0.000027,0.000003,0.000027,-0.000033,87.276718,0.000035,
2491,2938,5.00307271250832,6.3984818300738,-0.0262629039178819,0.002581,-0.000532,-0.003278,0.130886,-0.041196,315.886074,25.377846,0.999460,0.990483,0.003767,0.263244,-0.000035,-0.000028,-0.000007,-0.000024,-0.000039,-58.307688,0.000063,
2326,3133,1.38035007145714,10.6183909357876,0.011936176286099,0.002486,-0.000702,-0.005690,0.133720,-0.071782,312.840398,25.346001,0.999367,0.991841,0.003596,0.332891,-0.000017,0.000001,-0.000011,0.000006,-0.000022,-63.716819,0.000023,
2461,2623,4.41357343402852,-0.465481791412728,-0.0272187083137965,0.002727,-0.000796,-0.002109,0.132661,-0.049826,320.946057,24.106080,0.999467,0.989366,0.004024,0.316617,-0.000008,-0.000019,-0.000012,0.000000,-0.000027,-31.462429,0.000031,
2506,3163,5.28649680443257,11.2848532143984,0.0161216612036128,0.002395,-0.000623,-0.001513,0.115671,-0.041234,312.582998,26.206373,0.999615,0.992827,0.003386,0.370257,-0.000016,0.000027,0.000019,0.000034,-0.000023,69.574887,0.000035,
2071,2203,-4.00671513012176,-9.64962199657008,0.00256389808185986,0.002961,0.000393,-0.005294,0.151143,-0.020349,328.606362,24.491926,0.998481,0.983612,0.005256,0.342671,-0.000024,0.000011,-0.000003,0.000012,-0.000024,-85.041449,0.000024,
2131,2173,-2.69514425160618,-10.3075187553048,0.0011682212950177,0.002579,0.000316,-0.007090,0.139611,-0.037801,328.785684,24.120282,0.999415,0.976865,0.005519,0.382836,-0.000024,-0.000017,-0.000002,-0.000016,-0.000024,-75.592724,0.000041,
2116,2188,-3.02472258985005,-9.97818705541585,0.00229252569323535,0.002446,-0.000412,-0.003392,0.122107,-0.045748,328.599608,24.295781,0.998789,0.983689,0.005159,0.284480,-0.000025,0.000000,0.000002,0.000001,-0.000026,85.165779,0.000029,
2056,2203,-4.33395826497019,-9.64849567987184,-0.0043001627611261,0.002813,0.000050,-0.005578,0.144858,-0.035575,328.623705,24.602343,0.998419,0.982525,0.005436,0.291380,-0.000021,0.000020,0.000001,0.000020,-0.000021,88.346905,0.000024,
2446,2533,4.10622405502295,-2.43066151713213,-0.0130945492467163,0.002863,0.000031,-0.006021,0.153689,-0.032128,322.517459,23.877318,0.999266,0.988755,0.004318,0.258172,0.000003,-0.000055,-0.000015,0.000007,-0.000059,-14.147604,0.000064,
2116,2338,-3.04915731324414,-6.69665167167111,-0.0142590394151512,0.002793,-0.000555,-0.004443,0.141198,-0.070022,326.066728,24.277919,0.999318,0.987160,0.004574,0.335747,-0.000043,-0.000026,-0.000032,-0.000002,-0.000068,-52.424868,0.000080,
2251,2803,-0.19213298831718,3.44732263169063,-0.0298055054929023,0.002725,-0.000464,-0.002044,0.131898,-0.028097,317.967255,24.536115,0.999449,0.990274,0.004068,0.376295,-0.000034,-0.000019,-0.000018,-0.000007,-0.000046,-56.403422,0.000057,
2206,2533,-1.12267031553729,-2.43672981942785,-0.0189510990364852,0.002615,0.000229,-0.008264,0.146368,-0.029172,322.559943,24.217456,0.999536,0.989511,0.004079,0.344281,-0.000041,-0.000014,-0.000012,-0.000009,-0.000045,-68.521041,0.000058,
2086,2233,-3.68468506294625,-8.99185316472745,-0.00654745093282827,0.003497,0.000051,-0.005099,0.175283,-0.007181,327.995209,24.445884,0.998815,0.986685,0.004658,0.330775,-0.000024,0.000011,-0.000001,0.000012,-0.000024,-88.490505,0.000024,
2221,2563,-0.802044482882426,-1.78241835948239,-0.0201111164770396,0.002601,-0.000735,-0.000569,0.121055,-0.042913,322.000512,24.199905,0.999586,0.991658,0.003634,0.361669,-0.000031,-0.000009,-0.000017,0.000000,-0.000041,-61.114596,0.000047,
2146,2263,-2.38315653255715,-8.33635527229445,-0.00608281461870774,0.002909,-0.000579,-0.004039,0.145546,-0.068341,327.223411,24.199968,0.998636,0.983063,0.005380,0.256046,-0.000035,-0.000030,-0.000017,-0.000016,-0.000049,-49.357057,0.000068,
2401,2143,3.20312883327879,-10.9698463088303,0.0199720181819885,0.002572,-0.000004,-0.003240,0.129393,-0.030643,329.015952,22.646355,0.999242,0.979783,0.005360,0.336373,-0.000040,-0.000017,-0.000021,-0.000004,-0.000053,-59.146652,0.000063,
2236,2773,-0.512980673306625,2.79367923401548,-0.0296446515105231,0.002491,-0.000292,-0.004104,0.127714,-0.052766,318.483680,24.491062,0.999385,0.989510,0.003912,0.340736,-0.000041,-0.000021,-0.000020,-0.000009,-0.000053,-58.010589,0.000067,
2386,2053,2.89369762190922,-12.9446246889342,0.0294180111084756,0.002658,-0.000191,-0.004803,0.138699,-0.043621,330.539662,22.553789,0.999258,0.979569,0.005717,0.221260,-0.000042,-0.000018,-0.000002,-0.000018,-0.000042,-86.244858,0.000062,
2371,2023,2.57109411333228,-13.6026157009556,0.0248326079671415,0.002608,-0.000271,-0.004152,0.133896,-0.046417,330.968748,22.548352,0.998766,0.974424,0.006336,0.232612,-0.000033,0.000028,0.000001,0.000028,-0.000033,89.404433,0.000035,
2341,3193,1.69566676736429,11.9211603785796,0.0265638760696447,0.002635,-0.000618,-0.000195,0.121648,-0.051917,311.961647,25.605532,0.999603,0.994323,0.003320,0.296998,-0.000010,-0.000012,-0.000011,0.000000,-0.000022,-42.734647,0.000025,
2416,2413,3.47582980363367,-5.05524939184681,-0.00100986139835868,0.002621,-0.001113,0.000875,0.116479,-0.048356,324.479879,23.481922,0.999633,0.988402,0.004393,0.298129,-0.000021,-0.000008,0.000008,-0.000005,-0.000025,63.946813,0.000032,
2506,3178,5.28429736297383,11.6104235183211,0.0220368635518753,0.002536,-0.000531,-0.004468,0.133594,-0.050515,312.404338,26.304316,0.999600,0.993360,0.003384,0.322872,-0.000016,0.000030,0.000020,0.000038,-0.000023,69.128344,0.000038,
2161,2353,-2.07195177694339,-6.36827093873579,-0.0118451604330971,0.002605,-0.000391,-0.002542,0.127242,-0.030097,325.651059,24.140081,0.999125,0.986767,0.004583,0.361220,-0.000049,-0.000031,-0.000035,-0.000003,-0.000076,-52.360483,0.000090,
2476,2833,4.69823252390477,4.11101793900373,-0.0197839350853997,0.002371,-0.000409,-0.003314,0.121268,-0.036229,317.608897,24.846973,0.999449,0.989035,0.004016,0.371932,-0.000040,0.000010,-0.000006,0.000010,-0.000041,-83.232900,0.000043,
2431,2413,3.80287583748919,-5.0555053362491,-0.00635195696173696,0.002647,-0.000817,-0.001146,0.125215,-0.039112,324.467008,23.336892,0.999594,0.988079,0.004546,0.408089,-0.000019,-0.000007,0.000007,-0.000004,-0.000022,65.648646,0.000028,
2101,2308,-3.36989986626002,-7.35314660872669,-0.00385385784409209,0.003142,-0.000370,-0.005383,0.159876,-0.062541,326.723730,24.351391,0.999014,0.984517,0.005260,0.317539,-0.000039,-0.000022,-0.000019,-0.000010,-0.000052,-56.578380,0.000066,
2266,2908,0.116657005918334,5.73013480077012,-0.011241318688235,0.002837,-0.000512,-0.003415,0.141642,-0.039611,316.395543,24.752120,0.999702,0.993085,0.003370,0.339141,-0.000040,-0.000021,-0.000003,-0.000020,-0.000041,-80.989204,0.000062,
2461,2638,4.41021129572094,-0.138232282437421,-0.0275100687369445,0.002337,-0.000569,-0.003047,0.118426,-0.048833,320.685234,24.159757,0.999632,0.990215,0.003864,0.318925,-0.000011,-0.000010,-0.000020,0.000010,-0.000031,-45.872046,0.000031,
2281,2968,0.431876228962047,7.03490808450226,-0.00917670533743831,0.002697,-0.000585,-0.005225,0.141346,-0.050541,315.411000,24.914065,0.999287,0.990674,0.003896,0.303874,-0.000040,-0.000008,-0.000011,-0.000005,-0.000043,-73.189897,0.000053,
2296,2968,0.757801437044154,7.03586852944301,-0.00715206005139635,0.002663,-0.000471,-0.003753,0.135076,-0.030426,315.403065,24.943706,0.999376,0.991983,0.003583,0.332324,-0.000038,-0.000008,-0.000011,-0.000004,-0.000041,-72.531177,0.000050,
2116,2203,-3.02709149976134,-9.65035753870742,0.00469896454205809,0.002496,-0.000828,-0.000217,0.114944,-0.059735,328.371593,24.294037,0.998102,0.979774,0.005575,0.278234,-0.000024,-0.000003,-0.000001,-0.000003,-0.000025,-86.038244,0.000030,
2326,3148,1.37824396942697,10.9439024186669,0.0172285853782341,0.002843,-0.000494,-0.004947,0.147700,-0.054680,312.652876,25.399550,0.999542,0.993315,0.003443,0.329732,-0.000015,-0.000002,-0.000008,0.000002,-0.000019,-64.948592,0.000021,
2116,2353,-3.05197318539577,-6.36746496981645,-0.0167674920478476,0.002739,-0.000505,-0.001258,0.129355,-0.036570,325.791440,24.355991,0.999290,0.985306,0.004805,0.296625,-0.000046,-0.000026,-0.000031,-0.000004,-0.000068,-53.933788,0.000081,
2191,2533,-1.44990507626795,-2.4371994997569,-0.0197615406879663,0.002388,-0.000333,-0.000400,0.110847,-0.027831,322.561036,24.224374,0.999270,0.989590,0.004222,0.364960,-0.000036,-0.000014,-0.000012,-0.000008,-0.000041,-66.408914,0.000053,
2446,2548,4.10242432203456,-2.10361738492483,-0.0154577968503986,0.002579,-0.000549,-0.002076,0.125757,-0.042859,322.226360,23.875898,0.999556,0.990145,0.004039,0.302134,0.000007,-0.000053,-0.000013,0.000010,-0.000055,-12.059093,0.000059,
2311,2998,1.07920720391305,7.68703526731467,0.00818259814980138,0.002597,-0.000461,-0.002574,0.128125,-0.034617,315.021019,25.006851,0.999900,0.996711,0.002749,0.365854,-0.000038,-0.000006,-0.000010,-0.000003,-0.000041,-73.556425,0.000049,
2071,2218,-4.00915769537735,-9.3207628137307,0.00343341059016211,0.002747,0.000412,-0.005431,0.141713,-0.011625,328.362762,24.549701,0.998121,0.983462,0.005223,0.292895,-0.000029,0.000013,-0.000004,0.000014,-0.000030,-85.024095,0.000030,
2506,3193,5.28124227533327,11.9353261397107,0.0256035957174277,0.002493,-0.000769,-0.001803,0.121165,-0.060897,312.175811,26.331102,0.999580,0.993519,0.003390,0.345558,-0.000012,0.000027,0.000026,0.000040,-0.000025,63.604645,0.000040,
2176,2518,-1.77333313306739,-2.76499268490885,-0.0234591944156932,0.002664,-0.000415,-0.006272,0.141670,-0.056625,322.851551,24.208780,0.998964,0.987502,0.004665,0.364580,-0.000043,-0.000017,-0.000020,-0.000007,-0.000054,-61.652816,0.000066,
2491,2953,5.00074958786803,6.72327455755482,-0.0171096533587729,0.002755,-0.000931,-0.000919,0.129633,-0.057699,315.716867,25.382655,0.999361,0.990349,0.003883,0.300060,-0.000029,-0.000026,0.000001,-0.000026,-0.000030,67.797221,0.000056,
2086,2248,-3.68801640385036,-8.66442062117056,-0.00598902134260015,0.002534,-0.000044,-0.003684,0.126948,-0.007132,327.710874,24.390377,0.998744,0.986387,0.004784,0.387979,-0.000029,0.000018,0.000002,0.000018,-0.000029,87.775893,0.000030,
2251,2818,-0.194047932841649,3.77264890089655,-0.0213185978471415,0.002652,-0.000316,-0.005023,0.138323,-0.034842,317.800900,24.539510,0.999579,0.991532,0.003948,0.389151,-0.000034,-0.000012,-0.000016,-0.000003,-0.000042,-62.479578,0.000051,
2131,2188,-2.69679310426621,-9.97940922974067,0.0125810294938447,0.002603,-0.000022,-0.006853,0.139888,-0.049089,328.639578,24.231345,0.999130,0.984577,0.005014,0.268332,-0.000023,-0.000006,0.000000,-0.000006,-0.000023,88.349243,0.000031,
2401,2158,3.20047583007846,-10.6412925881915,0.0206090074324266,0.002942,-0.000767,-0.001347,0.139226,-0.068505,328.789407,22.703281,0.999271,0.980304,0.005281,0.289769,-0.000042,-0.000037,-0.000023,-0.000016,-0.000063,-47.906215,0.000083,
2386,2068,2.88955102144576,-12.615224651998,0.018788464986244,0.002342,-0.000393,-0.003426,0.119261,-0.045587,330.190319,22.494317,0.999291,0.980070,0.005558,0.325893,-0.000042,-0.000012,-0.000001,-0.000012,-0.000042,-87.289362,0.000056,
2131,2398,-2.73136341032071,-5.38699270583571,0.000437748304307206,0.002600,-0.000327,-0.006249,0.137992,-0.061561,325.154282,24.275157,0.998440,0.986250,0.004864,0.321134,-0.000047,-0.000016,-0.000036,0.000008,-0.000071,-56.820369,0.000078,
2371,2038,2.5675732644805,-13.2731212165029,0.016723791602999,0.002445,-0.000070,-0.005816,0.132433,-0.055377,330.658537,22.520396,0.999138,0.977569,0.005834,0.296716,-0.000036,0.000011,-0.000001,0.000011,-0.000036,-88.680544,0.000037,
2206,2548,-1.12561620606401,-2.10930205311173,-0.0216549110182314,0.002689,-0.000291,-0.004498,0.137691,-0.037462,322.285815,24.242765,0.999568,0.991155,0.003813,0.328493,-0.000039,-0.000011,-0.000009,-0.000009,-0.000041,-73.994707,0.000054,
2146,2278,-2.38573285162954,-8.00909077068979,-0.00603341397948043,0.002850,-0.000546,-0.002652,0.138673,-0.052572,326.975755,24.119487,0.998540,0.982947,0.005393,0.362440,-0.000037,-0.000037,-0.000021,-0.000016,-0.000058,-45.268201,0.000078,
2341,3208,1.69299092431837,12.2453231785767,0.0318405543373501,0.002392,-0.000558,-0.000118,0.110242,-0.041055,311.748991,25.554030,0.999558,0.994428,0.003235,0.394733,-0.000007,-0.000013,-0.000012,0.000002,-0.000023,-38.316671,0.000025,
2236,2788,-0.515089730604156,3.11991672744955,-0.0280277807386824,0.002756,-0.000292,-0.006225,0.146765,-0.058811,318.272332,24.516322,0.999465,0.990554,0.003879,0.330523,-0.000038,-0.000019,-0.000020,-0.000006,-0.000051,-57.535620,0.000063,
2146,2458,-2.41629375121338,-4.07319714373468,-0.0255168360707785,0.002710,0.000267,-0.005929,0.142552,-0.025556,323.912251,24.320048,0.999224,0.988566,0.004554,0.304635,-0.000045,-0.000020,-0.000032,0.000002,-0.000068,-55.773754,0.000077,
2431,2428,3.79952354120769,-4.72616618093453,-0.0110673117151805,0.002379,-0.000778,-0.004658,0.125879,-0.073064,324.184626,23.505700,0.999322,0.987113,0.004750,0.256939,-0.000020,-0.000006,0.000002,-0.000006,-0.000020,83.114770,0.000027,
2101,2323,-3.37180096360185,-7.02534361374769,2.36421832937594E-05,0.003185,0.000126,-0.007916,0.169425,-0.049987,326.523771,24.375423,0.999193,0.987280,0.004701,0.309019,-0.000040,-0.000021,-0.000028,-0.000001,-0.000060,-54.072217,0.000070,
2416,2428,3.47247450524256,-4.72660939019605,-0.01160049812529,0.002575,-0.000842,-0.005231,0.136786,-0.080687,324.168651,23.529074,0.999449,0.987552,0.004554,0.268157,-0.000022,-0.000007,0.000002,-0.000007,-0.000023,82.637473,0.000031,
2296,2983,0.755634845922948,7.36157645534963,-0.000941186712793751,0.002748,-0.000418,-0.004284,0.140823,-0.031713,315.215897,25.000708,0.999252,0.989929,0.003925,0.303277,-0.000039,-0.000003,-0.000010,-0.000001,-0.000041,-75.797558,0.000048,
2266,2923,0.11390973587925,6.05541999040302,-0.00952112576595709,0.002734,-0.000716,-0.002395,0.133442,-0.053782,316.157585,24.735950,0.999721,0.993357,0.003483,0.365891,-0.000041,-0.000019,-0.000007,-0.000017,-0.000043,-74.009534,0.000062,
2461,2653,4.40755555792817,0.18867315987,-0.0235352317881734,0.002511,-0.000704,-0.001467,0.120394,-0.054177,320.476393,24.228557,0.999613,0.990405,0.003836,0.299560,-0.000017,-0.000006,-0.000030,0.000019,-0.000042,-50.457588,0.000042,
2326,3163,1.37563010576718,11.2688320462968,0.023434237024901,0.002777,-0.000899,-0.002172,0.134945,-0.062633,312.446634,25.433170,0.999687,0.994431,0.003241,0.321312,-0.000015,-0.000006,-0.000009,0.000000,-0.000021,-57.502978,0.000024,
2491,2968,4.99829036717671,7.04893110099715,-0.011370876485671,0.002578,-0.000503,-0.004534,0.135579,-0.051197,315.525662,25.423308,0.999323,0.988349,0.004250,0.324075,-0.000024,-0.000022,0.000008,-0.000015,-0.000032,48.585634,0.000047,
2476,2848,4.69451192009402,4.43814292620346,-0.0274379701173189,0.002519,-0.000726,-0.001164,0.119742,-0.050271,317.298172,24.912383,0.999266,0.989008,0.004081,0.348764,-0.000044,0.000021,-0.000009,0.000022,-0.000045,-82.378927,0.000045,
2116,2368,-3.05326602711709,-6.04100609550606,-0.00986010928926362,0.003050,-0.000066,-0.006376,0.158901,-0.028552,325.636952,24.306556,0.999078,0.985434,0.004842,0.358891,-0.000047,-0.000025,-0.000030,-0.000004,-0.000069,-55.029196,0.000082,
2161,2368,-2.07385934620779,-6.04009233411079,-0.0133705992215596,0.002978,0.000036,-0.006937,0.157962,-0.046561,325.426863,24.191034,0.999109,0.989804,0.004158,0.305744,-0.000050,-0.000028,-0.000035,-0.000002,-0.000076,-53.750150,0.000090,
2176,2533,-1.77584956603741,-2.43758595800831,-0.0215195784481352,0.002640,-0.000215,-0.004654,0.135627,-0.042317,322.618748,24.245872,0.998818,0.988664,0.004401,0.355186,-0.000045,-0.000008,-0.000019,-0.000001,-0.000052,-67.068571,0.000061,
2506,3208,5.27752839498173,12.2620585434395,0.0202246078078474,0.002295,-0.000620,-0.002194,0.113731,-0.044511,311.876095,26.451599,0.999252,0.992688,0.003640,0.301119,-0.000006,0.000007,0.000022,0.000023,-0.000023,53.540888,0.000026,
2311,3013,1.07563849863468,8.01414975267301,-0.00512307177746152,0.002716,-0.000677,-0.003748,0.137453,-0.062129,314.673503,25.095332,0.999513,0.991889,0.003582,0.281347,-0.000038,-0.000005,-0.000011,-0.000002,-0.000041,-73.249793,0.000049,
2446,2563,4.09911277610327,-1.77589815401048,-0.0197241487065867,0.002502,-0.000499,-0.003503,0.127577,-0.038341,321.948683,23.909417,0.999568,0.988934,0.004330,0.326245,0.000005,-0.000035,-0.000007,0.000006,-0.000036,-9.927106,0.000038,
2071,2233,-4.01153589111783,-8.99267696171638,0.00152646573064885,0.002912,-0.000349,-0.003287,0.142982,-0.035241,328.107271,24.545589,0.998749,0.986436,0.004749,0.272976,-0.000034,0.000019,0.000000,0.000019,-0.000034,-89.861043,0.000034,
2116,2218,-3.02954210612409,-9.32151380252635,0.00264906854636138,0.002362,-0.000427,-0.003162,0.117597,-0.043475,328.115664,24.313303,0.998249,0.981132,0.005521,0.281086,-0.000029,-0.000009,-0.000008,-0.000006,-0.000032,-71.086925,0.000041,
2086,2263,-3.69038574859022,-8.3371902578038,-0.00111836857553271,0.002243,0.000027,-0.002564,0.110403,-0.025508,327.494008,24.383572,0.998828,0.985905,0.004798,0.377578,-0.000031,0.000009,0.000004,0.000009,-0.000031,84.224126,0.000032,
2191,2548,-1.45234849940984,-2.11065248418461,-0.0153420617200482,0.002236,-0.000507,0.000393,0.101335,-0.039237,322.345853,24.234995,0.999391,0.991057,0.004014,0.358209,-0.000034,-0.000008,-0.000006,-0.000007,-0.000035,-77.648104,0.000045,
2281,2983,0.429039262904446,7.36025656561966,-0.00883052194654965,0.002710,-0.000374,-0.003127,0.135044,-0.033721,315.162888,24.879762,0.999381,0.991145,0.003791,0.382172,-0.000042,-0.000004,-0.000011,-0.000001,-0.000045,-75.571572,0.000052,
2221,2578,-0.804439898596449,-1.45504440119483,-0.0229274137445259,0.002809,-0.000327,-0.003291,0.139506,-0.034825,321.752228,24.213100,0.999289,0.989665,0.003989,0.376264,-0.000033,-0.000004,-0.000020,0.000005,-0.000043,-63.305845,0.000047,
2506,3223,5.2744768798167,12.5872732968496,0.0204996318065014,0.002333,-0.000580,-0.001903,0.114390,-0.040424,311.632681,26.481133,0.999496,0.992278,0.003660,0.335463,-0.000002,-0.000019,0.000018,0.000010,-0.000031,32.444373,0.000031,
2131,2203,-2.7001657569016,-9.65043882897816,0.0015512550277208,0.002613,-0.000680,-0.002913,0.128358,-0.056737,328.295205,24.186559,0.998614,0.980881,0.005407,0.314220,-0.000021,-0.000009,-0.000004,-0.000008,-0.000022,-72.325076,0.000031,
2386,2083,2.88628840975047,-12.2858594205178,0.0220363818148712,0.002036,-0.000706,0.000597,0.090750,-0.033057,329.946886,22.577046,0.999093,0.977848,0.005687,0.302216,-0.000042,-0.000015,-0.000004,-0.000015,-0.000042,-81.668908,0.000059,
2101,2338,-3.37471401298817,-6.69787681421553,-0.00393364383660355,0.003027,-0.000489,-0.005639,0.155320,-0.079081,326.235568,24.337886,0.999279,0.988623,0.004438,0.320809,-0.000042,-0.000024,-0.000032,0.000000,-0.000066,-52.773283,0.000076,
2461,2668,4.40442342828286,0.515251710909894,-0.0277306886768542,0.002578,-0.000562,-0.003509,0.131218,-0.055448,320.208281,24.199395,0.999503,0.988432,0.004116,0.382389,-0.000014,-0.000007,-0.000036,0.000025,-0.000046,-47.643383,0.000046,
2236,2803,-0.518118737459215,3.44658080456671,-0.0307989297377276,0.002697,-0.000151,-0.004324,0.138035,-0.025973,317.996153,24.512608,0.999546,0.990703,0.003895,0.388397,-0.000038,-0.000020,-0.000019,-0.000007,-0.000050,-57.530779,0.000062,
2371,2053,2.56522897480852,-12.9432144833595,0.0214164172995766,0.002761,-0.000168,-0.003822,0.139787,-0.047018,330.462923,22.662110,0.999210,0.980106,0.005490,0.207606,-0.000036,-0.000008,0.000002,-0.000008,-0.000036,84.983735,0.000047,
2146,2293,-2.38830169986368,-7.68068965679149,-0.00341542231166159,0.002396,-0.000164,-0.004929,0.124849,-0.047956,326.741843,24.184857,0.998560,0.984938,0.005078,0.311399,-0.000040,-0.000027,-0.000023,-0.000009,-0.000058,-53.096439,0.000073,
2416,2443,3.46925313842441,-4.39916727088491,-0.00932400493360319,0.002445,-0.000772,-0.001115,0.115826,-0.058468,323.923531,23.538957,0.999442,0.988231,0.004454,0.329577,-0.000016,-0.000032,0.000004,-0.000015,-0.000033,13.307002,0.000048,
2341,3223,1.69001655058476,12.5715285215072,0.0267599599179675,0.002536,-0.000748,-0.001487,0.121600,-0.054349,311.471376,25.658832,0.999459,0.993501,0.003308,0.311924,-0.000007,-0.000009,-0.000013,0.000005,-0.000021,-43.014938,0.000023,
2251,2833,-0.19653493923585,4.09926378646883,-0.0215527947572696,0.002940,-0.000567,-0.003782,0.147436,-0.040994,317.563722,24.598175,0.999462,0.991738,0.003777,0.347567,-0.000034,-0.000015,-0.000011,-0.000010,-0.000038,-65.783491,0.000051,
2131,2413,-2.73494984016474,-5.05728332920594,-0.0152260666128541,0.002669,-0.000509,-0.003179,0.131953,-0.033856,324.774887,24.302078,0.998897,0.987720,0.004667,0.329812,-0.000048,-0.000026,-0.000043,0.000007,-0.000081,-52.210692,0.000090,
2431,2443,3.79664748937742,-4.39855988865406,-0.00984205755941048,0.002804,-0.000906,0.000613,0.125856,-0.063343,323.951650,23.533317,0.999233,0.986450,0.004717,0.290396,-0.000012,-0.000034,0.000005,-0.000011,-0.000035,11.544010,0.000048,
2161,2383,-2.07699409549121,-5.71228930972472,-0.0161816005793867,0.002736,-0.000306,-0.003490,0.136230,-0.038584,325.139715,24.176372,0.998945,0.988722,0.004402,0.340326,-0.000047,-0.000030,-0.000036,-0.000001,-0.000076,-51.570299,0.000088,
2206,2563,-1.12787498772514,-1.7827155373251,-0.0195234844321703,0.002882,-0.000236,-0.004028,0.145091,-0.041360,322.068277,24.234197,0.999596,0.991761,0.003701,0.350679,-0.000037,-0.000012,-0.000015,-0.000004,-0.000044,-64.727260,0.000053,
2401,2173,3.19673952137655,-10.3115875809623,0.0141152046757611,0.002594,-0.000567,-0.001989,0.125687,-0.048005,328.479277,22.736774,0.999188,0.982421,0.005162,0.325359,-0.000042,-0.000032,-0.000019,-0.000017,-0.000057,-52.198778,0.000078,
2146,2473,-2.41829571419002,-3.74757702336382,-0.0163112453389544,0.002566,0.000011,-0.005630,0.134933,-0.040913,323.739753,24.270853,0.999175,0.987363,0.004891,0.347580,-0.000044,-0.000015,-0.000028,0.000002,-0.000061,-58.356881,0.000069,
2446,2578,4.095560884957,-1.44713010690722,-0.031460304818097,0.003212,-0.000717,0.000109,0.146617,-0.031974,321.625294,23.977431,0.999642,0.991836,0.003916,0.317754,0.000005,-0.000022,-0.000003,0.000005,-0.000022,-5.931102,0.000024,
2491,2983,4.99475050868947,7.37567724301544,-0.0127069971724154,0.002289,-0.000679,-0.003778,0.119363,-0.049848,315.252384,25.524561,0.999205,0.988282,0.004208,0.282511,-0.000016,-0.000023,0.000009,-0.000010,-0.000029,34.255165,0.000040,
2476,2863,4.69174561344751,4.76418906051527,-0.0216676704052361,0.002349,-0.000675,-0.000810,0.110644,-0.041575,317.092494,24.960602,0.999120,0.987647,0.004269,0.365512,-0.000044,0.000024,-0.000013,0.000026,-0.000047,-79.426058,0.000047,
2266,2938,0.110589286132335,6.38107254825293,-0.0107554417214146,0.002430,-0.000739,0.000783,0.108905,-0.042907,315.878235,24.711798,0.999531,0.992380,0.003584,0.425991,-0.000041,-0.000007,-0.000009,-0.000005,-0.000043,-76.139157,0.000053,
2116,2233,-3.0312916803878,-8.99253933492994,0.000806777985587814,0.002945,0.000121,-0.005676,0.151956,-0.028571,327.892862,24.353385,0.998373,0.981918,0.005491,0.261792,-0.000032,-0.000007,-0.000007,-0.000005,-0.000034,-75.030528,0.000043,
2071,2248,-4.01424469876672,-8.66524120113831,0.002170320558605,0.002499,-0.000439,-0.002492,0.121701,-0.029422,327.850596,24.484513,0.998875,0.986652,0.004603,0.339051,-0.000040,0.000028,0.000003,0.000028,-0.000040,87.306953,0.000041,
2506,3238,5.27110262291231,12.9127834227078,0.0155873442847678,0.002327,-0.000162,-0.003511,0.120520,-0.021541,311.350915,26.497587,0.999504,0.991982,0.003688,0.397646,-0.000002,-0.000012,0.000020,0.000014,-0.000028,37.911165,0.000028,
2326,3178,1.37272072461357,11.5945705820679,0.0169455856705554,0.002934,-0.000616,-0.005222,0.152815,-0.065814,312.164202,25.464274,0.999694,0.994566,0.003264,0.320355,-0.000011,-0.000010,-0.000011,0.000000,-0.000021,-45.845854,0.000025,
2086,2278,-3.69227106267597,-8.00789704541608,-0.00722513392906876,0.002854,0.000015,-0.006041,0.148465,-0.036358,327.239283,24.450945,0.999221,0.989174,0.004391,0.300675,-0.000033,-0.000003,0.000002,-0.000002,-0.000033,85.470548,0.000040,
2311,3028,1.07371763312596,8.33878204555016,0.00677705152963881,0.002856,-0.000816,-0.001401,0.135850,-0.053671,314.526797,25.092415,0.999609,0.991872,0.003588,0.323854,-0.000034,-0.000003,-0.000007,-0.000001,-0.000036,-77.478797,0.000042,
2281,2998,0.426278514599705,7.68612767364074,-0.000632089172484029,0.002373,-0.000621,0.000908,0.105962,-0.027612,314.957375,24.961555,0.999393,0.990727,0.003789,0.333425,-0.000041,-0.000006,-0.000011,-0.000003,-0.000044,-74.032647,0.000052,
2176,2548,-1.77920077591179,-2.11087896946994,-0.020653235634029,0.002104,-0.001082,0.000633,0.094361,-0.062244,322.342356,24.248140,0.999118,0.988944,0.004261,0.346056,-0.000041,-0.000003,-0.000012,0.000000,-0.000045,-73.718946,0.000051,
2296,2998,0.75271597406709,7.68664178060378,0.00358031667190062,0.002482,-0.000403,-0.001049,0.117639,-0.024462,314.985907,24.981966,0.999423,0.991566,0.003647,0.358611,-0.000037,-0.000004,-0.000010,-0.000002,-0.000039,-74.570700,0.000046,
2386,2098,2.88294051028982,-11.9557852638009,0.013968078372443,0.002219,-0.000580,0.000624,0.099082,-0.039482,329.646039,22.624351,0.998929,0.976170,0.005954,0.295415,-0.000042,-0.000015,-0.000010,-0.000012,-0.000045,-72.375051,0.000061,
2341,3238,1.68667625813474,12.8975248598566,0.0203569492595079,0.002435,-0.000344,-0.002565,0.120902,-0.038013,311.170469,25.711862,0.999433,0.992423,0.003431,0.310503,-0.000006,-0.000020,-0.000014,0.000002,-0.000029,-32.206472,0.000032,
2221,2593,-0.80725926999224,-1.12798713193682,-0.0246599184299612,0.002841,-0.000659,-0.001448,0.134956,-0.034501,321.490131,24.219598,0.999158,0.987756,0.004361,0.389894,-0.000034,-0.000001,-0.000019,0.000008,-0.000042,-65.601904,0.000045,
2191,2563,-1.45426817057781,-1.78424669533756,-0.0137657585556781,0.002427,-0.000273,-0.004283,0.124862,-0.041171,322.139901,24.202252,0.999381,0.990520,0.003965,0.404248,-0.000031,-0.000007,-0.000011,-0.000003,-0.000036,-68.549266,0.000043,
2401,2188,3.19401286352905,-9.98220360622852,0.0141258689646406,0.002482,-0.000018,-0.005856,0.134788,-0.041147,328.245974,22.829230,0.999163,0.984398,0.005050,0.288011,-0.000042,-0.000022,-0.000019,-0.000011,-0.000054,-58.600154,0.000069,
2101,2353,-3.378358223715,-6.36833045285607,-0.0165279811063783,0.002600,-0.000323,-0.004886,0.133591,-0.048005,325.866648,24.351793,0.999017,0.984805,0.004946,0.341742,-0.000045,-0.000024,-0.000029,-0.000003,-0.000065,-55.131802,0.000077,
2116,2383,-3.05616245843005,-5.71368824849216,-0.013977868235429,0.002732,0.000008,-0.007510,0.147681,-0.054680,325.350003,24.267806,0.999107,0.985544,0.004807,0.376697,-0.000046,-0.000029,-0.000030,-0.000006,-0.000069,-52.490996,0.000083,
2506,3253,5.2678104752415,13.23847682629,0.0127114929078971,0.002462,-0.000494,-0.002408,0.122331,-0.037655,311.081909,26.581779,0.999701,0.993691,0.003332,0.356962,0.000001,-0.000009,0.000027,0.000023,-0.000031,39.623699,0.000032,
2146,2308,-2.39010133199039,-7.3532546344047,8.97170932034896E-05,0.002748,-0.000028,-0.005719,0.143418,-0.054934,326.548039,24.187007,0.998918,0.984535,0.005051,0.312278,-0.000043,-0.000030,-0.000028,-0.000007,-0.000066,-51.535119,0.000080,
2236,2818,-0.520297466529364,3.7721464927024,-0.0231470451985274,0.002548,-0.000066,-0.005263,0.134240,-0.028869,317.812516,24.527668,0.999551,0.991540,0.003790,0.391119,-0.000037,-0.000010,-0.000016,-0.000002,-0.000044,-65.352045,0.000052,
2371,2068,2.56158222947213,-12.6147198784198,0.0185715452242334,0.002209,-0.000212,-0.003546,0.113583,-0.047809,330.171917,22.605613,0.999422,0.982047,0.005064,0.307963,-0.000036,-0.000005,0.000002,-0.000005,-0.000036,86.947189,0.000044,
2461,2683,4.40094995744353,0.843607223254111,-0.034579161664908,0.002494,-0.000198,-0.006017,0.136972,-0.048430,319.911874,24.308548,0.999508,0.989339,0.004070,0.335389,-0.000014,0.000007,-0.000029,0.000027,-0.000034,-55.195823,0.000036,
2416,2458,3.46619976685363,-4.07041765989232,-0.0183411415785599,0.002821,-0.000329,-0.004150,0.144347,-0.045974,323.633159,23.577909,0.999390,0.987444,0.004572,0.352683,-0.000016,-0.000033,0.000003,-0.000015,-0.000034,8.565132,0.000050,
2251,2848,-0.199522333227556,4.42548097933013,-0.0226196015341884,0.002784,-0.000650,-0.002572,0.136247,-0.041019,317.299414,24.612432,0.999409,0.992448,0.003693,0.356299,-0.000034,-0.000014,-0.000007,-0.000011,-0.000036,-72.774155,0.000050,
2431,2458,3.79380766467171,-4.07078406645602,-0.0140822189674168,0.002992,-0.000489,-0.002935,0.147745,-0.057356,323.694933,23.534118,0.999442,0.987249,0.004570,0.347106,-0.000012,-0.000036,0.000004,-0.000012,-0.000036,8.462296,0.000050,
2131,2428,-2.73784334828119,-4.72832648253496,-0.0244438543894034,0.002874,-0.000168,-0.002106,0.138318,-0.019926,324.461708,24.341702,0.999236,0.988684,0.004424,0.311714,-0.000049,-0.000042,-0.000037,-0.000008,-0.000083,-47.739673,0.000101,
2161,2398,-2.07815634264082,-5.38604869991196,-0.0100473773104,0.003322,-0.000015,-0.008091,0.177307,-0.044272,324.990230,24.123021,0.998914,0.987719,0.004538,0.399223,-0.000049,-0.000014,-0.000039,0.000011,-0.000074,-57.111755,0.000080,
2476,2878,4.6878112042005,5.09199569255531,-0.0313584727180114,0.002190,-0.000415,-0.001820,0.107263,-0.048013,316.762296,25.076142,0.998605,0.987758,0.004565,0.300080,-0.000041,0.000022,-0.000009,0.000023,-0.000042,-82.285190,0.000042,
2071,2263,-4.01632125024739,-8.33649425767804,-0.00113986467766836,0.002844,0.000022,-0.003731,0.141230,-0.026708,327.600983,24.510891,0.999136,0.988061,0.004552,0.314593,-0.000045,0.000017,0.000005,0.000018,-0.000045,85.571265,0.000046,
2146,2488,-2.42115049689936,-3.41984924414214,-0.0215325039340541,0.002656,-0.000156,-0.003478,0.132538,-0.027513,323.451254,24.257660,0.999103,0.986976,0.004783,0.383229,-0.000046,-0.000010,-0.000030,0.000007,-0.000063,-60.442111,0.000070,
2206,2578,-1.13055180378443,-1.4558880142832,-0.0189164319628503,0.002869,-0.000412,-0.002076,0.138273,-0.031628,321.823599,24.225324,0.999330,0.990268,0.003957,0.386828,-0.000039,-0.000008,-0.000016,-0.000001,-0.000046,-67.447597,0.000053,
2446,2593,4.09213763499691,-1.120562827322,-0.0320398025085638,0.002558,-0.000384,-0.003221,0.129167,-0.037416,321.359524,23.958429,0.999692,0.993164,0.003696,0.384463,0.000004,-0.000027,-0.000003,0.000004,-0.000027,-4.600777,0.000029,
2131,2218,-2.70283716073157,-9.32180912859845,0.0030278262416914,0.002328,-0.000442,-0.001663,0.111676,-0.038475,328.049298,24.221491,0.998415,0.979776,0.005537,0.305829,-0.000025,-0.000016,-0.000012,-0.000008,-0.000034,-54.969348,0.000044,
2161,2533,-2.10254100172088,-2.43684747743973,-0.0310377020484793,0.002854,-0.000154,-0.005591,0.148207,-0.047508,322.603472,24.291779,0.998984,0.988327,0.004411,0.330292,-0.000041,-0.000005,-0.000019,0.000004,-0.000049,-66.406804,0.000055,
2266,2953,0.108724071910697,6.70774592299816,-0.00941807652662874,0.002817,-0.000451,-0.004098,0.143014,-0.041608,315.678371,24.813234,0.999208,0.988949,0.004171,0.350924,-0.000041,-0.000010,-0.000010,-0.000007,-0.000044,-73.525313,0.000055,
2116,2248,-3.0340683730628,-8.66522312066789,0.00132729089989425,0.002695,-0.000329,-0.002757,0.131734,-0.049182,327.636245,24.307407,0.998605,0.983870,0.005250,0.293187,-0.000034,-0.000005,-0.000006,-0.000004,-0.000035,-78.563748,0.000043,
2281,3013,0.423257591699496,8.01196968533337,-0.00417495525050526,0.002284,-0.000683,0.000160,0.104352,-0.033210,314.681154,24.976583,0.999279,0.990265,0.003867,0.339681,-0.000039,-0.000009,-0.000013,-0.000004,-0.000044,-69.148358,0.000054,
2506,3268,5.26406472663298,13.5646660105794,0.00643332293645926,0.002424,-0.000818,-0.001424,0.116631,-0.046872,310.776434,26.690320,0.999836,0.996143,0.002711,0.298814,0.000013,-0.000035,0.000033,0.000030,-0.000051,26.968246,0.000051,
2176,2563,-1.78152858512888,-1.78294750999317,-0.0259121813689376,0.002333,-0.000600,-0.004058,0.119574,-0.063621,322.080457,24.294648,0.999128,0.987766,0.004366,0.311433,-0.000037,-0.000004,-0.000016,0.000002,-0.000043,-67.949490,0.000049,
2326,3193,1.37038864253466,11.9186123415924,0.0261621140474517,0.002660,-0.000785,-0.005918,0.142510,-0.076806,311.985925,25.443510,0.999725,0.995364,0.003017,0.363008,-0.000010,-0.000015,-0.000009,-0.000003,-0.000022,-36.389214,0.000027,
2086,2293,-3.69518580380085,-7.67990559187776,-0.0121022972633682,0.002475,-0.000051,-0.007548,0.135381,-0.066120,326.944528,24.436867,0.999630,0.992219,0.003943,0.286553,-0.000036,-0.000001,-0.000004,-0.000001,-0.000037,-84.215997,0.000043,
2386,2113,2.88004538306057,-11.6265883171676,0.0143186375993878,0.002109,-0.000519,-0.000384,0.097719,-0.041726,329.405709,22.685614,0.998685,0.972144,0.006261,0.278362,-0.000043,-0.000007,-0.000012,-0.000003,-0.000047,-72.695252,0.000056,
2311,3043,1.07115632250602,8.66449496644318,0.00912918946175978,0.002783,-0.000705,-0.002919,0.137730,-0.056367,314.303171,25.139912,0.999606,0.992304,0.003518,0.305154,-0.000034,0.000002,-0.000004,0.000003,-0.000034,-84.129745,0.000038,
2296,3013,0.749508829444295,8.01280234006136,-0.00312981407699908,0.002400,-0.000514,-0.002735,0.119495,-0.037170,314.686510,25.012132,0.999148,0.988896,0.004125,0.344920,-0.000036,-0.000007,-0.000011,-0.000003,-0.000040,-71.473148,0.000047,
2101,2368,-3.37952332069334,-6.04210904214342,-0.0067804029869194,0.003100,-0.000274,-0.005929,0.159621,-0.037515,325.732368,24.305400,0.998860,0.983740,0.005187,0.401093,-0.000046,-0.000023,-0.000029,-0.000003,-0.000065,-55.647426,0.000077,
2341,3253,1.68281558338883,13.2224206994802,0.0100465980269178,0.002335,-0.001069,-0.000724,0.109524,-0.072145,310.826873,25.696630,0.999520,0.993125,0.003285,0.326511,-0.000005,-0.000028,-0.000012,0.000000,-0.000033,-23.026645,0.000039,
2401,2203,3.19111755051685,-9.65428862061696,0.0137625056274828,0.002539,-0.000160,-0.005744,0.136928,-0.053499,328.003374,22.808089,0.999131,0.983063,0.005224,0.344908,-0.000046,-0.000025,-0.000016,-0.000016,-0.000055,-61.830843,0.000074,
2461,2698,4.39850189070692,1.17066179760521,-0.0264181573571705,0.002599,-0.000087,-0.003614,0.132820,-0.021006,319.731380,24.406039,0.999617,0.989668,0.004161,0.320140,-0.000018,0.000017,-0.000029,0.000033,-0.000035,-60.364378,0.000040,
2506,3283,5.26078520486661,13.8894087310217,0.00312406884842176,0.002572,-0.000972,-0.000696,0.120557,-0.055919,310.506175,26.685771,0.999834,0.996388,0.002596,0.353774,0.000025,-0.000074,0.000030,0.000033,-0.000082,15.782410,0.000083,
2116,2398,-3.05840779935232,-5.3859635908163,-0.0166491203130477,0.002850,-0.000060,-0.010635,0.162328,-0.063246,325.100419,24.268017,0.998978,0.986562,0.004673,0.373163,-0.000049,-0.000015,-0.000032,0.000004,-0.000069,-58.791285,0.000077,
2236,2833,-0.522979955458215,4.09877106175794,-0.0220459224753426,0.002586,-0.000594,-0.003102,0.128826,-0.039998,317.572040,24.602176,0.999548,0.992076,0.003573,0.326564,-0.000035,-0.000012,-0.000010,-0.000009,-0.000039,-69.410723,0.000050,
2476,2893,4.68547518079314,5.41815328945995,-0.0271324653534748,0.002660,-0.000657,-0.000522,0.123821,-0.045065,316.569230,25.137163,0.998411,0.987913,0.004602,0.298186,-0.000034,0.000013,-0.000008,0.000014,-0.000036,-80.509798,0.000036,
2371,2083,2.55844800492883,-12.284883524036,0.0179984388616958,0.002235,-0.000356,-0.000362,0.103406,-0.021463,329.914865,22.675193,0.999271,0.980770,0.005318,0.309100,-0.000037,-0.000010,-0.000001,-0.000009,-0.000037,-87.050218,0.000049,
2431,2473,3.79074605180829,-3.74320905028906,-0.00812234395027644,0.002481,-0.000422,-0.002233,0.121760,-0.042945,323.475227,23.607801,0.999379,0.986702,0.004555,0.339072,-0.000015,-0.000041,-0.000006,-0.000013,-0.000042,-12.174560,0.000058,
2146,2503,-2.4239759354618,-3.09245897976709,-0.0281104360870472,0.002666,-0.000608,-0.004372,0.135519,-0.064627,323.157152,24.257171,0.998871,0.985635,0.004937,0.356022,-0.000038,-0.000014,-0.000027,0.000004,-0.000056,-57.192845,0.000063,
2191,2578,-1.45682428509296,-1.45754154231372,-0.0172940863779445,0.002728,-0.000692,-0.003241,0.135285,-0.055345,321.878229,24.169190,0.999411,0.991497,0.003780,0.438736,-0.000034,-0.000004,-0.000011,0.000000,-0.000038,-71.900937,0.000044,
2146,2323,-2.39286316143267,-7.02534890867149,-0.000619687382766188,0.002640,-0.000541,-0.003235,0.130780,-0.065203,326.287862,24.198464,0.999297,0.984543,0.004976,0.300486,-0.000042,-0.000026,-0.000033,0.000000,-0.000068,-51.560211,0.000079,
2071,2278,-4.0184809646992,-8.00739877647746,-0.0018508832271209,0.003055,0.000130,-0.003294,0.149757,-0.018704,327.361661,24.595754,0.999845,0.994756,0.003634,0.236588,-0.000050,0.000003,0.000004,0.000003,-0.000050,85.914344,0.000056,
2251,2863,-0.202484574365915,4.75131785761147,-0.0209689218021367,0.002477,-0.000822,-0.001095,0.117213,-0.051992,317.050125,24.627263,0.999495,0.992489,0.003593,0.353618,-0.000035,-0.000015,-0.000011,-0.000010,-0.000040,-66.490031,0.000053,
2446,2608,4.08974395624158,-0.793824539262673,-0.0204143018575564,0.002322,-0.000725,-0.001945,0.113462,-0.038265,321.197147,24.060152,0.999427,0.989470,0.004123,0.334366,-0.000001,-0.000019,-0.000007,0.000001,-0.000021,-18.938425,0.000024,
2131,2443,-2.73984056901924,-4.40266966706744,-0.0212663072019836,0.002820,0.000195,-0.006104,0.147878,-0.031576,324.256401,24.226954,0.999258,0.989059,0.004440,0.421835,-0.000052,-0.000037,-0.000038,-0.000005,-0.000083,-50.577996,0.000099,
2326,3208,1.36776248510611,12.2441183978914,0.0330895774692976,0.002602,-0.000408,-0.002172,0.127112,-0.041336,311.782329,25.500711,0.999595,0.994401,0.003155,0.374515,-0.000008,-0.000017,-0.000010,-0.000002,-0.000023,-33.053163,0.000027,
2086,2308,-3.6973679520187,-7.35226644840301,-0.0123023280934262,0.002843,-0.000411,-0.004165,0.142464,-0.065258,326.708562,24.412419,0.999419,0.989607,0.004398,0.313119,-0.000043,-0.000019,-0.000014,-0.000013,-0.000050,-65.104727,0.000066,
2416,2473,3.46343937263108,-3.74403006627889,-0.00809539162787587,0.002162,-0.000091,-0.004371,0.115021,-0.035902,323.446496,23.586752,0.999272,0.986645,0.004632,0.402701,-0.000016,-0.000039,-0.000005,-0.000015,-0.000040,-12.076772,0.000057,
2161,2413,-2.08183440733901,-5.05772528056882,-0.0118116361161356,0.002570,-0.000782,-0.003251,0.127727,-0.041735,324.683602,24.181537,0.998834,0.987070,0.004737,0.355089,-0.000047,-0.000021,-0.000045,0.000013,-0.000081,-52.964620,0.000087,
2341,3268,1.67927179389625,13.5486080128711,-0.000808617577604309,0.002567,-0.000768,0.000763,0.115268,-0.034871,310.494676,25.731435,0.999568,0.993663,0.003146,0.364438,-0.000006,-0.000030,-0.000015,0.000001,-0.000037,-26.056238,0.000042,
2176,2578,-1.78388589074032,-1.45665379637264,-0.0251392112483018,0.002518,-0.000667,-0.002865,0.124353,-0.064359,321.849120,24.248615,0.999192,0.989111,0.004152,0.369935,-0.000040,-0.000002,-0.000015,0.000003,-0.000045,-70.258782,0.000050,
2506,3298,5.25802908123536,14.2147650548614,0.00528069480350268,0.002558,-0.000624,-0.002615,0.127493,-0.045384,310.284320,26.751789,0.999736,0.994462,0.003062,0.357928,0.000036,-0.000072,0.000022,0.000040,-0.000077,11.147670,0.000077,
2206,2593,-1.13327723325125,-1.12919574849208,-0.0122641483524717,0.002645,-0.001177,0.003516,0.110059,-0.026500,321.607909,24.265656,0.999025,0.988147,0.004359,0.369024,-0.000041,-0.000004,-0.000015,0.000001,-0.000046,-70.603724,0.000053,
2281,3028,0.421416112845417,8.33745306756578,-0.00139125055619616,0.002600,-0.000449,-0.004847,0.135764,-0.037158,314.490883,25.003350,0.999199,0.989742,0.003896,0.336145,-0.000037,-0.000007,-0.000011,-0.000003,-0.000041,-71.802994,0.000049,
2221,2608,-0.810047965636219,-0.800938869149341,-0.0270743430136804,0.002849,-0.000623,-0.001038,0.134038,-0.046949,321.225957,24.237086,0.998918,0.985004,0.004757,0.379697,-0.000031,0.000002,-0.000015,0.000008,-0.000037,-69.180621,0.000039,
2296,3028,0.747556479416144,8.33833248811515,0.00119475659647605,0.002775,-0.000431,-0.004158,0.141643,-0.030001,314.499765,25.042521,0.999350,0.990231,0.003857,0.350817,-0.000033,-0.000005,-0.000008,-0.000003,-0.000035,-75.352184,0.000042,
2116,2263,-3.03671221981532,-8.33706745727056,-0.0041897758678715,0.002790,-0.000654,-0.002674,0.135789,-0.077650,327.353248,24.289464,0.998756,0.984072,0.005216,0.288559,-0.000035,-0.000014,-0.000006,-0.000013,-0.000037,-75.895188,0.000051,
2461,2713,4.39536365633548,1.49706575793845,-0.0246296597156856,0.002722,-0.000586,0.001038,0.120747,-0.027546,319.490155,24.429521,0.999648,0.991455,0.003804,0.344442,-0.000023,0.000020,-0.000030,0.000035,-0.000038,-62.737658,0.000042,
2386,2128,2.8773521899478,-11.2973452356464,0.0106567112433709,0.002450,-0.000283,-0.002225,0.119975,-0.044037,329.155595,22.713033,0.999105,0.977735,0.005640,0.294894,-0.000039,-0.000009,-0.000016,-0.000002,-0.000046,-66.433119,0.000054,
2311,3058,1.06810923087485,8.98954778731937,0.0114876160221797,0.002431,-0.000793,-0.001649,0.117178,-0.052236,314.057395,25.123630,0.999735,0.993822,0.003204,0.356641,-0.000034,-0.000004,-0.000003,-0.000003,-0.000034,-83.701654,0.000041,
2266,2968,0.105782517173438,7.03374194917287,-0.00978465716247001,0.002601,-0.000517,-0.004117,0.133212,-0.027662,315.420622,24.832120,0.999407,0.991729,0.003738,0.371001,-0.000045,-0.000011,-0.000011,-0.000008,-0.000049,-73.208734,0.000061,
2101,2383,-3.38253754679559,-5.71323319717824,-0.0135465679717299,0.002971,-0.000394,-0.004586,0.149767,-0.066348,325.424054,24.385754,0.998908,0.984343,0.004964,0.295180,-0.000043,-0.000026,-0.000029,-0.000005,-0.000065,-53.142800,0.000078,
2401,2218,3.18779937524615,-9.3241768864184,0.0146726645660351,0.002332,-0.000433,-0.002612,0.116044,-0.035227,327.746915,22.975726,0.999255,0.983641,0.005298,0.243644,-0.000044,-0.000023,-0.000013,-0.000018,-0.000050,-64.687151,0.000070,
2236,2848,-0.526347914315533,4.42489311959068,-0.0293055685355625,0.002410,-0.000954,-0.002610,0.118973,-0.058620,317.257571,24.579773,0.999379,0.991979,0.003651,0.351358,-0.000034,-0.000012,-0.000008,-0.000009,-0.000036,-72.839171,0.000048,
2431,2488,3.78748884416635,-3.41555772323211,-0.0135753285908891,0.002647,-0.000712,-0.002146,0.128918,-0.084068,323.193762,23.643507,0.999255,0.984497,0.004694,0.313388,-0.000006,-0.000056,-0.000015,-0.000002,-0.000061,-15.305311,0.000071,
2371,2098,2.55537189535226,-11.9552576101974,0.0146237366408855,0.002430,-0.000511,0.001489,0.105759,-0.026220,329.647262,22.731461,0.999150,0.979995,0.005511,0.292435,-0.000038,-0.000011,-0.000008,-0.000009,-0.000040,-75.022964,0.000052,
2131,2233,-2.70442795026714,-8.99297668266869,0.00369091783528575,0.002814,0.000170,-0.006015,0.147175,-0.028646,327.848459,24.279756,0.998609,0.981654,0.005367,0.265221,-0.000029,-0.000015,-0.000014,-0.000007,-0.000038,-57.999091,0.000048,
2341,3283,1.67594742174089,13.8737950496972,-0.00878139433575598,0.002595,-0.000912,-0.000415,0.120632,-0.045322,310.186919,25.742460,0.999623,0.994196,0.003051,0.377908,-0.000008,-0.000039,-0.000019,0.000001,-0.000048,-25.694624,0.000055,
2161,2548,-2.1053870692491,-2.11072671817382,-0.0256637852822905,0.002398,-0.000553,-0.001635,0.115019,-0.040360,322.372831,24.253657,0.999136,0.988287,0.004261,0.386493,-0.000036,-0.000003,-0.000014,0.000002,-0.000041,-70.109145,0.000046,
2416,2488,3.46025452187677,-3.41594031666366,-0.0171751696797742,0.002660,-0.000642,-0.004324,0.137484,-0.073560,323.149933,23.625776,0.999349,0.987893,0.004378,0.375208,-0.000005,-0.000054,-0.000011,-0.000003,-0.000057,-12.509391,0.000067,
2476,2908,4.68307998302375,5.7436069732201,-0.0217295519396998,0.002773,-0.000944,-0.001577,0.132908,-0.064287,316.378927,25.167711,0.998577,0.985831,0.004818,0.304550,-0.000037,0.000002,-0.000001,0.000002,-0.000037,-88.335154,0.000041,
2131,2458,-2.74239429432154,-4.07266491099232,-0.0262719806651148,0.003021,0.000430,-0.006272,0.157747,0.000172,323.980868,24.395332,0.999244,0.990003,0.004380,0.292151,-0.000048,-0.000024,-0.000035,0.000000,-0.000073,-54.434467,0.000084,
2461,2728,4.39253266780689,1.82383923461869,-0.0189241879213,0.002608,-0.000842,0.002977,0.108081,-0.046497,319.280850,24.535119,0.999638,0.992763,0.003480,0.274507,-0.000029,0.000015,-0.000022,0.000024,-0.000038,-67.397886,0.000039,
2146,2518,-2.4266529255765,-2.76434845824762,-0.034360122433668,0.002927,-0.000572,-0.003420,0.144677,-0.055184,322.871228,24.284912,0.998986,0.987348,0.004617,0.346663,-0.000034,-0.000008,-0.000024,0.000006,-0.000048,-59.685074,0.000053,
2326,3223,1.36452559731117,12.5693951484861,0.0299858420984265,0.002410,-0.000678,-0.002173,0.118171,-0.047705,311.501442,25.523987,0.999394,0.993857,0.003202,0.377727,-0.000009,-0.000011,-0.000010,0.000001,-0.000020,-41.888913,0.000023,
2116,2413,-3.06085914834419,-5.05775391424564,-0.0108526541804395,0.002805,-0.000400,-0.004738,0.142735,-0.039852,324.886554,24.366501,0.999306,0.988454,0.004434,0.302891,-0.000051,-0.000028,-0.000040,0.000002,-0.000082,-53.105019,0.000093,
2191,2593,-1.4596348277279,-1.12893583179855,-0.0242512078718846,0.002818,-0.000397,-0.005114,0.145398,-0.048059,321.586527,24.264483,0.999059,0.988704,0.004262,0.365967,-0.000038,-0.000001,-0.000010,0.000001,-0.000040,-75.894318,0.000046,
2146,2338,-2.39578052951391,-6.69701171017084,-0.00473630613782916,0.002465,-0.000478,-0.002811,0.121536,-0.033111,326.002275,24.178813,0.999361,0.986719,0.004576,0.362221,-0.000043,-0.000027,-0.000034,0.000000,-0.000071,-51.580562,0.000082,
2176,2593,-1.78600610436579,-1.12927750931181,-0.0239099327791905,0.002801,-0.000556,-0.003372,0.138983,-0.063157,321.630749,24.308373,0.999107,0.989257,0.004177,0.324362,-0.000044,-0.000002,-0.000013,0.000002,-0.000048,-73.730437,0.000054,
2116,2278,-3.03811573845657,-8.00876123290183,-0.000223540210015472,0.003342,-0.000265,-0.005283,0.168963,-0.055098,327.177458,24.336049,0.998739,0.984396,0.005144,0.270018,-0.000037,-0.000023,-0.000009,-0.000018,-0.000042,-63.698894,0.000061,
2446,2623,4.08692553271993,-0.466982656350602,-0.0124522946987327,0.002204,-0.000718,0.002356,0.092026,-0.019604,320.998244,24.123757,0.999578,0.989826,0.003918,0.342102,-0.000003,-0.000014,-0.000014,0.000007,-0.000024,-33.958001,0.000025,
2176,2608,-1.78930222941038,-0.801370589042207,-0.0283603826513286,0.002367,-0.000284,-0.002817,0.117453,-0.027051,321.328533,24.337926,0.999171,0.989073,0.004216,0.343934,-0.000043,-0.000002,-0.000011,0.000001,-0.000046,-75.564780,0.000052,
2161,2428,-2.08407373445321,-4.72959363451471,-0.0132152430140877,0.002857,-0.000465,-0.003947,0.143145,-0.042546,324.444760,24.234202,0.999111,0.987348,0.004587,0.313217,-0.000046,-0.000035,-0.000039,-0.000001,-0.000080,-49.076875,0.000093,
2101,2398,-3.38485141677045,-5.38643612154297,-0.00913508695867904,0.002703,-0.000198,-0.005074,0.138949,-0.061327,325.208377,24.355040,0.999060,0.985998,0.004587,0.333577,-0.000047,-0.000015,-0.000030,0.000004,-0.000065,-59.001192,0.000073,
2296,3043,0.745375607883172,8.66364711580735,0.00920743623748876,0.002843,-0.000597,-0.002966,0.140721,-0.029148,314.320883,25.087089,0.999443,0.990414,0.003817,0.336296,-0.000032,0.000002,-0.000005,0.000003,-0.000033,-81.528659,0.000037,
2191,2683,-1.47447657930107,0.831785166905689,-0.0192976510173253,0.002977,-0.000179,-0.004487,0.150915,-0.032694,320.173902,24.367302,0.999615,0.993731,0.003388,0.368742,-0.000042,-0.000005,-0.000013,-0.000001,-0.000046,-72.148451,0.000053,
2086,2323,-3.69968471343404,-7.02470336438471,-0.0119736460468971,0.002869,-0.000353,-0.003547,0.141924,-0.042304,326.469243,24.369402,0.999225,0.988259,0.004569,0.379927,-0.000043,-0.000022,-0.000022,-0.000008,-0.000057,-57.943262,0.000071,
2281,3043,0.418938391995692,8.66324325811422,0.00176708429415839,0.002670,-0.000459,-0.004183,0.136748,-0.036194,314.273100,25.059708,0.999404,0.991657,0.003661,0.307470,-0.000036,0.000000,-0.000008,0.000002,-0.000038,-77.332104,0.000042,
2386,2143,2.87420007618761,-10.9683512813747,0.00987901957455506,0.002387,-0.000572,-0.000506,0.110845,-0.040156,328.898023,22.748525,0.999083,0.975213,0.005791,0.309359,-0.000036,-0.000013,-0.000020,-0.000002,-0.000048,-60.226353,0.000056,
2266,2983,0.103124448062808,7.3593084935369,-0.00827463865761047,0.002631,-0.000757,-0.002791,0.130062,-0.044030,315.185489,24.858739,0.999593,0.993249,0.003552,0.352694,-0.000049,-0.000006,-0.000011,-0.000003,-0.000052,-75.950518,0.000062,
2341,3298,1.67301264127629,14.1990870333282,-0.0107939146712965,0.002614,-0.000874,-0.000874,0.123150,-0.044604,309.926072,25.788811,0.999693,0.993654,0.003172,0.367651,-0.000017,-0.000035,-0.000027,0.000002,-0.000055,-35.828499,0.000062,
2251,2878,-0.204476530175437,5.07798778026173,-0.0224763676156954,0.003003,-0.000459,-0.004733,0.153458,-0.057919,316.829116,24.694392,0.999597,0.991388,0.003655,0.303603,-0.000037,-0.000014,-0.000009,-0.000012,-0.000040,-71.577579,0.000054,
2131,2248,-2.70758849628923,-8.66482370623901,-0.00450193881567884,0.002560,-0.000078,-0.006506,0.136906,-0.049056,327.529025,24.220760,0.998834,0.983183,0.005216,0.312087,-0.000028,-0.000017,-0.000012,-0.000009,-0.000036,-57.132766,0.000047,
2416,2503,3.45675951069837,-3.08706197772575,-0.0222730586155535,0.002836,-0.000648,-0.000483,0.131526,-0.053548,322.857299,23.721881,0.999563,0.991097,0.003894,0.348287,-0.000006,-0.000061,-0.000014,-0.000003,-0.000064,-13.400556,0.000075,
2461,2743,4.38850023197431,2.15050279179408,-0.029981945992688,0.002369,-0.001214,0.001247,0.103470,-0.068945,318.939559,24.504341,0.999641,0.992119,0.003590,0.337690,-0.000031,0.000023,-0.000023,0.000032,-0.000039,-69.854252,0.000042,
2236,2863,-0.528662037760881,4.75117221309391,-0.022099879820928,0.002272,-0.000519,-0.001996,0.110812,-0.034990,317.065123,24.642010,0.999270,0.991587,0.003671,0.333492,-0.000034,-0.000011,-0.000011,-0.000007,-0.000038,-67.516830,0.000048,
2221,2623,-0.813039162817645,-0.473789538445757,-0.0279455879311854,0.002541,-0.000795,-0.000776,0.118957,-0.054096,320.960336,24.276770,0.999013,0.986453,0.004685,0.352506,-0.000034,-0.000001,-0.000015,0.000005,-0.000040,-69.099312,0.000043,
2431,2503,3.78462826617684,-3.0890348703489,-0.00386638114099469,0.002318,-0.000987,0.002134,0.097959,-0.063364,323.000686,23.657372,0.999360,0.987904,0.004315,0.371109,-0.000006,-0.000064,-0.000017,-0.000001,-0.000069,-15.109084,0.000080,
2401,2233,3.18479321681928,-8.99559535867284,0.0105142714712656,0.002507,-0.000456,-0.003466,0.127137,-0.046181,327.481202,22.985403,0.999301,0.984409,0.005173,0.270921,-0.000038,-0.000013,-0.000014,-0.000007,-0.000044,-66.329192,0.000056,
2326,3238,1.36107806294475,12.8961167837392,0.0210210854971251,0.002497,-0.000423,-0.001568,0.120249,-0.028229,311.181516,25.625864,0.999433,0.993212,0.003297,0.328420,-0.000008,-0.000021,-0.000011,-0.000002,-0.000027,-30.723534,0.000033,
2371,2113,2.55239183659281,-11.6261299404168,0.0126987269738947,0.002213,-0.000315,-0.001707,0.107198,-0.031338,329.390945,22.764293,0.999174,0.979395,0.005488,0.298860,-0.000040,-0.000002,-0.000011,0.000001,-0.000042,-75.238667,0.000048,
2311,3073,1.06584440779461,9.31596717497493,0.0144065907946356,0.002531,-0.000366,-0.004296,0.131034,-0.039460,313.849882,25.231779,0.999683,0.994875,0.003072,0.292572,-0.000032,0.000001,-0.000005,0.000002,-0.000032,-82.009481,0.000036,
2206,2608,-1.13643903236634,-0.801645276644436,-0.0201472054762348,0.002472,-0.000876,0.001623,0.108174,-0.037977,321.297038,24.280160,0.998946,0.986373,0.004641,0.360537,-0.000038,-0.000003,-0.000011,0.000001,-0.000041,-73.634188,0.000047,
2101,2413,-3.38733272105106,-5.05886127673153,-0.00741735467761373,0.002673,-0.000618,-0.002062,0.128629,-0.051656,324.970327,24.369613,0.999177,0.987143,0.004494,0.331508,-0.000049,-0.000029,-0.000037,-0.000001,-0.000077,-52.699390,0.000090,
2146,2353,-2.39809223968551,-6.36915504598432,-0.00532600950043616,0.002505,-0.000034,-0.004742,0.129366,-0.022374,325.763222,24.176517,0.999352,0.986759,0.004518,0.384803,-0.000047,-0.000028,-0.000033,-0.000003,-0.000072,-53.012311,0.000085,
2206,2758,-1.16235421803347,2.46561477388308,-0.0229595883511138,0.002430,-0.000630,-0.000093,0.111897,-0.014088,318.842374,24.444769,0.999438,0.991304,0.003810,0.390513,-0.000046,-0.000010,-0.000018,-0.000002,-0.000053,-67.141856,0.000063,
2146,2533,-2.42852778154682,-2.43822955074667,-0.0235937254125247,0.002852,-0.000525,-0.002561,0.138662,-0.053282,322.712643,24.295435,0.999192,0.988955,0.004219,0.346699,-0.000038,-0.000002,-0.000019,0.000006,-0.000046,-67.028172,0.000050,
2296,3058,0.742134152309241,8.98879915272466,0.00795037075744176,0.002423,-0.000431,-0.003276,0.122441,-0.036542,314.047189,25.067748,0.999564,0.993112,0.003439,0.377277,-0.000032,-0.000003,-0.000004,-0.000003,-0.000032,-82.537902,0.000039,
2116,2293,-3.04164279432023,-7.67940473134273,-0.0100182295139462,0.002657,0.000232,-0.007991,0.145667,-0.030580,326.830683,24.343356,0.998860,0.986199,0.004870,0.293272,-0.000039,-0.000016,-0.000014,-0.000010,-0.000046,-64.826599,0.000059,
2131,2473,-2.74474418141187,-3.74670823501969,-0.0215938912874094,0.002816,-0.000178,-0.005841,0.146824,-0.047041,323.767474,24.366800,0.999234,0.988804,0.004518,0.280454,-0.000045,-0.000018,-0.000030,0.000002,-0.000065,-57.059597,0.000074,
2356,1993,2.24855531895956,-14.2616214993265,0.0268025392929303,0.002331,-0.000560,-0.001566,0.111906,-0.041732,331.439341,22.539558,0.998646,0.969943,0.007019,0.263232,-0.000002,0.000021,-0.000014,0.000028,-0.000009,-64.744035,0.000029,
2191,2608,-1.46250989208248,-0.801970436986075,-0.0240412296557224,0.002540,-0.000433,-0.004174,0.129657,-0.050006,321.329499,24.285923,0.998691,0.985912,0.004732,0.357745,-0.000036,-0.000001,-0.000007,0.000001,-0.000037,-79.626170,0.000043,
2161,2563,-2.10724496186723,-1.78389153030308,-0.0198888049648076,0.002466,-0.000291,-0.004264,0.126288,-0.041480,322.189417,24.296571,0.999127,0.987813,0.004327,0.353036,-0.000033,-0.000006,-0.000016,0.000002,-0.000040,-64.504182,0.000046,
2161,2443,-2.08651371995304,-4.40293983230136,-0.0106170269251606,0.002802,-0.000579,-0.002684,0.136721,-0.046513,324.218095,24.197419,0.999188,0.987821,0.004555,0.357560,-0.000050,-0.000029,-0.000037,-0.000001,-0.000078,-52.980338,0.000091,
2281,3058,0.415945298297306,8.98865024959264,0.00128502788868445,0.002357,-0.000189,-0.005319,0.126262,-0.026359,314.013482,25.051953,0.999473,0.993695,0.003417,0.352047,-0.000035,-0.000005,-0.000007,-0.000003,-0.000037,-77.517952,0.000044,
2086,2338,-3.70137998202663,-6.69746313754465,-0.00340116778068023,0.002745,0.000052,-0.006952,0.146167,-0.037991,326.303219,24.401455,0.998974,0.986174,0.004789,0.352902,-0.000043,-0.000026,-0.000026,-0.000007,-0.000062,-54.205510,0.000076,
2446,2638,4.08363149386454,-0.138986571986706,-0.0207167073594974,0.002286,-0.000443,-0.001339,0.109659,-0.037127,320.702567,24.195796,0.999618,0.990816,0.003828,0.305652,-0.000007,-0.000005,-0.000021,0.000015,-0.000027,-46.327608,0.000027,
2116,2428,-3.0635804896396,-4.73097356887657,-0.00723468872882904,0.002449,-0.000496,-0.001500,0.116824,-0.035118,324.649062,24.336541,0.999318,0.988698,0.004384,0.342568,-0.000053,-0.000045,-0.000033,-0.000015,-0.000082,-48.364687,0.000105,
2176,2623,-1.79146452880896,-0.474848674432806,-0.0310552569546303,0.002695,-0.000355,-0.005952,0.142200,-0.050685,321.087968,24.320144,0.999422,0.989194,0.004136,0.351113,-0.000042,-0.000009,-0.000012,-0.000005,-0.000046,-72.470881,0.000057,
2266,2998,0.10072866744218,7.68461145294856,-0.00116173842974376,0.002487,-0.000685,-0.001869,0.120429,-0.042374,314.990664,24.884975,0.999471,0.991997,0.003659,0.352728,-0.000048,-0.000009,-0.000010,-0.000007,-0.000051,-76.121593,0.000063,
2386,2158,2.87158523205401,-10.6392445392317,0.0114028938412503,0.002518,-0.000790,-0.000902,0.118178,-0.067823,328.676034,22.855788,0.999301,0.980404,0.005376,0.220449,-0.000039,-0.000033,-0.000022,-0.000013,-0.000059,-49.199453,0.000076,
2461,2758,4.38556820387102,2.4779357881053,-0.0337230800146244,0.002574,-0.000662,-0.001138,0.122124,-0.046090,318.681991,24.562725,0.999638,0.991001,0.003739,0.356814,-0.000024,0.000023,-0.000018,0.000029,-0.000030,-70.798892,0.000034,
2191,2698,-1.47755172009912,1.1576647253833,-0.023336476352199,0.002610,0.000058,-0.006192,0.139434,-0.044126,319.885816,24.291212,0.999667,0.994721,0.003178,0.448181,-0.000042,-0.000012,-0.000016,-0.000005,-0.000050,-66.241652,0.000061,
2326,3253,1.35723218118703,13.2212263954671,0.0111520921013266,0.002358,-0.000703,0.000454,0.106797,-0.031313,310.839311,25.601565,0.999427,0.993265,0.003316,0.382594,-0.000009,-0.000030,-0.000011,-0.000005,-0.000034,-23.173918,0.000042,
2356,2008,2.24563494866702,-13.9310694911626,0.023313607605246,0.002661,-0.000400,0.000309,0.120494,-0.030376,331.177086,22.627623,0.998495,0.976207,0.006400,0.229253,-0.000005,0.000033,-0.000002,0.000033,-0.000005,-87.516474,0.000035,
2251,2893,-0.20687220295645,5.40327374999864,-0.0158091969429961,0.002849,-0.000574,-0.004037,0.144084,-0.044309,316.631332,24.678779,0.999680,0.992310,0.003484,0.355556,-0.000040,-0.000016,-0.000004,-0.000015,-0.000040,-80.571107,0.000057,
2416,2518,3.45409929296791,-2.7606836643621,-0.0144312788600587,0.002541,-0.000736,0.000157,0.115643,-0.038199,322.663816,23.715585,0.999328,0.989221,0.004262,0.418502,-0.000010,-0.000052,-0.000017,-0.000004,-0.000058,-19.391060,0.000069,
2371,2128,2.5497367560382,-11.2975946489302,0.0119711289617612,0.002387,-0.000291,-0.002795,0.119053,-0.031501,329.155189,22.756670,0.999374,0.982560,0.005158,0.350312,-0.000036,-0.000004,-0.000015,0.000002,-0.000042,-68.586022,0.000048,
2131,2263,-2.70945030749245,-8.33845180856215,0.00539030213622027,0.002652,-0.000913,-0.003468,0.131770,-0.088039,327.365573,24.207931,0.998746,0.983454,0.005279,0.293741,-0.000030,-0.000024,-0.000013,-0.000013,-0.000041,-50.513446,0.000056,
2431,2518,3.78209979220416,-2.7614612406227,-0.00357096719557148,0.002344,-0.000369,-0.002732,0.117383,-0.043663,322.778997,23.687066,0.999077,0.986479,0.004596,0.412306,-0.000009,-0.000056,-0.000018,-0.000002,-0.000063,-18.722808,0.000074,
2101,2428,-3.38989620609838,-4.73078244535836,-0.00964413468648218,0.002728,-0.000493,-0.000366,0.126298,-0.035817,324.707101,24.391697,0.999415,0.988143,0.004314,0.328019,-0.000052,-0.000045,-0.000029,-0.000020,-0.000077,-48.147285,0.000103,
2221,2638,-0.815818711546267,-0.146509999267046,-0.0382359994432591,0.002818,-0.000397,-0.004552,0.143949,-0.053666,320.656043,24.245952,0.998787,0.987485,0.004720,0.403510,-0.000036,0.000002,-0.000012,0.000006,-0.000039,-73.329934,0.000043,
2236,2908,-0.535610057720206,5.72849120082194,-0.0100778265111217,0.002191,-0.000538,-0.005053,0.117022,-0.042526,316.439044,24.718015,0.999683,0.993108,0.003462,0.311953,-0.000036,-0.000019,-0.000004,-0.000019,-0.000036,-77.518391,0.000056,
2281,3073,0.412905719392253,9.31472198796153,-0.00132070032708498,0.002287,-0.000459,-0.004697,0.120830,-0.038851,313.740858,25.118147,0.999516,0.993349,0.003517,0.300181,-0.000035,0.000000,-0.000010,0.000003,-0.000038,-75.579031,0.000042,
2221,2833,-0.848770087100835,4.09725206538866,-0.0187632721252271,0.002536,-0.000549,-0.002980,0.126014,-0.048416,317.632548,24.549393,0.999421,0.991661,0.003712,0.352703,-0.000036,-0.000010,-0.000006,-0.000008,-0.000037,-78.265909,0.000048,
2236,2878,-0.530003087421534,5.07606440201778,-0.0121002802649173,0.002663,-0.000358,-0.004812,0.137987,-0.047501,316.932072,24.636438,0.999512,0.992338,0.003503,0.347115,-0.000037,-0.000010,-0.000009,-0.000007,-0.000039,-72.866829,0.000050,
2146,2368,-2.40038582274211,-6.04096406316673,-0.00804095361144164,0.002815,-0.000016,-0.005086,0.144637,-0.026418,325.513740,24.204014,0.999058,0.987910,0.004435,0.362964,-0.000047,-0.000028,-0.000033,-0.000003,-0.000072,-53.449225,0.000085,
2131,2488,-2.74726469062594,-3.42052122261684,-0.0223733065686247,0.002860,-0.000388,-0.004439,0.144613,-0.045010,323.516965,24.264580,0.999218,0.988258,0.004578,0.391478,-0.000045,-0.000014,-0.000032,0.000005,-0.000065,-57.992204,0.000072,
2191,2623,-1.46487669758353,-0.475004755190731,-0.0253937958124197,0.002518,-0.000111,-0.008481,0.142235,-0.062863,321.087663,24.309513,0.999197,0.987771,0.004415,0.336516,-0.000036,-0.000006,-0.000007,-0.000004,-0.000037,-76.678281,0.000046,
2296,3073,0.739748402193154,9.31433394846257,0.0172403971202471,0.001952,-0.000583,-0.005379,0.107795,-0.051441,313.865113,25.163016,0.999607,0.994516,0.003319,0.295690,-0.000031,0.000002,-0.000005,0.000003,-0.000032,-80.813443,0.000035,
2461,2773,4.38221923562234,2.80487784829722,-0.0364487661412909,0.002218,-0.000634,-0.004268,0.117601,-0.046025,318.409960,24.611802,0.999406,0.989179,0.004086,0.362266,-0.000033,0.000009,-0.000021,0.000018,-0.000041,-67.440506,0.000041,
2206,2773,-1.16476615477654,2.79207217844276,-0.0210757416905381,0.002419,-0.000869,-0.000904,0.113888,-0.029264,318.616325,24.496148,0.999368,0.991327,0.003922,0.340503,-0.000043,-0.000017,-0.000019,-0.000007,-0.000053,-61.961470,0.000065,
2326,3268,1.35406097993099,13.5473701731421,0.0027075105110157,0.002538,-0.000655,-0.000862,0.119629,-0.038200,310.534720,25.689365,0.999555,0.993959,0.003107,0.320871,-0.000013,-0.000029,-0.000013,-0.000006,-0.000036,-29.667887,0.000046,
2161,2458,-2.08940170648379,-4.07505271956344,-0.018207472114625,0.002612,-0.000202,-0.007009,0.141370,-0.043924,323.917044,24.176957,0.999241,0.988861,0.004351,0.392147,-0.000047,-0.000018,-0.000029,0.000000,-0.000065,-58.116719,0.000075,
2146,2548,-2.43109768382802,-2.11183773475098,-0.0201609208700688,0.002476,-0.000459,-0.003114,0.123091,-0.042549,322.483302,24.260495,0.999099,0.987383,0.004407,0.400911,-0.000033,-0.000002,-0.000012,0.000002,-0.000037,-70.851832,0.000042,
2266,3013,0.0981524304011678,8.0094654055227,0.0047479491738045,0.002338,-0.000924,0.000259,0.106456,-0.041501,314.781605,24.865723,0.999376,0.991694,0.003658,0.397669,-0.000045,-0.000013,-0.000013,-0.000009,-0.000050,-70.711250,0.000063,
2446,2653,4.08072394417582,0.188055800346149,-0.021531105996587,0.002513,-0.000481,-0.000497,0.116932,-0.042742,320.459033,24.236654,0.999674,0.991722,0.003694,0.311868,-0.000011,-0.000004,-0.000030,0.000022,-0.000037,-48.431954,0.000038,
2401,2248,3.18153188605325,-8.66736178498063,0.00284286105812726,0.002713,-0.000254,-0.004140,0.139118,-0.042339,327.187197,22.918255,0.999222,0.983955,0.005169,0.390223,-0.000040,-0.000010,-0.000017,-0.000002,-0.000048,-65.022495,0.000056,
2086,2353,-3.70444241837568,-6.36922402903061,-0.00820622763251322,0.002344,-0.000261,-0.006568,0.126549,-0.058653,326.002010,24.423097,0.998637,0.981549,0.005353,0.311676,-0.000047,-0.000025,-0.000022,-0.000012,-0.000060,-58.393864,0.000077,
2116,2443,-3.06611322494736,-4.40484483605468,-0.0104811669053788,0.002505,-0.000607,-0.001638,0.119765,-0.046146,324.383623,24.202848,0.999313,0.989509,0.004364,0.470099,-0.000056,-0.000040,-0.000036,-0.000011,-0.000085,-51.206731,0.000105,
2161,2578,-2.11023627736642,-1.45664335057566,-0.0261381519063093,0.002418,-0.000342,-0.003753,0.122511,-0.044137,321.890698,24.278014,0.999124,0.987924,0.004285,0.379990,-0.000035,-0.000007,-0.000016,0.000001,-0.000043,-65.616418,0.000049,
2311,3088,1.06336909025458,9.64065596665273,0.0184522709093926,0.002693,-0.000494,-0.002131,0.131024,-0.036599,313.638778,25.201180,0.999696,0.995672,0.002938,0.357388,-0.000027,-0.000004,-0.000014,0.000003,-0.000034,-64.686869,0.000038,
2206,2623,-1.13886842796866,-0.474296439782989,-0.0230429433955237,0.002472,-0.000178,-0.003354,0.124158,-0.040208,321.045467,24.315136,0.999149,0.986428,0.004714,0.340710,-0.000039,-0.000007,-0.000012,-0.000003,-0.000043,-71.895128,0.000051,
2416,2533,3.45111005110083,-2.43222469588078,-0.0191153354432458,0.002653,-0.000933,-0.002708,0.131176,-0.066960,322.396429,23.835807,0.999195,0.989756,0.004339,0.318283,-0.000009,-0.000048,-0.000020,-0.000001,-0.000056,-22.623565,0.000066,
2386,2173,2.8682995289277,-10.3108277236506,0.00631853964586071,0.002430,-0.000429,-0.001969,0.118122,-0.046534,328.391826,22.786232,0.999393,0.983829,0.005124,0.357787,-0.000040,-0.000029,-0.000021,-0.000013,-0.000056,-52.661828,0.000073,
2251,2908,-0.20854381362123,5.728867501851,-0.0017423415652047,0.002682,-0.000361,-0.006250,0.143839,-0.025951,316.504196,24.743204,0.999791,0.993616,0.003213,0.332277,-0.000037,-0.000021,-0.000003,-0.000021,-0.000037,-80.026400,0.000059,
2221,2848,-0.85169293006653,4.42387979877117,-0.0242676084476443,0.002627,-0.000769,-0.002853,0.129766,-0.044330,317.345975,24.563379,0.999291,0.991805,0.003668,0.361525,-0.000035,-0.000011,-0.000004,-0.000010,-0.000035,-81.206133,0.000048,
2431,2533,3.77912587360924,-2.43284774211559,-0.00540901424517415,0.002452,-0.000567,-0.003365,0.124584,-0.059339,322.526820,23.833253,0.999296,0.988906,0.004287,0.301346,-0.000006,-0.000053,-0.000021,0.000003,-0.000061,-20.933270,0.000069,
2236,2923,-0.538831018105551,6.05415338508509,-0.017946770265155,0.002339,-0.000318,-0.002678,0.116135,-0.054416,316.128180,24.665388,0.999650,0.993563,0.003419,0.373423,-0.000037,-0.000016,-0.000006,-0.000015,-0.000038,-75.244495,0.000054,
2176,2638,-1.79366473250931,-0.148504483586862,-0.0296228675760517,0.003032,-0.000611,-0.004283,0.152448,-0.062220,320.867249,24.313923,0.999581,0.990889,0.003876,0.358558,-0.000042,-0.000010,-0.000012,-0.000006,-0.000046,-70.932217,0.000057,
2236,2893,-0.532547329789221,5.40202481440292,-0.0064560937316287,0.002429,-0.000309,-0.003910,0.124329,-0.033667,316.721173,24.674215,0.999735,0.992628,0.003453,0.343884,-0.000040,-0.000012,-0.000005,-0.000011,-0.000041,-80.612752,0.000055,
2356,2023,2.24379227681215,-13.6025698190078,0.0201129335977726,0.003488,0.000099,-0.004818,0.176539,-0.056565,330.965853,22.575222,0.998582,0.975072,0.006568,0.297537,-0.000008,0.000034,0.000000,0.000034,-0.000008,-89.663410,0.000035,
2146,2383,-2.40278823207086,-5.71378173467727,-0.00337870304304033,0.002609,-0.000060,-0.004159,0.132362,-0.031332,325.298506,24.216647,0.998718,0.987933,0.004493,0.354995,-0.000044,-0.000031,-0.000034,-0.000003,-0.000072,-50.548794,0.000085,
2251,2983,-0.22233403226388,7.35817271986106,0.000969478102490484,0.002497,-0.000680,-0.000294,0.115657,-0.036708,315.275637,24.861961,0.999527,0.993155,0.003522,0.316525,-0.000047,-0.000010,-0.000010,-0.000007,-0.000050,-75.256794,0.000062,
2131,2503,-2.75012877423569,-3.09344641233831,-0.028368630931709,0.002976,-0.000823,-0.002019,0.142521,-0.073229,323.222823,24.231412,0.999009,0.986967,0.004677,0.403433,-0.000036,-0.000019,-0.000029,0.000003,-0.000057,-53.217184,0.000064,
2191,2638,-1.46711437766127,-0.148367570352669,-0.0252493755013461,0.002992,-0.000040,-0.005930,0.156074,-0.057483,320.859537,24.302283,0.999525,0.989549,0.004076,0.364157,-0.000036,-0.000005,-0.000008,-0.000004,-0.000038,-76.351847,0.000046,
2326,3283,1.35055475320911,13.872397507762,-0.00678196762839889,0.002519,-0.000901,-0.001399,0.120502,-0.051786,310.209903,25.680076,0.999657,0.995138,0.002831,0.349441,-0.000018,-0.000034,-0.000018,-0.000006,-0.000045,-33.134066,0.000057,
2131,2278,-2.71187621578162,-8.01032160354322,0.00234498227399627,0.003030,-0.001528,-0.000485,0.140031,-0.090771,327.107015,24.192507,0.998760,0.983498,0.005303,0.314238,-0.000032,-0.000031,-0.000017,-0.000014,-0.000049,-46.118263,0.000066,
2446,2668,4.0777394197901,0.514612303878828,-0.0192168011802778,0.002263,-0.000584,-0.001418,0.108885,-0.030152,320.226346,24.245500,0.999487,0.989942,0.004024,0.368313,-0.000008,-0.000004,-0.000033,0.000027,-0.000039,-46.879936,0.000040,
2146,2563,-2.43321978358589,-1.7842268132359,-0.0218259522407038,0.002565,0.000195,-0.008581,0.143966,-0.036575,322.247181,24.301306,0.999120,0.987276,0.004396,0.374923,-0.000030,-0.000006,-0.000014,0.000000,-0.000037,-64.371257,0.000042,
2371,2143,2.54702985314831,-10.9680520507883,0.0116947457289598,0.002495,-0.000331,-0.003763,0.127405,-0.026175,328.919021,22.845844,0.999199,0.979844,0.005467,0.310425,-0.000035,-0.000011,-0.000018,-0.000001,-0.000044,-61.827128,0.000052,
2461,2788,4.38012505712694,3.13058625943555,-0.0254589484164853,0.002222,-0.000523,-0.004456,0.118561,-0.047162,318.258624,24.659771,0.999288,0.988096,0.004209,0.367388,-0.000034,0.000005,-0.000025,0.000017,-0.000047,-63.994706,0.000047,
2206,2788,-1.16708801688365,3.11830475384787,-0.0274406820899458,0.002845,-0.000531,-0.004915,0.146234,-0.054619,318.351849,24.477211,0.999182,0.989437,0.004207,0.351112,-0.000042,-0.000016,-0.000020,-0.000005,-0.000053,-61.711236,0.000065,
2191,2713,-1.48096099252346,1.48654121085394,-0.0374922277754308,0.002791,-0.000333,-0.005402,0.145199,-0.040973,319.528927,24.398757,0.999248,0.990826,0.003886,0.359065,-0.000041,-0.000012,-0.000017,-0.000004,-0.000049,-65.002419,0.000059,
2401,2263,3.17773397409395,-8.33710927246564,-0.00221726517031584,0.002625,-0.001068,0.000512,0.117938,-0.058889,326.880622,23.089082,0.999301,0.986817,0.004643,0.250990,-0.000040,-0.000012,-0.000020,-0.000002,-0.000050,-62.243122,0.000059,
2416,2548,3.44783380998362,-2.10486098165845,-0.02191350645694,0.002717,-0.001150,-0.000595,0.126344,-0.057370,322.124665,23.839537,0.999287,0.989290,0.004290,0.373085,-0.000008,-0.000043,-0.000018,0.000000,-0.000050,-23.183480,0.000059,
2296,3088,0.737370198416002,9.63934444174967,0.0144839248237076,0.002603,-0.000544,-0.004401,0.134450,-0.052027,313.623632,25.121796,0.999577,0.993878,0.003404,0.365500,-0.000027,-0.000005,-0.000014,0.000002,-0.000034,-63.572870,0.000038,
2266,3028,0.0959478174377573,8.33566239846706,0.00406287869867583,0.002580,-0.000645,-0.004011,0.131773,-0.051513,314.555961,24.940384,0.999339,0.991164,0.003726,0.337873,-0.000045,-0.000013,-0.000010,-0.000010,-0.000048,-73.165827,0.000062,
2116,2458,-3.06822254197844,-4.07545025172252,-0.0152743188753561,0.002905,-0.000355,-0.004869,0.147780,-0.047678,324.128455,24.349366,0.999302,0.989503,0.004312,0.326807,-0.000053,-0.000029,-0.000034,-0.000005,-0.000077,-54.411090,0.000092,
2161,2473,-2.09160072723128,-3.74745981677471,-0.0142497064522331,0.002752,-0.000172,-0.005196,0.142303,-0.034612,323.708281,24.235140,0.999206,0.987185,0.004724,0.354439,-0.000045,-0.000014,-0.000025,0.000000,-0.000058,-61.019493,0.000067,
2161,2593,-2.11275118395477,-1.12956307989131,-0.0264239433394096,0.002477,-0.000737,-0.002849,0.122362,-0.054501,321.645237,24.308914,0.999238,0.989709,0.004130,0.349622,-0.000039,-0.000005,-0.000013,-0.000001,-0.000043,-71.484973,0.000051,
2221,2653,-0.818206982287439,0.179885621609074,-0.0323312363178161,0.002759,-0.000402,-0.002543,0.134825,-0.030354,320.452859,24.253056,0.999189,0.989606,0.004300,0.438910,-0.000033,-0.000002,-0.000012,0.000002,-0.000037,-71.156511,0.000041,
2281,3088,0.411228534844078,9.63874245150125,0.0103042517577023,0.002436,-0.000701,-0.005407,0.129961,-0.056274,313.602769,25.094935,0.999665,0.993229,0.003561,0.332492,-0.000031,-0.000007,-0.000018,0.000003,-0.000041,-61.570158,0.000045,
2266,3058,0.0903917426627849,8.98685816433693,0.00836455453111284,0.002261,-0.000552,-0.002094,0.110800,-0.042004,314.080785,24.999449,0.999466,0.992968,0.003510,0.337469,-0.000040,-0.000012,-0.000008,-0.000010,-0.000043,-74.861924,0.000056,
2206,2638,-1.14147431597094,-0.147513594435658,-0.0237636521549689,0.002539,-0.000212,-0.002666,0.125032,-0.045944,320.797155,24.325197,0.999172,0.987834,0.004515,0.342080,-0.000039,-0.000005,-0.000011,-0.000002,-0.000043,-73.841771,0.000050,
2281,3133,0.402846903256357,10.6147322166974,0.0128644444260431,0.002355,-0.000666,-0.001438,0.112969,-0.050058,312.871135,25.144635,0.999630,0.994872,0.003238,0.369121,-0.000027,-0.000009,-0.000015,0.000000,-0.000036,-60.084805,0.000041,
2386,2188,2.86579247110494,-9.98128054752376,0.00995090799330001,0.002612,-0.000619,-0.001049,0.123075,-0.030778,328.184361,22.923251,0.999128,0.982973,0.005179,0.282176,-0.000041,-0.000019,-0.000022,-0.000005,-0.000055,-57.570543,0.000067,
2236,2938,-0.541330439059013,6.37990134308813,-0.0094014409837655,0.002255,-0.000868,0.002533,0.095151,-0.059366,315.934168,24.734791,0.999572,0.993835,0.003347,0.319422,-0.000038,-0.000006,-0.000010,-0.000003,-0.000041,-74.455485,0.000049,
2431,2548,3.77638628613931,-2.10555320191538,0.000606037444413232,0.002404,-0.000680,-0.000859,0.113103,-0.051488,322.321898,23.909750,0.999646,0.990633,0.003895,0.283577,-0.000002,-0.000048,-0.000018,0.000004,-0.000055,-19.119095,0.000061,
2251,2998,-0.224799411952581,7.68317324982977,0.00261253691314778,0.002541,-0.000618,-0.000964,0.119867,-0.041060,315.049139,24.828391,0.999523,0.992317,0.003636,0.368328,-0.000046,-0.000013,-0.000009,-0.000011,-0.000049,-75.917622,0.000063,
2311,3103,1.06037184620051,9.96658854599323,0.0158752812884586,0.002460,-0.000472,-0.004933,0.129923,-0.044224,313.370531,25.257485,0.999503,0.993471,0.003424,0.324448,-0.000026,0.000002,-0.000013,0.000007,-0.000031,-69.255001,0.000032,
2356,2038,2.24082887463942,-13.272579799638,0.0150187782119247,0.003305,0.000373,-0.010630,0.188628,-0.067036,330.693987,22.627876,0.998915,0.978887,0.005805,0.276849,-0.000016,0.000017,-0.000002,0.000017,-0.000016,-85.961976,0.000019,
2461,2803,4.37600452265355,3.45861174285888,-0.0316555364594251,0.002029,-0.000946,0.000196,0.092035,-0.043880,317.934787,24.787414,0.999383,0.988427,0.004186,0.297570,-0.000032,0.000007,-0.000022,0.000017,-0.000042,-66.159672,0.000042,
2176,2653,-1.79693998710231,0.179885289034544,-0.040859982145605,0.002991,-0.000253,-0.005101,0.153242,-0.046318,320.530345,24.366347,0.999631,0.990789,0.003896,0.335052,-0.000041,-0.000011,-0.000014,-0.000005,-0.000047,-69.012899,0.000057,
2131,2293,-2.71508102461505,-7.68094374270273,-0.00752375651762804,0.002578,-0.000580,-0.005102,0.133410,-0.055076,326.776110,24.189899,0.998799,0.985011,0.005053,0.360872,-0.000035,-0.000021,-0.000021,-0.000006,-0.000050,-54.555349,0.000062,
2221,2863,-0.854637460241907,4.75038622276366,-0.024824483978648,0.002311,-0.000535,-0.003273,0.116659,-0.034359,317.083805,24.602115,0.999337,0.992468,0.003506,0.351459,-0.000033,-0.000011,-0.000007,-0.000009,-0.000035,-74.093704,0.000047,
2131,2518,-2.75228859044556,-2.76690679468478,-0.0150914763295873,0.002594,-0.001110,0.001260,0.115067,-0.069178,323.063638,24.296211,0.999091,0.987401,0.004549,0.349023,-0.000032,-0.000013,-0.000025,0.000005,-0.000050,-55.196591,0.000055,
2446,2683,4.07400387513603,0.842765857048242,-0.0275013337999894,0.001897,-0.000160,-0.005220,0.106410,-0.044046,319.909968,24.344441,0.999299,0.988783,0.004161,0.308136,-0.000009,0.000010,-0.000027,0.000029,-0.000027,-54.888817,0.000033,
2326,3298,1.34753590684396,14.1971659474752,-0.00525839455178811,0.002318,-0.000765,0.000210,0.105784,-0.033449,309.961663,25.679170,0.999717,0.995205,0.002859,0.401517,-0.000028,-0.000031,-0.000024,-0.000005,-0.000053,-43.221301,0.000065,
2146,2398,-2.40534242782858,-5.38639239044595,-0.00548991414558486,0.002782,-0.000745,-0.002053,0.133728,-0.064414,325.040561,24.215871,0.998670,0.987348,0.004710,0.332183,-0.000047,-0.000016,-0.000036,0.000008,-0.000071,-56.701558,0.000078,
2296,3103,0.734868141400472,9.96499054377031,0.0171283766892998,0.002624,-0.000597,-0.004920,0.137144,-0.064221,313.403064,25.189062,0.999341,0.992093,0.003797,0.315026,-0.000025,0.000001,-0.000013,0.000006,-0.000031,-67.809285,0.000032,
2161,2488,-2.09503430845183,-3.41951232530369,-0.0207314714659219,0.002428,-0.000114,-0.002335,0.118689,-0.007311,323.387933,24.216909,0.999147,0.986648,0.004724,0.411581,-0.000048,-0.000011,-0.000028,0.000004,-0.000063,-61.735283,0.000070,
2266,3043,0.0933423053848728,8.66103548179338,0.00826798705708143,0.002484,-0.000754,-0.002498,0.122285,-0.057271,314.336755,24.971297,0.999501,0.992778,0.003512,0.325647,-0.000042,-0.000007,-0.000009,-0.000005,-0.000044,-76.960575,0.000054,
2146,2578,-2.43644962182616,-1.45627489712707,-0.0304889771704211,0.002516,-0.000040,-0.006489,0.135288,-0.033059,321.923156,24.319902,0.999269,0.989451,0.004183,0.368724,-0.000032,-0.000007,-0.000015,0.000000,-0.000039,-65.384613,0.000045,
2251,2923,-0.211744123979983,6.0546350699047,-0.0073017786223204,0.002841,-0.000658,-0.002211,0.137736,-0.042397,316.207352,24.720937,0.999705,0.993786,0.003311,0.361051,-0.000038,-0.000018,-0.000006,-0.000017,-0.000040,-75.276828,0.000058,
2416,2563,3.44464549906963,-1.77760675569758,-0.0182618826157182,0.002449,-0.001169,0.002727,0.101911,-0.048185,321.887024,23.895625,0.998897,0.985996,0.004608,0.374639,-0.000010,-0.000025,-0.000016,0.000000,-0.000036,-32.414782,0.000041,
2116,2473,-3.07138008247582,-3.74783646218,-0.0165357896040064,0.002374,-0.000543,-0.002642,0.116746,-0.045705,323.844650,24.367791,0.999300,0.989592,0.004224,0.315288,-0.000049,-0.000023,-0.000030,-0.000003,-0.000069,-56.344315,0.000081,
2191,2653,-1.46996701514464,0.178781155710517,-0.0252020462767746,0.002909,-0.000463,-0.002741,0.142148,-0.049020,320.602556,24.342799,0.999536,0.990755,0.003910,0.347159,-0.000033,-0.000007,-0.000009,-0.000004,-0.000036,-73.286645,0.000044,
2401,2278,3.17314313394518,-8.0061320423511,-0.019418961201211,0.002070,-0.000645,-0.002789,0.104611,-0.062722,326.480409,23.196540,0.999762,0.994489,0.003344,0.188209,-0.000038,0.000001,-0.000020,0.000010,-0.000047,-66.825135,0.000049,
2206,2803,-1.17009363780567,3.44438640342203,-0.0251418560346224,0.002704,-0.001006,0.001376,0.119703,-0.045989,318.100712,24.482546,0.998885,0.986289,0.004658,0.370906,-0.000041,-0.000018,-0.000019,-0.000008,-0.000052,-60.875626,0.000065,
2236,2953,-0.543029114756454,6.70600883947809,-0.00658502224354152,0.002634,-0.000359,-0.002722,0.129927,-0.033040,315.747521,24.768920,0.999428,0.993068,0.003555,0.332374,-0.000039,-0.000010,-0.000013,-0.000005,-0.000044,-69.826847,0.000054,
2281,3148,0.400908789621599,10.9397648217378,0.0212103893790641,0.002535,-0.000699,-0.001529,0.121559,-0.049612,312.704182,25.188430,0.999508,0.993899,0.003580,0.352278,-0.000024,-0.000009,-0.000014,0.000000,-0.000033,-58.447472,0.000038,
2281,3103,0.408634659886129,9.96462588975472,0.00686509342403951,0.002855,-0.000601,-0.005007,0.147991,-0.053554,313.346448,25.131006,0.999611,0.993579,0.003444,0.326068,-0.000030,-0.000001,-0.000017,0.000006,-0.000038,-65.238380,0.000041,
2191,2728,-1.4826873546609,1.81262551034458,-0.0333678917871794,0.003164,-0.000028,-0.007922,0.170338,-0.038125,319.344996,24.403502,0.999239,0.990495,0.003927,0.371613,-0.000042,-0.000017,-0.000020,-0.000006,-0.000053,-61.116705,0.000065,
2371,2158,2.54436241363942,-10.6397326145001,0.0169325045191044,0.002417,-0.000747,-0.002041,0.117583,-0.051685,328.711152,22.918466,0.999456,0.982269,0.005307,0.255829,-0.000039,-0.000031,-0.000022,-0.000013,-0.000058,-50.233809,0.000075,
2386,2203,2.86266700713588,-9.65208498932907,0.00366692007128222,0.002932,-0.000887,-0.000324,0.135051,-0.058952,327.901850,22.973056,0.998788,0.980559,0.005447,0.250358,-0.000043,-0.000021,-0.000021,-0.000009,-0.000055,-58.688648,0.000070,
2266,3073,0.0884732714675884,9.31176844765473,0.0190278798052077,0.002280,-0.000458,-0.002033,0.111553,-0.033386,313.925799,25.021975,0.999319,0.991957,0.003771,0.348055,-0.000040,-0.000006,-0.000013,-0.000002,-0.000044,-71.426329,0.000052,
2161,2608,-2.1150124648527,-0.802451457482185,-0.0226259262865369,0.002288,-0.000112,-0.005329,0.121498,-0.029092,321.432766,24.346821,0.999465,0.991929,0.003819,0.348005,-0.000039,-0.000004,-0.000011,-0.000001,-0.000042,-73.213204,0.000049,
2221,2668,-0.820865303154516,0.506601686335102,-0.0280100445028779,0.002446,-0.000630,-0.001933,0.118415,-0.049288,320.229186,24.322349,0.999519,0.993177,0.003625,0.369744,-0.000037,-0.000008,-0.000013,-0.000003,-0.000042,-69.292429,0.000050,
2131,2308,-2.7170439288972,-7.35245084484462,-0.00704743232910232,0.002940,-0.000203,-0.005962,0.152715,-0.044579,326.557307,24.241079,0.999015,0.985407,0.004960,0.327874,-0.000038,-0.000027,-0.000027,-0.000005,-0.000061,-50.715536,0.000073,
2446,2698,4.07045691730112,1.17053601429855,-0.0345502933700459,0.002308,-0.000291,-0.000580,0.107940,-0.024294,319.607850,24.390392,0.999588,0.990953,0.003875,0.334800,-0.000013,0.000018,-0.000027,0.000034,-0.000028,-60.001364,0.000036,
2356,2053,2.23850827449504,-12.9445958290421,0.0325068568351412,0.002862,0.000270,-0.005462,0.150238,-0.030127,330.559660,22.708591,0.999024,0.981240,0.005343,0.275001,-0.000019,-0.000003,0.000000,-0.000003,-0.000019,-89.872413,0.000025,
2311,3118,1.05756816432548,10.2922871917282,0.0173235009748396,0.002356,-0.000284,-0.004583,0.124039,-0.025944,313.131074,25.295710,0.999381,0.992041,0.003722,0.335513,-0.000020,-0.000002,-0.000011,0.000003,-0.000025,-64.488046,0.000027,
2461,2818,4.37369476280709,3.78428396365891,-0.0276413255453463,0.002209,-0.000773,-0.002214,0.109419,-0.047386,317.741481,24.788225,0.999338,0.987827,0.004361,0.347410,-0.000034,-0.000003,-0.000015,0.000003,-0.000040,-67.486102,0.000045,
2206,2653,-1.14420671759836,0.179247575594417,-0.0282688660142298,0.002869,-0.000797,-0.000174,0.132164,-0.052540,320.523490,24.307156,0.999225,0.987873,0.004549,0.370834,-0.000035,-0.000007,-0.000011,-0.000003,-0.000039,-71.110246,0.000047,
2161,2503,-2.09778935470696,-3.09131076046594,-0.0349831112616812,0.002829,-0.000215,-0.006600,0.150135,-0.043374,323.057920,24.220202,0.998929,0.986125,0.004882,0.383933,-0.000041,-0.000016,-0.000024,-0.000001,-0.000056,-58.413005,0.000066,
2131,2533,-2.75503918696976,-2.43904065932225,-0.0195762727035458,0.002299,-0.000517,-0.002886,0.114107,-0.057822,322.782397,24.319496,0.999101,0.986967,0.004541,0.343978,-0.000038,-0.000006,-0.000020,0.000003,-0.000048,-64.299799,0.000053,
2341,1993,1.92022882327354,-14.261768903434,0.0307342385100355,0.002048,-0.001589,0.004266,0.078267,-0.045102,331.436210,22.641080,0.998438,0.978922,0.006122,0.264761,-0.000003,0.000013,-0.000035,0.000041,-0.000031,-51.252274,0.000043,
2251,3013,-0.227776421040179,8.00880831530907,0.00491572929473705,0.002206,-0.000762,0.000830,0.098528,-0.042116,314.802245,24.858317,0.999374,0.991171,0.003767,0.359698,-0.000042,-0.000018,-0.000012,-0.000013,-0.000047,-67.713844,0.000063,
2431,2563,3.77272144408014,-1.77801008493563,-0.0047307611512224,0.002335,-0.000998,0.001474,0.101243,-0.039155,322.021710,23.908641,0.999455,0.989709,0.004120,0.348012,-0.000003,-0.000030,-0.000013,0.000002,-0.000035,-22.402456,0.000040,
2176,2668,-1.79891030061923,0.505069081387653,-0.0233328678675093,0.002480,-0.000279,-0.003243,0.123983,-0.037300,320.404591,24.376712,0.999611,0.992916,0.003511,0.346161,-0.000044,-0.000019,-0.000016,-0.000011,-0.000052,-64.391454,0.000067,
2401,2293,3.17037526833101,-7.67921489878887,-0.0156722629562296,0.002219,-0.001030,0.001034,0.097485,-0.058985,326.262600,23.143186,0.999532,0.991130,0.003876,0.292748,-0.000034,0.000006,-0.000015,0.000011,-0.000039,-71.736869,0.000040,
2146,2413,-2.40904485781639,-5.05769054543743,-0.0149815058250056,0.002326,-0.001060,0.000431,0.105196,-0.047139,324.690522,24.220354,0.998608,0.987490,0.004945,0.354822,-0.000046,-0.000024,-0.000043,0.000009,-0.000080,-52.204242,0.000087,
2296,3118,0.732005177283302,10.2904159198025,0.0180510488410732,0.002586,-0.000769,-0.003080,0.129165,-0.058209,313.157355,25.210761,0.999533,0.993574,0.003447,0.328254,-0.000020,-0.000006,-0.000012,0.000001,-0.000026,-60.604079,0.000030,
2416,2578,3.44183446102421,-1.44931574257605,-0.0212343367192034,0.002755,-0.001551,0.001756,0.119336,-0.072079,321.635600,24.026158,0.999375,0.989721,0.004113,0.268890,-0.000011,-0.000013,-0.000014,0.000002,-0.000026,-42.499912,0.000029,
2296,3208,0.715768840905785,12.2424031955999,0.0229743835209888,0.002551,-0.000552,-0.003000,0.127426,-0.045013,311.722739,25.387056,0.999750,0.994853,0.002971,0.337585,-0.000005,-0.000027,-0.000014,0.000002,-0.000034,-25.819961,0.000039,
2221,2878,-0.856620275173253,5.07523057463437,-0.0168565681915425,0.002407,-0.000596,-0.002962,0.120046,-0.042338,316.910082,24.572758,0.999446,0.993747,0.003234,0.391364,-0.000035,-0.000010,-0.000005,-0.000009,-0.000036,-79.460659,0.000048,
2251,2938,-0.214760060882565,6.37971251668314,-0.00795376978612694,0.002650,-0.000897,-0.000705,0.123865,-0.066466,315.944034,24.682397,0.999657,0.994607,0.003129,0.398156,-0.000040,-0.000007,-0.000009,-0.000005,-0.000042,-75.626014,0.000051,
2116,2488,-3.07330594446791,-3.42106257549426,-0.0174880490593523,0.002786,-0.000239,-0.004497,0.141270,-0.046065,323.619079,24.319330,0.999120,0.988566,0.004410,0.368215,-0.000048,-0.000020,-0.000030,0.000000,-0.000067,-57.279672,0.000078,
2191,2743,-1.48516125801275,2.13853856674407,-0.0256490569184962,0.002821,-0.000275,-0.006416,0.149787,-0.046106,319.145535,24.436002,0.999392,0.991142,0.003879,0.345732,-0.000044,-0.000015,-0.000018,-0.000007,-0.000053,-64.483843,0.000065,
2446,2713,4.06705640945967,1.4974786234018,-0.0373667383770453,0.002109,-0.000372,-0.000922,0.100072,-0.028232,319.332114,24.423873,0.999708,0.992649,0.003591,0.349986,-0.000015,0.000021,-0.000028,0.000036,-0.000030,-61.810635,0.000039,
2341,2008,1.91732072366276,-13.9315205821175,0.0311568762589332,0.001924,-0.000796,0.004470,0.072213,-0.007813,331.191835,22.719601,0.998479,0.977219,0.006327,0.264083,-0.000005,0.000034,-0.000020,0.000042,-0.000013,-67.481299,0.000043,
2206,2818,-1.17250109017746,3.77019631300043,-0.0248431371659308,0.002563,-0.000776,-0.002954,0.127020,-0.051828,317.866780,24.466082,0.999133,0.988681,0.004235,0.398094,-0.000037,-0.000007,-0.000013,-0.000002,-0.000042,-69.877869,0.000050,
2431,2578,3.76992645306562,-1.45000432719844,-0.00726137787160042,0.002852,-0.001406,0.003039,0.119033,-0.051361,321.774406,24.004392,0.999709,0.993273,0.003646,0.291014,-0.000003,-0.000017,-0.000009,0.000002,-0.000022,-26.135821,0.000024,
2371,2173,2.54162193457199,-10.3120382948703,0.0111851704642163,0.002658,-0.000198,-0.006050,0.143042,-0.055622,328.447526,22.800435,0.999352,0.983022,0.005169,0.413892,-0.000041,-0.000027,-0.000020,-0.000013,-0.000056,-54.617353,0.000073,
2146,2593,-2.4388175186599,-1.12937482116894,-0.0333132793097093,0.002649,0.000104,-0.008754,0.148338,-0.033943,321.669806,24.302863,0.999256,0.989726,0.004237,0.393747,-0.000035,-0.000004,-0.000011,-0.000001,-0.000038,-71.671004,0.000045,
2236,2968,-0.545744618653071,7.03171719456028,-0.00357781170487215,0.002443,-0.000137,-0.001484,0.117236,-0.011098,315.515250,24.775971,0.999457,0.992752,0.003570,0.367597,-0.000042,-0.000013,-0.000012,-0.000008,-0.000046,-70.203472,0.000059,
2281,3163,0.3983971231774,11.2656586142909,0.0234813272859355,0.002741,-0.000692,0.000470,0.124397,-0.038053,312.480087,25.266826,0.999517,0.993115,0.003502,0.311768,-0.000021,-0.000014,-0.000016,-0.000001,-0.000034,-50.455088,0.000040,
2206,2668,-1.14703854554977,0.506494711638979,-0.0253777101278843,0.002261,-0.000414,-0.002416,0.111456,-0.045273,320.283259,24.386634,0.999546,0.992309,0.003698,0.315831,-0.000038,-0.000013,-0.000012,-0.000008,-0.000043,-67.998581,0.000055,
2356,2068,2.23531902327339,-12.6154870551593,0.0336857614526593,0.002615,0.000072,-0.002849,0.129699,-0.014239,330.307364,22.735062,0.999195,0.981085,0.005283,0.306752,-0.000022,-0.000001,-0.000001,-0.000001,-0.000022,-86.065787,0.000026,
2461,2833,4.37030692146235,4.11274417633083,-0.0363880876131475,0.002467,-0.000324,-0.003505,0.126314,-0.034447,317.439381,24.936695,0.999540,0.990802,0.003801,0.266246,-0.000039,0.000006,-0.000009,0.000008,-0.000041,-78.990887,0.000043,
2266,3088,0.0854674807216504,9.63712650929569,0.0200699637927073,0.001979,-0.000892,-0.001047,0.094259,-0.048126,313.672177,25.050535,0.999553,0.992650,0.003572,0.329309,-0.000035,-0.000012,-0.000021,0.000000,-0.000048,-59.228531,0.000055,
2281,3118,0.405208021106823,10.2901561349704,0.00678703783057699,0.002472,-0.001030,-0.000866,0.116263,-0.068160,313.068740,25.177291,0.999736,0.994971,0.003116,0.291684,-0.000027,-0.000009,-0.000016,0.000000,-0.000036,-59.894508,0.000041,
2191,2668,-1.4730753132375,0.506388623883261,-0.0239063147137699,0.002349,-0.000215,-0.001539,0.112740,-0.031804,320.340176,24.431712,0.999763,0.994807,0.003121,0.290348,-0.000037,-0.000014,-0.000010,-0.000010,-0.000041,-69.175388,0.000054,
2386,2218,2.86014843899262,-9.32429999834569,0.0115514141970152,0.002566,-0.000879,-0.001804,0.123595,-0.060623,327.714136,23.021018,0.998964,0.981287,0.005546,0.246240,-0.000040,-0.000022,-0.000018,-0.000011,-0.000050,-58.509744,0.000065,
2131,2548,-2.75741046788919,-2.11208402041801,-0.0160536119349786,0.002279,-0.000406,-0.000613,0.106464,-0.030450,322.561371,24.319900,0.998949,0.985014,0.004752,0.377600,-0.000034,-0.000005,-0.000013,0.000000,-0.000039,-68.598049,0.000045,
2221,2683,-0.823230122225265,0.833483566343766,-0.0310205751692934,0.002723,-0.000383,-0.004425,0.139200,-0.045292,319.981249,24.327477,0.999544,0.992575,0.003615,0.388124,-0.000041,-0.000002,-0.000015,0.000004,-0.000046,-70.928841,0.000051,
2311,3133,1.05467581068631,10.6175243211126,0.0169365634700398,0.002344,-0.000468,-0.003646,0.120188,-0.037328,312.878603,25.313462,0.999512,0.993032,0.003488,0.337650,-0.000020,-0.000002,-0.000012,0.000004,-0.000026,-63.524616,0.000028,
2341,2023,1.91524157830831,-13.6028712052701,0.0264042232723227,0.002587,-0.000375,-0.000916,0.121408,-0.034969,330.960857,22.663590,0.998684,0.978540,0.006051,0.332933,-0.000010,0.000036,-0.000014,0.000040,-0.000014,-74.213611,0.000041,
2161,2518,-2.10068968728529,-2.76353601340115,-0.039128626187221,0.002702,-0.000161,-0.006472,0.143929,-0.047749,322.774369,24.250733,0.998792,0.987402,0.004761,0.360193,-0.000037,-0.000011,-0.000022,0.000001,-0.000049,-60.711779,0.000056,
2116,2503,-3.07563755238805,-3.09373184892641,-0.023467970793206,0.003038,-0.000148,-0.007664,0.162248,-0.059181,323.347883,24.293953,0.998855,0.986573,0.004642,0.384919,-0.000037,-0.000024,-0.000027,-0.000003,-0.000059,-51.856998,0.000069,
2161,2623,-2.1179429225647,-0.474535171746588,-0.0328031750546529,0.002521,-0.000286,-0.005588,0.132949,-0.042902,321.115957,24.382758,0.999568,0.991949,0.003768,0.309117,-0.000041,-0.000011,-0.000013,-0.000006,-0.000045,-69.591357,0.000056,
2416,2593,3.43823698710034,-1.1217276029286,-0.026565769379431,0.002191,-0.000550,-0.002443,0.109184,-0.051906,321.336944,24.033027,0.999530,0.991746,0.003812,0.330876,-0.000010,-0.000019,-0.000013,-0.000001,-0.000028,-35.443275,0.000034,
2131,2323,-2.71937411488539,-7.02519309914546,-0.00026091520561522,0.002789,-0.000545,-0.002705,0.135988,-0.044704,326.355582,24.257647,0.999253,0.986165,0.004748,0.318470,-0.000037,-0.000025,-0.000033,0.000003,-0.000065,-50.449544,0.000073,
2401,2308,3.16773999171558,-7.35178633427467,-0.0171210511956588,0.002475,-0.000767,-0.000652,0.115446,-0.049538,326.026321,23.083538,0.999783,0.994493,0.003354,0.409431,-0.000031,0.000004,-0.000012,0.000008,-0.000034,-73.270080,0.000036,
2296,3223,0.712826988977266,12.5666719657143,0.0218090168912113,0.002431,-0.000690,-0.003344,0.123006,-0.047526,311.463142,25.324823,0.999823,0.995639,0.002781,0.426033,-0.000004,-0.000019,-0.000016,0.000006,-0.000030,-32.745986,0.000031,
2221,2893,-0.858821049768981,5.40092387334477,-0.00889154728105268,0.002306,-0.000551,-0.002422,0.113697,-0.036211,316.726050,24.610547,0.999638,0.993632,0.003358,0.378042,-0.000037,-0.000014,-0.000003,-0.000013,-0.000037,-82.737387,0.000053,
2446,2728,4.06479672908545,1.82276373914843,-0.0316325374242297,0.002430,-0.000948,-0.000255,0.112047,-0.060796,319.148600,24.407161,0.999669,0.992528,0.003548,0.386252,-0.000021,0.000015,-0.000021,0.000025,-0.000031,-65.449212,0.000033,
2251,3028,-0.230158662147556,8.33485352560405,0.00168652177728745,0.002506,-0.000589,-0.002376,0.122879,-0.049918,314.554465,24.899679,0.999280,0.990443,0.003837,0.333096,-0.000040,-0.000017,-0.000010,-0.000013,-0.000044,-69.188966,0.000061,
2146,2428,-2.41074794404038,-4.72925357738546,-0.016208457306675,0.002847,-0.000147,-0.004220,0.143507,-0.034412,324.475765,24.288967,0.999048,0.987890,0.004637,0.308161,-0.000046,-0.000038,-0.000038,-0.000004,-0.000081,-48.051781,0.000096,
2296,3133,0.729089910397928,10.6160088342742,0.0176816759582152,0.002569,-0.000574,-0.001552,0.123274,-0.044968,312.902713,25.236555,0.999675,0.995192,0.003151,0.344630,-0.000019,-0.000007,-0.000012,0.000000,-0.000026,-58.696178,0.000030,
2176,2683,-1.80150990743381,0.831391833379008,-0.0290844654827538,0.002694,-0.000485,-0.004739,0.138381,-0.051408,320.127953,24.324923,0.999353,0.992015,0.003753,0.396397,-0.000047,-0.000010,-0.000017,-0.000003,-0.000053,-68.284643,0.000064,
2431,2593,3.76662652767851,-1.12399307115236,-0.00668004367889807,0.002071,-0.000507,-0.001841,0.101552,-0.039640,321.518566,23.925392,0.999588,0.991791,0.003842,0.432503,-0.000002,-0.000023,-0.000008,0.000001,-0.000026,-20.031402,0.000029,
2146,2608,-2.44131800151768,-0.801639298127732,-0.0332932627545119,0.002762,-0.000135,-0.006605,0.146939,-0.042412,321.425246,24.399501,0.999460,0.991236,0.003971,0.297015,-0.000034,-0.000003,-0.000010,0.000000,-0.000037,-73.344986,0.000042,
2281,3178,0.39591863481413,11.5902623633375,0.0298651848517011,0.002539,-0.000804,0.000578,0.114648,-0.052650,312.278550,25.280350,0.999583,0.993797,0.003231,0.310157,-0.000016,-0.000021,-0.000017,-0.000001,-0.000035,-40.988788,0.000041,
2206,2683,-1.14913375463372,0.833230871608407,-0.0290910236595323,0.002852,-0.000294,-0.004582,0.145529,-0.040543,320.042829,24.371386,0.999678,0.993380,0.003497,0.352951,-0.000043,-0.000004,-0.000015,0.000001,-0.000048,-70.654245,0.000055,
2251,2953,-0.216899940004016,6.70727691783119,-0.0086330211959762,0.002973,-0.000414,-0.004420,0.151168,-0.034913,315.719951,24.821132,0.999458,0.992667,0.003547,0.313924,-0.000041,-0.000010,-0.000011,-0.000007,-0.000044,-72.231699,0.000055,
2206,2833,-1.17389020880775,4.0963097143881,-0.013987393090872,0.002971,-0.000558,-0.003558,0.147780,-0.049672,317.734036,24.553366,0.999314,0.990914,0.003860,0.329318,-0.000035,-0.000010,-0.000007,-0.000008,-0.000037,-75.267273,0.000048,
2311,3283,1.02581062352639,13.8705615425646,0.00212121751707173,0.002485,-0.000568,-0.003071,0.124734,-0.045753,310.299607,25.601795,0.999588,0.994659,0.002899,0.349173,-0.000025,-0.000032,-0.000025,-0.000003,-0.000054,-40.653555,0.000064,
2191,2758,-1.48753527204032,2.46486636335467,-0.0229794280741089,0.002948,-0.000330,-0.004604,0.149942,-0.027711,318.924213,24.443796,0.999435,0.991542,0.003722,0.370889,-0.000045,-0.000012,-0.000017,-0.000005,-0.000052,-67.534031,0.000064,
2236,2983,-0.547822246278457,7.35675187355046,0.00314606648470317,0.002473,-0.000659,-0.002437,0.121536,-0.040855,315.331522,24.801669,0.999452,0.993006,0.003568,0.332426,-0.000044,-0.000012,-0.000010,-0.000009,-0.000047,-73.519627,0.000060,
2131,2563,-2.75978581817573,-1.78350268530451,-0.0276380410127217,0.002986,-0.000535,-0.002414,0.144351,-0.042103,322.259335,24.379356,0.999248,0.988580,0.004310,0.313247,-0.000031,-0.000008,-0.000016,0.000000,-0.000039,-63.232106,0.000045,
2356,2083,2.23101774793755,-12.2838740313152,0.0170075444567601,0.002511,-0.000102,-0.001996,0.121893,-0.012885,329.918320,22.813025,0.999420,0.983188,0.005009,0.273060,-0.000025,-0.000005,-0.000005,-0.000004,-0.000026,-76.392535,0.000033,
2371,2188,2.53877528324984,-9.98164523599462,0.00966617224372612,0.002931,-0.000483,-0.004468,0.149840,-0.045884,328.198743,22.965928,0.999169,0.983106,0.005097,0.302077,-0.000042,-0.000020,-0.000022,-0.000006,-0.000056,-58.244511,0.000068,
2266,3103,0.0832405916714194,9.96317903989506,0.0149856005406264,0.002559,-0.000382,-0.004769,0.133527,-0.034313,313.423195,25.079782,0.999703,0.994024,0.003301,0.338460,-0.000035,-0.000006,-0.000020,0.000004,-0.000046,-63.063941,0.000050,
2401,2338,3.1630708678108,-6.69588990243979,0.0012229632129106,0.001845,0.000254,-0.004977,0.102611,-0.026110,325.680833,23.279937,0.998890,0.983118,0.004958,0.330742,-0.000031,-0.000002,0.000003,-0.000002,-0.000031,85.091278,0.000037,
2296,3238,0.710000446298647,12.892621060298,0.0169484681923109,0.002624,-0.000545,-0.004762,0.136796,-0.039146,311.189810,25.389722,0.999701,0.993727,0.003154,0.398233,-0.000003,-0.000028,-0.000019,0.000007,-0.000038,-28.460259,0.000041,
2131,2338,-2.7221779050058,-6.69693410495395,-0.00368766443233426,0.002551,-0.000265,-0.003800,0.128426,-0.047865,326.077652,24.272449,0.999448,0.986993,0.004516,0.308266,-0.000040,-0.000026,-0.000036,0.000003,-0.000070,-50.417571,0.000079,
2386,2263,2.84913189178014,-8.33627459542747,-0.0102376251697365,0.002130,-0.000601,0.000568,0.095310,-0.039232,326.776336,23.127287,0.999103,0.984430,0.005031,0.299342,-0.000035,-0.000019,-0.000021,-0.000005,-0.000049,-55.029981,0.000060,
2416,2608,3.43525401119038,-0.794164017132921,-0.029621906616967,0.002288,-0.000507,-0.003866,0.118878,-0.044185,321.077120,24.075020,0.999447,0.990035,0.004023,0.345212,-0.000016,-0.000013,-0.000015,0.000000,-0.000029,-47.751839,0.000033,
2341,2038,1.91162315599229,-13.2716599707373,0.00818988549184496,0.002788,-0.000427,-0.005918,0.147983,-0.078936,330.594253,22.713106,0.998918,0.981668,0.005477,0.280154,-0.000017,0.000020,-0.000017,0.000027,-0.000023,-69.095897,0.000029,
2356,2113,2.22423153497285,-11.6254630005494,0.0142148981807964,0.001795,-0.000684,0.000410,0.080474,-0.032352,329.370300,22.907718,0.999487,0.982879,0.005021,0.242975,-0.000032,0.000001,-0.000015,0.000007,-0.000038,-68.628342,0.000041,
2311,3148,1.05195128800838,10.9431131588821,0.0169842804279483,0.002425,-0.000358,-0.003286,0.122776,-0.027565,312.635825,25.349113,0.999626,0.993055,0.003484,0.342792,-0.000018,-0.000005,-0.000010,0.000000,-0.000023,-62.246711,0.000027,
2401,2323,3.16532829457879,-7.02403605934434,0.00090920508500858,0.001562,-0.000492,-0.000558,0.073372,-0.053479,325.891780,23.265295,0.999367,0.988640,0.004238,0.270743,-0.000032,0.000008,-0.000002,0.000008,-0.000032,-86.841231,0.000033,
2446,2743,4.06256525052274,2.14895220332513,-0.0215694269716096,0.002428,-0.001132,0.000396,0.109490,-0.065741,318.986011,24.484091,0.999599,0.991879,0.003643,0.356532,-0.000023,0.000019,-0.000021,0.000028,-0.000032,-67.722497,0.000035,
2386,2233,2.85765200424394,-8.99624925250683,0.0213059090057186,0.002464,-0.001091,0.001620,0.106594,-0.034731,327.536073,23.089191,0.999312,0.984305,0.005318,0.249378,-0.000033,-0.000016,-0.000020,-0.000003,-0.000046,-56.748220,0.000055,
2296,3148,0.726220248986245,10.9415930266264,0.020507917523048,0.002133,-0.000412,-0.003128,0.108606,-0.042356,312.666031,25.295531,0.999620,0.993992,0.003378,0.316773,-0.000016,-0.000009,-0.000011,-0.000001,-0.000024,-54.272198,0.000028,
2221,2698,-0.825944582831628,1.15980632629405,-0.0295715323448462,0.002559,-0.000573,-0.003753,0.129468,-0.056683,319.740306,24.338162,0.999624,0.993809,0.003307,0.385349,-0.000043,-0.000010,-0.000017,-0.000003,-0.000050,-67.362546,0.000059,
2176,2698,-1.80438233333212,1.15888343540981,-0.0316503973575664,0.002590,-0.000328,-0.003796,0.130769,-0.033072,319.855052,24.379484,0.999398,0.991735,0.003701,0.372954,-0.000046,-0.000017,-0.000021,-0.000006,-0.000057,-62.222141,0.000070,
2146,2443,-2.41323575094809,-4.40214875773587,-0.0187242539699923,0.002909,-0.000062,-0.005199,0.149331,-0.041634,324.218637,24.248801,0.999237,0.988038,0.004593,0.350518,-0.000048,-0.000033,-0.000037,-0.000002,-0.000079,-50.980428,0.000092,
2251,2968,-0.219811421870858,7.03340296337366,-0.00521074444958458,0.002608,-0.000057,-0.002787,0.129228,-0.004637,315.481626,24.861608,0.999541,0.994046,0.003332,0.326482,-0.000045,-0.000013,-0.000011,-0.000010,-0.000049,-72.926830,0.000063,
2431,2608,3.76269737137662,-0.794916650769089,-0.0225260153090971,0.002396,-0.000758,-0.001986,0.116922,-0.051894,321.157015,24.015065,0.999421,0.988982,0.004213,0.381649,-0.000007,-0.000016,-0.000012,0.000001,-0.000024,-35.106291,0.000027,
2281,3193,0.393263357087882,11.9153891298949,0.0299680920394962,0.002485,-0.000683,-0.001188,0.118106,-0.049295,312.037193,25.290297,0.999639,0.994037,0.003150,0.330269,-0.000014,-0.000023,-0.000016,-0.000001,-0.000036,-37.280591,0.000042,
2161,2638,-2.12028468326971,-0.14767994553857,-0.0348851944400508,0.002851,-0.000487,-0.005066,0.146458,-0.046490,320.868965,24.385650,0.999747,0.994026,0.003397,0.313057,-0.000041,-0.000013,-0.000013,-0.000008,-0.000046,-67.874716,0.000058,
2221,2908,-0.861162808869359,5.7267069073967,-0.00514659424067077,0.002254,-0.000741,-0.003420,0.114449,-0.047862,316.513854,24.647108,0.999557,0.992624,0.003764,0.348271,-0.000032,-0.000024,-0.000004,-0.000022,-0.000033,-67.524791,0.000056,
2191,2773,-1.49151400945171,2.79239570280262,-0.0385411708279548,0.002703,-0.000665,-0.003085,0.133827,-0.039649,318.534152,24.453837,0.999298,0.990486,0.004039,0.363721,-0.000043,-0.000019,-0.000019,-0.000009,-0.000053,-61.311122,0.000067,
2236,2998,-0.550497847979901,7.68209124050864,0.00142418277414436,0.002566,-0.000607,-0.002504,0.126014,-0.045795,315.077047,24.776686,0.999449,0.991772,0.003715,0.372757,-0.000044,-0.000013,-0.000008,-0.000011,-0.000046,-77.023414,0.000060,
2356,2098,2.22732622193095,-11.9543896817469,0.0120113870571572,0.002259,-0.000565,0.000838,0.100239,-0.034489,329.613448,22.855461,0.999386,0.982505,0.005124,0.251185,-0.000028,-0.000009,-0.000012,-0.000003,-0.000034,-63.873750,0.000041,
2446,2758,4.05891985490447,2.47696557650994,-0.034275208928932,0.002618,-0.000633,-0.002106,0.127714,-0.059300,318.652937,24.540736,0.999578,0.990515,0.003871,0.358959,-0.000018,0.000020,-0.000016,0.000026,-0.000024,-69.512225,0.000029,
2206,2848,-1.17723303803593,4.42286735511361,-0.0199294583579785,0.002762,-0.000749,-0.001699,0.132221,-0.045948,317.424638,24.557467,0.999300,0.991589,0.003700,0.345478,-0.000034,-0.000011,-0.000006,-0.000009,-0.000035,-76.560202,0.000047,
2311,3298,1.02230877803253,14.1952879420637,-0.000680257742601498,0.002172,-0.000600,-0.000505,0.101549,-0.039533,310.006790,25.585064,0.999658,0.995037,0.002824,0.402806,-0.000032,-0.000029,-0.000033,0.000002,-0.000064,-46.359850,0.000072,
2251,3043,-0.232272854204886,8.66080154720535,0.00598518290041739,0.002759,-0.000500,-0.002470,0.134915,-0.039503,314.357177,24.967856,0.999494,0.992271,0.003541,0.297846,-0.000038,-0.000012,-0.000009,-0.000010,-0.000041,-72.653049,0.000054,
2401,2353,3.1598721757553,-6.36697705473678,-0.00490659477861755,0.002158,-0.000197,-0.003745,0.112326,-0.038605,325.396423,23.346738,0.998810,0.983055,0.005043,0.298857,-0.000026,0.000000,0.000006,0.000001,-0.000027,78.406048,0.000031,
2146,2623,-2.444148475357,-0.474802303964644,-0.0325741171475329,0.002628,-0.000262,-0.002432,0.128133,-0.029888,321.169432,24.403570,0.999636,0.992646,0.003719,0.314034,-0.000036,-0.000008,-0.000013,-0.000003,-0.000041,-69.151918,0.000049,
2131,2578,-2.76318795290604,-1.45554144910132,-0.0335501093371136,0.002552,-0.000646,-0.000272,0.117986,-0.026092,321.940558,24.410533,0.999576,0.992878,0.003812,0.304532,-0.000034,-0.000008,-0.000016,0.000000,-0.000042,-64.782266,0.000049,
2296,3253,0.706571619109972,13.2187193313143,0.0128307033036208,0.002465,-0.000473,-0.002063,0.120391,-0.026009,310.892343,25.472326,0.999703,0.991522,0.003497,0.357094,-0.000002,-0.000032,-0.000018,0.000007,-0.000041,-25.113181,0.000043,
2266,3118,0.0810222877358022,10.2880202793491,0.0231350772951942,0.002598,-0.000386,-0.002852,0.128925,-0.037306,313.241717,25.101144,0.999644,0.994091,0.003302,0.338620,-0.000032,-0.000012,-0.000018,-0.000001,-0.000043,-59.474849,0.000050,
2386,2248,2.85310131596063,-8.66597523472329,0.00324662133112952,0.002230,-0.000791,0.001647,0.095926,-0.033048,327.132058,23.103359,0.999255,0.984172,0.005189,0.283472,-0.000034,-0.000016,-0.000021,-0.000002,-0.000048,-56.829695,0.000057,
2296,3163,0.724227423875785,11.2665466349922,0.0327122181647042,0.002211,-0.000501,-0.000247,0.102477,-0.023485,312.516513,25.339849,0.999671,0.993820,0.003299,0.319949,-0.000014,-0.000015,-0.000014,-0.000001,-0.000028,-43.742973,0.000033,
2206,2698,-1.15288047312415,1.15965620489623,-0.0366758767464148,0.002506,-0.000793,-0.000296,0.115882,-0.057882,319.706772,24.323342,0.999425,0.992281,0.003646,0.400826,-0.000043,-0.000013,-0.000018,-0.000005,-0.000051,-65.604705,0.000062,
2371,2203,2.53578993012578,-9.65297856025703,0.00680866262399604,0.002982,-0.000473,-0.005076,0.154342,-0.056778,327.937465,22.985874,0.998874,0.981137,0.005437,0.314916,-0.000044,-0.000023,-0.000021,-0.000010,-0.000057,-57.986411,0.000073,
2386,2278,2.84757258653329,-8.00875372438833,0.00238467235857343,0.002207,-0.000545,-0.002778,0.110832,-0.060351,326.654918,23.237969,0.999628,0.992007,0.003761,0.212385,-0.000033,-0.000007,-0.000021,0.000004,-0.000044,-61.082672,0.000049,
2356,2128,2.2219144905254,-11.29732803322,0.0126145478478179,0.002206,-0.000591,-0.002444,0.109349,-0.063668,329.144720,22.884896,0.999337,0.983014,0.005080,0.276260,-0.000031,-0.000001,-0.000019,0.000008,-0.000041,-64.323679,0.000043,
2311,3163,1.0498290907721,11.2675528638559,0.0264186441020229,0.002558,-0.000678,-0.000913,0.120635,-0.035459,312.467489,25.356620,0.999678,0.993814,0.003329,0.358231,-0.000017,-0.000010,-0.000012,-0.000001,-0.000027,-52.753732,0.000031,
2131,2353,-2.72475201397988,-6.36828502511914,-0.00750985028980722,0.002619,0.000086,-0.004188,0.132812,-0.030349,325.807942,24.303937,0.999286,0.986551,0.004603,0.302007,-0.000043,-0.000027,-0.000035,0.000001,-0.000071,-51.629476,0.000081,
2221,2713,-0.828752069067402,1.4861579205811,-0.0250118175032412,0.002246,-0.001036,-0.000832,0.105564,-0.055236,319.510989,24.368265,0.999257,0.990849,0.003813,0.375663,-0.000042,-0.000009,-0.000017,-0.000002,-0.000049,-67.392897,0.000058,
2176,2713,-1.80665468522058,1.48544295849731,-0.0299162168229827,0.002585,-0.000403,-0.005938,0.137168,-0.046415,319.632487,24.419773,0.999351,0.990877,0.003838,0.331663,-0.000044,-0.000016,-0.000022,-0.000004,-0.000056,-61.212262,0.000067,
2341,2053,1.90988920413033,-12.9438768275114,0.0265123362681265,0.002584,-0.000381,-0.004209,0.132747,-0.062372,330.490228,22.805331,0.999105,0.982224,0.005239,0.243845,-0.000020,-0.000001,-0.000014,0.000006,-0.000027,-61.769940,0.000028,
2281,3208,0.391249522626588,12.2405741446263,0.0380349279083134,0.002456,-0.000579,-0.003428,0.124365,-0.047368,311.865202,25.356903,0.999805,0.995878,0.002724,0.291842,-0.000011,-0.000022,-0.000016,0.000000,-0.000034,-35.617625,0.000039,
2161,2653,-2.12297567118501,0.179406531424164,-0.0399572537122026,0.002999,-0.000098,-0.005022,0.153248,-0.036930,320.590108,24.376566,0.999699,0.992799,0.003524,0.342563,-0.000040,-0.000014,-0.000015,-0.000007,-0.000047,-65.741702,0.000058,
2296,3268,0.703753779210114,13.5437561897751,0.00984794068693873,0.002610,-0.000530,-0.002371,0.128036,-0.039071,310.628988,25.493624,0.999637,0.993137,0.003269,0.351195,-0.000005,-0.000026,-0.000021,0.000008,-0.000039,-32.211856,0.000041,
2431,2623,3.75939651178249,-0.467453454129235,-0.0233775820812525,0.002293,-0.000995,-0.000103,0.105164,-0.056388,320.894089,24.083702,0.999490,0.989935,0.004001,0.359013,-0.000009,-0.000011,-0.000019,0.000009,-0.000029,-43.597588,0.000030,
2251,3058,-0.233602297070078,8.98479033052852,0.023422798353181,0.002663,0.000040,-0.005176,0.139644,-0.013213,314.263241,24.928485,0.999574,0.993444,0.003338,0.385861,-0.000036,-0.000016,-0.000009,-0.000013,-0.000039,-69.511472,0.000055,
2401,2368,3.1570752259169,-6.03985504250653,-0.00225530675743357,0.002509,-0.001027,0.001812,0.108028,-0.045872,325.171878,23.335564,0.998797,0.982916,0.005032,0.349931,-0.000024,-0.000011,0.000007,-0.000008,-0.000026,66.982676,0.000036,
2326,1993,1.59271480683854,-14.2600158319977,0.0266632901602293,0.002346,-0.000391,-0.000323,0.108320,-0.027998,331.433716,22.803677,0.998049,0.974732,0.006393,0.225634,-0.000015,0.000024,-0.000048,0.000056,-0.000047,-55.957645,0.000060,
2191,2788,-1.49393601595123,3.1186564098204,-0.0393884866213625,0.002543,-0.000050,-0.008268,0.142856,-0.053624,318.292378,24.469914,0.999012,0.988041,0.004495,0.348226,-0.000044,-0.000020,-0.000019,-0.000009,-0.000055,-60.901779,0.000069,
2221,2923,-0.863497317687095,6.05328163943402,-0.0113182813371395,0.002748,-0.000402,-0.006667,0.147711,-0.047978,316.250757,24.678006,0.999533,0.992882,0.003570,0.335883,-0.000032,-0.000020,-0.000006,-0.000018,-0.000035,-68.305456,0.000053,
2146,2638,-2.44637594663694,-0.148733548033384,-0.0353140782808623,0.002959,-0.000438,-0.003784,0.147384,-0.048746,320.923202,24.343698,0.999709,0.993119,0.003498,0.363610,-0.000036,-0.000009,-0.000013,-0.000004,-0.000041,-68.189994,0.000049,
2236,3013,-0.553163887016911,8.00781288867032,0.00227202106759705,0.002522,-0.000700,-0.002117,0.122682,-0.052760,314.835985,24.810488,0.999317,0.990229,0.003938,0.352490,-0.000039,-0.000016,-0.000011,-0.000012,-0.000043,-68.665256,0.000057,
2296,3178,0.721399403527482,11.5917603919187,0.0269958986949064,0.002425,-0.000612,-0.002139,0.118687,-0.042065,312.239317,25.341393,0.999663,0.993877,0.003258,0.328804,-0.000009,-0.000023,-0.000016,0.000001,-0.000033,-33.380888,0.000038,
2266,3133,0.0782838923807212,10.6120746682415,0.0304731421643396,0.002153,-0.000451,-0.001225,0.102976,-0.045163,313.032485,25.052718,0.999601,0.995426,0.003106,0.403357,-0.000033,-0.000011,-0.000016,-0.000002,-0.000041,-62.075147,0.000049,
2206,2863,-1.17959114693174,4.74858352668436,-0.0164835225386355,0.002442,-0.000166,-0.006218,0.131997,-0.045211,317.209206,24.561762,0.999341,0.992736,0.003451,0.358118,-0.000032,-0.000010,-0.000009,-0.000007,-0.000036,-70.022455,0.000045,
2386,2293,2.84512024283793,-7.6810621766268,-0.000130950534980911,0.002691,-0.000397,-0.004642,0.139727,-0.044496,326.420687,23.178549,0.999839,0.994729,0.003246,0.333329,-0.000030,0.000001,-0.000015,0.000007,-0.000037,-67.893433,0.000039,
2296,3283,0.700684322033069,13.8691035303707,0.00387952183353946,0.002595,-0.000427,-0.004437,0.134442,-0.031540,310.339018,25.510927,0.999518,0.993257,0.003237,0.370041,-0.000009,-0.000027,-0.000027,0.000011,-0.000047,-35.801596,0.000049,
2206,2713,-1.15530775531736,1.48595734647878,-0.0319570105945672,0.002205,-0.000689,-0.002142,0.107918,-0.054030,319.494724,24.347884,0.998733,0.987212,0.004603,0.397028,-0.000041,-0.000012,-0.000018,-0.000003,-0.000050,-64.655457,0.000059,
2371,2218,2.53322807823504,-9.32455609687752,0.0109938361492254,0.003015,-0.000629,-0.004341,0.153235,-0.074761,327.729151,23.069476,0.998502,0.976643,0.006121,0.256903,-0.000041,-0.000026,-0.000019,-0.000013,-0.000054,-56.328807,0.000071,
2281,3223,0.388212689311725,12.5650235481612,0.0400505001971965,0.002139,-0.000556,-0.001652,0.103864,-0.034927,311.616051,25.313343,0.999801,0.995482,0.002883,0.374389,-0.000010,-0.000013,-0.000018,0.000006,-0.000029,-42.335616,0.000031,
2311,3178,1.04713279874442,11.5930247741221,0.0227545311035442,0.002626,-0.000570,-0.004834,0.137201,-0.050982,312.207644,25.391754,0.999726,0.993951,0.003293,0.338548,-0.000014,-0.000016,-0.000014,-0.000001,-0.000029,-42.364366,0.000034,
2131,2368,-2.72722089185698,-6.04045930878699,-0.0114127535129001,0.002634,0.000438,-0.007017,0.142105,-0.013437,325.542781,24.265558,0.999054,0.987144,0.004571,0.364895,-0.000045,-0.000026,-0.000034,0.000000,-0.000071,-52.557147,0.000082,
2326,2008,1.59040480718451,-13.931135113894,0.0337363941154649,0.002393,-0.000296,0.001308,0.104920,-0.014194,331.247981,22.856669,0.998481,0.975086,0.006326,0.224266,-0.000018,0.000043,-0.000029,0.000055,-0.000030,-68.277496,0.000055,
2356,2143,2.21962966026938,-10.9679943068674,0.0119124155039003,0.002704,-0.000388,-0.003820,0.137073,-0.045547,328.924494,22.937343,0.998885,0.979335,0.005612,0.283857,-0.000032,-0.000011,-0.000018,0.000000,-0.000042,-60.461211,0.000049,
2176,2728,-1.80927406207693,1.81135762853075,-0.0338726991695921,0.002857,-0.000621,-0.004523,0.145220,-0.055270,319.364375,24.355031,0.999373,0.990751,0.003954,0.400323,-0.000045,-0.000019,-0.000024,-0.000005,-0.000059,-59.125867,0.000071,
2341,2068,1.90641961819029,-12.6156915790888,0.0246007065787239,0.002242,-0.000633,-0.001723,0.108373,-0.058335,330.209059,22.725421,0.998915,0.977866,0.005715,0.367994,-0.000021,-0.000001,-0.000012,0.000005,-0.000027,-63.900283,0.000029,
2161,2668,-2.12405259975299,0.503661450833206,-0.0142410547526879,0.002783,-0.000090,-0.003651,0.139115,-0.035525,320.548145,24.376911,0.999699,0.994054,0.003272,0.353525,-0.000042,-0.000023,-0.000016,-0.000013,-0.000051,-60.098813,0.000068,
2221,2728,-0.830956704526027,1.81285231734049,-0.0245667097355522,0.002442,-0.000647,-0.003343,0.122743,-0.056037,319.288116,24.402797,0.999348,0.991206,0.003683,0.359339,-0.000043,-0.000015,-0.000020,-0.000004,-0.000054,-62.241367,0.000064,
2251,3073,-0.237369594406122,9.31103256614688,0.013967162864958,0.002552,-0.000276,-0.001069,0.120935,-0.013361,313.920043,24.952074,0.999505,0.992361,0.003549,0.384537,-0.000036,-0.000009,-0.000012,-0.000004,-0.000040,-68.929844,0.000049,
2431,2638,3.75613912784313,-0.140407484815,-0.0245633789479029,0.002045,-0.001015,-0.000848,0.096484,-0.073719,320.631651,24.128826,0.999590,0.991500,0.003835,0.347202,-0.000012,-0.000002,-0.000025,0.000018,-0.000032,-50.745736,0.000032,
2191,2803,-1.49621172216787,3.44442932893493,-0.029871027995398,0.002550,-0.000607,-0.002842,0.126037,-0.049417,318.111330,24.507246,0.999056,0.987660,0.004469,0.329243,-0.000044,-0.000023,-0.000018,-0.000013,-0.000054,-60.227919,0.000071,
2401,2383,3.1542035870874,-5.71082343416249,-0.00719672502208368,0.002550,-0.000469,-0.003280,0.128525,-0.050017,324.907860,23.427508,0.999267,0.985613,0.004736,0.301411,-0.000023,-0.000014,0.000004,-0.000013,-0.000025,69.786815,0.000038,
2296,3298,0.696589468801015,14.1947731625032,-0.00816129950760569,0.002538,-0.000860,0.000718,0.114184,-0.047074,309.971404,25.553022,0.999640,0.994856,0.003035,0.340636,-0.000011,-0.000027,-0.000036,0.000018,-0.000057,-38.725215,0.000058,
2146,2653,-2.44884044710788,0.177508061212528,-0.0325366392864908,0.002710,-0.000348,-0.004834,0.139155,-0.048514,320.695247,24.331935,0.999719,0.992330,0.003530,0.383897,-0.000034,-0.000010,-0.000015,-0.000002,-0.000041,-64.284805,0.000049,
2221,2938,-0.866607115415295,6.37905772895327,-0.0112957555357411,0.002607,-0.000698,-0.001712,0.125233,-0.051855,315.984104,24.688143,0.999552,0.994101,0.003285,0.340194,-0.000035,-0.000011,-0.000011,-0.000007,-0.000039,-69.351752,0.000049,
2296,3193,0.718750943489216,11.9171866332103,0.0256700027294414,0.002558,-0.000609,-0.003201,0.128433,-0.038640,311.992097,25.370946,0.999670,0.993940,0.003211,0.331498,-0.000008,-0.000026,-0.000014,0.000000,-0.000034,-29.004241,0.000039,
2236,3028,-0.555335222698158,8.3333389392389,0.00676445364183564,0.002626,-0.000694,-0.002983,0.130344,-0.047329,314.636296,24.842010,0.999472,0.991828,0.003601,0.346659,-0.000038,-0.000017,-0.000009,-0.000013,-0.000041,-68.783486,0.000057,
2386,2308,2.84151861962369,-7.35205544328318,-0.0101104925962545,0.002749,-0.000100,-0.004843,0.143237,-0.025687,326.098182,23.167578,0.999783,0.994522,0.003333,0.408991,-0.000029,0.000000,-0.000011,0.000004,-0.000033,-71.004865,0.000036,
2266,3148,0.0753843291440752,10.9381800175536,0.0234021563381361,0.002411,-0.000710,-0.002169,0.117921,-0.053539,312.742442,25.109135,0.999262,0.992259,0.003737,0.363142,-0.000029,-0.000009,-0.000015,-0.000001,-0.000037,-62.127897,0.000044,
2326,2023,1.58702912770462,-13.6013889051033,0.0230996937738155,0.002440,-0.000348,-0.000684,0.113912,-0.042827,330.927506,22.835490,0.998758,0.980202,0.005831,0.255210,-0.000025,0.000044,-0.000022,0.000051,-0.000032,-73.718350,0.000051,
2281,3238,0.384760383939646,12.8914347061723,0.0256363247244735,0.002323,-0.000458,-0.003843,0.119721,-0.038752,311.264683,25.377564,0.999799,0.994443,0.003098,0.332548,-0.000008,-0.000022,-0.000019,0.000006,-0.000036,-34.802766,0.000038,
2206,2878,-1.18234706426153,5.07513151486295,-0.0194726580409679,0.002629,-0.000516,-0.004219,0.134181,-0.041665,316.941965,24.596386,0.999596,0.994425,0.003146,0.343730,-0.000032,-0.000007,-0.000007,-0.000006,-0.000034,-76.045106,0.000043,
2311,3193,1.04469292635124,11.918250975418,0.0255745114526462,0.002715,-0.000370,-0.005437,0.143452,-0.039488,311.991664,25.419634,0.999706,0.994303,0.003172,0.353103,-0.000013,-0.000020,-0.000012,-0.000004,-0.000029,-36.399832,0.000036,
2206,2728,-1.15715063266765,1.81304053002597,-0.0316549254076222,0.002814,-0.000470,-0.003753,0.141149,-0.041265,319.286425,24.403596,0.999192,0.990074,0.004011,0.370859,-0.000043,-0.000016,-0.000023,-0.000003,-0.000056,-60.172620,0.000066,
2371,2233,2.52968250314644,-8.99522843032869,0.0078746056404384,0.002658,-0.000637,-0.003336,0.133327,-0.062053,327.440639,23.134470,0.998827,0.980475,0.005698,0.248206,-0.000037,-0.000022,-0.000022,-0.000006,-0.000053,-53.862607,0.000065,
2311,1993,1.26531303270371,-14.2599198257602,0.0278316239463834,0.002551,-0.000453,-0.001831,0.122802,-0.054504,331.464492,22.918895,0.999294,0.980756,0.005849,0.190032,-0.000016,0.000029,-0.000056,0.000066,-0.000054,-56.034797,0.000070,
2341,2083,1.90349329396395,-12.2838704761356,0.0195234601284255,0.002463,-0.000307,-0.002533,0.121435,-0.029840,329.936925,22.923371,0.999335,0.982340,0.005201,0.238643,-0.000022,-0.000003,-0.000013,0.000004,-0.000029,-63.477706,0.000031,
2431,2653,3.75389957810687,0.186675554665698,-0.0188890161899167,0.002295,-0.000567,-0.001142,0.109254,-0.045888,320.447627,24.194448,0.999547,0.991007,0.003944,0.359797,-0.000014,-0.000003,-0.000032,0.000025,-0.000041,-49.843682,0.000042,
2161,2683,-2.12711752702645,0.831058582111922,-0.0250676260710634,0.002895,-0.000284,-0.004405,0.146559,-0.045347,320.221802,24.376725,0.999397,0.991711,0.003704,0.354801,-0.000044,-0.000015,-0.000017,-0.000007,-0.000052,-65.010776,0.000064,
2251,3088,-0.24050727451117,9.63654962504774,0.00925919028691169,0.002350,-0.000712,-0.002260,0.115410,-0.037796,313.630094,24.968517,0.999527,0.991389,0.003653,0.366159,-0.000034,-0.000015,-0.000019,-0.000003,-0.000045,-58.293767,0.000054,
2176,2743,-1.81128116990329,2.13738870111981,-0.0192424964424731,0.002620,-0.000672,-0.001149,0.123812,-0.050839,319.221563,24.440713,0.999444,0.991145,0.004036,0.331162,-0.000046,-0.000018,-0.000020,-0.000007,-0.000056,-62.790446,0.000070,
2356,2158,2.21726729088001,-10.6389042854207,0.0141982416903375,0.002778,0.000021,-0.006705,0.150724,-0.043027,328.715106,23.020525,0.999281,0.982563,0.005232,0.244613,-0.000039,-0.000030,-0.000022,-0.000013,-0.000057,-50.871046,0.000074,
2401,2398,3.15147645950319,-5.38318156737978,-0.00550267767118839,0.002631,-0.000446,-0.002964,0.131142,-0.045733,324.681772,23.453031,0.999380,0.986171,0.004678,0.327282,-0.000020,-0.000004,0.000009,0.000000,-0.000024,66.738034,0.000027,
2191,2818,-1.4987218818984,3.76999472321251,-0.0288601112873721,0.002370,-0.000665,-0.005218,0.125145,-0.065096,317.875357,24.483642,0.998805,0.985672,0.004675,0.351515,-0.000040,-0.000011,-0.000012,-0.000007,-0.000044,-69.591469,0.000055,
2221,2953,-0.868936305651108,6.70507455945376,-0.00992791039851681,0.002635,-0.000536,-0.004180,0.134513,-0.045010,315.760101,24.723208,0.999453,0.992774,0.003548,0.330114,-0.000035,-0.000013,-0.000014,-0.000006,-0.000042,-63.184560,0.000053,
2221,2743,-0.834287145562993,2.13996731930536,-0.0297516402740143,0.002333,-0.001042,0.000166,0.106377,-0.061563,318.984571,24.440447,0.999353,0.990475,0.003911,0.335387,-0.000045,-0.000016,-0.000017,-0.000008,-0.000053,-65.234119,0.000066,
2326,2038,1.58358090052038,-13.2700952120036,0.0128895597644032,0.002207,0.000091,-0.005165,0.118824,-0.048958,330.605447,22.944704,0.999193,0.984622,0.005024,0.178209,-0.000032,0.000029,-0.000024,0.000037,-0.000040,-71.158056,0.000045,
2236,3043,-0.557582013490613,8.65916273565285,0.0106475347467381,0.002769,-0.000617,-0.002879,0.136610,-0.044783,314.429913,24.903265,0.999622,0.992418,0.003476,0.308094,-0.000036,-0.000015,-0.000007,-0.000013,-0.000038,-72.344004,0.000053,
2386,2323,2.83761565456028,-7.02349081282371,-0.0130323138457129,0.002307,-0.000683,-0.000576,0.107512,-0.042347,325.795395,23.228222,0.999648,0.992948,0.003790,0.377092,-0.000031,0.000002,-0.000003,0.000002,-0.000031,-85.001494,0.000035,
2281,3253,0.380974322591854,13.2175282547496,0.0109910971058866,0.002480,-0.000537,-0.002072,0.121029,-0.033429,310.896833,25.407920,0.999755,0.993584,0.003252,0.333875,-0.000005,-0.000025,-0.000017,0.000004,-0.000035,-29.594107,0.000038,
2266,3163,0.0729073441695931,11.264158738016,0.0291953611674103,0.002368,-0.000465,-0.000242,0.109721,-0.026043,312.536699,25.200204,0.999307,0.990943,0.003897,0.323668,-0.000026,-0.000012,-0.000015,-0.000002,-0.000036,-57.156463,0.000043,
2311,3208,1.04235143609545,12.2435503671833,0.0313310874925037,0.002748,-0.000265,-0.005183,0.144132,-0.039957,311.794663,25.486629,0.999702,0.993956,0.003168,0.316475,-0.000012,-0.000024,-0.000012,-0.000004,-0.000031,-32.315449,0.000039,
2311,2008,1.26317269037143,-13.9306450696445,0.0278449731990236,0.003140,-0.000239,-0.001914,0.150163,-0.039676,331.250832,22.926175,0.999352,0.981653,0.005703,0.233282,-0.000022,0.000041,-0.000036,0.000057,-0.000038,-65.598612,0.000058,
2206,2893,-1.18577432085649,5.4015657382743,-0.0294673261242338,0.002545,-0.000887,-0.003443,0.127714,-0.060230,316.607711,24.596509,0.999812,0.995530,0.002981,0.341522,-0.000033,-0.000010,-0.000005,-0.000009,-0.000034,-77.955978,0.000046,
2371,2248,2.52599024072918,-8.66473946642544,-0.00797041011685451,0.002855,0.000190,-0.006039,0.152274,-0.025130,327.084425,23.156439,0.999383,0.983997,0.005236,0.307423,-0.000038,-0.000023,-0.000022,-0.000007,-0.000054,-54.353848,0.000067,
2431,2668,3.75013673062763,0.515936824545371,-0.033678053708968,0.002609,-0.000754,-0.002449,0.128446,-0.052249,320.098183,24.328062,0.999474,0.990830,0.004127,0.270659,-0.000009,-0.000001,-0.000034,0.000029,-0.000040,-48.238643,0.000041,
2341,2098,1.90018646100027,-11.9549213874018,0.0148665684939147,0.002442,-0.000634,-0.000834,0.114446,-0.034246,329.649802,22.903089,0.999486,0.983959,0.004954,0.294636,-0.000024,-0.000006,-0.000017,0.000004,-0.000034,-59.378630,0.000038,
2206,2743,-1.16004014665377,2.139778529925,-0.0301689468348059,0.002537,-0.000563,-0.001879,0.122404,-0.045824,319.036342,24.458982,0.999448,0.991383,0.003831,0.327923,-0.000045,-0.000015,-0.000021,-0.000004,-0.000056,-62.964952,0.000067,
2251,3103,-0.242120582143045,9.96165851402722,0.0164153705810008,0.002758,-0.000565,-0.004357,0.141125,-0.041956,313.470538,25.006138,0.999583,0.992650,0.003501,0.346627,-0.000034,-0.000008,-0.000017,0.000000,-0.000043,-63.570590,0.000049,
2176,2758,-1.81440737924744,2.46435325122701,-0.0269413376116745,0.002634,-0.000804,0.000095,0.120621,-0.038177,318.910243,24.430216,0.999332,0.990390,0.004018,0.367005,-0.000045,-0.000015,-0.000018,-0.000006,-0.000054,-64.886759,0.000066,
2401,2413,3.14844230241716,-5.05523166528134,-0.00401062342558589,0.002466,-0.000269,-0.002108,0.120561,-0.030690,324.440496,23.498905,0.999437,0.986871,0.004588,0.343548,-0.000024,-0.000009,0.000009,-0.000005,-0.000028,63.972360,0.000036,
2326,2053,1.58146202973884,-12.9426657840194,0.0155977592002046,0.002670,-0.000221,-0.004801,0.138650,-0.050098,330.407321,22.847586,0.999562,0.988123,0.004420,0.311885,-0.000035,0.000003,-0.000019,0.000011,-0.000043,-67.110279,0.000045,
2161,2698,-2.1302482313452,1.15812370275735,-0.0280581522682155,0.002565,-0.000116,-0.002942,0.126996,-0.018140,319.933679,24.379335,0.999223,0.989329,0.004034,0.389716,-0.000043,-0.000021,-0.000021,-0.000009,-0.000055,-58.812586,0.000069,
2281,3268,0.377879850117356,13.5423511199958,0.00562890607284317,0.002607,-0.000634,-0.000864,0.122798,-0.037105,310.607761,25.386914,0.999758,0.993998,0.003207,0.377620,-0.000010,-0.000018,-0.000019,0.000006,-0.000033,-39.091467,0.000035,
2356,2173,2.21420415595485,-10.311517491503,0.0135276025026769,0.002684,-0.000110,-0.005445,0.141981,-0.063166,328.459693,22.944590,0.999391,0.982883,0.005146,0.341927,-0.000040,-0.000025,-0.000019,-0.000012,-0.000053,-55.484552,0.000069,
2221,2968,-0.871331560636232,7.03065514150459,-0.0062058151258384,0.002653,-0.000525,-0.003489,0.133114,-0.047716,315.545296,24.747948,0.999406,0.990887,0.003824,0.320848,-0.000035,-0.000014,-0.000014,-0.000007,-0.000042,-62.570023,0.000053,
2191,2833,-1.50078105662397,4.0960016008019,-0.0239788141331019,0.002719,-0.000690,-0.002619,0.133070,-0.058772,317.680035,24.512021,0.999259,0.990530,0.003902,0.343626,-0.000039,-0.000012,-0.000006,-0.000010,-0.000040,-77.357205,0.000053,
2236,3058,-0.559641754038502,8.98403631403621,0.0150350878595304,0.002795,-0.000299,-0.006526,0.149755,-0.041698,314.235000,24.883244,0.999641,0.993359,0.003289,0.351519,-0.000035,-0.000021,-0.000008,-0.000017,-0.000038,-65.003878,0.000056,
2221,2758,-0.836608053210956,2.46673941044651,-0.0281690322210011,0.002500,-0.000718,-0.000013,0.114780,-0.031406,318.762054,24.469529,0.999501,0.990962,0.003765,0.355594,-0.000047,-0.000010,-0.000014,-0.000006,-0.000052,-71.195629,0.000064,
2311,2023,1.26001937365186,-13.6017310302618,0.0230446008903868,0.002797,-0.000066,-0.005709,0.147426,-0.057529,330.967447,22.884545,0.999193,0.983467,0.005290,0.292963,-0.000030,0.000039,-0.000026,0.000047,-0.000039,-71.451594,0.000050,
2311,3223,1.03928458796996,12.5680028014301,0.0312377569956652,0.002501,-0.000592,-0.004811,0.131420,-0.040106,311.535628,25.444780,0.999599,0.994189,0.003098,0.389219,-0.000013,-0.000017,-0.000014,-0.000001,-0.000029,-40.485336,0.000035,
2266,3178,0.0702969569417924,11.5886918448971,0.0282884840848396,0.002481,-0.000641,-0.000996,0.117285,-0.045083,312.291525,25.167735,0.999450,0.992489,0.003495,0.361605,-0.000022,-0.000016,-0.000016,-0.000003,-0.000035,-50.753484,0.000042,
2281,3283,0.374959139610656,13.8674488157228,-0.000183807620828702,0.002745,-0.000696,-0.002363,0.134115,-0.050687,310.324276,25.403118,0.999508,0.993406,0.003243,0.374206,-0.000016,-0.000019,-0.000025,0.000008,-0.000042,-43.201996,0.000045,
2386,2338,2.8357134351457,-6.69591556302324,-0.00152580283850057,0.002160,-0.000179,-0.003508,0.111450,-0.030875,325.652627,23.317558,0.999107,0.986617,0.004634,0.343848,-0.000031,-0.000009,0.000002,-0.000009,-0.000031,85.930363,0.000041,
2431,2683,3.74709993153137,0.842298674005932,-0.0312001320632476,0.002311,-0.000661,-0.002823,0.116192,-0.050867,319.862750,24.336744,0.999476,0.989985,0.004105,0.313595,-0.000010,0.000011,-0.000030,0.000032,-0.000031,-54.819756,0.000036,
2341,2113,1.89798883020886,-11.6265403026426,0.0205252458531504,0.002473,-0.000405,-0.002655,0.122283,-0.032826,329.463265,22.943343,0.999508,0.984265,0.004910,0.295239,-0.000028,0.000003,-0.000016,0.000010,-0.000035,-66.684669,0.000036,
2206,2908,-1.18730781781093,5.72567285766193,-0.0117878928214168,0.002469,-0.001125,-0.002132,0.120024,-0.061674,316.504205,24.570154,0.999633,0.993692,0.003406,0.382181,-0.000029,-0.000022,-0.000006,-0.000019,-0.000032,-60.627491,0.000052,
2401,2428,3.145363452231,-4.72734077109489,-0.00776466763051076,0.002404,-0.000290,-0.004648,0.126889,-0.051727,324.172583,23.530681,0.999400,0.986463,0.004621,0.337779,-0.000025,-0.000008,0.000004,-0.000007,-0.000025,78.425901,0.000034,
2371,2263,2.52319856022063,-8.33693717756022,-0.00154838447178918,0.002580,-0.000323,-0.004085,0.132547,-0.030355,326.876080,23.209330,0.999431,0.987119,0.004615,0.292402,-0.000038,-0.000027,-0.000022,-0.000010,-0.000055,-51.575429,0.000070,
2251,3118,-0.244722732360348,10.2873827307008,0.0179182845146784,0.002689,-0.000267,-0.004992,0.140119,-0.032602,313.236580,25.054917,0.999535,0.991944,0.003686,0.329461,-0.000032,-0.000013,-0.000016,-0.000004,-0.000041,-60.759369,0.000049,
2191,2848,-1.50306961178203,4.42148038826576,-0.0164513905606327,0.002612,-0.000913,-0.000698,0.122025,-0.066108,317.488135,24.528981,0.999256,0.990902,0.003820,0.333390,-0.000038,-0.000012,-0.000005,-0.000011,-0.000039,-79.382951,0.000052,
2221,2983,-0.873666171349861,7.35618191462312,-0.00541472241798147,0.002753,-0.000567,-0.005446,0.143974,-0.056128,315.318216,24.756978,0.999449,0.991971,0.003661,0.321826,-0.000036,-0.000013,-0.000012,-0.000008,-0.000041,-67.046793,0.000053,
2161,2713,-2.13300110215479,1.48496142767586,-0.031014835243127,0.002362,-0.000594,-0.005256,0.124578,-0.050663,319.663251,24.425797,0.999391,0.990677,0.003920,0.321194,-0.000040,-0.000018,-0.000022,-0.000004,-0.000054,-58.414962,0.000065,
2356,2188,2.21115869389248,-9.98214375615532,0.0190686574744632,0.002573,-0.001065,0.001231,0.113129,-0.065394,328.234523,23.103094,0.999236,0.984234,0.005008,0.222626,-0.000043,-0.000018,-0.000021,-0.000006,-0.000055,-59.717283,0.000067,
2236,3073,-0.563353600947679,9.30997679170951,0.00771522844144101,0.002551,-0.000684,-0.002439,0.125100,-0.051474,313.903968,24.902693,0.999602,0.992654,0.003435,0.342455,-0.000034,-0.000013,-0.000012,-0.000008,-0.000039,-66.071265,0.000051,
2326,2068,1.57835404254024,-12.6144836513947,0.0140875165643592,0.002641,-0.000884,-0.002180,0.128076,-0.083327,330.143483,22.809577,0.999367,0.983323,0.005073,0.354230,-0.000036,0.000000,-0.000017,0.000007,-0.000043,-67.634323,0.000046,
2311,2038,1.25705080718405,-13.2711297191669,0.023368488422534,0.002468,0.000450,-0.006864,0.136481,-0.017192,330.717070,23.002298,0.999535,0.988496,0.004368,0.251399,-0.000038,0.000029,-0.000029,0.000040,-0.000049,-69.474291,0.000052,
2176,2773,-1.81752257386566,2.79124839783387,-0.0350428340210556,0.002466,-0.000713,-0.001925,0.119184,-0.045934,318.597353,24.436096,0.999377,0.991032,0.004018,0.365716,-0.000042,-0.000020,-0.000019,-0.000009,-0.000053,-60.257196,0.000067,
2221,2773,-0.838762647805535,2.79248586098619,-0.0240046577399653,0.002497,-0.000543,-0.002365,0.122254,-0.038053,318.560767,24.465553,0.999429,0.990973,0.003838,0.371719,-0.000044,-0.000017,-0.000016,-0.000010,-0.000052,-64.922786,0.000066,
2311,3238,1.03587652440525,12.8944850557475,0.0212181520070089,0.002663,-0.000419,-0.004366,0.137479,-0.027968,311.211048,25.525598,0.999477,0.993303,0.003241,0.351228,-0.000013,-0.000028,-0.000016,-0.000003,-0.000038,-32.843402,0.000046,
2281,3298,0.371811699336032,14.1934059909096,-0.0069567764944054,0.002801,-0.000796,-0.002878,0.138426,-0.052085,310.025164,25.485854,0.999564,0.994862,0.003047,0.316191,-0.000018,-0.000019,-0.000036,0.000018,-0.000055,-44.365454,0.000056,
2266,3193,0.0673992524774256,11.9144029202313,0.0277820226422705,0.002442,-0.000685,0.000477,0.110617,-0.040172,312.034692,25.226322,0.999500,0.992531,0.003434,0.332117,-0.000021,-0.000020,-0.000016,-0.000005,-0.000037,-46.124518,0.000045,
2401,2443,3.14267820184554,-4.40004502563536,-0.000381322837199605,0.002372,-0.000579,-0.000625,0.110772,-0.039428,323.975012,23.584378,0.999386,0.988081,0.004508,0.343309,-0.000019,-0.000029,0.000006,-0.000016,-0.000031,23.516666,0.000049,
2386,2353,2.83290807550032,-6.3687722007486,-0.000265788062108641,0.002350,-0.000595,-0.000863,0.110554,-0.032111,325.420002,23.283433,0.998900,0.983796,0.005046,0.422050,-0.000027,-0.000008,0.000005,-0.000006,-0.000028,76.074022,0.000037,
2206,2923,-1.1897143772304,6.0526625175639,-0.0114706507976621,0.002678,-0.000732,-0.001602,0.128059,-0.053072,316.269895,24.676971,0.999372,0.991240,0.003813,0.300252,-0.000029,-0.000021,-0.000005,-0.000019,-0.000032,-65.744283,0.000051,
2371,2278,2.52145216786861,-8.00967981661066,0.0134709711703636,0.002483,-0.000343,-0.004639,0.130050,-0.051707,326.756728,23.319679,0.999810,0.994381,0.003423,0.203208,-0.000035,-0.000016,-0.000022,-0.000002,-0.000049,-57.103738,0.000058,
2341,2128,1.89456957327251,-11.2974103108777,0.0137406024659867,0.002286,-0.000657,-0.003825,0.117712,-0.078550,329.160804,22.969195,0.999603,0.987282,0.004527,0.263472,-0.000027,-0.000001,-0.000019,0.000010,-0.000037,-62.122394,0.000038,
2311,2053,1.2545939583795,-12.9427366898621,0.0233032545306742,0.002836,0.000276,-0.005732,0.149422,-0.023795,330.488634,22.966657,0.999435,0.985950,0.004704,0.316004,-0.000040,0.000001,-0.000027,0.000015,-0.000053,-63.613408,0.000055,
2326,2083,1.57548579438038,-12.2819006244647,0.00722728830402275,0.002852,-0.000221,-0.005304,0.148692,-0.042082,329.863688,23.045162,0.999521,0.984346,0.005125,0.198020,-0.000036,-0.000002,-0.000016,0.000004,-0.000043,-68.336713,0.000047,
2251,3133,-0.247679440106939,10.6121569174645,0.0247137740055337,0.002403,-0.000702,0.001587,0.105217,-0.031890,313.013497,25.061090,0.999352,0.992356,0.003671,0.346063,-0.000033,-0.000010,-0.000013,-0.000004,-0.000039,-65.277223,0.000048,
2191,2863,-1.50567543454779,4.74826899279894,-0.0221766174878439,0.002751,-0.000497,-0.003856,0.138460,-0.058984,317.212263,24.557055,0.999338,0.992113,0.003553,0.326700,-0.000034,-0.000010,-0.000008,-0.000007,-0.000037,-72.931256,0.000048,
2161,2728,-2.13518788646066,1.81099254058729,-0.0337393534608168,0.002799,-0.000452,-0.006155,0.147441,-0.062399,319.420155,24.384240,0.999457,0.990488,0.004016,0.361302,-0.000044,-0.000020,-0.000024,-0.000005,-0.000059,-58.045079,0.000071,
2296,1993,0.937251295168029,-14.2596079690362,0.0251859388033608,0.002452,-0.000509,-0.001779,0.118046,-0.049335,331.448546,22.978768,0.999349,0.967328,0.006945,0.241553,-0.000034,0.000012,-0.000072,0.000065,-0.000087,-53.759751,0.000091,
2221,2998,-0.876154726371283,7.68172055009266,-0.00417511573954243,0.002840,-0.000456,-0.004939,0.146440,-0.046871,315.086323,24.756562,0.999503,0.991534,0.003720,0.349507,-0.000037,-0.000012,-0.000009,-0.000009,-0.000040,-72.609306,0.000052,
2311,3253,1.03193807302883,13.2202489169378,0.0144877857749179,0.002256,-0.000438,-0.001149,0.107690,-0.023669,310.878499,25.571598,0.999544,0.992965,0.003297,0.340050,-0.000014,-0.000034,-0.000016,-0.000006,-0.000043,-28.655042,0.000053,
2236,3088,-0.565632798489649,9.63567572964723,0.0116104106081139,0.002603,-0.000672,-0.003195,0.129910,-0.063656,313.696141,24.978407,0.999531,0.992593,0.003458,0.274502,-0.000034,-0.000018,-0.000018,-0.000006,-0.000045,-57.037461,0.000056,
2356,2203,2.20708235844765,-9.65201846359207,0.00426761080399274,0.002367,-0.000504,-0.000129,0.108686,-0.034429,327.864199,23.088720,0.999036,0.984240,0.005085,0.310317,-0.000047,-0.000023,-0.000021,-0.000010,-0.000060,-59.887612,0.000076,
2176,2788,-1.81993276039926,3.11791618020352,-0.0351527105676723,0.002243,-0.000142,-0.007180,0.125372,-0.051248,318.358684,24.486113,0.999349,0.990283,0.004114,0.322462,-0.000044,-0.000021,-0.000018,-0.000011,-0.000054,-61.158250,0.000069,
2221,2788,-0.840688239880404,3.11840461060716,-0.0198258239071265,0.002642,-0.000286,-0.005907,0.140260,-0.063711,318.370043,24.500280,0.999464,0.992092,0.003752,0.330187,-0.000042,-0.000016,-0.000017,-0.000008,-0.000051,-63.764421,0.000064,
2266,3208,0.064697545667638,12.2399622049612,0.0229409253686867,0.002563,-0.000891,-0.002892,0.127326,-0.056218,311.765026,25.270560,0.999702,0.995048,0.003003,0.296023,-0.000019,-0.000019,-0.000015,-0.000004,-0.000034,-45.033731,0.000042,
2401,2458,3.13953873699701,-4.07171780787241,-0.00955284732879136,0.002863,-0.000467,-0.000850,0.134170,-0.031353,323.678526,23.586829,0.999407,0.987650,0.004633,0.396060,-0.000019,-0.000030,0.000005,-0.000017,-0.000032,22.834882,0.000050,
2386,2368,2.82925988486971,-6.03940816069809,-0.00619502023215546,0.002307,-0.000813,0.002163,0.097654,-0.029880,325.114269,23.384270,0.998912,0.984255,0.004964,0.368575,-0.000024,-0.000018,0.000006,-0.000014,-0.000027,60.121165,0.000042,
2296,2008,0.934752312659786,-13.9307211344798,0.0295430316970169,0.002600,-0.000939,0.001718,0.112898,-0.044538,331.238679,23.010174,0.999236,0.979770,0.005578,0.248549,-0.000039,0.000026,-0.000051,0.000053,-0.000067,-61.343988,0.000071,
2251,3148,-0.250018311190974,10.937406915292,0.0214838311466679,0.002486,-0.000476,-0.005349,0.131801,-0.055265,312.767742,25.077057,0.998633,0.988767,0.004364,0.328852,-0.000030,-0.000009,-0.000013,-0.000003,-0.000036,-65.102484,0.000043,
2311,2068,1.25166954654213,-12.6136431434552,0.0175462017596146,0.003218,-0.000228,-0.003943,0.160661,-0.059742,330.210973,22.966581,0.999471,0.982958,0.005034,0.315914,-0.000040,-0.000003,-0.000025,0.000010,-0.000053,-63.138988,0.000056,
2206,2938,-1.19228105094074,6.37814591572857,-0.00792843141016419,0.002488,-0.000433,-0.001226,0.118268,-0.036601,316.045354,24.664403,0.999444,0.992891,0.003535,0.345457,-0.000032,-0.000012,-0.000008,-0.000009,-0.000035,-69.830622,0.000047,
2341,2143,1.89039323286263,-10.9662234569803,-0.00240243343552038,0.002327,-0.000450,-0.001548,0.111766,-0.038434,328.777715,23.002899,0.999295,0.984464,0.005009,0.310337,-0.000027,-0.000009,-0.000017,0.000001,-0.000037,-59.057647,0.000043,
2371,2293,2.51878743789931,-7.68197916227772,0.0159100522151903,0.002612,-0.000343,-0.003030,0.130274,-0.041131,326.535070,23.315317,0.999795,0.994733,0.003332,0.261442,-0.000033,-0.000004,-0.000014,0.000002,-0.000039,-67.370089,0.000044,
2311,3268,1.02913466344061,13.5457088135172,0.00644671051935575,0.002581,-0.000331,-0.004628,0.134611,-0.034799,310.591770,25.602226,0.999567,0.993770,0.003135,0.329188,-0.000020,-0.000030,-0.000019,-0.000005,-0.000044,-36.916291,0.000055,
2326,2098,1.57310316400372,-11.9559400084042,0.0113953928097885,0.002944,-0.000279,-0.004739,0.150965,-0.048423,329.660665,22.851432,0.999453,0.983514,0.005131,0.422695,-0.000038,-0.000005,-0.000018,0.000003,-0.000046,-66.183221,0.000051,
2191,2878,-1.50789522215593,5.07558845298693,-0.0195031924362752,0.002907,-0.000135,-0.004063,0.146517,-0.020749,316.997587,24.669597,0.999784,0.995687,0.002919,0.266618,-0.000032,-0.000007,-0.000005,-0.000005,-0.000033,-78.320911,0.000042,
2221,3013,-0.878751374109246,8.0070466633378,0.00214393016921122,0.002511,-0.000451,-0.003778,0.127584,-0.039911,314.875636,24.776899,0.999494,0.991987,0.003596,0.354423,-0.000031,-0.000013,-0.000011,-0.000008,-0.000037,-64.054521,0.000048,
2386,2383,2.8267573875308,-5.71126577261074,-0.00709038119356364,0.002541,-0.000762,-0.000727,0.118776,-0.053860,324.885145,23.453694,0.999202,0.985038,0.004915,0.320226,-0.000023,-0.000022,0.000002,-0.000020,-0.000024,54.451521,0.000044,
2236,3103,-0.568256941443959,9.96029838154137,0.0104275786504786,0.002709,-0.000701,-0.003354,0.135335,-0.062321,313.446837,24.913063,0.999565,0.993242,0.003363,0.361589,-0.000035,-0.000010,-0.000016,-0.000002,-0.000042,-64.363644,0.000050,
2266,3223,0.0617421706399774,12.5649354330449,0.0254085002582087,0.002434,-0.000653,0.001120,0.108224,-0.028598,311.520733,25.263566,0.999778,0.995970,0.002931,0.354831,-0.000017,-0.000008,-0.000016,0.000004,-0.000029,-53.783961,0.000031,
2356,2218,2.20513715250454,-9.32405898538955,0.00854147547369166,0.002698,-0.000437,-0.003061,0.134155,-0.043520,327.683446,23.121953,0.998601,0.980338,0.005679,0.309010,-0.000046,-0.000027,-0.000020,-0.000014,-0.000059,-57.667938,0.000078,
2176,2803,-1.82159602796626,3.44326389569977,-0.0265024424103331,0.002481,0.000056,-0.007861,0.138545,-0.037892,318.200495,24.467935,0.999523,0.990637,0.004049,0.366265,-0.000043,-0.000023,-0.000018,-0.000013,-0.000053,-59.707963,0.000071,
2221,2803,-0.844365646973866,3.44553768486114,-0.0270497305704112,0.002454,-0.000643,-0.000679,0.114797,-0.045240,318.039924,24.519019,0.999356,0.990234,0.004013,0.348853,-0.000041,-0.000018,-0.000017,-0.000009,-0.000050,-62.732112,0.000064,
2401,2473,3.13659419508578,-3.74438509568,-0.00422081337944746,0.002350,-0.000611,-0.001687,0.113613,-0.047548,323.459382,23.662423,0.999346,0.988349,0.004471,0.350701,-0.000018,-0.000036,-0.000002,-0.000018,-0.000036,-5.262405,0.000055,
2311,2083,1.24832734502712,-12.2828156922477,0.0163350909883206,0.002900,-0.000638,-0.001627,0.138076,-0.045809,329.935955,23.131287,0.999418,0.983573,0.005116,0.200779,-0.000041,-0.000006,-0.000023,0.000006,-0.000052,-63.137883,0.000057,
2251,3163,-0.252198597013422,11.2628013949888,0.029168437093972,0.002586,-0.000637,-0.003391,0.129974,-0.047538,312.584613,25.145193,0.999191,0.990974,0.003850,0.290679,-0.000027,-0.000011,-0.000013,-0.000004,-0.000034,-60.336691,0.000042,
2206,2953,-1.19520648803282,6.70459270983956,-0.0163693913968928,0.002630,0.000023,-0.002919,0.130376,-0.015498,315.742008,24.655855,0.999428,0.993039,0.003528,0.391362,-0.000031,-0.000016,-0.000011,-0.000011,-0.000037,-61.829735,0.000050,
2371,2308,2.51497151715199,-7.35322144933355,0.00445863099071175,0.002554,-0.000277,-0.002965,0.127431,-0.034316,326.194233,23.277594,0.999863,0.995918,0.002944,0.349721,-0.000032,-0.000004,-0.000010,-0.000001,-0.000036,-71.743142,0.000042,
2341,2158,1.88796508567671,-10.6388158389592,-0.000905977935133251,0.002359,0.000272,-0.004327,0.123179,-0.010693,328.560348,22.899717,0.999393,0.985765,0.004863,0.480678,-0.000035,-0.000023,-0.000020,-0.000008,-0.000050,-53.436039,0.000063,
2266,3238,0.0592645807542844,12.8895292378835,0.0224578868796357,0.002612,-0.000631,-0.002663,0.128869,-0.058271,311.271193,25.251424,0.999783,0.995260,0.002998,0.361384,-0.000015,-0.000015,-0.000017,0.000001,-0.000032,-44.777989,0.000036,
2326,2113,1.57039086645861,-11.6269546269266,0.0175416564870261,0.002633,-0.000746,-0.003610,0.132702,-0.060658,329.451848,22.965900,0.999454,0.982942,0.005139,0.333537,-0.000041,0.000004,-0.000017,0.000010,-0.000046,-71.181009,0.000049,
2386,2398,2.82446436325705,-5.38426085269178,-0.00167487579409453,0.002520,-0.000431,-0.003114,0.126508,-0.050170,324.695527,23.456872,0.999350,0.986590,0.004671,0.365318,-0.000019,-0.000009,0.000007,-0.000005,-0.000023,61.492737,0.000030,
2356,2233,2.20167425631181,-8.99508779707858,0.00474439767788226,0.002381,-0.000446,-0.002831,0.118845,-0.050736,327.394230,23.167249,0.998109,0.976953,0.006119,0.298074,-0.000045,-0.000028,-0.000026,-0.000009,-0.000064,-53.837706,0.000079,
2221,3028,-0.88152788948959,8.33231324369821,0.00080262254397212,0.002509,-0.000906,-0.003066,0.125079,-0.053155,314.617319,24.764277,0.999667,0.994222,0.003152,0.371833,-0.000030,-0.000014,-0.000012,-0.000007,-0.000037,-62.417777,0.000047,
2401,2488,3.13337236520929,-3.41655974605029,-0.00462254317397992,0.002274,-0.001132,0.000691,0.101301,-0.061907,323.200384,23.733001,0.999308,0.989332,0.004291,0.312657,-0.000009,-0.000049,-0.000007,-0.000008,-0.000050,-9.541733,0.000063,
2221,2818,-0.846343247695682,3.77149765437348,-0.0181006526100305,0.002392,-0.000600,-0.001710,0.115300,-0.040022,317.871185,24.571538,0.999530,0.991851,0.003745,0.320128,-0.000038,-0.000007,-0.000011,-0.000003,-0.000042,-71.903587,0.000051,
2251,3178,-0.254590054562389,11.5871058245672,0.0343734598163223,0.002597,-0.000729,-0.002169,0.126421,-0.053404,312.379552,25.114506,0.999408,0.992684,0.003416,0.337581,-0.000024,-0.000013,-0.000014,-0.000004,-0.000033,-55.295276,0.000041,
2266,3253,0.0561564679864901,13.2152357750285,0.0200437267477582,0.002543,-0.000788,-0.000666,0.119088,-0.046455,310.994897,25.307780,0.999758,0.994373,0.003206,0.341039,-0.000013,-0.000020,-0.000014,-0.000002,-0.000031,-38.305761,0.000037,
2371,2323,2.51133394135842,-7.02586256819449,0.00716234289399154,0.001970,-0.001107,0.002202,0.082052,-0.062004,325.929332,23.293526,0.999549,0.992569,0.003753,0.348992,-0.000034,-0.000004,-0.000003,-0.000004,-0.000034,-84.350421,0.000041,
2341,2173,1.88514682279284,-10.3096509450323,0.00341319857602684,0.002309,-0.000417,-0.000620,0.107741,-0.036488,328.338768,23.045569,0.999230,0.983916,0.005028,0.348158,-0.000036,-0.000018,-0.000016,-0.000009,-0.000045,-59.858386,0.000058,
2326,2128,1.56775569066954,-11.2979211605657,0.0215900765135757,0.002236,-0.000308,-0.006673,0.125214,-0.063578,329.236259,23.057282,0.999401,0.985060,0.004928,0.276489,-0.000039,-0.000001,-0.000021,0.000008,-0.000049,-65.856833,0.000052,
2386,2413,2.82170094446687,-5.05628084042129,-0.000760686575574709,0.002453,0.000040,-0.004674,0.129201,-0.041319,324.462785,23.505697,0.999337,0.986449,0.004659,0.370398,-0.000022,-0.000012,0.000009,-0.000007,-0.000027,58.415641,0.000036,
2356,2248,2.19846142265304,-8.66636789448859,0.00249675232544178,0.002337,-0.000630,-0.000760,0.109486,-0.042573,327.123807,23.195847,0.998994,0.982599,0.005284,0.319112,-0.000046,-0.000031,-0.000026,-0.000012,-0.000065,-53.509849,0.000083,
2401,2503,3.13003855901279,-3.08710602230724,-0.0168529518905984,0.002699,-0.000680,-0.001063,0.127334,-0.049157,322.880142,23.823193,0.999485,0.990271,0.004066,0.282131,-0.000012,-0.000054,-0.000010,-0.000009,-0.000056,-12.374876,0.000071,
2371,2338,2.50861312897352,-6.69697940077238,0.00338337661088417,0.002369,-0.001083,0.001644,0.102299,-0.053206,325.675121,23.353118,0.998988,0.986607,0.004742,0.341349,-0.000032,-0.000014,0.000001,-0.000014,-0.000032,87.163230,0.000048,
2341,2188,1.88292854733058,-9.98107697786875,0.00842436724383333,0.002569,-0.001153,0.000022,0.117173,-0.088247,328.148166,23.175287,0.999349,0.986707,0.004703,0.205562,-0.000040,-0.000014,-0.000018,-0.000005,-0.000049,-63.333093,0.000060,
2386,2428,2.81880650640868,-4.72833073277557,0.000238822394237559,0.002515,-0.000465,-0.002926,0.125585,-0.041323,324.224413,23.566307,0.999429,0.989052,0.004366,0.354594,-0.000023,-0.000010,0.000005,-0.000009,-0.000024,71.487619,0.000034,
2326,2143,1.56425034897229,-10.9677301636552,0.0144918340216122,0.002516,-0.000611,-0.000480,0.116627,-0.025882,328.926205,23.098893,0.999299,0.985474,0.005034,0.310239,-0.000039,-0.000012,-0.000020,-0.000001,-0.000050,-62.539307,0.000058,
2356,2263,2.19552701003682,-8.3385896673332,0.00693085046691522,0.002008,-0.000743,0.000747,0.089105,-0.033941,326.898288,23.211520,0.999427,0.985669,0.004771,0.352964,-0.000047,-0.000037,-0.000026,-0.000015,-0.000068,-50.486735,0.000089,
2401,2518,3.12727793698829,-2.76062991220682,-0.0174704613522181,0.002722,-0.000060,-0.003249,0.136610,-0.010101,322.641223,23.725352,0.999476,0.989553,0.004220,0.465761,-0.000017,-0.000046,-0.000013,-0.000012,-0.000051,-21.680949,0.000067,
2371,2353,2.5059981439575,-6.36963918768283,0.00765089748682612,0.002266,-0.000920,0.001463,0.098307,-0.040199,325.464289,23.351650,0.999028,0.986443,0.004754,0.398547,-0.000030,-0.000014,0.000005,-0.000013,-0.000031,74.173519,0.000045,
2341,2203,1.87980752792721,-9.65240107946001,0.00681188864837168,0.002233,-0.000554,-0.001791,0.108282,-0.042900,327.883665,23.152719,0.999076,0.984309,0.005130,0.312819,-0.000045,-0.000020,-0.000018,-0.000011,-0.000054,-63.184035,0.000070,
2386,2443,2.8151925948232,-4.40002478125182,-0.00763516975223411,0.002820,-0.001070,0.002219,0.120939,-0.052866,323.910909,23.592862,0.999294,0.989981,0.004323,0.361507,-0.000018,-0.000027,0.000007,-0.000014,-0.000031,27.626120,0.000046,
2401,2533,3.12429316558584,-2.43225083420835,-0.0171567927982323,0.002489,-0.000268,-0.005182,0.132803,-0.036347,322.396196,23.880516,0.999390,0.990136,0.004262,0.331001,-0.000016,-0.000043,-0.000016,-0.000008,-0.000050,-24.484922,0.000063,
2356,2278,2.19192748058341,-8.00850982531276,-0.0101607036722839,0.002305,-0.000494,-0.002639,0.114708,-0.049215,326.538672,23.248103,0.999479,0.989694,0.004216,0.342731,-0.000046,-0.000026,-0.000026,-0.000008,-0.000064,-55.465187,0.000079,
2326,2158,1.56144694083262,-10.6392043576822,0.0102540800214683,0.002611,-0.000146,-0.002978,0.129745,-0.020274,328.662511,23.057334,0.999212,0.984525,0.005057,0.394731,-0.000047,-0.000024,-0.000022,-0.000010,-0.000061,-59.054059,0.000077,
2371,2368,2.50240255365256,-6.03941974023348,-0.00326681429214659,0.002294,-0.000193,0.000211,0.104353,-0.013606,325.135511,23.457230,0.998751,0.985269,0.004862,0.363083,-0.000027,-0.000023,0.000005,-0.000019,-0.000030,55.556597,0.000050,
2341,2218,1.87735946092023,-9.32423398806733,0.00898763848033468,0.002338,-0.000471,-0.002876,0.116920,-0.039804,327.668524,23.170646,0.998756,0.983515,0.005389,0.337157,-0.000044,-0.000026,-0.000017,-0.000016,-0.000055,-58.181158,0.000074,
2386,2458,2.81216071336362,-4.07102387418255,-0.0139608487672831,0.003033,-0.000791,0.000291,0.137716,-0.048581,323.631196,23.687610,0.999293,0.988816,0.004465,0.315762,-0.000019,-0.000024,0.000008,-0.000013,-0.000030,36.640590,0.000044,
2356,2293,2.18971356843986,-7.67899103541049,-0.00745563084899459,0.002893,-0.000622,-0.000517,0.134152,-0.038563,326.337511,23.413989,0.999670,0.993902,0.003716,0.228331,-0.000044,-0.000013,-0.000019,-0.000003,-0.000053,-64.450414,0.000063,
2371,2383,2.49937943273984,-5.71123235477815,-0.00449854636258351,0.002090,-0.000378,-0.001654,0.101515,-0.033055,324.879611,23.522722,0.999184,0.985673,0.004790,0.320668,-0.000025,-0.000026,0.000001,-0.000024,-0.000027,34.441316,0.000051,
2341,2233,1.87432232279789,-8.99545841714904,0.00811529601304528,0.002027,-0.000040,-0.004778,0.109433,-0.040385,327.411553,23.221377,0.998570,0.980422,0.005639,0.325047,-0.000043,-0.000031,-0.000025,-0.000011,-0.000062,-51.572834,0.000079,
2356,2308,2.18735151224529,-7.35306276122977,0.00125696557574884,0.002661,-0.000598,-0.000754,0.124371,-0.037009,326.158914,23.325442,0.999410,0.991913,0.003829,0.358917,-0.000043,-0.000013,-0.000014,-0.000007,-0.000048,-68.668985,0.000061,
