Image X[Pixel],Image Y[Pixel],X[mm],Y[mm],Z[mm],Horizontal Displacement U[mm],Vertical Displacement V[mm],Out-Of-Plane: W[mm],Horizontal: u[Pixel],Vertical: v[Pixel],Horizontal: q[Pixel],Vertical: r[Pixel],Correlation Value 2D,Correlation Value Persp,Sigma,Epipolar Distance,Strain-global frame: Exx,Strain-global frame: Eyy,Strain-global frame: Exy,Maximum Principal Strain: EI,Minimum Principal Strain: EII,Shear Angle Gamma,Von Mises Equivalent Strain,
2011,1993,-5.27910299105419,-14.2519276121698,0.0306374363327677,0.005560,0.000307,0.000222,0.254499,0.038318,332.656227,24.943065,0.998701,0.981860,0.005409,0.367508,0.000085,-0.000025,0.000132,0.000173,-0.000113,33.689301,0.000176,
2041,2143,-4.64725512467871,-10.9642379601426,0.0182882465215926,0.006160,0.000077,-0.000909,0.285341,0.010922,329.999759,24.657779,0.998200,0.980887,0.005921,0.374137,-0.000012,0.000001,0.000018,0.000014,-0.000025,54.775492,0.000025,
2086,2368,-3.70310043250363,-6.04167300125838,-0.0026216567011943,0.006269,-0.000271,0.003013,0.279326,0.050919,325.958180,24.357796,0.998372,0.981596,0.005435,0.486708,-0.000007,0.000017,-0.000005,0.000018,-0.000008,-78.733399,0.000018,
2056,2218,-4.33228670935679,-9.32036861608649,0.00818416913506326,0.006169,0.000758,-0.002371,0.290197,0.060818,328.630243,24.626056,0.998537,0.982435,0.005267,0.360105,-0.000028,0.000040,-0.000004,0.000041,-0.000028,-86.312579,0.000042,
2161,2743,-2.13448580534725,2.13811008240727,-0.0249442576066485,0.006178,-0.000062,0.005188,0.268503,0.042005,319.369636,24.422794,0.999351,0.989650,0.004140,0.437424,-0.000005,0.000006,-0.000011,0.000013,-0.000012,-57.415916,0.000014,
2026,2068,-4.96246113291108,-12.6087142324122,0.0316141674558708,0.006164,-0.000345,0.002627,0.275568,0.019093,331.392415,24.755786,0.999726,0.992345,0.003636,0.399628,0.000046,-0.000049,0.000080,0.000092,-0.000095,29.629317,0.000108,
2011,2023,-5.28383782680044,-13.5930276721843,0.0209367920002705,0.005873,0.000168,0.003392,0.260359,0.042010,332.101508,24.900578,0.998594,0.983940,0.005234,0.397694,0.000055,-0.000100,0.000091,0.000097,-0.000143,24.856581,0.000146,
2116,2518,-3.07528754490938,-2.76541692752106,-0.0192789751756095,0.006145,-0.000207,0.001902,0.276932,0.024882,323.253401,24.358631,0.999259,0.987886,0.004354,0.408800,-0.000004,0.000009,0.000002,0.000009,-0.000004,80.497673,0.000009,
2491,2998,4.9959259522383,7.70103854486932,0.00408378539856358,0.005847,-0.000092,0.004882,0.250006,0.037676,315.278354,25.538566,0.999405,0.988690,0.004041,0.414503,0.000016,-0.000006,-0.000005,0.000017,-0.000007,-11.543113,0.000018,
2131,2593,-2.76165256340007,-1.12953497014777,-0.0226123261287512,0.006072,0.000097,0.003837,0.267924,0.058334,321.938069,24.345052,0.999412,0.990701,0.004112,0.460467,-0.000017,0.000019,-0.000002,0.000019,-0.000017,-86.314887,0.000021,
2101,2443,-3.3885470921003,-4.40330788295882,-0.00478334161806515,0.006435,-0.000085,0.004351,0.283109,0.059397,324.660958,24.350273,0.999364,0.987972,0.004421,0.466648,-0.000009,-0.000012,-0.000012,0.000002,-0.000023,-41.446702,0.000026,
2221,3043,-0.880891083576575,8.65926787405452,0.00967340607138567,0.005764,0.000038,0.005580,0.247860,0.067823,314.567641,24.844021,0.999715,0.993868,0.003193,0.431602,-0.000001,0.000005,-0.000005,0.000008,-0.000004,-59.564582,0.000008,
2041,2158,-4.6505795724589,-10.632796302831,0.0037980428740525,0.006344,-0.000462,0.005509,0.275855,0.022899,329.628095,24.761464,0.999360,0.986954,0.004719,0.278476,-0.000020,-0.000015,-0.000008,-0.000009,-0.000026,-55.580368,0.000036,
2236,3118,-0.567672187402156,10.2873368944916,0.0198241225405127,0.005872,0.000407,0.004830,0.255267,0.080764,313.398178,24.998321,0.999607,0.992030,0.003639,0.440097,-0.000008,0.000001,-0.000007,0.000004,-0.000012,-61.868105,0.000012,
2476,2923,4.68323432787833,6.07151619227645,-0.0202788819792659,0.005991,0.000298,0.000038,0.275289,0.040965,316.287188,25.274805,0.999379,0.986066,0.004445,0.359499,0.000006,-0.000010,-0.000018,0.000017,-0.000022,-32.916874,0.000023,
2266,3283,0.0528875008313925,13.8666588078721,0.00730243076714032,0.005962,0.000196,0.003858,0.262383,0.057462,310.537865,25.310028,0.999518,0.992760,0.003392,0.491962,0.000003,0.000036,-0.000009,0.000038,0.000000,-75.074374,0.000044,
2056,2248,-4.33752961614949,-8.66501259772999,0.00555585896665889,0.005881,-0.000390,0.002075,0.264181,0.005283,328.101165,24.568124,0.999066,0.985870,0.004813,0.357014,-0.000030,0.000059,0.000002,0.000059,-0.000030,88.595336,0.000059,
2176,2833,-1.82451506986029,4.09710398236949,-0.0324888648497108,0.006005,-0.000233,0.006236,0.257126,0.031924,317.779819,24.511204,0.999660,0.993935,0.003396,0.417233,0.000004,0.000019,0.000004,0.000020,0.000003,75.258268,0.000025,
2011,2038,-5.28544921426503,-13.2631041132519,0.0104847550041427,0.006719,0.000516,-0.001843,0.313444,0.035041,331.827319,24.877525,0.998318,0.980501,0.005567,0.405457,0.000042,-0.000096,0.000078,0.000077,-0.000131,24.305981,0.000131,
2296,2038,0.933261831842078,-13.2713594436189,0.0352458489242053,0.006085,0.000163,0.001356,0.274037,0.035698,330.963874,23.127404,0.999316,0.984315,0.004976,0.277359,-0.000017,-0.000013,-0.000032,0.000017,-0.000047,-46.878761,0.000047,
2191,2893,-1.50710365734585,5.40092216402346,-0.0119041551117789,0.006101,0.000191,0.001139,0.277560,0.056678,316.947317,24.599793,0.999789,0.995170,0.003099,0.428208,0.000007,0.000030,0.000004,0.000030,0.000006,80.337643,0.000039,
2371,2398,2.50012255124538,-5.38294337584713,-0.00414680737668505,0.005846,0.000386,0.000663,0.265880,0.048354,324.803563,23.516426,0.999431,0.988096,0.004552,0.450957,0.000008,0.000016,0.000006,0.000019,0.000005,63.685968,0.000025,
2026,2083,-4.96501784768595,-12.2787598100489,0.0245617253744399,0.006142,0.000007,0.001381,0.278087,0.009300,331.095708,24.794095,0.999248,0.987017,0.004618,0.345508,0.000034,-0.000014,0.000071,0.000085,-0.000065,35.694113,0.000089,
2071,2308,-4.0209303476107,-7.35055092922117,-0.0157604533246172,0.006130,0.000798,-0.002205,0.288170,0.047046,326.900405,24.484193,0.999787,0.993085,0.003923,0.411757,0.000000,0.000024,0.000001,0.000024,0.000000,88.326528,0.000027,
2071,2293,-4.01796772060503,-7.68025105110206,-0.00154390159258355,0.006042,0.000367,-0.000003,0.277677,0.046783,327.250209,24.460528,0.999793,0.993459,0.003755,0.435964,-0.000001,0.000036,0.000009,0.000038,-0.000003,76.290872,0.000043,
2251,3208,-0.256498899006949,12.237988470527,0.0424608138307008,0.006044,-0.000480,0.005534,0.260465,0.038802,312.088927,25.154463,0.999722,0.995456,0.003011,0.434621,-0.000001,0.000025,-0.000006,0.000026,-0.000003,-76.827183,0.000029,
2011,2008,-5.2823418943349,-13.9213517822306,0.0222295668067432,0.005322,-0.000555,0.006133,0.227395,0.029424,332.319128,24.991635,0.998746,0.984390,0.005127,0.302419,0.000069,-0.000044,0.000120,0.000145,-0.000120,32.326027,0.000155,
2356,2323,2.18732944879256,-7.02485825165413,0.00717267123792453,0.005825,-0.000450,0.009750,0.232597,0.051325,326.073430,23.334081,0.999720,0.994275,0.003630,0.479307,-0.000019,-0.000015,-0.000004,-0.000013,-0.000022,-59.004132,0.000035,
2386,2473,2.8122376206432,-3.7428228974765,-0.00993459769460969,0.005822,-0.000013,0.002035,0.259775,0.036118,323.543004,23.729518,0.999457,0.989364,0.004324,0.403063,0.000012,-0.000001,0.000009,0.000017,-0.000005,26.902232,0.000017,
2146,2668,-2.44733780557405,0.504347571017746,-0.022316320570269,0.006215,0.000657,-0.001670,0.291357,0.070092,320.688074,24.322455,0.999612,0.991846,0.003639,0.520123,-0.000002,0.000010,-0.000001,0.000011,-0.000002,-84.229803,0.000011,
2341,2248,1.87443327353503,-8.66554505780726,0.00316655008106181,0.006068,-0.000226,0.004928,0.260834,0.038389,327.278543,23.259730,0.999177,0.982671,0.005043,0.404229,-0.000019,-0.000021,-0.000018,-0.000001,-0.000038,-43.639442,0.000045,
2041,2173,-4.6523612247761,-10.305923399403,0.0104914050542106,0.006206,0.000006,0.002842,0.277077,0.037525,329.444694,24.677530,0.999304,0.988570,0.004450,0.371985,-0.000022,0.000006,-0.000008,0.000008,-0.000025,-74.425010,0.000025,
2311,2098,1.24854545210576,-11.9541987151851,0.0209167129515322,0.005966,-0.000392,0.004451,0.257891,0.041595,329.852051,23.089446,0.999369,0.982129,0.005358,0.364581,0.000001,0.000012,-0.000008,0.000016,-0.000003,-63.294404,0.000017,
2191,2908,-1.50953981561382,5.72513311500916,-0.00494368164152093,0.005956,-0.000004,0.004100,0.261570,0.055876,316.746057,24.503855,0.999791,0.995020,0.003148,0.537272,0.000007,0.000023,0.000002,0.000023,0.000007,83.691179,0.000031,
2131,2608,-2.76353545931901,-0.802951910945019,-0.0230169091749985,0.006290,0.000215,-0.001735,0.294681,0.034464,321.718733,24.346632,0.999380,0.989969,0.004260,0.441403,-0.000015,0.000018,0.000000,0.000018,-0.000015,-89.553077,0.000020,
2116,2548,-3.08046692396467,-2.11126948024556,-0.023690329787712,0.006275,-0.000286,0.005185,0.273206,0.039450,322.727859,24.314026,0.999283,0.987936,0.004380,0.476974,-0.000007,0.000025,0.000009,0.000027,-0.000009,75.958841,0.000028,
2236,3133,-0.570667428875463,10.6130938311215,0.0137392540852375,0.005779,0.000509,0.002124,0.259827,0.074333,313.106335,25.022624,0.999643,0.992536,0.003663,0.429146,-0.000010,0.000011,-0.000003,0.000011,-0.000010,-82.606956,0.000012,
2176,2818,-1.82149816605661,3.77137915084889,-0.0297249334661842,0.006045,0.000164,0.002521,0.270614,0.047517,318.059956,24.544616,0.999400,0.990722,0.003904,0.387355,0.000002,0.000012,0.000003,0.000013,0.000001,73.536197,0.000016,
2431,2698,3.74789280300135,1.1703435304726,-0.0236776451865239,0.005899,0.000009,0.002459,0.261780,0.030339,319.826185,24.465118,0.999765,0.992222,0.003628,0.316931,0.000003,0.000030,-0.000006,0.000031,0.000001,-77.674879,0.000037,
2206,2968,-1.19313641707643,7.03064877713707,0.000513420127163045,0.006385,0.000501,0.000712,0.292179,0.073270,315.799137,24.723667,0.999385,0.991240,0.003774,0.428823,0.000001,0.000021,0.000009,0.000024,-0.000002,69.515713,0.000027,
2251,3193,-0.253690116358552,11.9134790428351,0.0429998242194642,0.006300,0.000007,0.008012,0.264288,0.066282,312.342453,25.171989,0.999525,0.992783,0.003402,0.422518,-0.000002,0.000022,-0.000006,0.000023,-0.000004,-76.405636,0.000025,
2056,2233,-4.3352210307554,-8.9923953381996,0.00475452598175252,0.006053,-0.000257,0.003249,0.268806,0.035448,328.339726,24.597189,0.999245,0.988532,0.004503,0.361200,-0.000027,0.000052,0.000002,0.000052,-0.000027,88.680238,0.000052,
2266,3268,0.0563458427584749,13.5415058518009,0.0163445695859536,0.006063,0.000422,0.004096,0.266306,0.067627,310.863615,25.310634,0.999636,0.993015,0.003403,0.477573,0.000003,0.000033,-0.000007,0.000034,0.000001,-76.863374,0.000040,
2041,2203,-4.65729112995904,-9.64871556723667,0.0065722451032002,0.006023,0.000002,0.003735,0.266238,0.042064,328.919445,24.682229,0.998636,0.982634,0.005332,0.362346,-0.000026,0.000047,0.000004,0.000047,-0.000026,87.010244,0.000047,
2011,2113,-5.29621259950021,-11.6205047240031,0.0195255492194519,0.006365,-0.000181,0.001244,0.288755,0.024259,330.676823,24.869625,0.998356,0.980219,0.005790,0.359111,0.000023,-0.000022,0.000047,0.000053,-0.000051,32.091481,0.000060,
2221,3058,-0.882358489459367,8.98386875512164,0.0175946683689858,0.006196,0.000281,0.003063,0.275911,0.068115,314.417304,24.824367,0.999783,0.994652,0.002937,0.469704,0.000000,-0.000001,-0.000009,0.000008,-0.000009,-44.145862,0.000010,
2416,2623,3.43605589326601,-0.467202012088229,-0.0215083412389845,0.006011,-0.000291,0.003961,0.261323,0.041625,321.043257,24.083535,0.999317,0.988858,0.004140,0.470777,0.000010,0.000009,-0.000006,0.000015,0.000004,-40.741569,0.000020,
2011,2053,-5.28834520479481,-12.9343568944337,0.0177738767322921,0.006046,-0.000571,0.006589,0.259461,0.036689,331.593821,24.943722,0.999447,0.990035,0.004045,0.332457,0.000038,-0.000060,0.000074,0.000077,-0.000099,28.232586,0.000104,
2131,2623,-2.76616242620813,-0.476153442662579,-0.0197937465071618,0.006092,0.000214,0.001294,0.276543,0.046788,321.484491,24.367656,0.999431,0.990117,0.004106,0.438938,-0.000010,0.000015,-0.000002,0.000015,-0.000011,-85.289921,0.000016,
2026,2098,-4.96732916966809,-11.9501785144952,0.0290645897852073,0.005883,-0.000239,0.003659,0.259902,0.026205,330.874477,24.813523,0.999035,0.981734,0.005293,0.336319,0.000028,-0.000014,0.000061,0.000071,-0.000058,35.531092,0.000076,
2086,2383,-3.70609494463869,-5.71228417192915,-0.0102485661972196,0.005906,0.000207,-0.000010,0.271526,0.043110,325.644457,24.455220,0.998186,0.981118,0.005526,0.382483,-0.000004,-0.000003,-0.000006,0.000003,-0.000009,-47.689453,0.000009,
2026,2128,-4.97251035918613,-11.2912973150525,0.0138223005122882,0.006004,-0.000081,0.003828,0.265122,0.031632,330.271756,24.789751,0.998437,0.978952,0.006022,0.353019,0.000013,-0.000013,0.000054,0.000056,-0.000056,38.120652,0.000064,
2146,2683,-2.45045023447959,0.831583574909409,-0.0259947244616114,0.006271,-0.000327,0.005046,0.273273,0.046248,320.396006,24.380686,0.999334,0.990536,0.003876,0.446211,-0.000003,0.000007,-0.000009,0.000012,-0.000008,-59.692000,0.000012,
2491,3013,4.99263516511187,8.02785661764489,-0.000531999739223465,0.005927,0.000080,0.003800,0.257920,0.048069,315.001565,25.622742,0.999635,0.992667,0.003454,0.399257,0.000013,0.000002,-0.000001,0.000013,0.000002,-4.002088,0.000016,
2116,2533,-3.0780282631246,-2.43826238004999,-0.0206340438554093,0.005880,0.000197,0.001663,0.265603,0.045927,322.988215,24.335105,0.999160,0.986254,0.004666,0.457851,-0.000007,0.000023,0.000008,0.000025,-0.000009,75.972439,0.000025,
2266,3298,0.0507720896453669,14.1920716677227,0.0112138639274804,0.006083,0.000054,0.001040,0.277205,0.034131,310.339192,25.420906,0.999552,0.993565,0.003349,0.381680,0.000011,0.000033,-0.000021,0.000046,-0.000002,-58.615696,0.000053,
2506,3073,5.30715047948834,9.33140505177234,0.00523772429960445,0.006114,-0.000381,0.006683,0.255049,0.033227,314.107268,25.819237,0.999615,0.992087,0.003906,0.473211,-0.000001,0.000045,0.000001,0.000045,-0.000001,88.125891,0.000051,
2101,2458,-3.39144075018411,-4.07560391850893,-0.00912397055583369,0.006204,-0.000145,0.004576,0.271864,0.062997,324.371377,24.340691,0.999401,0.988129,0.004332,0.483002,-0.000008,-0.000009,-0.000017,0.000009,-0.000026,-44.439768,0.000026,
2206,2983,-1.19589486331614,7.35708616139052,-0.00438223151269312,0.006480,0.000742,-0.000573,0.300776,0.080508,315.521803,24.761281,0.999410,0.991909,0.003629,0.414586,-0.000001,0.000016,0.000006,0.000018,-0.000003,71.021647,0.000019,
2296,2053,0.93055066182205,-12.9422701983295,0.03117362594611,0.006416,-0.000037,0.001778,0.287746,0.033979,330.702660,23.104654,0.999216,0.982991,0.005102,0.331932,-0.000016,-0.000007,-0.000028,0.000017,-0.000039,-49.636107,0.000040,
2401,2548,3.12493888346399,-2.10469411343144,-0.0126124298517993,0.006192,0.000326,0.001144,0.280124,0.046035,322.337549,23.893430,0.999430,0.990019,0.004397,0.446697,0.000009,-0.000010,0.000000,0.000009,-0.000010,0.237061,0.000011,
2236,3178,-0.577138115337647,11.5868068189562,0.0350121607904725,0.005830,0.000185,0.002633,0.260403,0.049803,312.549640,25.035606,0.999430,0.991687,0.003608,0.451524,-0.000004,0.000022,-0.000003,0.000023,-0.000004,-84.089409,0.000024,
2176,2848,-1.82634316449007,4.42260617186587,-0.0231224919528472,0.005998,-0.000201,0.004992,0.260741,0.042806,317.617782,24.526172,0.999444,0.991688,0.003616,0.425199,0.000003,0.000024,0.000006,0.000025,0.000001,75.095476,0.000030,
2191,2923,-1.5119174773555,6.05251209384497,-0.00628405130868259,0.006211,0.000200,0.003550,0.275100,0.060444,316.503247,24.637918,0.999406,0.991459,0.003757,0.421757,0.000004,0.000023,0.000001,0.000023,0.000004,88.036921,0.000030,
2086,2398,-3.70805861639384,-5.38502312457055,-0.00972128998887456,0.006129,0.000485,-0.001788,0.287054,0.054751,325.422531,24.422623,0.998673,0.984519,0.004985,0.427340,-0.000002,-0.000015,-0.000011,0.000005,-0.000021,-30.087255,0.000022,
2161,2758,-2.13715511897561,2.46390802063989,-0.0194512907207809,0.005829,-0.000379,0.007900,0.244054,0.042154,319.147757,24.421884,0.998967,0.987699,0.004352,0.448488,-0.000001,0.000004,-0.000010,0.000012,-0.000009,-51.810081,0.000012,
2071,2323,-4.02234221252653,-7.0244928172493,-0.00141101155702472,0.006355,0.000234,0.001597,0.287551,0.048271,326.778192,24.464033,0.999171,0.988259,0.004544,0.431658,-0.000002,0.000021,-0.000006,0.000023,-0.000003,-75.307257,0.000025,
2461,2848,4.37091140272473,4.43892031736725,-0.0342267200004471,0.006287,0.000010,0.001039,0.284944,0.037921,317.371323,24.902190,0.999760,0.993266,0.003304,0.427870,0.000006,0.000030,-0.000011,0.000034,0.000002,-68.242738,0.000041,
2011,2128,-5.29876328426756,-11.2901234408035,0.0125610785174786,0.006462,0.000081,0.002406,0.290175,0.054704,330.379085,24.925939,0.998209,0.979611,0.005992,0.324811,0.000013,-0.000008,0.000048,0.000052,-0.000046,38.763213,0.000057,
2476,2938,4.68059010541858,6.39704599253979,-0.0131315210157936,0.006017,0.000246,0.002690,0.266416,0.048626,316.093154,25.305117,0.999429,0.989255,0.004005,0.393063,0.000004,-0.000019,-0.000016,0.000012,-0.000027,-27.417283,0.000027,
2296,2023,0.93571224567664,-13.6018709888844,0.0284446764627546,0.006314,0.000230,0.001420,0.284329,0.034865,331.159661,22.906326,0.999116,0.982132,0.005401,0.464274,-0.000018,-0.000033,-0.000032,0.000008,-0.000059,-38.113672,0.000064,
2071,2353,-4.02724687324531,-6.36842145996963,-0.00276258063473733,0.006064,0.000320,0.000354,0.277801,0.073243,326.273706,24.478634,0.998488,0.982992,0.005221,0.439656,-0.000006,0.000004,-0.000005,0.000006,-0.000008,-69.187832,0.000008,
2161,2773,-2.13996040813655,2.79108234373275,-0.027953042790557,0.005912,-0.000260,0.005022,0.256718,0.033610,318.845500,24.450199,0.999356,0.990719,0.003932,0.421891,0.000000,0.000008,-0.000007,0.000012,-0.000005,-59.517092,0.000012,
2446,2773,4.05883594714576,2.80398258695874,-0.0298654156953262,0.005504,-0.000008,0.001975,0.245433,0.032551,318.562553,24.560193,0.999482,0.988528,0.004312,0.483839,0.000017,0.000035,-0.000008,0.000038,0.000014,-69.744715,0.000054,
2041,2188,-4.65473783815518,-9.97725302611666,0.0101238053090924,0.006100,0.000325,0.003219,0.271256,0.068277,329.194737,24.671545,0.999135,0.985808,0.004851,0.404010,-0.000029,0.000035,0.000002,0.000035,-0.000030,87.817460,0.000038,
2221,3073,-0.884987828954237,9.30959992060297,0.0191296019652327,0.006092,0.000240,0.003039,0.271199,0.056408,314.180342,24.882777,0.999649,0.993268,0.003271,0.417544,-0.000003,0.000001,-0.000008,0.000007,-0.000009,-51.032990,0.000010,
2326,2173,1.56158873545324,-10.3082326680086,0.014294906019984,0.005862,0.000071,0.005284,0.250358,0.063133,328.573239,23.254592,0.998743,0.979125,0.005508,0.317527,-0.000012,-0.000005,-0.000013,0.000005,-0.000022,-52.591774,0.000023,
2341,2263,1.87165139331294,-8.33778588141436,0.0098458665111707,0.005748,-0.000265,0.007135,0.238503,0.034363,327.069839,23.308956,0.999158,0.983526,0.005004,0.389756,-0.000020,-0.000020,-0.000022,0.000002,-0.000042,-44.622959,0.000047,
2281,2008,0.61069378635796,-13.9296292089865,0.032965135218376,0.006073,0.000160,0.002981,0.268104,0.053775,331.436355,23.116415,0.999314,0.983480,0.005198,0.343429,-0.000007,-0.000053,-0.000037,0.000014,-0.000074,-29.062030,0.000078,
2026,2113,-4.96979677922053,-11.620584446979,0.0171238177598525,0.006311,-0.000284,0.003515,0.279968,0.017816,330.554767,24.776477,0.998355,0.979585,0.005842,0.358907,0.000025,-0.000028,0.000055,0.000060,-0.000062,32.184076,0.000070,
2371,2413,2.49752206159274,-5.05484007822304,-0.00290567549637899,0.006019,0.000010,0.000662,0.273676,0.022116,324.578780,23.614685,0.999538,0.989028,0.004373,0.369054,0.000007,0.000010,0.000008,0.000017,0.000000,49.671976,0.000020,
2131,2638,-2.76772053525162,-0.151456492659534,-0.00172886777613712,0.005854,-0.000348,0.002248,0.262551,0.026054,321.379035,24.358417,0.999778,0.992836,0.003405,0.433253,-0.000009,0.000010,-0.000002,0.000011,-0.000009,-83.428497,0.000011,
2101,2473,-3.39411968293027,-3.74772966340814,-0.00955888785023262,0.006084,-0.000145,0.007023,0.259213,0.070478,324.112628,24.384269,0.999346,0.989079,0.004244,0.449151,-0.000003,0.000004,-0.000005,0.000007,-0.000006,-61.333859,0.000007,
2056,2263,-4.33993940300302,-8.33554394468117,-0.00256106561261049,0.006080,0.000178,-0.000493,0.280734,0.023256,327.808365,24.595762,0.999028,0.984106,0.005206,0.344565,-0.000032,0.000071,0.000001,0.000071,-0.000032,89.644292,0.000071,
2011,2143,-5.30146284877052,-10.9622939620825,0.0109527862080085,0.006221,-0.000363,0.005898,0.269585,0.052231,330.105176,24.846387,0.998014,0.979538,0.005898,0.393051,0.000020,0.000020,0.000041,0.000061,-0.000020,44.923262,0.000062,
2506,3088,5.30495821019624,9.65761098699436,0.0126957819754807,0.006111,0.000121,0.003472,0.267592,0.040967,313.936173,25.948281,0.999706,0.993069,0.003412,0.411962,-0.000005,0.000059,0.000006,0.000060,-0.000006,84.640882,0.000066,
2461,2863,4.36816811573844,4.76498112157283,-0.0267615550469031,0.006004,0.000132,0.001688,0.269575,0.050712,317.173534,24.960583,0.999560,0.991066,0.003661,0.436392,0.000006,0.000026,-0.000011,0.000031,0.000001,-66.270806,0.000037,
2026,2143,-4.97447808551124,-10.9641854930335,0.0190544485570285,0.006081,-0.000332,0.006767,0.260570,0.031345,330.070690,24.716102,0.998068,0.978707,0.005971,0.419334,0.000011,0.000012,0.000040,0.000052,-0.000029,45.497483,0.000052,
2116,2578,-3.08516952196405,-1.45698730728094,-0.0206870340146565,0.005963,0.000132,0.001549,0.269815,0.043680,322.263910,24.376967,0.999443,0.990133,0.004110,0.426773,-0.000014,0.000010,-0.000002,0.000010,-0.000014,-84.660620,0.000015,
2146,2728,-2.45790131031799,1.81090844382169,-0.0218530531445822,0.005880,0.000236,0.003630,0.259825,0.057844,319.687094,24.405985,0.999452,0.990300,0.004051,0.456879,-0.000003,0.000006,-0.000012,0.000014,-0.000012,-55.550013,0.000015,
2296,2068,0.928021145355068,-12.6133660306742,0.0322986370279637,0.006514,0.000107,0.001775,0.292286,0.038246,330.475336,23.122711,0.999258,0.983243,0.005070,0.351430,-0.000014,-0.000001,-0.000017,0.000011,-0.000025,-55.169774,0.000025,
2131,2653,-2.77049110607473,0.17656218561438,-0.0138512092307224,0.006171,0.000184,-0.000086,0.284297,0.035662,321.056051,24.372764,0.999677,0.991601,0.003640,0.434901,-0.000007,0.000020,0.000002,0.000020,-0.000007,84.701266,0.000020,
2356,2338,2.18443005764257,-6.69413249977917,-0.00421777876198348,0.005867,0.000544,-0.000425,0.270682,0.053705,325.772856,23.493532,0.999458,0.989139,0.004356,0.363194,-0.000017,-0.000005,-0.000002,-0.000005,-0.000017,-78.049707,0.000023,
2236,3148,-0.572450916743424,10.9373979115167,0.0241062116630246,0.005946,0.000412,0.002445,0.266470,0.069770,312.954793,25.015738,0.999355,0.991288,0.003784,0.451619,-0.000009,0.000019,-0.000002,0.000019,-0.000009,-86.423283,0.000019,
2116,2563,-3.0826520110215,-1.78350237679372,-0.0260390720078476,0.006322,0.000218,0.000074,0.290688,0.045845,322.482661,24.362401,0.999326,0.987939,0.004444,0.439350,-0.000009,0.000018,0.000002,0.000019,-0.000009,86.141769,0.000019,
2251,3223,-0.258714242386059,12.5627390128347,0.0528065455092133,0.005902,-0.000148,0.007242,0.248462,0.056958,311.917873,25.179739,0.999682,0.994904,0.003123,0.449561,0.000000,0.000037,-0.000005,0.000037,-0.000001,-82.760291,0.000043,
2191,2953,-1.51692864992654,6.70285332637479,0.00552394702822312,0.005756,-0.000281,0.006727,0.244043,0.047059,316.082722,24.636860,0.999380,0.991921,0.003672,0.437120,0.000006,0.000030,0.000005,0.000031,0.000005,79.204358,0.000039,
2041,2233,-4.66171501803757,-8.9920364368004,0.00467140671884181,0.006111,-0.000110,0.002643,0.273308,0.043823,328.428616,24.684287,0.999110,0.983795,0.005050,0.351937,-0.000026,0.000058,0.000004,0.000059,-0.000026,87.262028,0.000059,
2431,2713,3.74602817405399,1.49535988456799,-0.0173803950603428,0.006294,0.000192,0.000067,0.288835,0.035111,319.662548,24.385673,0.999706,0.991867,0.003686,0.451429,0.000003,0.000041,-0.000007,0.000043,0.000002,-80.346666,0.000050,
2101,2503,-3.39883608294165,-3.09294088491426,-0.0179464263288196,0.006195,0.000138,-0.000133,0.285325,0.032926,323.584326,24.382369,0.999275,0.989626,0.004074,0.418782,-0.000001,0.000003,-0.000007,0.000008,-0.000006,-53.113051,0.000008,
2161,2788,-2.14189168161038,3.11745968919432,-0.0248713423777644,0.006062,0.000334,0.001728,0.274013,0.061591,318.644513,24.464267,0.999461,0.990713,0.004015,0.445876,-0.000004,0.000003,-0.000007,0.000008,-0.000009,-57.821396,0.000009,
2086,2428,-3.71287953190016,-4.73071568563202,-0.0044631044843868,0.006012,-0.000040,0.003914,0.265110,0.044729,324.960839,24.425385,0.999116,0.986995,0.004512,0.415763,-0.000002,-0.000020,-0.000001,-0.000002,-0.000020,-4.524778,0.000024,
2011,2068,-5.29009219275344,-12.6066656848365,0.019435734620572,0.005918,0.000179,-0.000545,0.273135,0.020688,331.381610,24.873257,0.999442,0.990658,0.003995,0.378339,0.000032,-0.000038,0.000073,0.000078,-0.000084,32.234958,0.000094,
2191,2938,-1.5140734134727,6.37782675052558,-0.000738890433694905,0.006130,0.000230,0.001827,0.276796,0.053669,316.307126,24.646452,0.999462,0.992529,0.003589,0.420519,0.000003,0.000032,0.000003,0.000032,0.000003,84.805312,0.000039,
2386,2488,2.80938191253243,-3.41523044949486,-0.00999818076957126,0.005948,-0.000014,0.003103,0.261734,0.040803,323.301173,23.763010,0.999459,0.988833,0.004276,0.418639,0.000012,0.000004,0.000010,0.000019,-0.000003,33.831482,0.000020,
2176,2878,-1.83009398184287,5.0738479901922,-0.0071920955593896,0.006206,0.000020,0.004305,0.272607,0.064073,317.274623,24.566883,0.999537,0.992889,0.003417,0.429512,0.000008,0.000032,0.000000,0.000032,0.000008,88.917554,0.000042,
2401,2563,3.12113641455893,-1.77696589306345,-0.0163932844820351,0.005847,0.000114,0.004105,0.253544,0.061437,322.035568,23.920601,0.999355,0.988139,0.004359,0.481517,0.000010,0.000002,0.000000,0.000010,0.000002,0.707437,0.000012,
2011,2158,-5.30400908338094,-10.6327555423457,0.00775544667914119,0.005965,-0.000520,0.004714,0.261031,0.021040,329.829192,24.939706,0.998111,0.979694,0.005993,0.259666,0.000005,-0.000001,0.000005,0.000008,-0.000003,29.499375,0.000008,
2026,2158,-4.9769511330055,-10.6336606985728,0.0121230119715392,0.006032,-0.000493,0.003447,0.267362,0.009140,329.778453,24.850293,0.999275,0.986450,0.004709,0.256390,0.000000,-0.000008,0.000009,0.000006,-0.000014,32.096668,0.000014,
2281,2023,0.607798492150085,-13.6002494980691,0.0277325655617346,0.006193,0.000068,0.002332,0.275775,0.033970,331.159660,23.113495,0.999217,0.982280,0.005350,0.358150,-0.000007,-0.000035,-0.000025,0.000008,-0.000050,-30.579214,0.000054,
2416,2638,3.43322538920893,-0.139249204448397,-0.0206689668114564,0.005867,0.000167,0.001500,0.263874,0.031263,320.808497,24.221734,0.999384,0.989002,0.004170,0.370599,0.000004,0.000020,-0.000008,0.000024,0.000000,-66.888203,0.000027,
2161,2803,-2.14384884018879,3.44327475931006,-0.0206937407792225,0.006249,0.000318,0.000435,0.286599,0.054718,318.448356,24.473852,0.999578,0.991759,0.003742,0.439226,0.000000,0.000003,-0.000003,0.000004,-0.000002,-59.122684,0.000004,
2311,2113,1.24612846081747,-11.6263622275015,0.0258281537064704,0.005850,-0.000145,0.003549,0.255725,0.050082,329.649659,23.064079,0.999273,0.982148,0.005282,0.433561,0.000000,0.000012,-0.000006,0.000014,-0.000002,-67.065065,0.000015,
2281,1993,0.613268732485924,-14.2584832997949,0.0327505795376624,0.005988,0.000103,0.002978,0.264182,0.049789,331.671402,23.134974,0.999368,0.968941,0.006750,0.289436,-0.000001,-0.000026,-0.000044,0.000032,-0.000059,-36.925402,0.000059,
2026,2218,-4.98625469885759,-9.32051992290008,-0.00188792537926474,0.006036,0.000211,-0.001755,0.282139,0.010536,328.714009,24.685665,0.998862,0.981097,0.005406,0.394788,0.000002,0.000060,0.000014,0.000064,-0.000001,76.986916,0.000073,
2221,3103,-0.889745635582688,9.95946646219326,0.0228077177043815,0.006275,-0.000164,0.001999,0.282761,0.019474,313.733060,24.881187,0.999489,0.992052,0.003638,0.417724,-0.000008,0.000005,-0.000006,0.000008,-0.000011,-67.744269,0.000011,
2446,2788,4.05659177992407,3.13058199240062,-0.0259855037376724,0.005984,0.000028,0.002487,0.265622,0.046897,318.370551,24.618824,0.999458,0.988864,0.004147,0.491839,0.000015,0.000036,-0.000010,0.000040,0.000011,-68.308638,0.000053,
2146,2698,-2.45320946413539,1.15870900178975,-0.0309201134303976,0.006292,0.000012,0.004715,0.275384,0.066698,320.113411,24.379485,0.999399,0.990251,0.003936,0.476444,-0.000002,-0.000002,-0.000009,0.000007,-0.000011,-45.528251,0.000011,
2056,2308,-4.34634334655913,-7.3524055537805,0.00310691451551293,0.006191,0.000583,0.000608,0.282926,0.053430,327.133799,24.558444,0.999615,0.990908,0.004136,0.402171,-0.000012,0.000023,-0.000005,0.000024,-0.000012,-81.993775,0.000024,
2206,3028,-1.20357362785215,8.33240578316617,0.00829415706857617,0.006204,-0.000141,0.006172,0.266351,0.050696,314.860068,24.768447,0.999643,0.993301,0.003391,0.425302,0.000002,0.000008,-0.000004,0.000010,0.000000,-62.780314,0.000012,
2131,2683,-2.77554193337389,0.828862298829179,-0.00454075160740786,0.005735,-0.000250,0.004980,0.248988,0.039866,320.612573,24.369126,0.999489,0.991508,0.003714,0.454697,-0.000008,0.000009,-0.000008,0.000012,-0.000011,-69.138935,0.000013,
2041,2248,-4.66384890765952,-8.66511005401356,0.00335891947247546,0.006225,-0.000417,0.001679,0.281151,0.016516,328.185220,24.588738,0.999096,0.985483,0.004807,0.415236,-0.000029,0.000061,0.000000,0.000061,-0.000029,89.968052,0.000061,
2251,3253,-0.265224616336877,13.2144505087117,0.0314116380623091,0.006143,0.000151,0.004860,0.267588,0.066825,311.265349,25.232692,0.999675,0.993933,0.003231,0.450412,-0.000002,0.000028,-0.000002,0.000028,-0.000002,-85.686973,0.000031,
2011,2083,-5.29278011318202,-12.277581910991,0.0187876796756541,0.005793,-0.000660,0.005650,0.250438,0.025981,331.113233,24.888324,0.998671,0.981889,0.005395,0.360128,0.000023,-0.000002,0.000067,0.000078,-0.000057,39.599917,0.000081,
2056,2278,-4.34247773829317,-8.00643806152512,-0.00199489103550832,0.005920,0.000214,0.001805,0.266969,0.051559,327.557401,24.674146,0.999632,0.991371,0.004091,0.291221,-0.000030,0.000058,0.000001,0.000058,-0.000030,89.531705,0.000058,
2491,3028,4.98950008268705,8.35407756248062,-0.00378414978598585,0.006028,0.000366,0.002532,0.267616,0.064857,314.738169,25.659289,0.999762,0.994107,0.003213,0.437552,0.000012,0.000007,-0.000002,0.000013,0.000006,-22.255275,0.000020,
2131,2668,-2.771487143468,0.499796489876339,0.010632145791817,0.006168,0.000171,0.002382,0.276807,0.048768,321.010934,24.255198,0.999651,0.991896,0.003677,0.571313,-0.000007,0.000013,0.000000,0.000013,-0.000007,89.998657,0.000013,
2296,2083,0.924683742396734,-12.2828697259683,0.0262540331504511,0.006483,-0.000017,0.003620,0.284637,0.052457,330.175416,23.202427,0.999319,0.983935,0.005019,0.319782,-0.000010,0.000013,-0.000011,0.000017,-0.000015,-68.480631,0.000019,
2086,2413,-3.71024477830735,-5.05872117882521,-0.00312234863662297,0.006121,-0.000123,0.002331,0.274623,0.030086,325.223762,24.401049,0.998887,0.985871,0.004657,0.424756,0.000002,-0.000016,-0.000007,0.000004,-0.000019,-18.118412,0.000020,
2356,2353,2.18194290777628,-6.36918456267255,-0.000109017281829438,0.005964,0.000128,0.000686,0.271083,0.042015,325.566520,23.296651,0.999504,0.989464,0.004419,0.589037,-0.000011,0.000000,0.000005,0.000003,-0.000013,67.741594,0.000014,
2506,3103,5.30207361804435,9.98276977825184,0.0141512135157313,0.006116,0.000146,0.002563,0.271393,0.043824,313.706494,25.950909,0.999693,0.992780,0.003405,0.472326,-0.000009,0.000058,0.000021,0.000064,-0.000015,74.220011,0.000067,
2101,2488,-3.39658510675702,-3.42092764200952,-0.0138075659695573,0.005968,0.000181,0.002475,0.267301,0.059677,323.843398,24.317969,0.999261,0.989527,0.004136,0.507478,-0.000006,0.000009,-0.000007,0.000012,-0.000009,-68.810030,0.000012,
2071,2368,-4.02937673095627,-6.04060879145688,-0.00499337447945436,0.006321,0.000432,-0.000546,0.292255,0.074174,326.027822,24.469640,0.997878,0.980262,0.005651,0.448295,-0.000003,0.000015,-0.000005,0.000016,-0.000004,-76.597535,0.000017,
2281,2038,0.604520757204337,-13.2690964892852,0.0153414265612355,0.006438,-0.000204,0.001248,0.290532,0.024212,330.829629,23.188063,0.999340,0.984724,0.004935,0.305630,-0.000005,-0.000014,-0.000026,0.000016,-0.000036,-39.947009,0.000036,
2161,2833,-2.14851620617332,4.0945774514703,-0.00907902199043065,0.006074,0.000098,0.004096,0.267289,0.056265,318.038747,24.483806,0.999665,0.993724,0.003331,0.450507,0.000005,0.000019,0.000002,0.000019,0.000005,81.526359,0.000025,
2026,2233,-4.98890053020599,-8.99098073740994,-0.000899406286976046,0.005736,0.000280,0.001486,0.259518,0.048515,328.457843,24.782142,0.999365,0.985428,0.004801,0.328914,0.000005,0.000068,0.000013,0.000070,0.000002,79.063887,0.000082,
2176,2863,-1.82812606883931,4.74774513835617,-0.0159893149132131,0.006040,-0.000118,0.001562,0.273346,0.040876,317.446258,24.506994,0.999072,0.988176,0.004072,0.454287,0.000004,0.000028,0.000000,0.000028,0.000004,88.922116,0.000035,
2236,3193,-0.579657556875876,11.9119812095744,0.0345590519732468,0.006200,-0.000030,0.005314,0.268699,0.045547,312.308576,25.053131,0.999476,0.991666,0.003573,0.449687,-0.000004,0.000021,-0.000005,0.000021,-0.000005,-79.087953,0.000022,
2101,2518,-3.40188023786984,-2.76551360927709,-0.0195085921025679,0.005881,-0.000343,0.003799,0.259305,0.029060,323.302915,24.401525,0.999638,0.992539,0.003594,0.398111,-0.000004,0.000010,0.000008,0.000013,-0.000007,65.092453,0.000013,
2041,2218,-4.65960768325259,-9.32037285649253,0.00145230459054346,0.005990,0.000535,-0.000431,0.276472,0.055664,328.646159,24.624916,0.998200,0.977029,0.005825,0.428516,-0.000029,0.000050,0.000002,0.000050,-0.000029,88.306524,0.000050,
2251,3238,-0.261673305350232,12.8876217614715,0.0421662014174444,0.006058,0.000115,0.002503,0.271255,0.046366,311.605916,25.129617,0.999798,0.996053,0.002805,0.511171,0.000001,0.000034,-0.000003,0.000035,0.000001,-84.296105,0.000041,
2191,2968,-1.51897323969886,7.02870498339297,0.00275345942878857,0.006147,0.000039,0.001915,0.277298,0.041540,315.848210,24.642750,0.999211,0.990684,0.003943,0.439921,0.000008,0.000023,0.000008,0.000026,0.000004,67.213807,0.000033,
2476,2953,4.67793084280092,6.72254127791479,-0.00934296529101175,0.006007,0.000123,0.001728,0.269594,0.039527,315.883118,25.328708,0.999358,0.989502,0.004033,0.416245,0.000010,-0.000016,-0.000010,0.000013,-0.000020,-18.799348,0.000020,
2371,2428,2.4940257219643,-4.72819348271958,-0.00699842658406169,0.005796,-0.000113,0.001950,0.258870,0.038760,324.287479,23.491342,0.999713,0.992639,0.003946,0.551792,0.000009,0.000008,0.000005,0.000013,0.000004,40.929365,0.000018,
2431,2728,3.74289412652877,1.82151176911489,-0.0177154225773961,0.006408,-0.000132,0.003169,0.282518,0.034540,319.409463,24.366410,0.999718,0.992375,0.003562,0.520339,0.000003,0.000033,-0.000004,0.000034,0.000003,-82.263997,0.000040,
2011,2173,-5.30618972400359,-10.3056798959732,0.010112450637223,0.005666,-0.000368,0.002426,0.253552,0.015811,329.601329,24.847255,0.998669,0.986246,0.005182,0.337607,0.000004,0.000019,-0.000001,0.000019,0.000003,-85.754471,0.000024,
2341,2278,1.8687597262062,-8.00902175497016,0.00327411802987854,0.005868,-0.000071,0.003249,0.257602,0.037781,326.791813,23.312652,0.999065,0.983176,0.005098,0.428553,-0.000021,-0.000011,-0.000019,0.000004,-0.000036,-51.904322,0.000039,
2401,2578,3.11807774528389,-1.44941957217127,-0.0177941272143585,0.005725,-0.000324,0.002839,0.252353,0.040374,321.779022,23.993479,0.999332,0.987368,0.004451,0.433987,0.000011,0.000012,-0.000001,0.000012,0.000010,-55.140837,0.000022,
2506,3118,5.2989193089248,10.3091857345027,0.0157740933009904,0.005996,-0.000002,0.003447,0.262462,0.057150,313.464664,26.063893,0.999519,0.992267,0.003599,0.432571,-0.000015,0.000080,0.000021,0.000085,-0.000019,78.212025,0.000089,
2236,3163,-0.57501089161072,11.2622142205713,0.0248927272569404,0.005934,0.000305,0.001587,0.268589,0.046139,312.718381,25.020053,0.999455,0.991274,0.003719,0.443620,-0.000005,0.000022,-0.000002,0.000022,-0.000006,-85.330442,0.000023,
2416,2653,3.43036324382367,0.187211141473533,-0.0178352254309289,0.006073,-0.000463,0.005853,0.257277,0.053652,320.581759,24.211475,0.999468,0.989062,0.004225,0.451524,-0.000003,0.000020,-0.000009,0.000023,-0.000006,-71.666111,0.000024,
2086,2443,-3.71605237216144,-4.40206718414832,-0.0138538856965624,0.005636,0.000233,0.001675,0.254371,0.052660,324.629468,24.445166,0.999332,0.988092,0.004415,0.404582,-0.000007,-0.000014,-0.000009,-0.000001,-0.000020,-35.400650,0.000024,
2146,2713,-2.4559855274552,1.48511734266554,-0.0288493222182638,0.005934,-0.000319,0.005880,0.255258,0.038301,319.867449,24.423110,0.999497,0.991508,0.003910,0.412339,0.000001,0.000004,-0.000010,0.000013,-0.000008,-49.208590,0.000013,
2071,2338,-4.02460037310196,-6.69753016088734,0.0047843399050862,0.005920,0.000332,0.000175,0.271647,0.048355,326.572623,24.450635,0.998656,0.986879,0.004759,0.443716,-0.000001,0.000011,-0.000006,0.000014,-0.000003,-67.961995,0.000015,
2221,3118,-0.892112917828147,10.2854768009923,0.0296480311431537,0.006111,0.000303,0.002615,0.273480,0.056389,313.535245,24.961010,0.999571,0.991675,0.003737,0.392756,-0.000009,0.000005,-0.000008,0.000008,-0.000012,-64.362609,0.000013,
2116,2593,-3.08714169810552,-1.13179486133632,-0.0130840815992883,0.006055,-0.000352,0.003857,0.267076,0.024010,322.082623,24.311153,0.999561,0.991498,0.003888,0.476922,-0.000018,0.000018,0.000001,0.000018,-0.000018,88.872074,0.000021,
2206,2998,-1.19874435281232,7.68238271153086,-0.00412984054622711,0.006381,0.000383,0.001799,0.288554,0.066092,315.267301,24.755242,0.999480,0.991722,0.003659,0.422022,-0.000003,0.000018,0.000003,0.000018,-0.000003,82.406109,0.000019,
2101,2533,-3.40510135925482,-2.43753012275472,-0.0298342081653118,0.005547,0.000248,0.001435,0.251066,0.055082,322.965845,24.368583,0.999520,0.991292,0.003878,0.459696,-0.000007,0.000025,0.000014,0.000030,-0.000012,68.922270,0.000030,
2281,2098,0.593593434497325,-11.953138323955,0.0166795074038646,0.006154,-0.000058,0.001396,0.277170,0.028771,329.862442,23.283346,0.998997,0.978892,0.005537,0.339258,-0.000001,0.000000,-0.000012,0.000011,-0.000013,-46.188645,0.000014,
2326,2188,1.56000908096273,-9.98135736843922,0.0186703845755574,0.006145,0.000603,-0.002237,0.289405,0.022601,328.407859,23.210227,0.999040,0.982234,0.005250,0.358009,-0.000013,0.000000,-0.000011,0.000007,-0.000020,-59.979033,0.000020,
2131,2743,-2.78554688958991,2.13711323972043,-0.0253163423263345,0.006457,0.000846,-0.001778,0.302952,0.062194,319.518698,24.415990,0.999412,0.990608,0.003972,0.454416,-0.000008,0.000003,-0.000009,0.000008,-0.000013,-61.087924,0.000013,
2221,3088,-0.887895152295922,9.63520702191767,0.0160281242694396,0.006030,0.000117,0.002925,0.268638,0.040396,313.906774,24.908412,0.999472,0.992995,0.003359,0.393592,-0.000005,0.000002,-0.000008,0.000007,-0.000010,-57.132427,0.000010,
2176,2893,-1.83182942073475,5.3983615364594,0.0025529216140967,0.006117,0.000131,0.000849,0.279204,0.036131,317.119208,24.541570,0.999800,0.995478,0.003062,0.438650,0.000007,0.000032,0.000004,0.000033,0.000007,80.463467,0.000043,
2191,2983,-1.52141071291079,7.35463618821916,0.00526784356873122,0.006177,0.000349,0.002808,0.276013,0.064714,315.623107,24.668146,0.999361,0.991564,0.003733,0.451565,0.000005,0.000016,0.000006,0.000019,0.000002,66.063497,0.000023,
2311,2128,1.24369179615599,-11.2958947141444,0.0247385807792284,0.006059,0.000039,0.000961,0.274205,0.040046,329.416717,23.237015,0.999201,0.983394,0.005142,0.285763,0.000001,0.000001,-0.000006,0.000007,-0.000005,-45.794781,0.000007,
2071,2383,-4.03195755447513,-5.71288038140477,-0.00401400237694816,0.006080,0.000210,0.000927,0.276897,0.057801,325.778945,24.506494,0.998492,0.983921,0.005179,0.393462,-0.000001,-0.000005,-0.000007,0.000004,-0.000011,-37.369063,0.000011,
2491,3043,4.98648243750051,8.68051951109486,-0.00415597735445772,0.006193,0.000171,0.003467,0.271523,0.049984,314.493057,25.771324,0.999755,0.993356,0.003447,0.368600,0.000007,0.000018,0.000001,0.000018,0.000007,85.063132,0.000025,
2236,3268,-0.594053029726517,13.538275043678,0.019939862755848,0.006068,0.000262,0.003525,0.268626,0.050753,310.956728,25.143092,0.999493,0.992957,0.003451,0.463551,-0.000008,0.000036,-0.000001,0.000036,-0.000009,-88.535400,0.000037,
2026,2173,-4.97889104246754,-10.3067265300903,0.0176701989163917,0.005970,-0.000657,0.003842,0.263395,0.013706,329.580468,24.768946,0.999287,0.988562,0.004382,0.335052,0.000002,0.000011,0.000004,0.000013,0.000001,68.134577,0.000015,
2056,2323,-4.34774351484778,-7.02512054688182,0.00770332617793201,0.006495,0.000837,-0.003960,0.309873,0.052405,326.957554,24.554331,0.999094,0.984811,0.004902,0.401672,-0.000012,0.000021,-0.000011,0.000024,-0.000015,-73.646226,0.000024,
2446,2803,4.05367925347447,3.45827804569485,-0.0283894421034461,0.006255,0.000144,0.002279,0.278914,0.051580,318.118517,24.743632,0.999585,0.990376,0.003851,0.423778,0.000012,0.000033,-0.000010,0.000037,0.000008,-67.576883,0.000048,
2056,2293,-4.34417290217791,-7.6807352992321,0.00476319765789412,0.006052,0.000234,0.001624,0.273575,0.048464,327.379857,24.540232,0.999851,0.994413,0.003503,0.418575,-0.000013,0.000038,0.000004,0.000038,-0.000014,85.714379,0.000038,
2176,2908,-1.83547490115509,5.72480256522898,-0.00569149754261389,0.005785,-0.000229,0.003889,0.254418,0.044697,316.781187,24.530775,0.999526,0.992510,0.003582,0.470036,0.000008,0.000025,0.000002,0.000025,0.000008,83.198091,0.000035,
2011,2098,-5.29511747160202,-11.9477087660662,0.015139901571672,0.005804,-0.000237,0.005193,0.252278,0.066469,330.843768,24.912873,0.998454,0.978727,0.005832,0.367598,0.000023,-0.000002,0.000053,0.000065,-0.000043,38.388271,0.000066,
2356,2368,2.1789769950745,-6.0386578998555,-0.00286839523243998,0.006209,0.000373,0.002581,0.275810,0.075509,325.304120,23.502955,0.999141,0.985685,0.004787,0.456943,-0.000009,0.000008,0.000010,0.000013,-0.000013,65.326762,0.000015,
2011,2188,-5.30981548745661,-9.97354435740655,-0.0150032446434238,0.005589,0.000079,0.000390,0.255659,0.052648,329.152683,24.890318,0.999482,0.992222,0.004190,0.323449,-0.000002,0.000059,0.000015,0.000062,-0.000005,77.022682,0.000069,
2086,2458,-3.71838286669249,-4.07556447841405,-0.0128965980838984,0.005764,-0.000269,0.004518,0.251957,0.048316,324.393370,24.383034,0.999394,0.988931,0.004307,0.462926,-0.000007,-0.000009,-0.000015,0.000006,-0.000023,-43.075095,0.000024,
2146,2743,-2.46004515024278,2.13719576706733,-0.0159196492917317,0.005954,0.000487,0.005618,0.257334,0.082843,319.490501,24.424048,0.999475,0.990493,0.004046,0.471764,-0.000005,0.000003,-0.000013,0.000013,-0.000014,-53.653867,0.000016,
2041,2293,-4.6703988563434,-7.68182958622988,0.0123804901690505,0.005969,-0.000043,0.003930,0.263365,0.052157,327.518899,24.575388,0.999812,0.993475,0.003822,0.447908,-0.000008,0.000037,-0.000006,0.000038,-0.000008,-82.635559,0.000040,
2161,2818,-2.14646007520869,3.76991466069438,-0.0135517419855091,0.005936,0.000064,0.004316,0.260214,0.052541,318.237565,24.580994,0.999725,0.993568,0.003329,0.339678,0.000004,0.000011,0.000001,0.000011,0.000004,84.166371,0.000016,
2236,3208,-0.58154692802103,12.2371389752267,0.0442522850497085,0.006260,0.000270,0.004839,0.273084,0.054161,312.148361,25.118874,0.999490,0.992905,0.003495,0.412371,-0.000004,0.000023,-0.000005,0.000024,-0.000005,-78.981835,0.000026,
2251,3268,-0.268682009833078,13.5403983962203,0.0151832853416067,0.006372,0.000464,0.002453,0.286140,0.070241,310.901544,25.246584,0.999506,0.992373,0.003541,0.461886,-0.000007,0.000033,-0.000004,0.000034,-0.000007,-84.508746,0.000035,
2116,2608,-3.08941225835239,-0.804029154056884,-0.0204181206764815,0.006410,0.000035,-0.000231,0.295640,0.019847,321.806787,24.341034,0.999180,0.988504,0.004444,0.447378,-0.000015,0.000019,0.000003,0.000019,-0.000016,85.710968,0.000020,
2041,2263,-4.66598980352233,-8.33698612697196,0.00526780123306025,0.006152,-0.000126,0.000852,0.280224,0.032166,327.958864,24.597813,0.999078,0.986036,0.004843,0.416357,-0.000031,0.000074,-0.000006,0.000074,-0.000031,-86.973414,0.000074,
2236,3283,-0.597266923383597,13.8643934277944,0.0117297064429636,0.005947,0.000629,0.001211,0.270747,0.063653,310.643462,25.212256,0.999337,0.992554,0.003576,0.426826,-0.000012,0.000039,-0.000002,0.000039,-0.000013,-87.281497,0.000039,
2476,2968,4.67574533739503,7.04932549409434,-0.00734593936090278,0.006238,0.000776,-0.003869,0.301820,0.062257,315.686300,25.430388,0.999400,0.990976,0.003900,0.393492,0.000012,-0.000013,-0.000007,0.000014,-0.000015,-14.223587,0.000017,
2371,2443,2.49153406499974,-4.39968122034363,-0.000412323990587993,0.005870,-0.000365,0.004573,0.252905,0.043637,324.092887,23.655974,0.999222,0.987494,0.004612,0.434432,0.000011,0.000000,0.000003,0.000012,-0.000001,15.181728,0.000013,
2101,2593,-3.41340257298745,-1.13134669796334,-0.0159496135851214,0.006014,-0.000066,0.003450,0.266642,0.035148,322.127216,24.372747,0.999185,0.988865,0.004294,0.443613,-0.000019,0.000018,0.000005,0.000018,-0.000019,82.800320,0.000022,
2206,3043,-1.20581823050937,8.65768707439939,0.0149883595381084,0.005893,0.000037,0.003147,0.261735,0.053225,314.666645,24.797606,0.999826,0.995219,0.003011,0.414245,0.000003,0.000007,-0.000005,0.000010,-0.000001,-56.651223,0.000011,
2131,2698,-2.77871442859511,1.15694552919718,-0.0192834215316111,0.005968,-0.000166,0.004788,0.260360,0.046202,320.257121,24.387868,0.999468,0.990874,0.003815,0.448860,-0.000006,-0.000001,-0.000006,0.000003,-0.000011,-56.297424,0.000011,
2026,2248,-4.99096195404615,-8.6649970203763,0.00358437065125372,0.005785,-0.000396,0.004565,0.253167,0.028874,328.248845,24.652426,0.999351,0.986726,0.004606,0.431456,0.000000,0.000069,0.000010,0.000070,-0.000001,81.892397,0.000081,
2161,2848,-2.1512840618597,4.42011360385914,-0.013933359267412,0.006017,0.000081,0.002183,0.270532,0.056117,317.757843,24.404794,0.999705,0.994009,0.003202,0.539524,0.000002,0.000026,0.000004,0.000026,0.000002,80.389495,0.000031,
2251,3283,-0.272031959785583,13.8653193735951,0.00853233841752399,0.006212,0.000188,0.002690,0.277878,0.051379,310.591697,25.246074,0.999439,0.992204,0.003583,0.465374,-0.000010,0.000034,-0.000006,0.000035,-0.000010,-82.865839,0.000036,
2386,2503,2.80689776331079,-3.08763911971365,-0.0034527564003497,0.006065,-0.000134,0.005905,0.257068,0.066128,323.107588,23.840660,0.999602,0.990059,0.004008,0.410697,0.000009,-0.000002,0.000003,0.000010,-0.000003,14.753581,0.000010,
2026,2188,-4.98101326968902,-9.97778737668706,0.0120073976908088,0.006213,-0.000017,0.001030,0.282498,0.040560,329.311393,24.734742,0.999167,0.986709,0.004743,0.389361,-0.000003,0.000046,0.000017,0.000051,-0.000009,72.454795,0.000055,
2206,3013,-1.20100810324984,8.00712299752735,0.00679755805583682,0.006276,0.000034,0.006292,0.269278,0.053200,315.095124,24.772060,0.999487,0.991393,0.003651,0.408073,0.000001,0.000012,-0.000002,0.000013,0.000000,-78.721678,0.000015,
2296,2098,0.920987150117277,-11.9537975434732,0.0233363062272929,0.005908,-0.000468,0.006195,0.249503,0.040870,329.874729,23.218656,0.999200,0.981458,0.005324,0.325333,-0.000009,0.000006,-0.000016,0.000016,-0.000019,-58.152009,0.000021,
2281,2053,0.601554119919481,-12.9404761389462,0.0141882768211303,0.006283,-0.000128,0.001956,0.281117,0.046739,330.569682,23.132213,0.999150,0.982716,0.005148,0.415378,-0.000006,-0.000009,-0.000021,0.000014,-0.000029,-42.458898,0.000029,
2041,2278,-4.66838496952906,-8.00826502137137,0.00726390558793355,0.005975,0.000120,0.002482,0.267668,0.062115,327.721200,24.652983,0.999782,0.992353,0.004040,0.385897,-0.000025,0.000059,-0.000007,0.000060,-0.000025,-85.521045,0.000060,
2011,2323,-5.32767407863374,-7.02515923975594,0.00470105199877935,0.006085,0.000109,-0.000651,0.281525,0.034311,327.174323,24.724033,0.999149,0.984492,0.004945,0.383712,-0.000003,0.000030,-0.000025,0.000043,-0.000017,-61.638704,0.000044,
2296,2113,0.917550264469547,-11.6246024819887,0.015459154264704,0.005564,0.000100,0.003516,0.243011,0.052043,329.561271,23.175144,0.999116,0.980875,0.005382,0.413672,-0.000008,0.000006,-0.000013,0.000014,-0.000016,-58.678486,0.000017,
2191,2998,-1.52425195578715,7.68057537569416,0.00108823371516564,0.006177,0.000275,0.002449,0.277157,0.057244,315.344607,24.683306,0.999519,0.991977,0.003664,0.442515,0.000001,0.000018,0.000004,0.000019,0.000001,78.547835,0.000022,
2281,2113,0.590710452752472,-11.6244962025732,0.0141189176760008,0.005916,0.000426,-0.001617,0.276531,0.026566,329.599315,23.260788,0.998922,0.980079,0.005453,0.390544,0.000001,0.000002,-0.000009,0.000010,-0.000008,-46.596961,0.000011,
2506,3133,5.29589268219347,10.6350573058423,0.0134876258602503,0.006253,0.000204,0.003438,0.274430,0.061152,313.211271,26.115629,0.999497,0.992033,0.003628,0.445039,-0.000004,0.000073,0.000016,0.000076,-0.000007,78.881200,0.000084,
2041,2308,-4.67304494302401,-7.35246636766752,0.00136019615644045,0.006038,0.000381,0.000631,0.275825,0.059852,327.197829,24.591090,0.999728,0.991323,0.004219,0.434853,-0.000005,0.000021,-0.000015,0.000028,-0.000012,-65.540740,0.000028,
2056,2368,-4.35634543099193,-6.04008544775881,-0.00989628408319732,0.006183,0.000068,0.002105,0.278329,0.044136,326.054614,24.560665,0.998746,0.984381,0.005026,0.377290,-0.000010,0.000014,-0.000006,0.000015,-0.000011,-77.145071,0.000015,
2071,2443,-4.0412235072378,-4.40378225920521,-0.000503560036634099,0.005942,0.000212,0.002653,0.265723,0.050591,324.829846,24.474234,0.999204,0.987957,0.004434,0.412147,-0.000009,-0.000015,-0.000012,0.000001,-0.000024,-37.710537,0.000027,
2101,2548,-3.40750488032858,-2.11116352443835,-0.0360592043758743,0.005946,0.000003,0.001885,0.268061,0.053773,322.688833,24.257259,0.999663,0.993900,0.003534,0.572098,-0.000005,0.000027,0.000015,0.000033,-0.000011,68.847972,0.000034,
2221,3133,-0.894942940194547,10.6098726777837,0.0281757235574673,0.006108,0.000345,0.003883,0.269342,0.060620,313.273959,24.876648,0.999625,0.992834,0.003524,0.499170,-0.000010,0.000013,-0.000004,0.000014,-0.000011,-79.851565,0.000014,
2341,2293,1.86581456019555,-7.67988516124231,0.00186614181922096,0.005762,0.000146,0.002208,0.256491,0.046701,326.536166,23.402951,0.999021,0.985307,0.004850,0.385913,-0.000022,-0.000017,-0.000021,0.000001,-0.000040,-48.626851,0.000045,
2431,2743,3.7394979226553,2.14941745568211,-0.0189576393174775,0.006187,-0.000238,0.004328,0.268060,0.035986,319.139633,24.503693,0.999576,0.990658,0.003830,0.434598,0.000005,0.000036,-0.000003,0.000036,0.000004,-83.927055,0.000044,
2056,2338,-4.35123288574625,-6.69658614774976,-0.000680297901510585,0.005944,0.000463,-0.001599,0.277807,0.048860,326.614283,24.544011,0.998958,0.985609,0.004800,0.405517,-0.000009,0.000010,-0.000010,0.000015,-0.000013,-66.938711,0.000016,
2131,2758,-2.78858232055638,2.46367600345642,-0.0260376657704455,0.006097,0.000153,0.000798,0.278446,0.043097,319.244786,24.454908,0.999474,0.991792,0.003719,0.402215,-0.000005,0.000001,-0.000009,0.000007,-0.000012,-54.240755,0.000012,
2491,3058,4.98425620320762,9.00485717716897,0.00707581382397393,0.006014,-0.000022,0.002586,0.266636,0.041522,314.337317,25.762378,0.999687,0.991908,0.003787,0.426956,0.000007,0.000024,0.000001,0.000024,0.000007,86.249773,0.000033,
2401,2593,3.11547445891719,-1.12220923741155,-0.0175849265924626,0.006014,0.000066,0.002732,0.266149,0.032920,321.550929,24.040754,0.999446,0.989147,0.004190,0.425642,0.000013,-0.000004,-0.000002,0.000013,-0.000004,-7.409185,0.000014,
2161,2863,-2.15434237270084,4.74764861144105,-0.0177830608453178,0.005947,-0.000138,0.005289,0.257770,0.053777,317.468274,24.524107,0.999451,0.991769,0.003584,0.427706,0.000003,0.000030,-0.000001,0.000030,0.000003,-88.037372,0.000037,
2236,3298,-0.600591690057644,14.1895138331619,0.00403332312066595,0.005936,0.000435,0.002522,0.265917,0.057840,310.328057,25.215631,0.999328,0.992701,0.003525,0.437316,-0.000013,0.000041,-0.000018,0.000046,-0.000018,-73.369284,0.000047,
2461,2878,4.36460753966334,5.09173412677649,-0.0276895285733758,0.005785,0.000107,0.004617,0.248540,0.057786,316.899460,25.030167,0.999416,0.991605,0.003712,0.428073,0.000003,0.000018,-0.000009,0.000022,-0.000002,-64.465910,0.000024,
2221,3193,-0.904442491567444,11.9106310003258,0.0413496037955383,0.006254,0.000307,0.003858,0.276258,0.067378,312.409310,24.994187,0.999515,0.992885,0.003447,0.459189,-0.000007,0.000017,-0.000005,0.000017,-0.000008,-79.347469,0.000018,
2116,2668,-3.10060475113105,0.505112539976011,-0.0383450383852733,0.006031,0.000442,-0.000567,0.279496,0.055412,320.668255,24.384597,0.999558,0.991492,0.003683,0.455689,-0.000009,0.000008,0.000000,0.000008,-0.000009,-89.877358,0.000010,
2176,2968,-1.84415100621048,7.02790809331507,0.00243730113834317,0.006550,0.000120,0.000818,0.299370,0.043248,315.916363,24.615903,0.999379,0.991961,0.003627,0.430348,0.000010,0.000022,0.000007,0.000025,0.000007,65.036639,0.000034,
2146,2758,-2.46295925822788,2.46343603123255,-0.0170577989035792,0.005604,-0.000198,0.005688,0.240759,0.042483,319.221252,24.450878,0.999383,0.990988,0.003846,0.412657,-0.000002,0.000001,-0.000012,0.000012,-0.000012,-48.761250,0.000014,
2476,2983,4.67205202994061,7.37593831356944,-0.0138296229892489,0.006191,0.000436,-0.003180,0.296943,0.050238,315.381469,25.497050,0.999318,0.990151,0.004042,0.370858,0.000011,-0.000011,-0.000009,0.000014,-0.000014,-19.225359,0.000016,
2251,3298,-0.273905622078246,14.1902140835726,0.0118898182477096,0.006604,0.000220,-0.000003,0.304768,0.037825,310.400649,25.296029,0.999298,0.991467,0.003683,0.423777,-0.000008,0.000034,-0.000020,0.000043,-0.000016,-67.902033,0.000043,
2011,2338,-5.33066374010284,-6.69751373373497,0.000299523570220117,0.005665,0.000006,0.001409,0.256629,0.040549,326.871792,24.661097,0.999148,0.986438,0.004689,0.443215,0.000002,0.000019,-0.000025,0.000037,-0.000016,-54.291635,0.000037,
2011,2203,-5.3105020927235,-9.64761038684907,-0.00441433727451113,0.006453,0.000100,0.000749,0.294440,0.046338,329.039323,24.792392,0.999548,0.992141,0.004126,0.404785,0.000009,0.000072,0.000016,0.000075,0.000005,76.592592,0.000090,
2041,2323,-4.67481312246159,-7.02389540432064,-0.00352562108099619,0.006682,0.000442,-0.001512,0.311454,0.037930,326.951072,24.631180,0.999084,0.983749,0.004907,0.367523,-0.000006,0.000022,-0.000021,0.000034,-0.000017,-61.510684,0.000034,
2446,2818,4.05113108607474,3.7835503937825,-0.0251593826255885,0.006301,0.000358,0.000663,0.287215,0.064858,317.909715,24.684579,0.999514,0.990074,0.003988,0.548467,0.000007,0.000026,-0.000010,0.000030,0.000003,-66.673720,0.000036,
2161,2893,-2.15889792435964,5.39938633033604,-0.0146740283216218,0.006098,0.000112,0.003441,0.270454,0.051619,317.018756,24.546864,0.999570,0.992512,0.003581,0.422233,0.000006,0.000036,0.000003,0.000036,0.000006,84.826040,0.000046,
2086,2518,-3.72736771491544,-2.76724949228622,-0.00838633416583434,0.005711,-0.000129,0.001811,0.257440,0.035022,323.467599,24.394507,0.999467,0.991607,0.003789,0.438883,-0.000005,0.000009,0.000009,0.000013,-0.000009,64.678360,0.000014,
2146,2818,-2.47278331557102,3.76917581259296,-0.0201382907430911,0.005864,0.000206,0.004758,0.255848,0.075028,318.235307,24.493288,0.999575,0.992717,0.003519,0.434100,0.000000,0.000009,-0.000001,0.000009,0.000000,-83.113492,0.000011,
2191,3043,-1.53089764645108,8.65673321271772,0.0221496564305426,0.005947,-0.000082,0.004062,0.261399,0.043144,314.770896,24.816193,0.999739,0.994722,0.003201,0.336459,0.000001,0.000006,-0.000004,0.000008,-0.000001,-58.039820,0.000009,
2086,2473,-3.72087433329159,-3.74755689847846,-0.0152820846691952,0.005866,-0.000207,0.006023,0.252315,0.049487,324.131371,24.427048,0.999363,0.989563,0.004269,0.420151,-0.000002,0.000004,-0.000004,0.000006,-0.000004,-63.888998,0.000006,
2281,2068,0.599864741547293,-12.6112752751508,0.0219789163510313,0.006643,0.000151,0.001038,0.300792,0.051830,330.412577,23.251266,0.999101,0.983512,0.005036,0.332017,-0.000004,-0.000005,-0.000011,0.000006,-0.000015,-43.753030,0.000015,
2116,2623,-3.09283351368021,-0.475793393797339,-0.0308936663657846,0.006155,0.000090,0.000838,0.280830,0.040613,321.461165,24.368318,0.998939,0.985804,0.004901,0.445091,-0.000011,0.000013,0.000000,0.000013,-0.000011,-89.642269,0.000014,
2371,2458,2.48845729710846,-4.07140940799374,-0.00392728270537646,0.006083,-0.000399,0.006477,0.255912,0.044374,323.823250,23.712941,0.999061,0.985977,0.004806,0.420723,0.000012,0.000008,0.000007,0.000017,0.000002,36.037570,0.000022,
2416,2668,3.42786088565709,0.515290109704758,-0.020065691395871,0.006374,0.000174,0.001786,0.286200,0.042255,320.347563,24.345625,0.999403,0.988812,0.004342,0.354086,-0.000005,0.000017,-0.000008,0.000019,-0.000007,-72.291683,0.000019,
2386,2518,2.80394046821183,-2.76050451641326,-0.00669010974991124,0.006001,0.000288,0.002739,0.265645,0.065217,322.846040,23.818429,0.999489,0.988599,0.004348,0.476449,0.000008,-0.000003,0.000000,0.000008,-0.000003,2.659284,0.000008,
2071,2458,-4.04370896910091,-4.07726701937985,-0.00167031347137936,0.005882,-0.000193,0.003303,0.261029,0.044906,324.573903,24.393647,0.999479,0.989941,0.004212,0.485216,-0.000010,-0.000009,-0.000019,0.000009,-0.000028,-45.654074,0.000029,
2251,1993,-0.0442141088169343,-14.2541307667191,0.00118630989993562,0.006078,0.000065,0.002686,0.269561,0.033810,331.456659,23.320991,0.999679,0.990552,0.004302,0.300836,0.000017,-0.000037,-0.000032,0.000032,-0.000052,-24.908819,0.000052,
2026,2263,-4.99261012297577,-8.3353995493527,-0.000556026082506378,0.006309,0.000114,-0.000286,0.290673,0.016939,328.009973,24.761410,0.998843,0.982518,0.005107,0.303128,-0.000005,0.000086,0.000007,0.000087,-0.000006,85.496497,0.000097,
2236,3223,-0.584995586016017,12.5631492677175,0.0375388639979519,0.005942,0.000578,0.004632,0.259269,0.066764,311.832178,25.167975,0.999398,0.992502,0.003697,0.395589,-0.000002,0.000036,-0.000004,0.000036,-0.000003,-83.648238,0.000040,
2296,2173,0.906943572222957,-10.3092343268908,0.00597798567139307,0.006104,0.000262,-0.002101,0.286867,0.022019,328.559957,23.244554,0.999422,0.982715,0.005215,0.445866,-0.000013,-0.000005,-0.000009,0.000001,-0.000019,-56.312897,0.000021,
2056,2383,-4.35914460128957,-5.71125840565139,-0.0202222442655966,0.006025,0.000877,-0.002350,0.283860,0.067005,325.732016,24.550081,0.999240,0.988800,0.004456,0.407639,-0.000008,-0.000008,-0.000011,0.000003,-0.000019,-46.025307,0.000021,
2356,2383,2.17542011274759,-5.70972072020853,-0.00310560611711708,0.005811,-0.000350,0.006371,0.243976,0.056701,325.027135,23.645934,0.999287,0.983296,0.004991,0.335855,-0.000002,0.000005,0.000003,0.000006,-0.000003,70.347753,0.000006,
2026,2203,-4.98426010530959,-9.64836902782424,-9.90770847124622E-05,0.005965,-0.000026,0.002224,0.267881,0.023952,328.955294,24.726422,0.999064,0.985200,0.005008,0.374573,0.000005,0.000059,0.000019,0.000065,-0.000001,72.241934,0.000074,
2296,2128,0.915606088755244,-11.2960353958696,0.0190234705284524,0.005790,0.000284,-0.000277,0.266242,0.037931,329.372737,23.229545,0.999020,0.981547,0.005339,0.377652,-0.000005,-0.000003,-0.000013,0.000009,-0.000017,-46.958739,0.000017,
2176,2923,-1.83838752980621,6.05204648055401,-0.0104732777363097,0.005832,0.000270,0.005150,0.252898,0.074197,316.494628,24.602901,0.998993,0.987772,0.004383,0.439261,0.000006,0.000024,0.000001,0.000024,0.000006,86.429857,0.000032,
2011,2353,-5.33295910492005,-6.36776401863291,-0.00982568451343013,0.006105,0.000411,0.000354,0.279874,0.053690,326.568412,24.733117,0.999102,0.989386,0.004502,0.374234,0.000002,0.000009,-0.000016,0.000022,-0.000010,-51.178502,0.000022,
2491,3073,4.98136792402758,9.33011420988015,0.00728950624204572,0.006292,-0.000147,0.003975,0.273983,0.033733,314.100982,25.769195,0.999618,0.991128,0.003913,0.470483,0.000006,0.000038,0.000005,0.000039,0.000005,81.640505,0.000048,
2431,2758,3.73641123699251,2.47649279039611,-0.0210820869315285,0.006006,0.000128,0.001369,0.270839,0.036342,318.880052,24.563415,0.999512,0.989094,0.004041,0.425456,0.000009,0.000041,-0.000002,0.000041,0.000009,-85.549705,0.000053,
2461,2893,4.36202315092002,5.41868358265555,-0.024756469859085,0.005823,0.000250,0.002648,0.257790,0.059346,316.687880,25.155715,0.999149,0.989185,0.004163,0.357939,0.000004,0.000011,-0.000007,0.000015,0.000000,-57.102228,0.000017,
2086,2533,-3.72957445365236,-2.43966128686685,-0.0103124605962535,0.006032,0.000047,0.002658,0.269853,0.050582,323.221197,24.409574,0.999619,0.992475,0.003719,0.439488,-0.000009,0.000024,0.000016,0.000030,-0.000015,68.006466,0.000030,
2026,2278,-4.99490012708073,-8.00885006988385,0.00311897497670088,0.006018,-0.000179,0.000013,0.276445,0.023024,327.785853,24.659205,0.998386,0.983366,0.005328,0.403672,-0.000001,0.000074,0.000005,0.000074,-0.000002,86.370632,0.000084,
2341,2308,1.86430977748727,-7.35280584819442,0.0126137548977567,0.006441,-0.000505,0.004791,0.278397,0.031996,326.405680,23.455232,0.998411,0.981331,0.005300,0.357199,-0.000022,-0.000025,-0.000014,-0.000010,-0.000038,-42.123285,0.000050,
2101,2608,-3.41545578645909,-0.804643170039625,-0.0152436615435363,0.006094,0.000139,0.000192,0.279933,0.037442,321.903594,24.367793,0.998840,0.986744,0.004725,0.452689,-0.000015,0.000021,0.000006,0.000022,-0.000016,80.716071,0.000022,
2506,3148,5.29329595170809,10.9606146781549,0.0215710931374815,0.006161,0.000308,0.004593,0.265727,0.060340,313.024196,26.210428,0.999483,0.991251,0.003717,0.408957,-0.000004,0.000064,0.000016,0.000068,-0.000008,77.633611,0.000074,
2071,2398,-4.03432701225329,-5.38554774533627,-0.00801643483470116,0.006192,0.000137,-0.000266,0.285431,0.034450,325.512651,24.471324,0.998664,0.985504,0.005081,0.404096,-0.000001,-0.000021,-0.000014,0.000006,-0.000028,-27.862528,0.000030,
2371,2473,2.48575811313508,-3.7442330786676,-0.00267122006363252,0.005912,-0.000157,0.003451,0.258933,0.044127,323.593845,23.719885,0.999385,0.987843,0.004421,0.455778,0.000012,0.000001,0.000007,0.000015,-0.000003,25.958054,0.000016,
2011,2218,-5.31257897830002,-9.32056294205637,0.00583467316840824,0.006208,-0.000610,0.005263,0.270757,0.026505,328.860477,24.809922,0.999141,0.986907,0.004838,0.357906,0.000007,0.000068,0.000010,0.000070,0.000006,81.100397,0.000084,
2041,2338,-4.67757863207285,-6.69681164037119,-0.00202178445374557,0.006252,-0.000068,0.001498,0.283174,0.041526,326.694310,24.578833,0.999203,0.987540,0.004428,0.417825,-0.000002,0.000011,-0.000021,0.000027,-0.000018,-53.878858,0.000027,
2476,2998,4.66934539650539,7.70053047133658,-0.00243185305532734,0.006205,-0.000034,0.004355,0.268695,0.042838,315.203867,25.499106,0.999336,0.990079,0.003934,0.417098,0.000007,-0.000005,-0.000003,0.000007,-0.000006,-11.928329,0.000008,
2131,2713,-2.78144771181533,1.48436221426518,-0.0245368011783853,0.005934,0.000067,0.003298,0.263384,0.051562,319.972594,24.429889,0.999388,0.990654,0.003964,0.418147,-0.000004,0.000003,-0.000007,0.000008,-0.000008,-57.668897,0.000009,
2041,2353,-4.68010274794363,-6.3688435074174,-0.00550588393929274,0.006330,-0.000303,0.003844,0.280215,0.046855,326.420806,24.561618,0.998887,0.984890,0.004978,0.434609,-0.000004,0.000001,-0.000016,0.000015,-0.000017,-49.401726,0.000018,
2056,2353,-4.35406032638065,-6.36842477253316,-0.00690556033322309,0.006046,0.000131,0.002789,0.270084,0.056384,326.313150,24.515781,0.998879,0.983209,0.005110,0.438077,-0.000012,0.000001,-0.000006,0.000003,-0.000014,-67.450752,0.000015,
2086,2488,-3.72313163432929,-3.42073750074412,-0.0160842677532855,0.005796,0.000188,0.002775,0.258658,0.065368,323.888931,24.367342,0.999322,0.990166,0.004121,0.496385,-0.000007,0.000009,-0.000005,0.000011,-0.000008,-72.368814,0.000011,
2116,2638,-3.09555464681057,-0.148897768146654,-0.0308481498566948,0.005955,0.000021,0.002486,0.266776,0.049908,321.204467,24.379123,0.999307,0.989259,0.004125,0.447728,-0.000009,0.000008,-0.000001,0.000008,-0.000009,-86.335749,0.000010,
2386,2533,2.80034223651885,-2.43184378281515,-0.0151036546963041,0.005969,0.000381,0.002825,0.263968,0.080943,322.530121,23.878571,0.999489,0.989464,0.004307,0.476685,0.000011,-0.000010,0.000002,0.000011,-0.000010,4.758940,0.000012,
2236,3238,-0.587848582305661,12.887515953221,0.0331966730656177,0.005936,0.000308,0.002788,0.264850,0.045322,311.556095,25.117510,0.999625,0.994075,0.003245,0.444330,-0.000001,0.000035,-0.000003,0.000035,-0.000002,-85.640849,0.000039,
2221,3148,-0.897364811414395,10.9352919084531,0.0304684385144469,0.006083,0.000196,0.002681,0.272045,0.057465,313.050431,24.920846,0.999657,0.993045,0.003362,0.469792,-0.000010,0.000019,-0.000002,0.000019,-0.000010,-85.377400,0.000019,
2206,3118,-1.21763636131791,10.2835275311504,0.0319151776643594,0.006097,-0.000056,0.005157,0.264758,0.043720,313.586567,24.856623,0.999477,0.992405,0.003671,0.424230,-0.000009,0.000005,-0.000007,0.000009,-0.000012,-67.228895,0.000013,
2071,2473,-4.0455634729707,-3.74973684618962,-0.000740407813339061,0.006189,0.000013,0.001723,0.279754,0.047889,324.357999,24.421496,0.999400,0.989621,0.004332,0.458355,-0.000005,0.000005,-0.000008,0.000010,-0.000010,-61.148796,0.000012,
2206,3058,-1.20813488422658,8.98324309328603,0.012932459506203,0.006169,0.000290,0.000864,0.281820,0.061446,314.424496,24.792648,0.999777,0.994634,0.003069,0.443370,0.000003,0.000000,-0.000009,0.000011,-0.000007,-39.826801,0.000011,
2011,2368,-5.33496830867481,-6.04148331440793,-0.00680237352821678,0.006102,0.000030,0.000301,0.279776,0.038931,326.352670,24.649919,0.999086,0.988963,0.004581,0.432692,0.000011,0.000025,-0.000011,0.000031,0.000006,-61.980230,0.000039,
2176,2983,-1.84738298111177,7.35428100012103,-0.00150225396885162,0.006324,0.000183,0.003547,0.280593,0.059284,315.619794,24.644725,0.999301,0.991688,0.003698,0.429366,0.000007,0.000015,0.000005,0.000017,0.000005,64.256721,0.000023,
2146,2773,-2.46531754846162,2.79065987984049,-0.023560302641954,0.005939,0.000185,0.002338,0.266528,0.059769,318.948597,24.473115,0.999618,0.993968,0.003267,0.415836,-0.000002,0.000004,-0.000009,0.000011,-0.000008,-54.215923,0.000011,
2191,3058,-1.53360566227351,8.98123810330007,0.0197151094703258,0.005909,0.000123,0.002938,0.263333,0.057226,314.508011,24.705456,0.999807,0.995644,0.002972,0.474835,0.000003,-0.000001,-0.000008,0.000009,-0.000007,-36.280240,0.000009,
2011,2233,-5.31527482998444,-8.99181616674615,0.00352240622055433,0.005752,-0.000258,0.004050,0.253234,0.034601,328.582665,24.828960,0.999176,0.983866,0.005103,0.337819,0.000009,0.000073,0.000008,0.000074,0.000008,83.314541,0.000091,
2101,2563,-3.40915455454802,-1.78370783435845,-0.0282906537929648,0.006190,0.000109,0.001954,0.279141,0.044856,322.521628,24.381835,0.999278,0.989576,0.004196,0.440442,-0.000007,0.000019,0.000007,0.000021,-0.000009,75.108118,0.000021,
2281,2128,0.588264181054111,-11.2967463722694,0.0270230468840396,0.005620,-0.000062,0.003986,0.244117,0.046940,329.432973,23.307227,0.998517,0.978784,0.005570,0.395012,0.000002,-0.000005,-0.000010,0.000009,-0.000012,-34.493954,0.000012,
2266,2023,0.280869191464468,-13.5996094015184,0.0297612656650585,0.006397,0.000352,-0.002385,0.300869,0.021941,331.220897,23.273220,0.999096,0.978784,0.005864,0.287616,-0.000006,-0.000046,-0.000019,0.000002,-0.000054,-21.938520,0.000061,
2041,2473,-4.6987743002586,-3.74865014414318,-0.0137858094657872,0.006130,-0.000021,0.002576,0.274852,0.049496,324.412073,24.516192,0.998781,0.983561,0.005139,0.435042,0.000009,0.000007,-0.000014,0.000022,-0.000006,-43.766017,0.000023,
2476,3013,4.66628532064368,8.02657408650379,0.00216496126608945,0.005985,-0.000052,0.006464,0.250587,0.055064,314.978563,25.572208,0.999579,0.991772,0.003552,0.412236,0.000000,0.000002,0.000002,0.000003,-0.000001,55.766256,0.000003,
2086,2548,-3.73198493093362,-2.11295053945241,-0.0161342706705341,0.006380,-0.000088,0.003296,0.284001,0.048116,322.944598,24.332816,0.999372,0.991185,0.003982,0.513893,-0.000006,0.000028,0.000018,0.000036,-0.000013,67.162428,0.000036,
2161,2878,-2.15635307138807,5.0732077262972,-0.0110497682541677,0.005984,0.000085,0.005010,0.260423,0.065214,317.283164,24.530461,0.999485,0.992659,0.003523,0.442469,0.000006,0.000036,-0.000001,0.000036,0.000006,-88.326834,0.000046,
2191,3013,-1.52629824867761,8.00483482916337,0.0156921001861861,0.005941,-0.000017,0.005831,0.255514,0.045893,315.201033,24.678314,0.999511,0.991541,0.003724,0.449736,0.000002,0.000014,-0.000001,0.000015,0.000002,-85.677965,0.000018,
2311,2143,1.24160248499716,-10.9674448157937,0.0266409182181064,0.006655,-0.000009,0.002110,0.297626,0.042488,329.214465,23.251037,0.999284,0.984180,0.005142,0.309031,0.000000,-0.000012,-0.000005,0.000001,-0.000013,-19.100362,0.000015,
2221,3208,-0.907017649368147,12.235961684876,0.0445671157856395,0.006072,0.000368,0.003468,0.269177,0.070002,312.183453,25.043666,0.999364,0.991995,0.003699,0.429924,-0.000006,0.000019,-0.000005,0.000020,-0.000007,-79.696329,0.000021,
2131,2773,-2.79113924757471,2.78963097684858,-0.0240440989467743,0.005894,0.000263,0.001235,0.267865,0.058136,319.007399,24.429752,0.999600,0.992930,0.003434,0.447995,-0.000005,0.000004,-0.000006,0.000007,-0.000008,-63.759288,0.000009,
2401,2608,3.11283635864672,-0.794563730206917,-0.0176167806720287,0.006018,0.000373,-0.000836,0.279444,0.058033,321.319856,24.098054,0.999452,0.989766,0.004052,0.439617,0.000013,-0.000002,0.000003,0.000014,-0.000002,9.790554,0.000015,
2176,2938,-1.8400893762201,6.37729199975136,-0.00473337757847503,0.006183,0.000104,0.003579,0.273894,0.053780,316.319502,24.619994,0.999285,0.990604,0.003892,0.413549,0.000006,0.000031,0.000002,0.000031,0.000006,85.251065,0.000040,
2296,2143,0.912971128081178,-10.9654698695113,0.0167800600392525,0.006254,-0.000391,0.002404,0.278235,0.004522,329.123745,23.428142,0.999243,0.983135,0.005261,0.178722,-0.000004,-0.000016,-0.000010,0.000001,-0.000022,-30.030609,0.000025,
2296,2188,0.905523826358358,-9.98059748369582,0.0154937779706756,0.006575,0.000455,-0.003827,0.314319,0.034972,328.424520,23.361954,0.998892,0.980319,0.005513,0.373568,-0.000013,0.000001,-0.000010,0.000006,-0.000018,-61.787679,0.000019,
2326,2203,1.55653741651669,-9.6522694758491,0.014948636790109,0.005776,0.000199,-0.001695,0.270521,0.017550,328.115927,23.252691,0.999125,0.981922,0.005437,0.347828,-0.000016,0.000012,-0.000010,0.000016,-0.000020,-71.971704,0.000021,
2101,2623,-3.41885551137489,-0.476371497527033,-0.0321514215627303,0.006152,0.000300,-0.000025,0.283365,0.056083,321.522686,24.345020,0.998950,0.987453,0.004568,0.496598,-0.000011,0.000014,0.000003,0.000014,-0.000011,83.456285,0.000015,
2116,2683,-3.10275769753723,0.830190395067795,-0.0319385905551144,0.006078,-0.000180,0.002458,0.272482,0.031174,320.472341,24.328795,0.999501,0.992726,0.003490,0.491049,-0.000012,0.000004,-0.000009,0.000008,-0.000016,-66.124849,0.000016,
2506,3163,5.29003475912766,11.2858549529973,0.0209040255008972,0.005933,0.000378,0.003269,0.260421,0.055922,312.767263,26.229836,0.999587,0.992256,0.003502,0.445160,-0.000006,0.000062,0.000017,0.000066,-0.000010,77.005124,0.000071,
2251,2008,-0.0465305808113605,-13.9257907488722,0.00644298449640246,0.005774,0.000300,-0.000462,0.266013,0.024814,331.256299,23.327639,0.999555,0.988330,0.004620,0.312117,0.000010,-0.000069,-0.000025,0.000017,-0.000077,-16.122431,0.000080,
2041,2368,-4.6822734688346,-6.04109363222383,-0.00118493545801357,0.006179,0.000110,0.004413,0.271857,0.058434,326.206640,24.599366,0.998987,0.985251,0.004889,0.402629,0.000001,0.000018,-0.000012,0.000024,-0.000006,-62.024440,0.000025,
2146,2833,-2.47376824422286,4.0937722642138,-0.00814020658231129,0.006373,0.000278,0.001779,0.288312,0.066861,318.124634,24.458633,0.999571,0.993383,0.003399,0.468059,0.000001,0.000017,0.000000,0.000017,0.000001,89.895628,0.000020,
2056,2398,-4.36048744244261,-5.38610678320563,-0.0113347339727738,0.006374,0.000645,-0.002852,0.301260,0.038256,325.582673,24.444783,0.998827,0.986838,0.004746,0.480009,-0.000009,-0.000027,-0.000022,0.000005,-0.000042,-33.604288,0.000045,
2371,2488,2.48289314910086,-3.4165501073406,-0.00217039892476123,0.005874,0.000058,0.003467,0.257238,0.045702,323.353074,23.769251,0.999425,0.987508,0.004387,0.450438,0.000011,0.000007,0.000009,0.000019,0.000000,38.931688,0.000022,
2026,2398,-5.01302828023123,-5.38667444205808,-0.00313995413063139,0.006080,0.000316,0.001267,0.276242,0.058692,325.801974,24.570854,0.999425,0.989929,0.003979,0.465144,0.000017,-0.000025,-0.000034,0.000036,-0.000044,-29.375605,0.000046,
2446,2833,4.0482942905203,4.11191175687331,-0.0189936131953914,0.006018,0.000401,0.001235,0.272091,0.062036,317.700378,24.951947,0.999680,0.992301,0.003584,0.329977,0.000009,0.000024,-0.000007,0.000027,0.000006,-68.113476,0.000035,
2416,2683,3.42494714354476,0.841229220807527,-0.0143632442798776,0.006224,-0.000048,0.005248,0.266561,0.050419,320.131888,24.334187,0.999339,0.986976,0.004653,0.421734,-0.000005,0.000023,-0.000004,0.000023,-0.000005,-82.437008,0.000024,
2236,3253,-0.590850580764211,13.2125006374465,0.0294007183021563,0.006082,0.000085,0.005725,0.262060,0.049930,311.275687,25.105472,0.999625,0.993614,0.003254,0.480689,-0.000004,0.000030,-0.000001,0.000030,-0.000004,-88.835730,0.000032,
2086,2503,-3.72533979789192,-3.09349246775077,-0.0175366753548474,0.005847,0.000244,-0.000096,0.269304,0.045057,323.645231,24.381669,0.999156,0.990448,0.003966,0.461798,-0.000001,0.000003,-0.000006,0.000007,-0.000006,-55.171246,0.000008,
2056,2428,-4.36565249275505,-4.73072364639971,-0.0075168124116658,0.006132,-0.000254,0.006657,0.263206,0.069220,325.092423,24.490531,0.998782,0.985465,0.004812,0.457647,-0.000010,-0.000025,-0.000010,-0.000005,-0.000030,-27.295730,0.000038,
2146,2788,-2.46771710223765,3.11667679094995,-0.0263274736020094,0.006173,0.000214,0.001847,0.278835,0.064944,318.694235,24.430950,0.999595,0.992646,0.003515,0.471067,-0.000005,0.000000,-0.000009,0.000007,-0.000012,-53.920796,0.000012,
2266,1993,0.284732577258158,-14.2581489603764,0.0266425685146032,0.005518,0.000070,0.002247,0.245224,0.032330,331.621363,23.180223,0.999105,0.965004,0.007264,0.333159,0.000003,-0.000043,-0.000041,0.000027,-0.000067,-30.503524,0.000067,
2221,3163,-0.899759277640516,11.260292350234,0.0361220541004172,0.005935,-0.000063,0.002680,0.265181,0.054638,312.845595,24.949867,0.999565,0.992847,0.003438,0.455380,-0.000007,0.000020,-0.000003,0.000021,-0.000007,-84.382526,0.000021,
2461,2908,4.35989454386324,5.74352815584486,-0.0119787526589334,0.005899,-0.000067,0.005554,0.250215,0.055811,316.542841,25.167298,0.999008,0.987281,0.004500,0.396671,0.000000,-0.000003,-0.000007,0.000006,-0.000009,-38.489597,0.000009,
2206,3133,-1.219648000332,10.6087670924957,0.0352287649650975,0.006354,0.000089,0.003474,0.282048,0.047092,313.386289,24.879693,0.999630,0.994081,0.003336,0.420208,-0.000009,0.000013,-0.000003,0.000014,-0.000009,-82.732765,0.000014,
2041,2488,-4.70070952353553,-3.42281031647421,-0.00470814289099053,0.006039,-0.000447,0.004800,0.264386,0.032528,324.235735,24.488785,0.999426,0.988451,0.004390,0.438723,0.000009,0.000016,-0.000011,0.000023,0.000001,-54.166870,0.000028,
2101,2578,-3.4113576818939,-1.45844819275379,-0.0160850486611821,0.005740,-0.000068,0.004367,0.251302,0.037568,322.353636,24.346125,0.999337,0.988674,0.004205,0.470765,-0.000014,0.000008,0.000002,0.000008,-0.000014,85.307128,0.000014,
2266,2038,0.277619837475441,-13.2704418117704,0.0282669180070911,0.006236,-0.000157,0.002144,0.278433,0.024579,330.945072,23.276525,0.999115,0.980588,0.005467,0.316354,-0.000004,-0.000022,-0.000020,0.000009,-0.000035,-32.207060,0.000036,
2026,2293,-4.99801525126271,-7.67987341124793,0.00146759957402764,0.005335,0.000270,0.002012,0.239757,0.064905,327.493755,24.694173,0.998364,0.983591,0.005305,0.403260,0.000013,0.000049,0.000002,0.000049,0.000013,86.629876,0.000065,
2341,2323,1.86055300336261,-7.02329788693854,0.00368535418760985,0.006063,0.000039,0.003323,0.266437,0.051455,326.076255,23.504345,0.999152,0.986174,0.004715,0.366705,-0.000022,-0.000017,-0.000005,-0.000014,-0.000025,-57.781555,0.000039,
2491,3088,4.97888915033802,9.65659777410302,0.0139230074075272,0.006331,0.000362,0.004025,0.275863,0.064657,313.912045,25.895183,0.999539,0.990929,0.003746,0.433148,0.000003,0.000052,0.000007,0.000053,0.000002,81.761586,0.000063,
2131,2728,-2.78362101178254,1.80973379045272,-0.0238488948035638,0.005927,0.000423,-0.000296,0.273984,0.061103,319.746010,24.333017,0.999330,0.989476,0.004170,0.530402,-0.000007,0.000006,-0.000008,0.000010,-0.000011,-64.487811,0.000012,
2281,2083,0.596744401834862,-12.2827033514854,0.0220199307129292,0.006294,0.000077,0.002332,0.280492,0.048462,330.151614,23.240647,0.999170,0.982561,0.005166,0.370550,-0.000001,0.000008,-0.000007,0.000012,-0.000005,-62.606403,0.000012,
2011,2248,-5.31733178871766,-8.66506092852253,0.00738124207737201,0.005676,-0.000412,0.004735,0.247875,0.030666,328.369046,24.746945,0.999169,0.983910,0.004974,0.406009,0.000000,0.000077,0.000007,0.000077,0.000000,85.035601,0.000089,
2041,2383,-4.68480602478532,-5.71388661324401,-0.00239334755542586,0.005926,0.000009,0.003711,0.262167,0.042372,325.945625,24.566290,0.999316,0.988056,0.004317,0.413948,0.000003,-0.000004,-0.000019,0.000019,-0.000019,-39.645301,0.000022,
2386,2548,2.79820809052802,-2.10534217388446,-0.00904882829433973,0.006175,0.000093,0.001865,0.276727,0.041915,322.350524,23.929622,0.999453,0.988921,0.004364,0.430750,0.000011,-0.000008,0.000003,0.000012,-0.000008,9.531316,0.000012,
2326,2218,1.55379449162158,-9.32358568489447,0.011291566507623,0.006034,0.000421,-0.002337,0.284675,0.033323,327.857585,23.243775,0.998891,0.979819,0.005614,0.409462,-0.000017,0.000006,-0.000014,0.000013,-0.000024,-64.902047,0.000024,
2011,2383,-5.33659726068999,-5.71372578141122,-0.00171224770258505,0.006551,0.000012,0.003376,0.292113,0.057329,326.165403,24.693015,0.999233,0.988631,0.004310,0.397438,0.000006,0.000012,-0.000021,0.000031,-0.000013,-48.368848,0.000031,
2176,2998,-1.84968021927046,7.67930962787902,0.00622864513513832,0.006110,0.000049,0.004320,0.268280,0.054515,315.427807,24.654239,0.999457,0.991710,0.003714,0.426504,0.000003,0.000017,0.000003,0.000018,0.000003,79.761316,0.000022,
2356,2398,2.17321546036017,-5.38296651768755,0.000575473899402823,0.005893,0.000051,0.003042,0.259618,0.053156,324.831232,23.616163,0.999503,0.987393,0.004553,0.402508,0.000002,0.000017,0.000003,0.000018,0.000002,79.759719,0.000021,
2026,2413,-5.01576500818186,-5.05848016226619,-0.00810711372872674,0.006002,0.000132,0.003427,0.266690,0.075825,325.509109,24.569260,0.999252,0.987319,0.004433,0.476083,0.000022,-0.000023,-0.000027,0.000035,-0.000035,-24.988937,0.000041,
2506,3178,5.28783130207741,11.6114744618234,0.02808104802466,0.006069,0.000520,0.001576,0.273368,0.065089,312.594073,26.321048,0.999634,0.992794,0.003442,0.422946,-0.000006,0.000073,0.000016,0.000076,-0.000010,79.066151,0.000083,
2446,2848,4.04608018754895,4.43631958539694,-0.0105068612298851,0.006148,0.000479,0.001841,0.275840,0.070143,317.531282,24.865439,0.999635,0.991592,0.003592,0.476617,0.000003,0.000027,-0.000011,0.000031,-0.000002,-68.722445,0.000035,
2041,2503,-4.70340139774504,-3.09466206507415,-0.0140861020252032,0.006045,0.000311,0.002510,0.271255,0.056123,323.921935,24.468461,0.999484,0.990063,0.004045,0.476380,0.000013,0.000013,-0.000015,0.000028,-0.000002,-45.577861,0.000032,
2056,2413,-4.36286700892802,-5.05918271217734,-0.00368940222853098,0.006216,-0.000115,0.003786,0.275136,0.044890,325.378571,24.458354,0.998180,0.983930,0.005258,0.469057,-0.000004,-0.000026,-0.000017,0.000005,-0.000035,-28.526858,0.000038,
2191,3073,-1.53558989555578,9.30620263176614,0.0259108552443763,0.006044,0.000269,0.002327,0.271503,0.059564,314.323207,24.708423,0.999682,0.994040,0.003246,0.487847,0.000000,0.000001,-0.000007,0.000007,-0.000006,-46.825846,0.000008,
2161,2953,-2.16798072832398,6.70130671626195,-0.00220112089289159,0.005999,0.000221,-0.000616,0.278501,0.044453,316.154461,24.544275,0.999488,0.991847,0.003616,0.455639,0.000008,0.000027,0.000005,0.000028,0.000007,75.549528,0.000037,
2101,2638,-3.42163855247363,-0.149834662448654,-0.0277019443900031,0.005817,-0.000248,0.005296,0.252228,0.048789,321.285931,24.376466,0.998990,0.988159,0.004350,0.459633,-0.000008,0.000007,0.000002,0.000008,-0.000008,82.804731,0.000009,
2281,2143,0.585852641237967,-10.9662132507145,0.023264750812757,0.006225,-0.000351,0.004530,0.269947,0.033195,329.185216,23.466125,0.999152,0.982606,0.005259,0.253164,0.000002,-0.000019,-0.000007,0.000004,-0.000022,-17.780687,0.000023,
2011,2263,-5.31886865671645,-8.33658850430638,0.00254496639308854,0.006265,0.000183,-0.000969,0.290581,0.013485,328.130245,24.750798,0.998818,0.980691,0.005147,0.375444,-0.000007,0.000096,0.000007,0.000097,-0.000008,85.962287,0.000108,
2146,2803,-2.46988694939673,3.44175839646873,-0.017755544946283,0.006045,0.000064,0.003763,0.267078,0.051896,318.510885,24.412949,0.999672,0.992863,0.003427,0.483509,-0.000003,0.000001,-0.000003,0.000003,-0.000005,-60.111602,0.000005,
2071,2413,-4.0367686354255,-5.05919844192822,-0.00145448244984436,0.006006,-0.000451,0.005488,0.260365,0.033051,325.300913,24.430173,0.998643,0.985472,0.004892,0.442147,0.000004,-0.000021,-0.000009,0.000007,-0.000024,-18.134200,0.000025,
2251,2023,-0.0483790306353562,-13.5983704142722,0.0262574913891171,0.005583,-0.000270,0.005936,0.236195,0.036170,331.150604,23.399360,0.999183,0.981981,0.005384,0.277895,0.000005,-0.000052,-0.000017,0.000010,-0.000057,-15.570489,0.000060,
2086,2563,-3.73364968640309,-1.78548277428825,-0.0119919517242124,0.006366,0.000427,-0.003766,0.303911,0.034549,322.756105,24.429507,0.998786,0.987791,0.004599,0.403418,-0.000009,0.000021,0.000009,0.000023,-0.000011,75.017572,0.000023,
2041,2398,-4.6872890341254,-5.3864906402738,-0.00928288812082201,0.005949,0.000389,0.001050,0.270729,0.050661,325.655330,24.477081,0.999224,0.989117,0.004188,0.505618,0.000004,-0.000029,-0.000030,0.000021,-0.000047,-30.179941,0.000047,
2026,2308,-4.99990685813606,-7.35151269766212,-0.00474012314293759,0.006174,-0.000272,0.004373,0.271695,0.026575,327.232701,24.712473,0.998696,0.982980,0.005230,0.339063,0.000010,0.000030,-0.000010,0.000034,0.000006,-67.557879,0.000043,
2116,2653,-3.09763428699329,0.178676623992992,-0.034364297190848,0.006365,0.000344,0.000024,0.293025,0.048792,320.957870,24.437200,0.999520,0.990239,0.003843,0.392592,-0.000008,0.000017,0.000003,0.000017,-0.000008,83.879508,0.000017,
2266,2008,0.283235099237263,-13.9294919674118,0.0359929868216682,0.006024,-0.000034,0.002653,0.267019,0.032123,331.479983,23.251748,0.999209,0.982441,0.005338,0.290007,-0.000004,-0.000068,-0.000033,0.000010,-0.000082,-23.066474,0.000089,
2491,3103,4.9758055117206,9.98214195439966,0.0169089384679069,0.006002,0.000376,0.003283,0.263614,0.059415,313.678974,25.950901,0.999492,0.990321,0.003718,0.429981,0.000003,0.000053,0.000019,0.000059,-0.000003,71.705646,0.000067,
2176,2953,-1.84262631085235,6.70239579283353,-0.0042157087991086,0.006167,-0.000041,0.003689,0.272765,0.039987,316.078694,24.584479,0.999344,0.992249,0.003552,0.447000,0.000009,0.000028,0.000004,0.000029,0.000008,77.960783,0.000039,
2251,2128,-0.0666057065760626,-11.2950772128283,0.0167240304076586,0.006012,0.000272,0.000434,0.274139,0.047592,329.421035,23.477655,0.998760,0.980396,0.005485,0.397591,0.000007,-0.000020,-0.000007,0.000009,-0.000022,-13.485203,0.000022,
2071,2488,-4.04813559508767,-3.42188622737327,-0.00613468713635257,0.006322,0.000140,0.002506,0.283734,0.066973,324.074582,24.409684,0.999510,0.991126,0.004113,0.487464,-0.000010,0.000011,-0.000006,0.000013,-0.000012,-74.389613,0.000015,
2011,2398,-5.33913476479582,-5.38697206628966,-0.000885180319073697,0.006186,-0.000086,0.003857,0.274042,0.047512,325.913152,24.636195,0.999232,0.988403,0.004323,0.434124,0.000004,-0.000030,-0.000035,0.000026,-0.000053,-32.272373,0.000053,
2206,3073,-1.2105280072524,9.30796024980461,0.0193645049150177,0.006004,-0.000054,0.001782,0.271180,0.050740,314.223075,24.788187,0.999692,0.993022,0.003358,0.452786,0.000000,0.000002,-0.000007,0.000008,-0.000007,-47.778224,0.000009,
2191,3028,-1.52919346049837,8.33054115436223,0.0114839380208878,0.005873,-0.000265,0.005189,0.254358,0.038345,314.919951,24.679984,0.999631,0.992708,0.003658,0.454295,0.000002,0.000009,-0.000003,0.000010,0.000001,-71.887934,0.000013,
2116,2698,-3.10490321300261,1.15708419870975,-0.0216957808734151,0.005882,-0.000171,0.005323,0.255023,0.045540,320.296763,24.436071,0.999368,0.991393,0.003776,0.401550,-0.000010,-0.000006,-0.000007,-0.000001,-0.000015,-53.153713,0.000018,
2146,2848,-2.47694509054217,4.42067382378588,-0.0194239329162542,0.006274,0.000382,-0.000651,0.291183,0.057864,317.789153,24.465525,0.999609,0.993203,0.003393,0.460233,-0.000001,0.000025,0.000002,0.000025,-0.000001,84.872475,0.000028,
2431,2773,3.73326152987353,2.8032291250975,-0.0209442076911728,0.005796,0.000140,0.001089,0.262293,0.049873,318.628053,24.601329,0.999487,0.989060,0.004148,0.451054,0.000010,0.000035,-0.000005,0.000036,0.000010,-79.491501,0.000048,
2506,3193,5.2850474883436,11.9365047344764,0.0305032103470921,0.006298,0.000410,0.003097,0.277912,0.056097,312.372901,26.351052,0.999642,0.992859,0.003443,0.444046,-0.000004,0.000067,0.000017,0.000070,-0.000008,77.350132,0.000077,
2056,2548,-4.38475292869017,-2.11302418224924,-0.0180229889789416,0.005928,-0.000157,0.005163,0.258210,0.043293,323.062954,24.428189,0.999338,0.989555,0.004111,0.460964,-0.000006,0.000034,0.000019,0.000042,-0.000014,68.484704,0.000043,
2311,2158,1.2380419132201,-10.639806835272,0.0286626318236927,0.005987,-0.000371,0.006210,0.252967,0.042516,328.945525,23.200003,0.999346,0.985467,0.005080,0.395484,-0.000008,-0.000010,-0.000010,0.000000,-0.000019,-41.111790,0.000021,
2221,3223,-0.910396850638325,12.5617222917016,0.042368038353743,0.005701,0.000609,0.006415,0.242703,0.089774,311.892543,25.088135,0.999568,0.993647,0.003368,0.422742,-0.000005,0.000030,-0.000004,0.000030,-0.000005,-83.911907,0.000032,
2221,3178,-0.9021454944676,11.5854694326199,0.0400796648737014,0.005748,0.000226,0.000316,0.264204,0.043204,312.632332,24.996741,0.999418,0.991729,0.003610,0.414706,-0.000006,0.000020,-0.000002,0.000020,-0.000006,-84.644356,0.000021,
2281,2158,0.582950410725566,-10.6379650201219,0.0192311892066073,0.006192,-0.000255,0.003090,0.273333,0.033734,328.913815,23.405330,0.999489,0.983167,0.005191,0.345165,-0.000005,-0.000014,-0.000008,0.000000,-0.000019,-30.077558,0.000022,
2401,2623,3.10993025895616,-0.467347742953997,-0.016912537458893,0.006130,0.000375,0.001098,0.277616,0.064499,321.080014,24.145600,0.999269,0.988437,0.004233,0.444923,0.000011,0.000011,-0.000002,0.000012,0.000009,-44.272744,0.000021,
2476,3028,4.66352541345007,8.35216595224003,0.00627299472813547,0.005901,-0.000149,0.006142,0.248025,0.065704,314.764916,25.605416,0.999732,0.992981,0.003363,0.445415,-0.000002,0.000005,0.000000,0.000005,-0.000002,-88.494236,0.000005,
2161,2908,-2.1607538357596,5.72416728420087,-0.00817171428712982,0.006180,0.000154,0.001288,0.280946,0.059356,316.839784,24.491069,0.999518,0.991771,0.003735,0.495392,0.000007,0.000028,0.000001,0.000028,0.000007,87.350222,0.000037,
2101,2653,-3.42323734402647,0.177445264938555,-0.0285002193353421,0.006515,0.000071,0.002984,0.291229,0.043047,321.074854,24.434315,0.999383,0.989955,0.003939,0.397524,-0.000008,0.000016,0.000005,0.000017,-0.000009,78.987277,0.000017,
2461,2923,4.356582076985,6.07059851946117,-0.0197861258547505,0.005899,0.000254,0.001237,0.266623,0.054153,316.248373,25.237726,0.999363,0.989390,0.004143,0.378757,0.000003,-0.000011,-0.000013,0.000011,-0.000018,-30.911468,0.000018,
2296,2203,0.90234686249897,-9.65103675707665,0.00985761537123153,0.006723,0.000524,-0.001301,0.312662,0.038856,328.133723,23.418402,0.998237,0.976863,0.006001,0.353903,-0.000015,0.000011,-0.000009,0.000013,-0.000017,-73.037396,0.000018,
2101,2773,-3.44265273934647,2.78863267333126,-0.0253430828863088,0.006134,0.000061,0.003588,0.272156,0.058369,319.136288,24.433503,0.999558,0.991545,0.003726,0.425768,-0.000017,0.000000,-0.000011,0.000006,-0.000022,-64.575033,0.000023,
2041,2413,-4.69006676646789,-5.05816967878675,-0.0126944584000626,0.006028,-0.000338,0.007441,0.256441,0.060986,325.370565,24.509363,0.999012,0.984865,0.004754,0.477870,0.000011,-0.000028,-0.000024,0.000022,-0.000039,-25.514217,0.000039,
2026,2428,-5.01852820768166,-4.73104522771292,-0.0114620073541687,0.005689,-0.000125,0.003747,0.251355,0.048703,325.224374,24.563147,0.999117,0.984714,0.004792,0.446724,0.000019,-0.000021,-0.000018,0.000026,-0.000028,-20.875859,0.000031,
2251,2038,-0.0507281954551253,-13.2691761809472,0.0243009608098532,0.006003,-0.000184,0.006067,0.255066,0.050549,330.912173,23.388046,0.999080,0.979206,0.005550,0.330475,0.000004,-0.000030,-0.000019,0.000013,-0.000039,-24.119694,0.000040,
2056,2443,-4.3681960778906,-4.40339160283925,-0.00892498834076605,0.005859,-0.000360,0.004992,0.255312,0.032712,324.831143,24.508288,0.999163,0.987211,0.004540,0.399412,-0.000015,-0.000014,-0.000018,0.000004,-0.000032,-45.633562,0.000035,
2041,2518,-4.70558002891564,-2.76753250970459,-0.0147615757152266,0.006228,0.000237,0.003366,0.277326,0.061740,323.680108,24.457214,0.999324,0.990619,0.004049,0.487046,0.000004,0.000010,-0.000001,0.000011,0.000004,-78.429241,0.000015,
2446,2863,4.04319625233801,4.76212348832458,-0.00645487826665203,0.005935,0.000321,0.001918,0.265761,0.064593,317.310528,24.891396,0.999757,0.993166,0.003317,0.496865,0.000000,0.000025,-0.000011,0.000029,-0.000004,-69.558919,0.000031,
2326,2233,1.55031406653134,-8.99472362474846,0.00922555707717265,0.005751,0.000098,0.001130,0.259687,0.038646,327.573180,23.283923,0.998552,0.976313,0.006037,0.411863,-0.000019,0.000001,-0.000011,0.000006,-0.000024,-67.176294,0.000025,
2416,2698,3.42128296449231,1.16853679356906,-0.02624447542604,0.006145,0.000188,0.001344,0.277337,0.043351,319.799170,24.323673,0.999544,0.990067,0.004037,0.473548,-0.000004,0.000028,-0.000002,0.000028,-0.000004,-85.595639,0.000030,
2356,2413,2.17017724052891,-5.05442933535898,-0.00349132196475921,0.006005,0.000161,0.002998,0.264941,0.041939,324.559551,23.688264,0.999681,0.990004,0.004214,0.359821,0.000003,0.000014,0.000005,0.000016,0.000001,69.606583,0.000018,
2056,2563,-4.38645342383504,-1.78666892798727,-0.0121201224579295,0.006094,-0.000180,0.004033,0.269093,0.044705,322.880674,24.423084,0.999386,0.988681,0.004200,0.462951,-0.000008,0.000025,0.000011,0.000029,-0.000011,73.307371,0.000029,
2026,2323,-5.00144101333442,-7.02439357388742,-0.00456570696701419,0.006537,0.000076,-0.000658,0.302318,0.026690,327.023603,24.648230,0.999140,0.984589,0.004852,0.395634,0.000007,0.000031,-0.000021,0.000043,-0.000005,-60.561373,0.000047,
2251,2143,-0.069295825150963,-10.9666763707536,0.0184906806051117,0.005986,-0.000452,0.002671,0.265433,0.011975,329.185919,23.523556,0.998795,0.982236,0.005292,0.342284,0.000004,-0.000031,-0.000005,0.000004,-0.000032,-8.213003,0.000035,
2146,2863,-2.48013278448807,4.74712603960247,-0.0230351846582266,0.006083,0.000118,0.003340,0.270276,0.069362,317.493973,24.473453,0.999542,0.992231,0.003538,0.471436,0.000000,0.000028,-0.000003,0.000028,0.000000,-84.721240,0.000033,
2311,2173,1.2349422662398,-10.3098002461664,0.0203360254948848,0.005955,0.000103,0.002131,0.265602,0.051389,328.646582,23.251471,0.999141,0.982291,0.005254,0.388183,-0.000008,-0.000004,-0.000006,0.000001,-0.000013,-52.487085,0.000014,
2116,2713,-3.10718924213439,1.48339214116488,-0.0206903702021464,0.005913,-0.000156,0.004670,0.258411,0.042637,320.065355,24.435125,0.999259,0.990758,0.003963,0.403485,-0.000008,-0.000001,-0.000009,0.000005,-0.000014,-56.142167,0.000015,
2011,2278,-5.32119977353935,-8.00881988494827,-0.000816595866865555,0.006316,-0.000228,-0.000924,0.292706,0.010645,327.863541,24.697052,0.998814,0.981037,0.005420,0.416616,-0.000004,0.000080,0.000002,0.000080,-0.000004,88.762944,0.000090,
2011,2413,-5.3423006906868,-5.0601118072755,0.00068183115439524,0.005266,-0.000404,0.006238,0.225210,0.042068,325.636308,24.596720,0.999190,0.988292,0.004342,0.457693,0.000008,-0.000029,-0.000027,0.000022,-0.000043,-27.620516,0.000043,
2191,3103,-1.54019715396726,9.9569117803403,0.029029368922977,0.006446,-0.000029,0.002994,0.287837,0.037861,313.875633,24.763622,0.999456,0.992531,0.003603,0.437842,-0.000010,0.000005,-0.000005,0.000007,-0.000011,-72.272374,0.000011,
2071,2503,-4.05094836524742,-3.09441975472072,-0.0130604797627143,0.006118,0.000153,0.000190,0.280954,0.040335,323.772038,24.400006,0.999389,0.990490,0.004033,0.468826,-0.000005,0.000007,-0.000008,0.000010,-0.000009,-63.770012,0.000011,
2266,2053,0.274180143481541,-12.940694868817,0.0199133824663704,0.005904,0.000169,0.000088,0.270133,0.032120,330.626107,23.256918,0.998944,0.979638,0.005518,0.372877,-0.000004,-0.000019,-0.000015,0.000006,-0.000029,-31.786790,0.000030,
2206,3148,-1.22270131633846,10.9342240179546,0.033201658801886,0.006185,0.000024,0.005293,0.268469,0.053537,313.110369,24.890869,0.999537,0.993541,0.003426,0.431105,-0.000008,0.000021,-0.000001,0.000021,-0.000008,-88.452607,0.000021,
2086,2698,-3.75675053674535,1.15551085269554,-0.0235403995125125,0.005823,-0.000194,0.004965,0.253786,0.054969,320.424131,24.375717,0.999404,0.991632,0.003687,0.474740,-0.000024,-0.000010,-0.000009,-0.000006,-0.000029,-64.153009,0.000037,
2371,2503,2.48005441530556,-3.0885695640922,-0.0041305898349151,0.006168,-0.000292,0.004870,0.265614,0.042053,323.101663,23.833535,0.999453,0.988042,0.004382,0.424963,0.000009,0.000002,0.000004,0.000010,0.000001,23.778299,0.000012,
2071,2428,-4.03885293757352,-4.73116079017883,0.00207416225100587,0.006123,-0.000289,0.007191,0.260965,0.046896,325.088499,24.503580,0.998840,0.986584,0.004571,0.380672,-0.000002,-0.000023,-0.000003,-0.000001,-0.000023,-8.903693,0.000027,
2176,3013,-1.85217716848167,8.00463422829127,0.0113234332154661,0.005991,-0.000071,0.006790,0.255172,0.066150,315.212703,24.660002,0.999406,0.990086,0.003922,0.443780,0.000002,0.000015,-0.000001,0.000015,0.000002,-85.791108,0.000019,
2131,2803,-2.79580468988756,3.44156105700191,-0.0194181945306013,0.005916,0.000333,0.002353,0.265601,0.060309,318.556654,24.426359,0.999541,0.992403,0.003553,0.464848,-0.000005,0.000001,0.000000,0.000001,-0.000005,86.604042,0.000005,
2101,2668,-3.42585544339851,0.503282708051373,-0.0265834643263361,0.006110,0.000047,0.002119,0.275137,0.043648,320.832153,24.381069,0.999559,0.991107,0.003721,0.453264,-0.000010,0.000006,0.000003,0.000007,-0.000011,80.429222,0.000011,
2296,2158,0.909943886085742,-10.6377741464458,0.0148716906057302,0.006048,-0.000039,0.002110,0.269981,0.021231,328.858506,23.324163,0.999375,0.983621,0.005187,0.332123,-0.000012,-0.000013,-0.000014,0.000001,-0.000026,-44.920873,0.000030,
2161,2968,-2.17050144806301,7.02725032637989,0.000627979379828503,0.006017,-0.000093,0.002352,0.270190,0.051498,315.925211,24.584872,0.999661,0.993224,0.003317,0.431617,0.000010,0.000021,0.000007,0.000024,0.000007,63.928434,0.000032,
2281,2278,0.560090565907988,-8.00830065446942,0.000209035903537824,0.006161,0.000114,0.001923,0.276152,0.055066,326.822772,23.581795,0.999666,0.987946,0.004497,0.433239,-0.000005,-0.000002,-0.000007,0.000004,-0.000011,-50.507096,0.000011,
2131,2788,-2.79318053733941,3.11552264378038,-0.0212510721135004,0.006116,0.000158,0.001048,0.278664,0.063323,318.797965,24.418867,0.999630,0.993041,0.003352,0.469884,-0.000008,0.000001,-0.000006,0.000004,-0.000011,-64.369470,0.000011,
2341,2338,1.85826444204422,-6.69568440466547,0.00757283823725174,0.006008,0.000520,-0.000258,0.276543,0.051196,325.876437,23.532197,0.999444,0.987234,0.004621,0.376942,-0.000019,-0.000004,-0.000006,-0.000001,-0.000022,-70.436284,0.000026,
2386,2563,2.79478335264809,-1.77691068342014,-0.0123884628249016,0.006107,0.000072,0.004344,0.264736,0.046779,322.066558,24.035220,0.999570,0.989801,0.004035,0.374403,0.000011,0.000004,0.000003,0.000012,0.000003,19.925977,0.000017,
2491,3118,4.97274610756213,10.3076695569177,0.017759407117353,0.005939,0.000201,0.003278,0.260699,0.054249,313.437294,25.995266,0.999573,0.991571,0.003514,0.438149,0.000000,0.000072,0.000020,0.000077,-0.000005,75.668006,0.000087,
2026,2338,-5.00399437499605,-6.69761864430829,0.000298290023579284,0.006048,-0.000196,0.001726,0.273245,0.022581,326.794153,24.608091,0.999241,0.987153,0.004451,0.423838,0.000011,0.000019,-0.000022,0.000038,-0.000007,-50.068010,0.000040,
2011,2293,-5.324547311531,-7.67833241970498,-0.0123449050356044,0.005968,0.000054,0.001178,0.271154,0.037770,327.503987,24.785429,0.999186,0.986140,0.004749,0.346195,0.000006,0.000050,-0.000003,0.000050,0.000005,-86.168915,0.000061,
2221,3238,-0.913441554836577,12.8865206259939,0.0340677475942925,0.005666,0.000113,0.003288,0.250903,0.043383,311.585924,25.079382,0.999677,0.994130,0.003223,0.402622,-0.000004,0.000027,-0.000002,0.000027,-0.000005,-86.716215,0.000029,
2041,2533,-4.70828154538617,-2.44044172368008,-0.0134618021249935,0.005850,-0.000329,0.005474,0.253889,0.039863,323.425415,24.492419,0.999137,0.990005,0.004044,0.423290,0.000002,0.000016,0.000008,0.000020,-0.000001,65.377750,0.000022,
2506,3208,5.28114741075598,12.262951359101,0.0245098314014172,0.005914,0.000273,0.002091,0.264127,0.045390,312.061954,26.468390,0.999366,0.991720,0.003722,0.375442,0.000000,0.000059,0.000014,0.000062,-0.000003,77.649161,0.000070,
2296,2218,0.899335593157797,-9.32223411445446,0.0082335875151216,0.006434,0.000753,-0.002877,0.304838,0.054559,327.870319,23.441596,0.998782,0.979033,0.005607,0.378985,-0.000014,0.000007,-0.000011,0.000011,-0.000019,-66.617017,0.000019,
2206,3088,-1.21276101802807,9.6342474164324,0.0226807691053637,0.006255,0.000228,0.003232,0.278255,0.062651,314.012303,24.889002,0.999498,0.992294,0.003583,0.379522,-0.000002,0.000003,-0.000008,0.000008,-0.000008,-54.207847,0.000009,
2146,2878,-2.48170566148398,5.07197223213097,-0.00845941225583147,0.006091,0.000268,0.004166,0.268140,0.066984,317.369951,24.485597,0.999521,0.991690,0.003665,0.464088,0.000004,0.000035,-0.000003,0.000035,0.000003,-84.635641,0.000043,
2041,2428,-4.69226937484673,-4.73055516342747,-0.0142591829678054,0.005994,-0.000423,0.004386,0.263332,0.030686,325.122642,24.540240,0.998946,0.984137,0.004878,0.410551,0.000008,-0.000023,-0.000015,0.000014,-0.000029,-21.293467,0.000029,
2416,2713,3.41914339616963,1.49518967720575,-0.0220092977447734,0.006164,0.000717,-0.004228,0.298842,0.040907,319.611962,24.385127,0.999627,0.990753,0.003883,0.457677,-0.000004,0.000039,-0.000002,0.000039,-0.000004,-86.655579,0.000043,
2251,2158,-0.071140968185432,-10.6385585990255,0.0214217202681084,0.006316,-0.000202,-0.000674,0.291582,0.007801,328.995181,23.529610,0.998292,0.981342,0.005432,0.357986,0.000000,-0.000027,-0.000005,0.000001,-0.000027,-9.389684,0.000031,
2011,2428,-5.34443785484721,-4.73234138037513,-0.000399326761396424,0.005387,-0.000232,0.006087,0.231237,0.048409,325.391387,24.608296,0.999099,0.986879,0.004541,0.442142,0.000004,-0.000033,-0.000020,0.000013,-0.000042,-23.709522,0.000043,
2101,2788,-3.44457192661357,3.11378821549172,-0.0182020521209552,0.006239,-0.000072,0.004761,0.273497,0.054124,318.954139,24.397616,0.999477,0.991553,0.003847,0.458643,-0.000022,0.000000,-0.000012,0.000005,-0.000027,-66.130592,0.000029,
2161,2923,-2.16344095305939,6.05102195194242,-0.00851084292651194,0.006039,0.000502,0.001253,0.274688,0.072284,316.585897,24.575431,0.999238,0.989142,0.004150,0.433421,0.000006,0.000025,0.000002,0.000025,0.000006,84.971714,0.000033,
2461,2938,4.35415935972323,6.39648265418204,-0.0161294086559565,0.006184,0.000259,0.001095,0.280284,0.051874,316.047607,25.285725,0.999429,0.990803,0.004035,0.382376,0.000006,-0.000018,-0.000012,0.000011,-0.000023,-23.019854,0.000023,
2476,3043,4.66042232250296,8.67838938286284,0.0053271981804528,0.005954,-0.000119,0.006512,0.249070,0.063574,314.512219,25.679943,0.999731,0.992873,0.003447,0.424411,-0.000008,0.000016,0.000002,0.000016,-0.000008,86.384313,0.000016,
2056,2458,-4.37080745993289,-4.07656522916211,-0.00886701573551818,0.005427,-0.000284,0.003328,0.240171,0.033990,324.574819,24.460892,0.999196,0.987001,0.004674,0.444234,-0.000014,-0.000006,-0.000022,0.000012,-0.000033,-50.495166,0.000033,
2086,2578,-3.73724360242088,-1.45827417644828,-0.0172772628363305,0.005847,-0.000052,0.002314,0.262384,0.033147,322.428113,24.412590,0.998997,0.988321,0.004432,0.419085,-0.000018,0.000007,0.000001,0.000007,-0.000018,87.208746,0.000019,
2176,3028,-1.85443469406396,8.32983094994834,0.00942365508672083,0.006254,-0.000235,0.004355,0.274815,0.048495,314.971972,24.640100,0.999527,0.991884,0.003761,0.457657,-0.000001,0.000011,-0.000003,0.000011,-0.000001,-76.406005,0.000012,
2101,2683,-3.42825280367852,0.829453626326888,-0.0247956381941776,0.005988,0.000177,0.002055,0.269744,0.042085,320.598785,24.363756,0.999473,0.991847,0.003624,0.470615,-0.000016,0.000002,-0.000006,0.000004,-0.000018,-72.496394,0.000019,
2251,2053,-0.0531563024726331,-12.9400768632915,0.0235228117498423,0.005943,0.000149,0.001748,0.266540,0.046161,330.676154,23.405740,0.999022,0.979704,0.005467,0.335167,0.000001,-0.000030,-0.000016,0.000007,-0.000037,-23.062303,0.000039,
2311,2188,1.23314389349984,-9.98201818964081,0.025497990994154,0.006144,0.000282,-0.002810,0.291158,0.032562,328.473700,23.275930,0.999054,0.981857,0.005215,0.379352,-0.000008,0.000003,-0.000006,0.000005,-0.000010,-65.931027,0.000010,
2281,2173,0.579403134782623,-10.310009519188,0.0125870898951348,0.005832,-0.000243,0.003412,0.255800,0.022676,328.599975,23.307684,0.999310,0.982627,0.005256,0.462741,-0.000006,-0.000006,-0.000004,-0.000002,-0.000010,-43.551700,0.000013,
2071,2518,-4.05379821484779,-2.76739923701837,-0.0134012777496082,0.005868,-0.000473,0.004268,0.257668,0.027747,323.503852,24.400608,0.999455,0.990966,0.003876,0.453529,-0.000012,0.000010,0.000006,0.000012,-0.000013,76.858329,0.000015,
2506,3223,5.27791828048421,12.5881660148002,0.0257045555500781,0.005775,0.000313,0.003302,0.253063,0.051503,311.814492,26.500900,0.999470,0.991904,0.003735,0.408952,0.000001,0.000027,0.000020,0.000038,-0.000010,61.759589,0.000039,
2146,2998,-2.5001473680566,7.676837282583,0.0101058791838113,0.006135,0.000565,-0.000158,0.283584,0.062544,315.586565,24.543679,0.999616,0.993221,0.003434,0.459945,0.000000,0.000014,-0.000002,0.000014,-0.000001,-82.189591,0.000016,
2206,3163,-1.22545218221711,11.2592118696344,0.0328460096077379,0.006088,-0.000238,0.005466,0.263331,0.027148,312.857173,24.905716,0.999729,0.995341,0.003062,0.405356,-0.000008,0.000023,-0.000001,0.000023,-0.000008,-87.465279,0.000023,
2116,2728,-3.10998263926114,1.81032693494498,-0.0267101355440218,0.005783,0.000323,0.002322,0.259608,0.073105,319.772692,24.406485,0.999301,0.990137,0.004048,0.466187,-0.000013,0.000001,-0.000009,0.000006,-0.000017,-63.681750,0.000017,
2356,2428,2.16713723065981,-4.72859889088491,-0.00590146574035089,0.005971,0.000100,0.002985,0.263448,0.056917,324.296061,23.507518,0.999488,0.989746,0.004263,0.595873,0.000003,0.000011,0.000001,0.000012,0.000003,86.349035,0.000015,
2026,2353,-5.0064901946654,-6.36920708293736,-0.00169369810197395,0.006036,-0.000442,0.004063,0.266217,0.031865,326.528776,24.641507,0.999100,0.987218,0.004672,0.391973,0.000013,0.000008,-0.000017,0.000027,-0.000006,-41.310661,0.000028,
2416,2728,3.4155438700976,1.82191867015251,-0.0229876593846257,0.006074,0.000029,0.001779,0.272470,0.037007,319.333171,24.417299,0.999588,0.991001,0.003849,0.469600,-0.000002,0.000030,0.000001,0.000030,-0.000002,87.805442,0.000034,
2026,2443,-5.02006045725055,-4.40187904843273,-0.0172872144473217,0.006395,0.000965,-0.002021,0.300022,0.055281,324.981592,24.663849,0.999465,0.989769,0.004075,0.344597,0.000012,-0.000007,-0.000026,0.000031,-0.000025,-35.214723,0.000033,
2206,3103,-1.21500422541301,9.95837492683772,0.0268346507148181,0.006385,0.000122,0.003981,0.281805,0.046521,313.806161,24.827668,0.999315,0.990912,0.004015,0.440401,-0.000007,0.000006,-0.000006,0.000008,-0.000009,-69.641096,0.000010,
2146,2893,-2.48428325363481,5.3974301696981,-0.00853328014994759,0.005914,-0.000094,0.002672,0.264416,0.043456,317.121909,24.470984,0.999477,0.990139,0.004005,0.462702,0.000003,0.000033,-0.000002,0.000033,0.000003,-87.023389,0.000040,
2176,3148,-1.87401502501192,10.9319566935317,0.0296026847107669,0.005869,-0.000092,0.005071,0.255037,0.052016,313.161252,24.756301,0.999443,0.993512,0.003517,0.434994,-0.000012,0.000020,-0.000001,0.000020,-0.000012,-88.494208,0.000021,
2341,2353,1.85566723521503,-6.36812050587376,0.00491210524108965,0.006331,0.000127,-0.001424,0.295278,0.021011,325.630879,23.525919,0.999282,0.986250,0.004673,0.391499,-0.000013,0.000001,0.000001,0.000001,-0.000013,86.100017,0.000015,
2131,2923,-2.81405514807719,6.04768021071989,-0.00255408583120698,0.006250,-0.000261,0.001558,0.283261,0.014287,316.764420,24.469311,0.999282,0.989623,0.004104,0.418526,0.000001,0.000018,-0.000003,0.000019,0.000001,-81.101857,0.000022,
2476,3058,4.65846928361,9.00372216053295,0.0151560042621099,0.005917,0.000104,0.002789,0.261612,0.055222,314.361712,25.752647,0.999668,0.990903,0.003857,0.398982,-0.000004,0.000019,0.000001,0.000019,-0.000004,86.469625,0.000020,
2266,2083,0.268255073496331,-12.280926497784,0.0142722878771337,0.005938,0.000219,0.003309,0.261129,0.055302,330.086951,23.376353,0.999263,0.983905,0.005070,0.334742,0.000001,-0.000001,-0.000003,0.000003,-0.000003,-34.873365,0.000003,
2506,3238,5.27497694769136,12.9132714809791,0.0229266556734729,0.006201,0.000326,0.003828,0.270663,0.056844,311.562426,26.505175,0.999558,0.991731,0.003677,0.469774,0.000003,0.000026,0.000026,0.000044,-0.000014,57.034398,0.000044,
2071,2623,-4.07042363358438,-0.477324342590251,-0.0277814109348355,0.006204,0.000546,0.000289,0.284996,0.072344,321.712503,24.389784,0.999107,0.989631,0.004150,0.493282,-0.000027,0.000017,0.000004,0.000018,-0.000028,84.460698,0.000028,
2086,2593,-3.73999394861841,-1.13152309764883,-0.0176116516454954,0.005483,-0.000250,0.002400,0.245329,0.034784,322.165752,24.398906,0.999004,0.988545,0.004359,0.434143,-0.000025,0.000020,0.000003,0.000020,-0.000025,85.616431,0.000026,
2251,2068,-0.0555436231698216,-12.6113371921939,0.0269635416489677,0.005875,0.000542,0.000993,0.266047,0.058573,330.463170,23.426251,0.999173,0.981983,0.005167,0.353606,0.000001,-0.000023,-0.000006,0.000003,-0.000025,-13.442754,0.000027,
2056,2473,-4.37242283809281,-3.74768857639704,-0.0113990085451405,0.006063,0.000298,0.000073,0.278814,0.058293,324.349210,24.558941,0.999248,0.987855,0.004736,0.366186,-0.000006,0.000008,-0.000009,0.000012,-0.000011,-64.293977,0.000013,
2461,2953,4.35157459116668,6.72200617023015,-0.0111669126922607,0.006245,0.000156,0.001508,0.281463,0.045320,315.845392,25.317639,0.999463,0.991153,0.003898,0.397689,0.000009,-0.000017,-0.000007,0.000011,-0.000019,-13.360622,0.000019,
2191,3088,-1.53799850534649,9.63211459123607,0.0237767089044496,0.006445,0.000181,0.003420,0.286554,0.055369,314.075147,24.755375,0.999512,0.992247,0.003600,0.450360,-0.000003,0.000002,-0.000008,0.000008,-0.000009,-55.082131,0.000010,
2161,2938,-2.16557598343823,6.37617015556769,-0.00607587903658668,0.006187,0.000283,0.000102,0.284943,0.047706,316.372585,24.564044,0.999343,0.989867,0.004044,0.429713,0.000006,0.000030,0.000003,0.000030,0.000006,82.161680,0.000038,
2191,3118,-1.54280636180292,10.281987538611,0.0322433163813116,0.006122,0.000080,0.001756,0.276795,0.032797,313.646510,24.775709,0.999391,0.992951,0.003596,0.434095,-0.000013,0.000005,-0.000008,0.000008,-0.000015,-69.758941,0.000015,
2371,2518,2.47660293678898,-2.76123219972663,-0.00937933372136968,0.005812,-0.000168,0.002607,0.257377,0.038003,322.806485,23.814841,0.999333,0.986395,0.004756,0.481885,0.000007,0.000001,0.000001,0.000007,0.000001,5.090854,0.000009,
2491,3133,4.96980082305493,10.6333654970706,0.0164675244384398,0.006151,0.000053,0.003043,0.271313,0.048126,313.191059,26.046742,0.999522,0.991580,0.003502,0.438476,0.000011,0.000064,0.000015,0.000068,0.000007,75.260962,0.000083,
2026,2458,-5.02296668893291,-4.07485198321871,-0.0293028276033738,0.006409,0.000848,-0.002520,0.302044,0.054930,324.642121,24.524414,0.999465,0.990098,0.004019,0.475501,0.000004,-0.000001,-0.000034,0.000036,-0.000032,-42.837843,0.000039,
2296,2233,0.896665779122603,-8.99388651192787,0.0114160975938375,0.006508,0.000350,0.000614,0.296354,0.046764,327.646415,23.501757,0.999055,0.980132,0.005360,0.343418,-0.000016,0.000007,-0.000006,0.000009,-0.000018,-76.340650,0.000018,
2026,2368,-5.00824834496515,-6.04194775986684,-0.00115436046797868,0.006361,0.000116,0.002387,0.285945,0.058411,326.311407,24.582209,0.999132,0.987496,0.004656,0.469565,0.000019,0.000027,-0.000013,0.000037,0.000009,-53.967718,0.000049,
2221,3253,-0.916621552023418,13.2111111006768,0.0292527278604666,0.005652,-0.000117,0.005872,0.241896,0.038420,311.291071,25.034539,0.999647,0.994091,0.003204,0.459826,-0.000006,0.000020,0.000002,0.000020,-0.000006,86.531177,0.000020,
2281,2293,0.557472709399921,-7.67974060171584,-0.00292082406730287,0.006257,0.000207,-0.000941,0.290176,0.032317,326.568568,23.633027,0.999390,0.985554,0.004866,0.389224,-0.000009,-0.000007,-0.000006,-0.000002,-0.000014,-50.995861,0.000018,
2086,2713,-3.75880136685839,1.48153672861277,-0.0209034128283747,0.006024,-0.000211,0.005710,0.260885,0.044430,320.210247,24.369185,0.999339,0.990901,0.003845,0.469858,-0.000023,-0.000005,-0.000012,0.000001,-0.000029,-64.099620,0.000032,
2476,3073,4.65588222211732,9.32869637397526,0.0179304117904735,0.006245,-0.000083,0.004033,0.271841,0.041483,314.149933,25.755044,0.999677,0.990780,0.003795,0.438782,-0.000005,0.000032,0.000003,0.000032,-0.000006,85.092321,0.000034,
2206,3298,-1.25085853698733,14.1860434879974,0.00555458156998156,0.006067,-0.000005,0.003627,0.268514,0.039255,310.421765,25.013079,0.999420,0.992986,0.003296,0.447976,-0.000013,0.000030,-0.000016,0.000035,-0.000019,-71.406620,0.000035,
2011,2308,-5.32662819929411,-7.35153347883053,-0.00667841286769999,0.005808,-0.000304,0.002437,0.260282,0.011516,327.299574,24.768205,0.999175,0.986760,0.004694,0.326980,0.000001,0.000025,-0.000012,0.000030,-0.000004,-67.845067,0.000033,
2131,2818,-2.7980584124019,3.76735908052607,-0.0138860906282048,0.005731,0.000479,0.001888,0.258575,0.077104,318.352120,24.424281,0.999333,0.991054,0.003922,0.489108,-0.000001,0.000009,0.000002,0.000009,-0.000001,80.399181,0.000010,
2401,2638,3.10652214514186,-0.140438662593581,-0.0175060910038383,0.005938,-0.000195,0.004208,0.257323,0.045046,320.811064,24.184550,0.999169,0.987249,0.004379,0.432452,0.000004,0.000021,-0.000006,0.000023,0.000002,-73.506597,0.000028,
2251,2083,-0.0590525011877254,-12.2811258181256,0.0174331691677025,0.006019,-0.000402,0.005660,0.257116,0.026121,330.133601,23.487915,0.999261,0.982344,0.005240,0.286621,0.000004,-0.000012,-0.000003,0.000005,-0.000012,-8.835285,0.000013,
2101,2803,-3.44744534217388,3.44018725501073,-0.0213109301816417,0.005986,-0.000099,0.004957,0.261303,0.048464,318.672439,24.402092,0.999374,0.991959,0.003746,0.449616,-0.000018,0.000001,-0.000006,0.000003,-0.000020,-74.576634,0.000022,
2101,2698,-3.43074350680086,1.15614167477248,-0.0191233018450703,0.005738,-0.000267,0.005227,0.248861,0.036458,320.382004,24.433976,0.999242,0.991216,0.003838,0.396114,-0.000015,-0.000008,-0.000006,-0.000005,-0.000018,-61.546922,0.000024,
2431,2788,3.73047571729044,3.13006696609641,-0.0171352713995816,0.005904,-0.000156,0.003890,0.256843,0.045436,318.409782,24.699413,0.999464,0.989908,0.004061,0.398406,0.000008,0.000036,-0.000006,0.000037,0.000007,-78.880397,0.000047,
2416,2743,3.41280192202173,2.14912140891719,-0.0220121342221091,0.006262,-0.000138,0.002497,0.278462,0.034943,319.102763,24.511265,0.999462,0.989997,0.003981,0.421556,0.000000,0.000033,0.000002,0.000033,-0.000001,86.476965,0.000038,
2116,2848,-3.12898997776356,4.419233486295,-0.0196681581867892,0.005758,0.000261,0.001809,0.260147,0.067023,317.883525,24.425680,0.999683,0.993323,0.003386,0.468370,-0.000008,0.000023,0.000000,0.000023,-0.000008,-89.973639,0.000024,
2191,3133,-1.54523118671574,10.6081743589468,0.0327147407040798,0.006328,0.000351,0.002775,0.283329,0.069617,313.411118,24.834979,0.999375,0.993022,0.003624,0.425281,-0.000012,0.000013,-0.000003,0.000013,-0.000012,-83.432175,0.000015,
2311,2203,1.22983637672021,-9.65321008747331,0.0207399021690549,0.006313,-0.000517,0.002138,0.281761,0.010102,328.182937,23.298657,0.998815,0.979682,0.005586,0.369133,-0.000010,0.000013,-0.000005,0.000014,-0.000011,-79.367254,0.000015,
2071,2533,-4.05573488854023,-2.43965718855218,-0.0125896648412436,0.006087,0.000069,0.002343,0.273429,0.050122,323.283448,24.447419,0.999412,0.990623,0.003991,0.427016,-0.000017,0.000024,0.000015,0.000029,-0.000022,72.061572,0.000030,
2461,2968,4.34914894884939,7.04757772627931,-0.00611145947834757,0.006394,0.000205,0.001167,0.289651,0.047203,315.650839,25.349646,0.999414,0.990863,0.003973,0.421264,0.000009,-0.000016,-0.000006,0.000010,-0.000017,-12.570532,0.000017,
2026,2383,-5.01059533342136,-5.71417062732855,0.000662639742131432,0.006114,0.000182,0.002127,0.275345,0.062709,326.074228,24.609699,0.999458,0.989593,0.003985,0.438490,0.000018,0.000009,-0.000021,0.000035,-0.000007,-38.621278,0.000037,
2206,3178,-1.22819778908622,11.5851095650666,0.0297945671739512,0.005996,0.000202,0.002897,0.267461,0.047709,312.589871,24.945508,0.999691,0.994920,0.003119,0.401397,-0.000007,0.000023,0.000000,0.000023,-0.000007,-89.643428,0.000023,
2146,2908,-2.48631160006104,5.72305412053429,-0.00274887993754191,0.006024,-0.000149,0.003041,0.268365,0.044026,316.930076,24.493943,0.999367,0.989521,0.004088,0.447622,0.000002,0.000025,-0.000004,0.000026,0.000002,-80.144317,0.000031,
2446,2878,4.03923906364622,5.08944131622273,-0.0146547229620637,0.005891,-0.000149,0.004855,0.252620,0.053546,316.983411,24.976123,0.999536,0.991783,0.003619,0.453079,-0.000004,0.000016,-0.000008,0.000019,-0.000007,-70.761502,0.000019,
2221,1993,-0.696366271818185,-14.257967185479,0.0404093423534846,0.006183,0.000221,0.001580,0.278150,0.058750,331.852779,23.529340,0.999658,0.988809,0.004468,0.327201,0.000018,-0.000031,-0.000022,0.000027,-0.000039,-20.845003,0.000040,
2161,2983,-2.17337843342603,7.35364150099082,-0.00436013628996079,0.006043,0.000225,0.002929,0.269737,0.069886,315.638167,24.605636,0.999565,0.993162,0.003423,0.438751,0.000007,0.000014,0.000005,0.000017,0.000005,62.645290,0.000023,
2041,2548,-4.71111837288324,-2.1128220291466,-0.0242325222499176,0.005819,-0.000177,0.003482,0.258115,0.036789,323.097507,24.454958,0.999390,0.990487,0.003878,0.451518,0.000009,0.000032,0.000012,0.000037,0.000004,66.432437,0.000046,
2506,3253,5.27176778040262,13.2393944313843,0.0164641976324447,0.006420,0.000424,0.001345,0.290439,0.057535,311.281035,26.591671,0.999726,0.993294,0.003373,0.443656,0.000011,0.000021,0.000031,0.000047,-0.000016,49.795347,0.000048,
2011,2443,-5.34604256391131,-4.40401129887083,0.00168125932077601,0.005959,-0.000197,0.007629,0.253447,0.060697,325.188360,24.699655,0.999390,0.989120,0.004161,0.352528,0.000001,-0.000014,-0.000024,0.000019,-0.000032,-36.241026,0.000032,
2266,2068,0.271624859546343,-12.6110010743189,0.0224833167309271,0.005948,0.000240,0.001838,0.266429,0.057942,330.402083,23.341856,0.999120,0.982259,0.005198,0.342706,-0.000002,-0.000013,-0.000006,0.000000,-0.000016,-22.654896,0.000018,
2026,2473,-5.02581544864636,-3.74827769773287,-0.0188705271126537,0.005788,-0.000232,0.007733,0.245020,0.062843,324.430356,24.548602,0.999082,0.985542,0.004678,0.450440,0.000015,0.000004,-0.000017,0.000028,-0.000008,-36.604614,0.000028,
2041,2443,-4.69349786940662,-4.40433957802416,-0.0046457938380513,0.006259,0.000149,0.001516,0.283675,0.029666,324.981346,24.523528,0.998872,0.982902,0.005175,0.420011,0.000003,-0.000010,-0.000023,0.000020,-0.000027,-37.225445,0.000028,
2341,2368,1.85169180611922,-6.03809570227918,-0.0113456440445816,0.006377,0.000716,-0.001836,0.299093,0.055599,325.255625,23.553761,0.999018,0.985779,0.004778,0.437456,-0.000013,0.000009,0.000005,0.000010,-0.000014,78.493286,0.000015,
2386,2578,2.79172656123731,-1.45015676417871,-0.0113192323396447,0.005943,-0.000405,0.005403,0.253257,0.047205,321.820667,24.035083,0.999446,0.988198,0.004349,0.419090,0.000012,0.000015,0.000002,0.000017,0.000011,62.713206,0.000028,
2131,2938,-2.81584843759736,6.37388917112671,0.00473185912039753,0.006481,-0.000031,0.001943,0.292937,0.037916,316.590273,24.540551,0.999651,0.992831,0.003546,0.375944,0.000000,0.000022,-0.000001,0.000022,0.000000,-88.306760,0.000026,
2236,2053,-0.380456502299158,-12.9402466061683,0.0255486643027325,0.005891,0.000020,0.000644,0.267754,0.018221,330.722826,23.507064,0.998890,0.977989,0.005633,0.302735,0.000002,-0.000027,-0.000020,0.000012,-0.000037,-26.733325,0.000038,
2281,2188,0.577320368536963,-9.98035549789562,0.0133131641418345,0.006172,0.000093,0.000401,0.281565,0.018772,328.389484,23.441559,0.998855,0.979843,0.005623,0.355385,-0.000007,-0.000003,-0.000007,0.000002,-0.000012,-53.628198,0.000012,
2146,3013,-2.50243771724782,8.00295023312614,0.00973065962716646,0.006310,0.000544,-0.001214,0.294805,0.053042,315.349825,24.605454,0.999382,0.990653,0.003955,0.395901,0.000000,0.000011,-0.000006,0.000014,-0.000002,-67.645751,0.000015,
2251,2173,-0.0747905150686172,-10.3091220450734,0.0135452281011226,0.005830,-0.000035,-0.001114,0.270822,0.033247,328.667065,23.517073,0.999015,0.985035,0.004966,0.422690,-0.000001,-0.000015,0.000000,-0.000001,-0.000015,1.681709,0.000018,
2056,2578,-4.3888099205221,-1.45884433415213,-0.0185681235634547,0.006380,0.000390,0.003070,0.285139,0.064520,322.599968,24.430460,0.999081,0.988498,0.004312,0.470801,-0.000022,0.000005,0.000001,0.000005,-0.000022,87.657051,0.000023,
2116,2743,-3.11280094315604,2.13782163275413,-0.0322899045590361,0.005846,0.000216,0.003677,0.258460,0.067867,319.481158,24.473651,0.999367,0.990670,0.003955,0.397652,-0.000014,-0.000001,-0.000010,0.000004,-0.000020,-61.050778,0.000021,
2296,2353,0.873891001130179,-6.36875263545366,0.00941479033019732,0.005892,-0.000079,0.003888,0.257108,0.032541,325.653278,23.686352,0.999615,0.988543,0.004181,0.401795,-0.000010,0.000004,-0.000004,0.000005,-0.000011,-75.209020,0.000011,
2191,3223,-1.5609973533451,12.5589642325997,0.0359902335318907,0.006084,0.000151,0.005218,0.264417,0.054007,311.947264,24.925712,0.999743,0.994858,0.003073,0.398170,-0.000015,0.000037,-0.000006,0.000038,-0.000016,-83.352353,0.000038,
2026,2518,-5.03232217578915,-2.76786286554596,-0.0199370493502897,0.005965,-0.000175,0.006176,0.257525,0.054477,323.708183,24.445054,0.999721,0.994069,0.003338,0.519798,0.000002,0.000006,-0.000006,0.000011,-0.000003,-54.241798,0.000011,
2476,3088,4.65259570590458,9.65523376639279,0.0182735080828138,0.006139,0.000198,0.005988,0.259733,0.069674,313.894292,25.847941,0.999546,0.991705,0.003648,0.429664,-0.000007,0.000046,0.000005,0.000046,-0.000007,85.116304,0.000049,
2161,3073,-2.18588567880103,9.30409899380317,0.0284428500311265,0.006363,0.000647,0.000316,0.292748,0.066780,314.468110,24.620339,0.999653,0.994572,0.003216,0.476153,-0.000002,0.000001,-0.000007,0.000007,-0.000008,-52.174749,0.000009,
2401,2653,3.10399536692923,0.186663893815947,-0.0173485228932577,0.006302,-0.000100,0.003988,0.274939,0.072959,320.585913,24.204824,0.999277,0.987781,0.004394,0.486356,-0.000003,0.000021,-0.000006,0.000023,-0.000004,-75.958482,0.000024,
2221,3268,-0.919093079075072,13.5361633296622,0.0208577749738765,0.006095,0.000175,0.001253,0.277233,0.035425,311.010148,25.014864,0.999505,0.993287,0.003433,0.494282,-0.000009,0.000024,0.000002,0.000024,-0.000009,86.826630,0.000024,
2251,2098,-0.0611437049806192,-11.9523986312195,0.0181393804838308,0.006214,0.000142,0.001698,0.279212,0.036798,329.920337,23.489837,0.999247,0.980979,0.005533,0.321598,0.000003,-0.000019,-0.000007,0.000005,-0.000021,-15.810252,0.000022,
2026,2488,-5.02726070281129,-3.42317277677832,-0.0122893942317432,0.006037,-0.000518,0.005394,0.262829,0.031787,324.261877,24.445118,0.999322,0.987968,0.004273,0.514144,0.000012,0.000009,-0.000016,0.000026,-0.000005,-42.693721,0.000028,
2011,2458,-5.34772974616665,-4.07717277680005,-0.00468646552218388,0.006287,0.000756,-0.001853,0.294481,0.047657,324.934754,24.606127,0.999457,0.990038,0.003996,0.422532,-0.000002,-0.000009,-0.000030,0.000024,-0.000036,-41.723579,0.000036,
2491,3148,4.96714592715554,10.9591175507323,0.0218439922500693,0.006232,0.000130,0.004459,0.269637,0.053876,312.988230,26.136135,0.999471,0.990568,0.003746,0.412372,0.000011,0.000056,0.000015,0.000061,0.000006,73.214753,0.000074,
2266,2098,0.265394755354457,-11.9517146637311,0.0132230675383767,0.005887,-0.000423,0.004303,0.255321,0.028515,329.831133,23.441222,0.999142,0.981385,0.005366,0.271984,0.000000,-0.000009,-0.000008,0.000005,-0.000014,-30.238577,0.000014,
2176,3163,-1.87586077281606,11.2569079722114,0.0370960959026547,0.006068,-0.000098,0.004791,0.265083,0.050164,312.988751,24.790003,0.999809,0.996539,0.002827,0.410568,-0.000012,0.000023,-0.000002,0.000023,-0.000012,-87.360748,0.000023,
2191,3148,-1.54799482693533,10.9335003385682,0.0323942224966345,0.006348,0.000088,0.005232,0.276502,0.068080,313.156343,24.852274,0.999132,0.991698,0.003945,0.419652,-0.000013,0.000021,-0.000001,0.000021,-0.000013,-87.856118,0.000021,
2071,2548,-4.0581911695792,-2.11236037378048,-0.0184798950672302,0.006382,0.000176,0.003275,0.284386,0.053636,323.002815,24.417619,0.999421,0.990575,0.004077,0.458188,-0.000013,0.000032,0.000018,0.000038,-0.000019,70.859339,0.000038,
2041,2458,-4.69604698081613,-4.07648779850236,-0.0100945598936164,0.006198,0.000570,-0.000173,0.285771,0.052946,324.695870,24.496263,0.998895,0.982998,0.005210,0.464400,-0.000001,-0.000003,-0.000029,0.000027,-0.000031,-44.244280,0.000034,
2041,2563,-4.71255300051278,-1.78599406497403,-0.0213723897684304,0.006268,0.000305,-0.000068,0.288826,0.047596,322.909395,24.457086,0.999511,0.990289,0.003826,0.453462,0.000006,0.000024,0.000005,0.000026,0.000005,76.080861,0.000033,
2206,3193,-1.23003364472089,11.9094932162078,0.0351758537627802,0.006311,0.000240,0.001512,0.286496,0.064502,312.408640,24.903119,0.999802,0.996148,0.002907,0.476460,-0.000008,0.000019,-0.000003,0.000020,-0.000008,-83.991100,0.000020,
2356,2443,2.16462565197415,-4.40056272889701,-0.000440688137871348,0.005817,-0.000061,0.002135,0.259321,0.052820,324.094269,23.626698,0.998845,0.982386,0.005223,0.512558,0.000005,0.000006,-0.000001,0.000007,0.000005,-57.562953,0.000012,
2461,2983,4.34617431202732,7.37413458303371,-0.00344181078537531,0.006214,0.000259,0.001054,0.281867,0.047859,315.419731,25.460848,0.999415,0.990657,0.003951,0.364427,0.000008,-0.000014,-0.000008,0.000010,-0.000016,-17.595442,0.000016,
2161,2998,-2.1755249287434,7.67868567841003,0.00524955057403531,0.005829,0.000333,0.003627,0.257773,0.073708,315.462184,24.620640,0.999599,0.993091,0.003572,0.436805,0.000003,0.000017,0.000002,0.000017,0.000003,82.352706,0.000022,
2341,2383,1.84823996021676,-5.71030043769908,-0.00608697347655607,0.005958,-0.000536,0.006263,0.251251,0.038077,325.008988,23.644325,0.999363,0.986225,0.004691,0.367470,-0.000007,0.000005,-0.000003,0.000006,-0.000008,-77.194070,0.000008,
2296,2248,0.893646009058752,-8.66597330201538,0.0068547170727129,0.006409,0.000238,-0.001168,0.297791,0.025407,327.368333,23.461122,0.999118,0.982566,0.005171,0.395119,-0.000013,-0.000008,-0.000006,-0.000004,-0.000017,-55.226661,0.000022,
2326,2248,1.54781435065826,-8.66560330738909,0.00527239849094485,0.006177,0.000317,-0.000891,0.286268,0.041312,327.324433,23.336277,0.998905,0.980819,0.005351,0.399162,-0.000014,-0.000020,-0.000013,-0.000004,-0.000030,-38.346034,0.000037,
2446,2893,4.03522935129363,5.41719236152974,-0.0317204020695385,0.005915,0.000072,0.000414,0.270397,0.051928,316.612735,25.032295,0.999458,0.991276,0.003818,0.447543,-0.000002,0.000009,-0.000006,0.000011,-0.000005,-66.661322,0.000011,
2506,3268,5.26801464719673,13.5653574347917,0.0142076211227504,0.006374,-0.000126,0.006350,0.268739,0.050843,310.993370,26.698738,0.999847,0.995743,0.002797,0.389295,0.000017,-0.000003,0.000026,0.000035,-0.000021,34.262899,0.000035,
2371,2533,2.47355320011474,-2.43253353643828,-0.01252245671418,0.005802,0.000281,0.001632,0.260602,0.056491,322.539397,23.922770,0.999360,0.987323,0.004593,0.434666,0.000010,-0.000006,0.000001,0.000010,-0.000006,4.634698,0.000010,
2011,2683,-5.38226247106656,0.825943489269065,-0.0181284702361495,0.006106,0.000362,0.001609,0.277092,0.052685,321.170336,24.409673,0.999791,0.996202,0.002838,0.457438,-0.000028,-0.000029,0.000011,-0.000018,-0.000040,43.857151,0.000059,
2281,2308,0.555098740406773,-7.35239356957557,0.00516995328672465,0.006044,0.000041,-0.000110,0.277561,0.025259,326.381446,23.675300,0.999201,0.983611,0.005241,0.369401,-0.000011,-0.000014,-0.000003,-0.000009,-0.000015,-32.100985,0.000025,
2431,2803,3.72814852644818,3.45687519903267,-0.0133217823854466,0.006084,-0.000068,0.001909,0.272440,0.042301,318.212564,24.797337,0.999467,0.989683,0.004110,0.347147,0.000006,0.000033,-0.000006,0.000034,0.000005,-78.452826,0.000043,
2476,3103,4.65024013854103,9.98033404785349,0.02407603958153,0.006349,-0.000115,0.006046,0.269039,0.049785,313.706773,25.894503,0.999498,0.991014,0.003771,0.418718,-0.000005,0.000046,0.000013,0.000049,-0.000008,76.703806,0.000053,
2401,2668,3.10098293805046,0.514328629236573,-0.0206545557724098,0.006152,0.000327,-0.000078,0.282919,0.051816,320.322073,24.301598,0.999326,0.988656,0.004348,0.414350,-0.000005,0.000018,-0.000007,0.000020,-0.000007,-75.588713,0.000020,
2386,2593,2.7889522189497,-1.12268018870301,-0.0115466121496297,0.006191,-0.000078,0.006827,0.259667,0.054963,321.581373,24.087206,0.999463,0.987977,0.004422,0.418924,0.000014,0.000000,0.000001,0.000014,-0.000001,3.999729,0.000016,
2071,2563,-4.06102152775697,-1.78464652029825,-0.0240454556882241,0.006178,0.000131,0.002450,0.277422,0.064338,322.706700,24.427353,0.999114,0.988831,0.004360,0.457147,-0.000016,0.000024,0.000008,0.000026,-0.000018,78.984428,0.000026,
2176,3043,-1.85654579196173,8.65594709376858,0.0189165507642883,0.006095,0.000039,0.004852,0.266094,0.070499,314.797369,24.744392,0.999692,0.995318,0.003165,0.386560,-0.000003,0.000006,-0.000006,0.000009,-0.000006,-64.134639,0.000009,
2131,2833,-2.80037516437216,4.09404837247403,-0.0176579510843453,0.006078,0.000344,0.001145,0.276803,0.073241,318.094766,24.458053,0.999534,0.992675,0.003577,0.457056,0.000001,0.000015,0.000002,0.000015,0.000001,82.322707,0.000018,
2056,2488,-4.37480277849118,-3.42109871553427,-0.0101443530942902,0.006029,-0.000074,0.002226,0.271069,0.044002,324.110190,24.526220,0.999405,0.989213,0.004354,0.380494,-0.000009,0.000016,-0.000004,0.000016,-0.000010,-80.490622,0.000017,
2266,2203,0.247312598747339,-9.65098076858477,0.0090668004336294,0.006496,0.000193,0.001471,0.292971,0.031561,328.143621,23.550509,0.998548,0.981562,0.005553,0.364537,-0.000007,0.000004,-0.000007,0.000007,-0.000010,-64.130942,0.000010,
2491,3163,4.96401184746876,11.2845840795672,0.0200697654524333,0.005992,0.000391,0.000640,0.273381,0.049556,312.731006,26.169488,0.999549,0.991581,0.003560,0.432547,0.000007,0.000057,0.000017,0.000063,0.000002,72.568638,0.000074,
2101,2713,-3.43302310927831,1.48249093031041,-0.0219591328378215,0.005966,-0.000181,0.004113,0.262668,0.036537,320.128992,24.402241,0.999272,0.990630,0.003937,0.429680,-0.000013,-0.000003,-0.000008,0.000002,-0.000017,-61.045981,0.000019,
2251,2113,-0.0638615090010042,-11.6237093184513,0.0177709277199938,0.006006,0.000279,-0.000265,0.276165,0.030853,329.673068,23.498622,0.999085,0.981403,0.005394,0.333543,0.000005,-0.000017,-0.000006,0.000006,-0.000019,-13.343605,0.000019,
2101,2818,-3.44966721087289,3.76655255152343,-0.0209631231502385,0.006049,0.000166,0.003327,0.269109,0.060079,318.439277,24.417307,0.999251,0.992712,0.003701,0.447124,-0.000013,0.000010,-0.000006,0.000012,-0.000015,-76.247237,0.000015,
2506,3283,5.26443593748271,13.8904287691604,0.00734465294237907,0.006223,0.000048,0.003525,0.272843,0.047874,310.693269,26.698624,0.999837,0.996022,0.002684,0.446110,0.000029,-0.000054,0.000026,0.000037,-0.000061,16.197852,0.000062,
2266,2113,0.264040908515383,-11.6238785004528,0.0222165371765186,0.006068,0.000676,-0.002038,0.284923,0.047950,329.694369,23.449074,0.999059,0.981764,0.005325,0.311679,0.000003,-0.000008,-0.000007,0.000006,-0.000011,-26.311331,0.000011,
2236,2068,-0.382465185051739,-12.611802341046,0.0301146564798955,0.006103,0.000084,-0.000015,0.279639,0.025932,330.531740,23.517374,0.999126,0.980068,0.005403,0.324316,0.000003,-0.000021,-0.000011,0.000007,-0.000025,-21.506611,0.000026,
2041,2578,-4.71508104320115,-1.45874971580122,-0.0271307880090035,0.006401,0.000455,0.000493,0.293444,0.057273,322.623441,24.427800,0.999230,0.989232,0.004108,0.485488,-0.000009,0.000001,-0.000005,0.000003,-0.000011,-65.815055,0.000011,
2281,2203,0.574640651238788,-9.65113887138601,0.00930246363685683,0.006403,0.000319,-0.000605,0.295623,0.021766,328.128110,23.484343,0.998659,0.979830,0.005638,0.346029,-0.000009,0.000008,-0.000006,0.000010,-0.000011,-72.231405,0.000012,
2416,2758,3.40967217812085,2.47576500904857,-0.0220595482691124,0.005991,0.000249,0.001374,0.270293,0.048183,318.849765,24.534906,0.999440,0.989117,0.004124,0.458985,0.000002,0.000039,0.000002,0.000039,0.000002,86.699133,0.000046,
2461,2998,4.34320406943634,7.69888246395606,0.00265193397450503,0.006197,0.000217,0.006393,0.260970,0.063308,315.204928,25.417598,0.999333,0.990209,0.003989,0.477097,0.000003,-0.000007,-0.000002,0.000004,-0.000008,-11.317171,0.000008,
2251,2188,-0.077839110217834,-9.97856893730992,0.0100272230325231,0.005945,-0.000448,0.002593,0.263903,0.027635,328.388351,23.689671,0.999425,0.989538,0.004434,0.270691,-0.000003,-0.000011,-0.000004,-0.000001,-0.000013,-22.700880,0.000015,
2311,2218,1.22627271593713,-9.32329164448279,0.00884740955990537,0.006152,0.000452,-0.000968,0.285361,0.045511,327.844982,23.296777,0.998842,0.978085,0.005693,0.441742,-0.000009,0.000009,-0.000007,0.000012,-0.000011,-72.036873,0.000013,
2056,2593,-4.39165020410123,-1.13013691987678,-0.0284736783536346,0.006471,0.000255,0.003203,0.288968,0.071465,322.277883,24.507301,0.998844,0.987804,0.004375,0.396631,-0.000028,0.000020,0.000004,0.000020,-0.000029,85.600881,0.000030,
2086,2608,-3.74184798741334,-0.803823654815105,-0.0217897395939985,0.006122,0.000184,0.000302,0.280996,0.053649,321.923222,24.426528,0.999017,0.988733,0.004337,0.425397,-0.000022,0.000025,0.000005,0.000026,-0.000022,83.535950,0.000028,
2116,2758,-3.11381116497766,2.46233798230087,-0.0187166091953941,0.006146,0.000361,0.000033,0.283178,0.070570,319.376270,24.415735,0.999494,0.991420,0.003730,0.461427,-0.000013,-0.000004,-0.000012,0.000004,-0.000021,-55.485580,0.000023,
2011,2698,-5.38429467128909,1.15255878308091,-0.020295512290943,0.006370,0.000737,0.000387,0.292709,0.068135,320.924796,24.385669,0.999822,0.995864,0.002878,0.485341,-0.000025,-0.000037,0.000015,-0.000015,-0.000047,34.606333,0.000065,
2071,2638,-4.07264503600374,-0.150857501908675,-0.0179672731369465,0.005976,0.000161,0.004547,0.262241,0.065936,321.528821,24.458216,0.998967,0.988079,0.004392,0.415432,-0.000022,0.000009,0.000001,0.000009,-0.000022,87.356894,0.000022,
2506,3298,5.26158264839279,14.2155852583037,0.0113762457491475,0.006112,0.000196,0.003481,0.267972,0.055380,310.475433,26.759020,0.999728,0.993856,0.003189,0.452719,0.000036,-0.000094,0.000015,0.000037,-0.000096,6.642426,0.000096,
2011,2473,-5.3507532550821,-3.74982391086567,-0.0074429306052366,0.005893,0.000026,0.002467,0.264505,0.046689,324.640132,24.586495,0.999221,0.987843,0.004323,0.430509,0.000008,-0.000006,-0.000012,0.000015,-0.000013,-29.129332,0.000016,
2131,2953,-2.81871078487778,6.69906654719886,0.00556364674940824,0.006183,0.000017,0.004153,0.272668,0.055988,316.332928,24.480753,0.999653,0.992815,0.003419,0.458979,0.000004,0.000019,0.000000,0.000019,0.000004,89.747139,0.000024,
2026,2533,-5.03444079766998,-2.44040658720588,-0.0188400244704212,0.005874,-0.000250,0.003608,0.260365,0.033107,323.477770,24.511309,0.999367,0.990225,0.003991,0.423451,0.000002,0.000004,0.000003,0.000006,0.000000,54.654847,0.000007,
2146,3028,-2.50501284033341,8.32793262140555,0.0114926609286385,0.006282,0.000269,0.001145,0.286366,0.057987,315.111737,24.567186,0.999428,0.991354,0.003802,0.446065,0.000000,0.000008,-0.000005,0.000010,-0.000002,-64.359706,0.000011,
2176,3178,-1.87777104270307,11.5808608522494,0.0471784454985595,0.006154,0.000025,0.006402,0.264092,0.058480,312.827251,24.739756,0.999747,0.995223,0.003046,0.480204,-0.000013,0.000026,0.000001,0.000026,-0.000013,89.064226,0.000026,
2086,2728,-3.76074807984949,1.80889803617251,-0.0257904504353519,0.006421,0.000529,0.000316,0.295047,0.067504,319.959725,24.395380,0.999292,0.990129,0.003997,0.466240,-0.000027,-0.000001,-0.000010,0.000003,-0.000031,-71.401136,0.000034,
2026,2503,-5.03026092345986,-3.09271695891451,-0.0265854297225587,0.005997,0.000238,0.002922,0.268056,0.069207,323.904391,24.577787,0.999691,0.993023,0.003548,0.410917,0.000012,0.000009,-0.000019,0.000030,-0.000008,-42.909013,0.000031,
2221,3283,-0.922694086870887,13.8633573721716,0.00989047435177781,0.005963,0.000187,0.001915,0.269244,0.062964,310.663149,25.153348,0.999434,0.992220,0.003482,0.400509,-0.000012,0.000026,0.000001,0.000026,-0.000012,88.049709,0.000026,
2371,2548,2.47077503909429,-2.10570560221586,-0.0105829874597134,0.005776,0.000034,0.002125,0.257583,0.049489,322.309429,23.934968,0.999324,0.986402,0.004717,0.457352,0.000011,-0.000001,0.000004,0.000012,-0.000002,15.279167,0.000012,
2431,2818,3.72469311447731,3.78319264647025,-0.0188661459338846,0.006026,0.000261,0.001673,0.270824,0.055543,317.919990,24.766492,0.999482,0.990660,0.004033,0.441341,0.000001,0.000027,-0.000007,0.000029,-0.000001,-76.840550,0.000033,
2296,2263,0.889713372908592,-8.33559254360154,-0.00226250289097152,0.006094,-0.000102,0.001666,0.273715,0.040309,327.025351,23.569319,0.999417,0.987909,0.004684,0.334655,-0.000010,-0.000008,-0.000007,-0.000002,-0.000016,-49.319875,0.000019,
2446,2908,4.03282544492736,5.74272742085932,-0.0206055441644253,0.005855,-0.000017,0.003551,0.255921,0.058436,316.446483,25.085810,0.999436,0.990840,0.003880,0.452214,-0.000005,-0.000003,-0.000006,0.000002,-0.000010,-50.238397,0.000010,
2191,3163,-1.55135954085819,11.2594118144501,0.0214159985669653,0.006286,-0.000170,0.004565,0.275527,0.030539,312.818124,24.899411,0.999622,0.995009,0.003183,0.348153,-0.000014,0.000023,-0.000002,0.000024,-0.000014,-86.959843,0.000024,
2221,2008,-0.700600275887322,-13.9270069327779,0.0284087528852979,0.005502,-0.000274,0.003572,0.240460,0.033094,331.474298,23.592267,0.999643,0.987880,0.004635,0.262037,0.000004,-0.000067,-0.000019,0.000009,-0.000072,-13.957706,0.000078,
2341,2398,1.84558769381303,-5.38239090482636,-0.00440791783768191,0.005783,0.000096,0.003637,0.252623,0.050992,324.781506,23.684811,0.999614,0.988177,0.004455,0.378181,-0.000004,0.000017,-0.000004,0.000017,-0.000005,-80.451835,0.000018,
2161,3088,-2.18908387990337,9.63025632811594,0.0237611402814082,0.006328,-0.000031,0.004889,0.276864,0.048324,314.167975,24.687250,0.999524,0.991610,0.003628,0.399846,-0.000005,-0.000001,-0.000009,0.000006,-0.000012,-52.510122,0.000012,
2476,3118,4.64698077873604,10.3057358985443,0.0239685268571748,0.006074,-0.000073,0.005224,0.259514,0.048284,313.450525,25.917022,0.999586,0.991315,0.003575,0.450540,-0.000005,0.000062,0.000014,0.000065,-0.000008,78.621625,0.000071,
2041,2833,-4.75410899817924,4.08940059062841,-0.0171726348140169,0.005998,0.000131,0.004022,0.265462,0.068787,318.547418,24.346312,0.999010,0.988778,0.004192,0.454693,-0.000027,0.000024,-0.000007,0.000025,-0.000028,-81.949817,0.000031,
2236,2083,-0.385728496381116,-12.2810667585576,0.0227340077356644,0.006075,0.000267,0.001514,0.273496,0.055894,330.222280,23.587741,0.999359,0.982509,0.005188,0.308918,0.000006,-0.000011,-0.000006,0.000008,-0.000013,-16.842216,0.000013,
2326,2263,1.54516127674439,-8.33781632967156,0.00983501559778688,0.006118,0.000160,0.001279,0.276063,0.035315,327.110306,23.368063,0.999062,0.983177,0.004980,0.397739,-0.000015,-0.000021,-0.000017,-0.000001,-0.000035,-39.293973,0.000041,
2011,2713,-5.38743938441899,1.47940572770054,-0.0259799104473473,0.006023,0.000137,0.004006,0.266736,0.056791,320.608612,24.386111,0.999668,0.994296,0.003395,0.461917,-0.000026,-0.000039,0.000015,-0.000016,-0.000049,32.465510,0.000068,
2056,2503,-4.37775188571225,-3.09433311239163,-0.0196216131281517,0.005967,-0.000213,0.002446,0.267563,0.037053,323.786052,24.409659,0.999435,0.989421,0.004176,0.486386,-0.000004,0.000012,-0.000007,0.000014,-0.000006,-69.188967,0.000014,
2386,2608,2.7863444843884,-0.795565023927914,-0.0158750154918721,0.006410,0.000173,0.001672,0.288353,0.053255,321.330322,24.085070,0.999283,0.988172,0.004336,0.463317,0.000014,0.000001,0.000006,0.000016,-0.000002,22.055481,0.000018,
2071,2578,-4.06378228230177,-1.45744003573263,-0.0251831672012486,0.005967,0.000231,0.004824,0.260996,0.083704,322.438092,24.426149,0.998862,0.988276,0.004565,0.475373,-0.000029,0.000008,0.000001,0.000008,-0.000029,88.188605,0.000030,
2116,2863,-3.1308498457912,4.74421685005459,-0.00914128583144702,0.005952,-0.000332,0.006354,0.255456,0.053707,317.723309,24.427272,0.999720,0.992550,0.003451,0.456414,-0.000007,0.000026,-0.000003,0.000027,-0.000008,-84.949036,0.000027,
2101,2833,-3.45208142943635,4.09240561458125,-0.0185184433915424,0.006032,-0.000134,0.005514,0.261770,0.034675,318.208883,24.442529,0.999598,0.993804,0.003350,0.397653,-0.000011,0.000014,-0.000006,0.000015,-0.000013,-76.733501,0.000016,
2071,2653,-4.07503689951603,0.175963129446714,-0.0275640650857554,0.006410,-0.000137,0.002743,0.287289,0.042493,321.231080,24.416700,0.999266,0.989460,0.004107,0.431047,-0.000023,0.000017,0.000003,0.000017,-0.000024,86.081081,0.000024,
2026,2548,-5.03634123029832,-2.11334314422275,-0.0178236521604731,0.005969,0.000256,0.000485,0.273544,0.052207,323.256882,24.505209,0.999473,0.990676,0.003756,0.440019,0.000011,0.000025,0.000009,0.000030,0.000006,63.166768,0.000038,
2041,2593,-4.71704236223575,-1.1314611919569,-0.0222679258304197,0.006471,0.000536,0.001241,0.294685,0.083880,322.422186,24.483056,0.999110,0.989505,0.004088,0.450280,-0.000015,0.000017,0.000000,0.000017,-0.000015,-89.637763,0.000019,
2161,3013,-2.17779393977796,8.00415804286973,0.00462296637374493,0.006093,0.000347,0.003030,0.271849,0.078740,315.226387,24.607961,0.999442,0.990813,0.003937,0.463837,0.000002,0.000015,-0.000002,0.000015,0.000002,-81.893360,0.000019,
2356,2458,2.16174942138203,-4.07110207695158,-0.00796925940932169,0.006517,-0.000301,0.004047,0.284659,0.036717,323.813048,23.771844,0.999252,0.986244,0.004630,0.391800,0.000006,0.000015,0.000003,0.000016,0.000005,72.401117,0.000022,
2056,2608,-4.39399524116048,-0.805118035262637,-0.0238158359389899,0.006001,0.000031,0.000951,0.273628,0.037982,322.059780,24.417588,0.999061,0.989375,0.004164,0.448092,-0.000027,0.000029,0.000008,0.000030,-0.000028,81.986237,0.000033,
2491,3178,4.96212681302797,11.6097396082192,0.0300341973348281,0.006104,0.000583,-0.002132,0.289292,0.056237,312.584434,26.236786,0.999632,0.991139,0.003671,0.429430,0.000008,0.000067,0.000017,0.000071,0.000003,75.146263,0.000084,
2206,3208,-1.23308534361281,12.23457594277,0.0360377038427373,0.006003,0.000092,0.004132,0.263910,0.056333,312.147825,24.927075,0.999648,0.994366,0.003242,0.459505,-0.000007,0.000022,-0.000004,0.000022,-0.000007,-82.954567,0.000023,
2401,2683,3.09779586386044,0.841625857707946,-0.0216371409057388,0.006170,0.000307,0.002503,0.274433,0.067616,320.061063,24.352013,0.999372,0.988455,0.004300,0.425930,-0.000007,0.000024,-0.000004,0.000024,-0.000007,-82.982560,0.000025,
2011,2488,-5.35290784000546,-3.42187880504022,-0.0187025902075675,0.006446,0.000468,-0.000399,0.297844,0.044574,324.337447,24.549920,0.999341,0.988298,0.004253,0.454726,0.000003,-0.000002,-0.000010,0.000011,-0.000010,-38.517859,0.000012,
2296,2368,0.87149390495394,-6.0415666776619,0.0135090722077393,0.005957,-0.000073,0.004509,0.258055,0.049818,325.446118,23.668177,0.999320,0.985859,0.004685,0.468892,-0.000012,0.000009,-0.000004,0.000010,-0.000013,-80.795745,0.000013,
2131,2848,-2.80365544975085,4.42096897050821,-0.0263587989249459,0.005805,0.000328,0.000685,0.265620,0.075580,317.766791,24.475099,0.999617,0.993189,0.003434,0.447953,0.000000,0.000022,0.000004,0.000023,-0.000001,80.407183,0.000026,
2191,3238,-1.56261104628542,12.8826119652551,0.0445024152218139,0.006298,0.000100,0.002468,0.282966,0.049811,311.792004,24.863558,0.999779,0.994836,0.003003,0.469455,-0.000016,0.000035,-0.000006,0.000036,-0.000017,-83.526108,0.000036,
2461,3013,4.34119855689709,8.02526538904092,0.0100751029277149,0.006386,0.000307,0.003742,0.279722,0.066377,315.040138,25.549396,0.999418,0.989954,0.003893,0.401801,-0.000005,-0.000002,0.000002,-0.000001,-0.000006,64.975538,0.000007,
2266,2218,0.244618270763347,-9.3227892778449,0.0130377845839575,0.006167,0.000219,0.001380,0.278241,0.059208,327.920123,23.563741,0.998774,0.980016,0.005541,0.407285,-0.000008,0.000002,-0.000008,0.000007,-0.000012,-60.149716,0.000012,
2131,2968,-2.8212801546456,7.02515064296747,0.00455043750417872,0.006026,0.000138,0.002111,0.271597,0.053495,316.078885,24.516056,0.999776,0.994542,0.002997,0.426140,0.000007,0.000011,0.000000,0.000011,0.000007,-85.578270,0.000019,
2026,2758,-5.06836495963629,2.45793960122612,-0.0213605198446203,0.006056,-0.000184,0.004435,0.266890,0.044586,319.822739,24.332273,0.999210,0.989758,0.004177,0.475371,-0.000031,-0.000007,-0.000002,-0.000007,-0.000031,-85.979839,0.000041,
2176,3193,-1.87942532568356,11.9040837028138,0.0586132767821823,0.006138,-0.000021,0.004074,0.270562,0.044321,312.684914,24.654926,0.999821,0.996595,0.002786,0.561933,-0.000014,0.000024,-0.000002,0.000024,-0.000015,-86.748160,0.000024,
2101,2728,-3.43589474035985,1.80950965519681,-0.0293337759382553,0.005868,-0.000075,0.002559,0.262801,0.049119,319.824085,24.388026,0.999247,0.989646,0.004104,0.457976,-0.000016,0.000000,-0.000007,0.000002,-0.000018,-70.276254,0.000020,
2086,2743,-3.76314423546641,2.13454937140608,-0.0200367366899172,0.006143,0.000153,0.001982,0.277302,0.048877,319.747131,24.396218,0.999425,0.990231,0.003956,0.445914,-0.000028,0.000001,-0.000010,0.000004,-0.000032,-72.341374,0.000034,
2251,2248,-0.0889626693198302,-8.6641762662241,0.00421034766094408,0.005792,-0.000317,0.002929,0.255937,0.035679,327.364739,23.777979,0.998349,0.978353,0.005934,0.294048,-0.000009,-0.000002,-0.000003,-0.000001,-0.000010,-70.969190,0.000012,
2281,2323,0.552413876721729,-7.02441139519863,0.00758834043256229,0.006103,-0.000171,0.002986,0.269895,0.031722,326.151672,23.709922,0.999104,0.982809,0.005260,0.370981,-0.000004,-0.000009,-0.000001,-0.000004,-0.000009,-11.803045,0.000014,
2266,2128,0.260555175031033,-11.2950592545741,0.0188442683571566,0.005835,0.000240,0.002849,0.258023,0.069489,329.398054,23.415293,0.998924,0.981570,0.005349,0.395900,0.000005,-0.000013,-0.000008,0.000008,-0.000016,-21.380455,0.000016,
2011,2923,-5.41739646514434,6.04174241537829,-0.000550514720998763,0.006150,0.000415,0.003224,0.275183,0.078663,317.421878,24.265355,0.999303,0.992741,0.003431,0.434846,0.000000,0.000028,-0.000009,0.000031,-0.000003,-73.644694,0.000034,
2146,2923,-2.48845872047756,6.0488382746975,-0.000170959504430357,0.006098,0.000121,0.001451,0.276707,0.044100,316.715718,24.512722,0.999099,0.987157,0.004437,0.436329,0.000002,0.000023,-0.000003,0.000024,0.000001,-81.370876,0.000028,
2041,2608,-4.71957678739012,-0.80551205433926,-0.0219256305218778,0.006223,0.000121,0.001716,0.281840,0.056706,322.170232,24.434485,0.998970,0.988359,0.004370,0.464604,-0.000014,0.000028,0.000006,0.000029,-0.000015,82.597115,0.000029,
2416,2773,3.40688785542349,2.80203894376383,-0.0187192208015858,0.005859,0.000480,0.001068,0.265483,0.066988,318.628512,24.549970,0.999490,0.988712,0.004179,0.510588,0.000003,0.000034,-0.000001,0.000034,0.000003,-87.797861,0.000041,
2221,3298,-0.926453870969343,14.1881424141034,0.00373844920898136,0.005498,0.000220,0.004948,0.238024,0.059815,310.334541,25.131344,0.999487,0.992858,0.003285,0.436596,-0.000011,0.000028,-0.000015,0.000033,-0.000016,-71.701584,0.000033,
2071,2593,-4.06601994353818,-1.13075875971524,-0.0255294832584809,0.006043,0.000065,0.004180,0.266271,0.061502,322.198033,24.429870,0.998976,0.988790,0.004317,0.447134,-0.000033,0.000022,0.000003,0.000022,-0.000033,86.788572,0.000034,
2056,2623,-4.39615918886774,-0.478618038864383,-0.0212722772791381,0.005943,0.000065,0.000200,0.273108,0.038324,321.837828,24.415832,0.999238,0.990801,0.003943,0.445555,-0.000026,0.000015,0.000005,0.000016,-0.000027,82.774162,0.000027,
2176,3058,-1.8587660730326,8.97978931770326,0.0253778020349387,0.006023,-0.000028,0.005293,0.261402,0.066111,314.602658,24.648730,0.999721,0.995346,0.003114,0.489306,0.000000,0.000001,-0.000008,0.000009,-0.000008,-46.620882,0.000010,
2101,2848,-3.45450875682716,4.41844337726404,-0.0230258828304954,0.006029,0.000609,0.001200,0.274578,0.072176,317.940089,24.374113,0.999781,0.994479,0.003108,0.504523,-0.000011,0.000022,-0.000002,0.000022,-0.000011,-86.449817,0.000022,
2116,2773,-3.11643610651191,2.78851703381198,-0.0185951766110861,0.006104,0.000224,0.002488,0.273880,0.057192,319.124646,24.424001,0.999680,0.992919,0.003396,0.443399,-0.000014,0.000000,-0.000011,0.000007,-0.000020,-61.030518,0.000020,
2446,2923,4.03052850240141,6.06934706462734,-0.0167135502260294,0.006042,0.000174,0.001137,0.273676,0.063391,316.251476,25.191873,0.999635,0.993409,0.003590,0.402831,-0.000001,-0.000010,-0.000010,0.000006,-0.000016,-32.726758,0.000017,
2116,2878,-3.13333363706739,5.06978847160474,-0.00893778881749085,0.005933,-0.000307,0.006899,0.252886,0.037162,317.478794,24.413322,0.999594,0.992449,0.003609,0.457072,-0.000002,0.000037,-0.000002,0.000037,-0.000002,-87.715340,0.000041,
2011,2503,-5.35593366353868,-3.09332252739582,-0.0234237447806436,0.006002,0.000173,0.000991,0.273627,0.052605,324.031367,24.625035,0.999651,0.992812,0.003670,0.376972,0.000003,0.000003,-0.000013,0.000016,-0.000010,-44.934855,0.000016,
2071,2668,-4.07762163319718,0.502661370286248,-0.0286307181277152,0.006235,0.000026,0.002792,0.279208,0.051670,320.971132,24.408334,0.999327,0.989125,0.004118,0.445999,-0.000028,0.000004,0.000003,0.000004,-0.000028,84.510294,0.000031,
2146,3043,-2.50772813785951,8.65354921755443,0.0122424915181227,0.006203,0.000138,0.003771,0.274783,0.075910,314.861597,24.571524,0.999455,0.993224,0.003341,0.466670,-0.000002,0.000003,-0.000007,0.000008,-0.000007,-54.258799,0.000009,
2401,2698,3.09416651043835,1.16871350381395,-0.0298725232042329,0.006216,-0.000028,0.003771,0.271871,0.056636,319.745596,24.355389,0.999447,0.990316,0.003986,0.457515,-0.000007,0.000028,-0.000002,0.000029,-0.000007,-86.724479,0.000030,
2086,2623,-3.74485453335903,-0.477377053184348,-0.0281579565239554,0.005981,0.000143,0.001966,0.269728,0.054433,321.616419,24.344179,0.999031,0.989106,0.004295,0.508259,-0.000017,0.000016,0.000002,0.000016,-0.000017,86.857903,0.000019,
2296,2383,0.868333003452957,-5.71150841171574,0.000766958802557838,0.006227,0.000090,0.001167,0.281812,0.035262,325.120317,23.786858,0.998948,0.983349,0.005220,0.367520,-0.000010,0.000008,-0.000008,0.000011,-0.000013,-68.359389,0.000014,
2161,3028,-2.18001459088712,8.32921727552261,0.00920846882684145,0.006113,0.000142,0.003245,0.272026,0.064929,315.020489,24.614790,0.999379,0.989424,0.004297,0.452486,0.000000,0.000011,-0.000003,0.000011,0.000000,-77.092202,0.000013,
2191,3178,-1.55348954751726,11.5838381124724,0.0293469619128928,0.006329,0.000010,0.006353,0.272012,0.048332,312.635801,24.872000,0.999818,0.996461,0.002896,0.406731,-0.000014,0.000026,0.000000,0.000026,-0.000014,-89.890099,0.000026,
2011,2938,-5.41962606108751,6.36742261262436,-0.00464188173822322,0.006404,0.000311,0.002628,0.288502,0.062393,317.157228,24.244742,0.999449,0.993388,0.003441,0.426889,0.000002,0.000010,-0.000006,0.000013,-0.000001,-63.790938,0.000015,
2011,2728,-5.3895778723725,1.80536348340459,-0.0243859880150694,0.006068,0.000191,0.004584,0.267297,0.063753,320.379581,24.350389,0.999516,0.992380,0.003726,0.492986,-0.000030,-0.000027,0.000017,-0.000012,-0.000046,47.904777,0.000061,
2131,2983,-2.82367813826317,7.35065452931019,0.00338582879112437,0.006225,0.000310,0.002754,0.278910,0.060045,315.832076,24.492230,0.999748,0.994428,0.003086,0.461746,0.000005,0.000008,0.000000,0.000008,0.000005,-89.667050,0.000013,
2281,2218,0.57132538012349,-9.32202074272434,0.00768422829042947,0.005832,0.000513,-0.001517,0.272586,0.055854,327.849358,23.517947,0.998994,0.981051,0.005376,0.376881,-0.000010,0.000005,-0.000009,0.000009,-0.000014,-65.664803,0.000014,
2461,3028,4.33804119468587,8.3509408668216,0.014272726631873,0.005943,0.000010,0.004204,0.257539,0.062922,314.807645,25.604353,0.999675,0.991814,0.003686,0.396997,-0.000007,0.000002,0.000000,0.000002,-0.000007,87.460046,0.000007,
2161,3103,-2.19134919914887,9.95496422807129,0.0272459013179969,0.006209,0.000211,0.002501,0.278790,0.050987,313.954313,24.655497,0.999642,0.993974,0.003191,0.443275,-0.000009,-0.000001,-0.000005,0.000001,-0.000011,-63.733959,0.000012,
2206,3223,-1.23678760065689,12.5615692168957,0.0250627774087206,0.005710,0.000323,0.004462,0.249508,0.073589,311.794975,25.037816,0.999831,0.995961,0.002853,0.381142,-0.000006,0.000033,-0.000004,0.000034,-0.000007,-83.843216,0.000036,
2221,2023,-0.702845879366748,-13.5982476424237,0.0267962885702673,0.005851,-0.000248,0.002499,0.259921,0.012593,331.239874,23.573756,0.999162,0.982209,0.005286,0.282522,-0.000001,-0.000053,-0.000018,0.000004,-0.000059,-17.614051,0.000066,
2251,2203,-0.0802328168391107,-9.65182603677997,0.00947241411876121,0.006215,-0.000179,0.002741,0.275922,0.049433,328.154939,23.523798,0.999001,0.984599,0.005050,0.484375,-0.000005,0.000001,-0.000004,0.000003,-0.000007,-65.221143,0.000007,
2431,2833,3.72131250065346,4.11090069673292,-0.0199603247872915,0.005779,0.000217,0.002485,0.256476,0.049387,317.651146,24.921725,0.999320,0.989391,0.004074,0.329872,0.000001,0.000025,-0.000004,0.000026,0.000000,-79.973983,0.000030,
2341,2413,1.84435277553628,-5.05541608372291,0.00529778749864818,0.006098,0.000634,-0.003106,0.290736,0.025729,324.658134,23.758623,0.999595,0.990004,0.004243,0.316788,-0.000004,0.000013,-0.000002,0.000013,-0.000004,-83.935891,0.000014,
2236,1993,-0.369448670868071,-14.2587465030042,0.0369438549850543,0.006044,-0.000154,0.005310,0.259541,0.060882,331.773339,23.349367,0.999667,0.989007,0.004482,0.403825,0.000023,-0.000019,-0.000026,0.000035,-0.000031,-25.491419,0.000039,
2416,2788,3.40362211885691,3.13027595496736,-0.023570527018137,0.005980,0.000023,0.001559,0.269084,0.050602,318.346319,24.721151,0.999447,0.988681,0.004252,0.370892,0.000002,0.000035,-0.000001,0.000035,0.000002,-88.625811,0.000042,
2491,3193,4.95951612911412,11.934484696585,0.0395417365187996,0.006093,0.000336,0.001829,0.273487,0.057813,312.402400,26.271183,0.999556,0.991399,0.003665,0.454260,0.000013,0.000062,0.000017,0.000067,0.000007,72.733597,0.000082,
2446,2938,4.02739771914247,6.395343635458,-0.0192412530805086,0.006090,0.000315,0.000856,0.276959,0.056188,315.988562,25.211202,0.999598,0.992401,0.003714,0.427997,0.000003,-0.000015,-0.000010,0.000008,-0.000019,-23.377416,0.000019,
2176,3073,-1.86134268826774,9.30442533435017,0.0245406552787131,0.005912,0.000263,0.003070,0.263213,0.057686,314.353013,24.586395,0.999715,0.995246,0.003056,0.554616,-0.000002,0.000003,-0.000007,0.000008,-0.000007,-53.401059,0.000009,
2236,2098,-0.388084566743753,-11.9531739962108,0.0249011556210235,0.006161,0.000101,0.001616,0.277123,0.040747,330.003295,23.554812,0.999232,0.981482,0.005373,0.350863,0.000005,-0.000016,-0.000006,0.000006,-0.000017,-13.991820,0.000018,
2386,2623,2.78264442748783,-0.468418008677602,-0.0210382447129973,0.006018,-0.000054,0.001776,0.269907,0.036351,321.025103,24.099407,0.999137,0.987872,0.004360,0.476100,0.000011,0.000012,0.000002,0.000014,0.000010,57.395762,0.000023,
2191,3253,-1.56629679747226,13.2083331001341,0.0340524495533714,0.006043,0.000230,0.004095,0.266177,0.062426,311.441683,24.872745,0.999697,0.994214,0.003145,0.485949,-0.000016,0.000030,-0.000002,0.000030,-0.000016,-87.867624,0.000030,
2071,2608,-4.06853214720272,-0.803251319558527,-0.0284049242251285,0.006090,-0.000146,0.004862,0.266471,0.059412,321.931287,24.472318,0.999192,0.990537,0.003969,0.400232,-0.000031,0.000030,0.000007,0.000030,-0.000032,83.462320,0.000036,
2131,2863,-2.80554190497232,4.74553519293843,-0.00957594965257158,0.005634,0.000001,0.006035,0.241647,0.076739,317.639635,24.471057,0.999615,0.992425,0.003504,0.458290,0.000001,0.000025,-0.000001,0.000025,0.000001,-88.650195,0.000029,
2266,2233,0.241555057202149,-8.99408526011074,0.00859348398364546,0.006024,0.000163,0.000495,0.274611,0.033942,327.637744,23.594388,0.998984,0.978968,0.005447,0.379381,-0.000011,0.000006,-0.000006,0.000008,-0.000013,-73.801428,0.000013,
2026,2773,-5.07085828067453,2.78567981088825,-0.0296907576422996,0.006230,-0.000131,0.002523,0.280200,0.030755,319.522709,24.416311,0.999454,0.991278,0.003952,0.368045,-0.000035,0.000009,-0.000004,0.000009,-0.000036,-85.067603,0.000037,
2011,2518,-5.35819770959467,-2.76843563287865,-0.0131347218286919,0.005619,-0.000157,0.005788,0.242923,0.060934,323.845248,24.504603,0.999680,0.993449,0.003509,0.494655,-0.000005,0.000002,0.000000,0.000002,-0.000005,-86.638741,0.000005,
2371,2563,2.46778137171225,-1.77771641963233,-0.0120041324511817,0.005879,0.000031,0.003611,0.257030,0.042319,322.053231,24.028765,0.999428,0.988340,0.004371,0.398549,0.000009,0.000008,0.000002,0.000011,0.000006,34.831586,0.000018,
2026,2563,-5.03841567515044,-1.78676809873887,-0.0154529764136555,0.006045,0.000149,0.001245,0.274956,0.054897,323.035793,24.487288,0.999531,0.990009,0.003861,0.451460,0.000008,0.000021,0.000003,0.000022,0.000008,78.978864,0.000031,
2116,2788,-3.11896507815155,3.1146339069846,-0.0197204389831995,0.006196,0.000066,0.004283,0.272840,0.065251,318.870691,24.399942,0.999579,0.992541,0.003527,0.479032,-0.000018,-0.000001,-0.000011,0.000005,-0.000023,-63.521208,0.000024,
2011,2953,-5.42169728404164,6.69286022132522,-0.000550399363589804,0.006214,0.000486,0.000003,0.286967,0.066920,316.945919,24.243003,0.999670,0.994472,0.003054,0.420351,0.000014,-0.000004,-0.000010,0.000019,-0.000008,-24.560361,0.000019,
2296,2278,0.887492318547,-8.00922790369133,0.00930211793718172,0.006066,-0.000709,0.006203,0.256948,0.042411,326.863536,23.538845,0.999374,0.986441,0.004698,0.399160,-0.000008,0.000000,-0.000010,0.000006,-0.000014,-55.934847,0.000014,
2056,2518,-4.37950580357227,-2.76752101781368,-0.0141601471157742,0.006084,-0.000152,0.001010,0.277032,0.033109,323.598737,24.434764,0.999342,0.989871,0.004098,0.452941,-0.000010,0.000012,0.000007,0.000014,-0.000012,74.627857,0.000015,
2311,2233,1.22350203232044,-8.99440420704253,0.0128258987797949,0.006147,-0.000085,0.003145,0.270956,0.045008,327.621407,23.407369,0.998820,0.978912,0.005608,0.365195,-0.000011,0.000008,-0.000002,0.000008,-0.000011,-83.827180,0.000012,
2101,2743,-3.43822278809007,2.13600599290836,-0.0242618008229556,0.005662,0.000008,0.003221,0.251443,0.064432,319.611527,24.427712,0.999374,0.990211,0.003967,0.434970,-0.000017,-0.000001,-0.000007,0.000002,-0.000019,-69.244589,0.000022,
2476,3133,4.64407596704228,10.6321244659559,0.0235702568659804,0.006166,-0.000045,0.004228,0.267633,0.053217,313.208903,26.026241,0.999575,0.990903,0.003592,0.401751,0.000003,0.000056,0.000010,0.000057,0.000001,80.020497,0.000067,
2236,2008,-0.372959472570283,-13.9293501516005,0.031970223849271,0.005413,-0.000345,0.004410,0.233500,0.037930,331.465407,23.347346,0.999598,0.988497,0.004552,0.408159,0.000011,-0.000060,-0.000023,0.000018,-0.000067,-16.382142,0.000069,
2431,2848,3.71914096317714,4.43657340685624,-0.0193061894218545,0.006311,0.000536,-0.000116,0.290722,0.065451,317.446443,24.884925,0.999344,0.987637,0.004164,0.432596,-0.000005,0.000026,-0.000009,0.000029,-0.000008,-74.860836,0.000030,
2281,2338,0.550188678232594,-6.69558699976165,0.000468930630120212,0.006723,0.000435,-0.002078,0.315491,0.020994,325.895390,23.749456,0.999268,0.984212,0.004900,0.350554,-0.000006,0.000002,-0.000005,0.000004,-0.000009,-62.606392,0.000009,
2251,2263,-0.0909658309654233,-8.3372079409348,0.0127711002530191,0.006020,-0.000237,0.005981,0.256469,0.052454,327.195056,23.751918,0.999118,0.983790,0.005118,0.362282,-0.000005,-0.000005,-0.000004,-0.000001,-0.000009,-44.109536,0.000011,
2491,3208,4.95600705534822,12.2606308783536,0.0353752599005475,0.006134,0.000327,0.003401,0.269429,0.073180,312.116601,26.344456,0.999358,0.991958,0.003740,0.453861,0.000018,0.000055,0.000014,0.000060,0.000013,71.556142,0.000078,
2041,2848,-4.75636926720601,4.41534682926233,-0.0267894324578606,0.006377,0.000125,-0.000233,0.294727,0.036737,318.253005,24.299142,0.999265,0.990510,0.003967,0.462222,-0.000024,0.000036,-0.000004,0.000037,-0.000024,-85.768587,0.000037,
2281,2233,0.568743425009391,-8.99379632502,0.0106668725387635,0.005816,-0.000027,-0.000286,0.267549,0.024751,327.627452,23.587863,0.999051,0.980314,0.005371,0.305993,-0.000015,0.000007,-0.000004,0.000008,-0.000016,-79.210455,0.000016,
2326,2278,1.54161932966861,-8.00864544272761,0.00357537168997624,0.005932,-0.000165,0.002599,0.262908,0.023909,326.802527,23.426840,0.999052,0.983554,0.004995,0.364619,-0.000014,-0.000011,-0.000016,0.000004,-0.000029,-48.185154,0.000031,
2356,2473,2.158973968669,-3.74338595825015,-0.00730021536583081,0.006447,-0.000200,0.002994,0.285225,0.037208,323.576046,23.822212,0.999598,0.988520,0.004166,0.382166,0.000004,0.000008,0.000004,0.000010,0.000002,56.211813,0.000013,
2146,2938,-2.49061084300783,6.37546062049442,-0.0018549638884906,0.006454,0.000285,-0.000141,0.298032,0.048791,316.478209,24.577751,0.999424,0.990476,0.003895,0.383411,0.000000,0.000029,0.000000,0.000029,0.000000,-89.524364,0.000033,
2191,3193,-1.55569306836578,11.9081711177318,0.0366540296554945,0.005989,0.000327,0.002983,0.267110,0.060550,312.446884,24.840604,0.999759,0.995641,0.003025,0.463578,-0.000015,0.000023,-0.000003,0.000023,-0.000015,-84.834604,0.000023,
2011,2743,-5.39278755816166,2.13314242190067,-0.0344711228972869,0.005785,-0.000268,0.005856,0.250676,0.044352,320.035458,24.419407,0.999533,0.992677,0.003534,0.392786,-0.000036,-0.000009,0.000012,-0.000004,-0.000041,69.480243,0.000050,
2461,3043,4.33511387293964,8.67595429436704,0.0161885307832108,0.005949,-0.000087,0.005106,0.254382,0.052522,314.575411,25.593674,0.999570,0.990723,0.003804,0.450872,-0.000015,0.000016,0.000001,0.000016,-0.000015,88.619253,0.000018,
2221,2038,-0.705851532763642,-13.2683107329351,0.0216783000952887,0.005709,0.000405,0.001709,0.256212,0.050678,330.952329,23.570602,0.998970,0.978050,0.005641,0.346593,0.000000,-0.000034,-0.000019,0.000009,-0.000043,-24.077664,0.000045,
2206,3238,-1.2387704977729,12.8852393685061,0.0293998902317298,0.005847,0.000289,0.001544,0.265021,0.054414,311.601807,24.970161,0.999767,0.995065,0.002996,0.445029,-0.000006,0.000030,-0.000003,0.000030,-0.000007,-84.724719,0.000032,
2416,2803,3.40100165719643,3.45616315341148,-0.0246773908226601,0.006194,0.000357,-0.000873,0.287983,0.048378,318.111787,24.695953,0.999337,0.987789,0.004494,0.441499,0.000002,0.000033,0.000000,0.000033,0.000002,89.829237,0.000039,
2086,2638,-3.74713749234613,-0.15060657562109,-0.0209093371819904,0.005893,-0.000247,0.006489,0.252512,0.052260,321.416697,24.414900,0.999112,0.988915,0.004220,0.434884,-0.000012,0.000009,0.000000,0.000009,-0.000012,-89.553170,0.000013,
2146,3058,-2.51019228510059,8.97844652495461,0.015475711496606,0.005862,0.000146,0.001150,0.266955,0.043715,314.636490,24.579623,0.999543,0.994387,0.003287,0.433540,0.000000,0.000001,-0.000009,0.000010,-0.000008,-46.110968,0.000011,
2041,2623,-4.72188014859308,-0.478770441773506,-0.0261182087573388,0.006207,0.000410,-0.002394,0.292565,0.030447,321.903515,24.423542,0.999042,0.987594,0.004459,0.442427,-0.000018,0.000015,0.000003,0.000015,-0.000018,85.071850,0.000020,
2026,2578,-5.04117966870153,-1.45908500835156,-0.0219722454427256,0.005958,0.000190,0.001791,0.269469,0.060170,322.733327,24.495209,0.999238,0.988921,0.004209,0.440053,-0.000006,-0.000002,-0.000009,0.000006,-0.000013,-50.463435,0.000014,
2161,3118,-2.19364984071257,10.2807585731631,0.0270365928513456,0.006250,0.000496,-0.000713,0.290723,0.058845,313.719113,24.699104,0.999607,0.993653,0.003287,0.416624,-0.000011,0.000000,-0.000008,0.000004,-0.000015,-61.544946,0.000016,
2131,2998,-2.82587637248199,7.67580839858724,0.00495049273416726,0.006192,0.000783,-0.000483,0.287227,0.062298,315.609155,24.463237,0.999788,0.994497,0.003105,0.497886,0.000001,0.000011,-0.000002,0.000012,0.000001,-76.785411,0.000014,
2101,2863,-3.45591267085523,4.74391902070053,-0.0121926377747741,0.006447,0.000168,0.002704,0.289311,0.060986,317.801522,24.420924,0.999668,0.992823,0.003478,0.447457,-0.000010,0.000025,-0.000004,0.000025,-0.000010,-83.436536,0.000025,
2176,3208,-1.88345671595058,12.2319182504017,0.0390452301321602,0.005935,0.000138,0.002932,0.264765,0.038547,312.268726,24.809601,0.999698,0.994881,0.003085,0.412418,-0.000013,0.000026,-0.000003,0.000026,-0.000013,-86.175508,0.000026,
2056,2638,-4.39892106167629,-0.151897813718705,-0.0206785109746761,0.005763,-0.000464,0.005159,0.250692,0.026013,321.577760,24.434772,0.999180,0.989640,0.004158,0.409546,-0.000021,0.000007,0.000002,0.000007,-0.000021,85.780902,0.000021,
2086,2758,-3.7660854586006,2.4612131437555,-0.0265934719092797,0.006169,-0.000086,0.004736,0.270514,0.057823,319.442207,24.369097,0.999508,0.990902,0.003834,0.481317,-0.000027,-0.000003,-0.000013,0.000003,-0.000033,-65.784320,0.000036,
2266,2143,0.258099910654106,-10.9646013497287,0.0193334823990199,0.006206,-0.000405,0.005406,0.266366,0.046978,329.168175,23.622100,0.999358,0.985338,0.005015,0.195087,0.000003,-0.000026,-0.000007,0.000004,-0.000028,-12.537924,0.000030,
2401,2713,3.09105702661368,1.4955066089443,-0.0339044697616941,0.006145,0.000090,0.001232,0.277841,0.044678,319.473817,24.372417,0.999556,0.991030,0.003837,0.474536,-0.000007,0.000039,-0.000003,0.000039,-0.000007,-86.807932,0.000041,
2071,2683,-4.0800900559658,0.828706516257768,-0.0247049556609795,0.005809,0.000074,0.001903,0.262152,0.060625,320.744035,24.386163,0.999448,0.991093,0.003779,0.474251,-0.000034,-0.000004,-0.000004,-0.000003,-0.000034,-82.339661,0.000041,
2116,2893,-3.13607634022526,5.39698923089712,-0.020764660416603,0.006045,0.000275,0.001388,0.274579,0.036938,317.157132,24.449706,0.999407,0.992736,0.003836,0.423640,-0.000003,0.000035,-0.000001,0.000035,-0.000003,-88.010541,0.000039,
2491,3223,4.95270284099221,12.5867724197104,0.0299403482042635,0.006136,0.000502,0.000808,0.279556,0.066413,311.834412,26.436533,0.999370,0.991657,0.003784,0.412625,0.000020,0.000032,0.000019,0.000046,0.000006,53.627548,0.000057,
2236,2023,-0.37424823014614,-13.6007091861182,0.0387081642317639,0.005998,0.000039,0.001062,0.271275,0.026393,331.318383,23.403201,0.998999,0.981602,0.005500,0.364823,0.000004,-0.000044,-0.000019,0.000011,-0.000050,-19.359206,0.000053,
2161,3043,-2.18166022600115,8.65437845355264,0.0228402047254121,0.006136,0.000333,0.003940,0.271085,0.087243,314.888696,24.657716,0.999549,0.993285,0.003517,0.441115,-0.000003,0.000005,-0.000006,0.000008,-0.000006,-63.823592,0.000008,
2101,2758,-3.43976581182215,2.461368938996,-0.0173505629066995,0.006007,0.000286,0.002114,0.270663,0.069529,319.445266,24.391733,0.999457,0.990300,0.003852,0.477383,-0.000017,-0.000004,-0.000010,0.000001,-0.000022,-61.085715,0.000025,
2011,2533,-5.35992833169768,-2.44122869484843,-0.0147881413199684,0.005947,-0.000079,0.001444,0.269831,0.040974,323.616082,24.521184,0.999288,0.988806,0.004290,0.447105,-0.000003,-0.000002,0.000010,0.000007,-0.000012,47.417179,0.000012,
2251,2218,-0.0819210599984359,-9.32294946026594,0.0136338392097741,0.006605,0.000275,-0.000881,0.305796,0.048553,327.977346,23.629570,0.998568,0.978484,0.005787,0.403332,-0.000006,0.000003,-0.000004,0.000005,-0.000008,-68.337486,0.000008,
2116,2803,-3.12084671823309,3.44065493330805,-0.0130061687345346,0.006137,0.000327,0.001525,0.278351,0.059295,318.688607,24.445740,0.999531,0.992652,0.003512,0.430504,-0.000014,0.000001,-0.000004,0.000002,-0.000015,-74.828448,0.000016,
2236,2113,-0.390994780842664,-11.6260392166525,0.0260817793521824,0.005871,-0.000523,0.003259,0.258313,0.009846,329.754133,23.462929,0.999272,0.982472,0.005235,0.436161,0.000008,-0.000013,-0.000003,0.000009,-0.000013,-8.574545,0.000014,
2026,2788,-5.07311033936053,3.1114532758473,-0.0261726190029776,0.006087,0.000103,0.003223,0.271848,0.067689,319.300379,24.366784,0.999555,0.992055,0.003641,0.444870,-0.000038,0.000016,-0.000003,0.000016,-0.000038,-86.613206,0.000038,
2056,2533,-4.38189180065434,-2.44117458588109,-0.00784087093705921,0.005807,-0.000204,0.004323,0.255035,0.060827,323.387268,24.397529,0.999154,0.988476,0.004291,0.513388,-0.000012,0.000023,0.000016,0.000030,-0.000018,68.736126,0.000030,
2146,2953,-2.4935955761033,6.70109003534053,-0.00498977093889152,0.006222,0.000451,0.000540,0.285383,0.067747,316.195080,24.531712,0.999603,0.992047,0.003552,0.455778,0.000003,0.000025,0.000001,0.000025,0.000003,87.405494,0.000031,
2461,3058,4.33218435612909,9.00214001346243,0.0166222663889357,0.005980,0.000111,0.004794,0.257067,0.058459,314.335851,25.668870,0.999586,0.990102,0.003964,0.435037,-0.000013,0.000017,0.000000,0.000017,-0.000013,89.225081,0.000018,
2431,2863,3.71639133474999,4.76264953303842,-0.0150768137544333,0.006286,0.000328,0.001041,0.285215,0.061627,317.231627,24.935967,0.999523,0.990390,0.003759,0.427277,-0.000008,0.000025,-0.000010,0.000028,-0.000011,-74.590148,0.000029,
2386,2638,2.77980160238866,-0.141558576021453,-0.0166831659853415,0.005917,-0.000509,0.004163,0.256530,0.020066,320.804403,24.172513,0.999165,0.987414,0.004412,0.430483,0.000005,0.000022,-0.000002,0.000022,0.000005,-82.276359,0.000029,
2131,2878,-2.80703491917683,5.06956481708949,0.000122956177449396,0.005892,-0.000018,0.004852,0.256983,0.049317,317.492919,24.396097,0.999581,0.991731,0.003594,0.511036,0.000005,0.000033,-0.000001,0.000033,0.000005,-88.934437,0.000041,
2041,2863,-4.75840871891803,4.74106191380339,-0.0197997078874437,0.006159,0.000269,-0.001371,0.287950,0.046075,318.060884,24.318086,0.999196,0.990546,0.004167,0.444655,-0.000021,0.000034,-0.000006,0.000035,-0.000021,-84.172739,0.000035,
2296,2293,0.884741916312667,-7.68022828366543,0.00737337528255466,0.005984,-0.000344,0.003517,0.262415,0.032931,326.610436,23.628689,0.999323,0.985975,0.004731,0.331859,-0.000013,-0.000006,-0.000009,0.000001,-0.000019,-55.376856,0.000022,
2251,2278,-0.093538893499737,-8.00923771486138,0.0119533834162553,0.006157,-0.000272,0.006249,0.261908,0.036329,326.951956,23.759343,0.999402,0.984795,0.004849,0.364200,-0.000001,0.000003,-0.000004,0.000006,-0.000004,-57.901001,0.000006,
2491,3238,4.9488919717489,12.9125365855858,0.0219582431000731,0.006237,0.000304,0.002887,0.276101,0.055627,311.517355,26.488015,0.999588,0.992548,0.003563,0.407868,0.000022,0.000032,0.000025,0.000052,0.000002,50.638893,0.000062,
2116,2908,-3.13775348529887,5.72240819513768,-0.00764426701886123,0.006049,0.000428,0.002671,0.271081,0.063187,317.019072,24.481232,0.999283,0.990937,0.004020,0.421174,-0.000004,0.000026,-0.000005,0.000026,-0.000005,-80.855275,0.000028,
2071,2743,-4.08855732517307,2.13408884690598,-0.0253924614958123,0.006588,0.000389,-0.001073,0.306718,0.050430,319.810226,24.362672,0.999397,0.990824,0.003864,0.475958,-0.000035,0.000002,-0.000002,0.000002,-0.000035,-86.540662,0.000039,
2296,2398,0.865305951754191,-5.38351057518208,-0.00284135307640554,0.005951,0.000491,-0.002074,0.280227,0.042235,324.846020,23.789729,0.999196,0.986144,0.004857,0.403702,-0.000010,0.000017,-0.000008,0.000019,-0.000012,-73.649036,0.000020,
2011,2548,-5.36162853177677,-2.11431897860086,-0.0164727602751782,0.006593,0.000197,0.001937,0.298324,0.054776,323.388126,24.481690,0.999434,0.989358,0.003964,0.489440,0.000008,0.000029,0.000018,0.000040,-0.000003,60.658156,0.000044,
2086,2653,-3.74861835084604,0.175529628481335,-0.014350081946418,0.006499,-0.000313,0.008641,0.274171,0.058446,321.250129,24.416870,0.999461,0.990314,0.003843,0.438508,-0.000014,0.000017,0.000002,0.000017,-0.000014,86.503627,0.000018,
2011,2758,-5.3945840010721,2.45857742782136,-0.033987000456591,0.005996,-0.000099,0.002308,0.270088,0.030618,319.816110,24.356867,0.999461,0.992105,0.003672,0.429926,-0.000037,-0.000016,-0.000001,-0.000016,-0.000038,-87.695852,0.000055,
2401,2728,3.08827816150949,1.82173008446467,-0.0242240260911331,0.005903,-0.000595,0.006043,0.249034,0.034076,319.281914,24.451099,0.999544,0.990879,0.003971,0.430765,-0.000006,0.000031,0.000002,0.000031,-0.000006,87.174361,0.000033,
2191,3268,-1.56963767783973,13.5338037429855,0.0218494320708942,0.006155,0.000269,0.004278,0.270800,0.063744,311.098115,24.865575,0.999489,0.991918,0.003593,0.507521,-0.000017,0.000031,0.000000,0.000031,-0.000017,-89.514111,0.000031,
2011,2968,-5.42387607715114,7.01808212164213,0.00380158823003285,0.006215,0.000463,0.002635,0.279889,0.081473,316.731242,24.216870,0.999671,0.994525,0.003004,0.448457,0.000020,-0.000013,-0.000021,0.000030,-0.000023,-25.589281,0.000031,
2476,3148,4.6407680827549,10.9578559914421,0.0257055454645183,0.005788,0.000133,0.004992,0.247423,0.062355,312.960352,26.090106,0.999493,0.990130,0.003750,0.402378,0.000001,0.000049,0.000010,0.000051,-0.000001,79.140484,0.000059,
2176,3088,-1.86408141346756,9.63133266055444,0.021979225411485,0.006224,-0.000244,0.007616,0.263339,0.052207,314.086053,24.723398,0.999589,0.993279,0.003371,0.423359,-0.000005,0.000003,-0.000008,0.000008,-0.000010,-57.997923,0.000010,
2266,2248,0.238454985863942,-8.66593042964624,0.00749817983398771,0.006109,-0.000748,0.006594,0.258090,0.007733,327.370492,23.616028,0.999045,0.981826,0.005271,0.359668,-0.000010,-0.000008,-0.000009,0.000000,-0.000019,-48.444696,0.000021,
2281,2353,0.54627502999028,-6.36925369222662,0.00657933173260972,0.005605,-0.000572,0.005484,0.238641,0.009921,325.627976,23.697264,0.999300,0.984908,0.004818,0.421204,-0.000006,0.000004,-0.000002,0.000004,-0.000007,-77.276467,0.000007,
2041,2638,-4.72443109219988,-0.152747787478177,-0.0201010118370277,0.005880,0.000027,0.002639,0.263423,0.034857,321.682161,24.407704,0.999202,0.989359,0.004223,0.455557,-0.000014,0.000005,0.000003,0.000005,-0.000015,82.410050,0.000015,
2116,2818,-3.12351890991727,3.76695775985927,-0.0162590099278646,0.006177,0.000357,0.002530,0.277280,0.077370,318.416574,24.421172,0.999432,0.992373,0.003672,0.476611,-0.000009,0.000010,-0.000004,0.000011,-0.000010,-79.300963,0.000012,
2206,3253,-1.24154492672948,13.2100386040729,0.0290838438318701,0.005847,0.000355,0.003396,0.259230,0.062576,311.347668,24.956602,0.999781,0.995332,0.002904,0.482280,-0.000007,0.000023,0.000000,0.000023,-0.000007,89.289593,0.000024,
2356,2488,2.15631565362078,-3.41681128263734,-0.00467093655004192,0.006307,-0.000077,0.001558,0.283899,0.028044,323.354037,23.800351,0.999487,0.988037,0.004283,0.434698,0.000006,0.000014,0.000008,0.000019,0.000001,59.182684,0.000022,
2176,3223,-1.88560610568787,12.5573229069015,0.0442640783775232,0.006016,0.000293,0.003024,0.268379,0.060065,312.070131,24.861327,0.999770,0.995271,0.002925,0.392989,-0.000013,0.000036,-0.000004,0.000036,-0.000013,-85.804839,0.000036,
2056,2668,-4.40272036283668,0.501238346869769,-0.0218816296833211,0.006291,0.000152,-0.000901,0.292280,0.021807,321.123465,24.417906,0.999338,0.989790,0.004105,0.412402,-0.000029,0.000000,0.000005,0.000001,-0.000030,81.427925,0.000034,
2026,2803,-5.07541305925809,3.43706170954312,-0.0256573963230267,0.006100,0.000039,0.004325,0.269415,0.068206,319.059131,24.319212,0.999529,0.992336,0.003567,0.482949,-0.000029,0.000012,0.000004,0.000012,-0.000030,84.667825,0.000030,
2461,3073,4.32878649669393,9.32800193491589,0.00855826745913646,0.006205,0.000029,0.004042,0.270177,0.037915,314.035777,25.690076,0.999670,0.992113,0.003623,0.446801,-0.000013,0.000029,0.000001,0.000029,-0.000013,88.876712,0.000029,
2146,3073,-2.51281252116121,9.30453887515859,0.00851796608816358,0.006286,0.000233,0.002184,0.283439,0.056774,314.349556,24.590729,0.999703,0.996256,0.002916,0.442398,-0.000001,0.000003,-0.000007,0.000009,-0.000007,-52.149657,0.000009,
2446,2953,4.02449959582454,6.72154971171854,-0.0201335706665873,0.006096,0.000565,-0.001172,0.284908,0.059409,315.743758,25.255377,0.999651,0.993444,0.003553,0.438578,0.000006,-0.000015,-0.000005,0.000007,-0.000017,-12.663313,0.000017,
2251,2233,-0.0857872704922542,-8.99411252910637,0.00643363974461408,0.006045,-0.000138,0.001289,0.272920,0.027783,327.642866,23.639284,0.998719,0.979830,0.005544,0.398841,-0.000010,0.000012,0.000000,0.000012,-0.000010,-89.961146,0.000012,
2101,2878,-3.45870165256058,5.06926799457274,-0.0141731060577399,0.006216,-0.000103,0.002938,0.277901,0.041575,317.530166,24.373313,0.999668,0.992779,0.003553,0.476699,-0.000004,0.000036,-0.000003,0.000036,-0.000004,-86.170859,0.000040,
2191,3208,-1.55819783183365,12.2333435583326,0.0353159096060836,0.006163,0.000209,0.002801,0.275586,0.041064,312.198695,24.870891,0.999595,0.993362,0.003511,0.426934,-0.000014,0.000025,-0.000004,0.000026,-0.000015,-83.618378,0.000026,
2341,2428,1.84185748661688,-4.72860006868789,0.00833968092842952,0.006088,0.001233,-0.004181,0.294284,0.069487,324.444441,23.689937,0.999716,0.993953,0.003671,0.467648,-0.000002,0.000011,-0.000006,0.000013,-0.000004,-68.798269,0.000013,
2191,3283,-1.5719920878932,13.8588316938173,0.0215340501807759,0.006142,0.000277,0.000092,0.283355,0.052139,310.862131,24.900449,0.999637,0.994477,0.003109,0.473873,-0.000020,0.000031,0.000002,0.000031,-0.000020,87.878792,0.000031,
2146,2968,-2.49590594029479,7.02636385593605,0.000149192856099489,0.006223,0.000089,0.002781,0.278551,0.065178,315.986997,24.536139,0.999684,0.993615,0.003242,0.456101,0.000005,0.000017,0.000002,0.000017,0.000005,82.760377,0.000023,
2311,2248,1.22082220620245,-8.66600853810998,0.0109299018843672,0.006091,0.000432,-0.000363,0.280551,0.062940,327.373133,23.398984,0.998830,0.981116,0.005342,0.426427,-0.000006,-0.000011,-0.000002,-0.000005,-0.000011,-20.508989,0.000017,
2386,2653,2.77697940947143,0.185599426809105,-0.0173578776493741,0.006064,-0.000316,0.004459,0.262373,0.041041,320.560566,24.197637,0.999147,0.986157,0.004623,0.470361,-0.000002,0.000022,-0.000003,0.000022,-0.000002,-81.786972,0.000025,
2026,2593,-5.0441157450693,-1.13173267723897,-0.0262264722856003,0.005734,-0.000123,0.005170,0.249854,0.064721,322.435709,24.498832,0.999121,0.988949,0.004336,0.432389,-0.000011,0.000015,-0.000001,0.000015,-0.000011,-88.590769,0.000015,
2131,2893,-2.80967180236781,5.39623840465141,-0.00388250220964892,0.005864,-0.000158,0.002925,0.261414,0.024102,317.219658,24.465400,0.999460,0.990905,0.003903,0.421797,0.000003,0.000031,0.000000,0.000031,0.000003,-89.600937,0.000037,
2041,2878,-4.76147217618057,5.06742680302654,-0.0189253260007263,0.005708,0.000019,0.004318,0.251255,0.048574,317.787716,24.362154,0.998780,0.987181,0.004650,0.395129,-0.000009,0.000047,-0.000004,0.000047,-0.000010,-85.971328,0.000050,
2101,2893,-3.46068269224245,5.39480454614028,-0.00837684060729771,0.006267,0.000180,0.002683,0.281087,0.046140,317.337854,24.379963,0.999466,0.992936,0.003696,0.475328,-0.000003,0.000035,-0.000003,0.000035,-0.000003,-85.173780,0.000039,
2326,2293,1.53862734494342,-7.67980412679884,0.000273548044447125,0.005787,0.000272,0.000198,0.264705,0.047394,326.534186,23.456351,0.998991,0.983931,0.005022,0.395359,-0.000017,-0.000015,-0.000018,0.000002,-0.000033,-46.523370,0.000037,
2371,2578,2.4650600416943,-1.45083733418139,-0.0131675333784642,0.006023,-0.000103,0.002462,0.267750,0.049055,321.810886,24.014023,0.999420,0.987645,0.004488,0.461861,0.000010,0.000019,0.000002,0.000019,0.000010,77.353285,0.000029,
2056,2653,-4.40113645627612,0.174931363580924,-0.0309353925097184,0.006314,-0.000430,0.002277,0.284186,0.003176,321.282963,24.387732,0.999311,0.990321,0.004074,0.429160,-0.000023,0.000015,0.000003,0.000015,-0.000024,85.480462,0.000024,
2071,2698,-4.08252122430262,1.15509330021952,-0.0241034246032541,0.005720,0.000165,0.002471,0.256519,0.078944,320.500339,24.362835,0.999446,0.992073,0.003618,0.512991,-0.000032,-0.000013,-0.000003,-0.000013,-0.000032,-81.666859,0.000046,
2011,2563,-5.36437805785169,-1.78732194396175,-0.0153404022785821,0.006049,0.000029,0.002784,0.270974,0.052488,323.128024,24.496137,0.999315,0.988176,0.004212,0.461677,0.000002,0.000033,0.000009,0.000036,-0.000001,74.509137,0.000041,
2461,3088,4.32529895857058,9.65460702964605,0.00551168054892059,0.005897,0.000145,0.002879,0.260504,0.052726,313.754240,25.781565,0.999704,0.994015,0.003383,0.423615,-0.000012,0.000041,0.000003,0.000041,-0.000012,86.965710,0.000042,
2131,3013,-2.82797074133761,8.00181020206931,0.00881909259135227,0.006381,0.000393,0.000278,0.293571,0.055969,315.403045,24.540101,0.999448,0.991737,0.003667,0.419472,0.000003,0.000012,-0.000006,0.000015,0.000000,-64.035471,0.000017,
2086,2668,-3.75111680189872,0.502140657917217,-0.0207619694304526,0.006406,0.000078,0.002856,0.286727,0.051895,320.966339,24.371131,0.999484,0.990721,0.003782,0.477275,-0.000018,0.000005,0.000001,0.000005,-0.000018,88.289141,0.000019,
2041,2653,-4.72686155094319,0.174791955486867,-0.0327885738120699,0.006438,-0.000084,0.001460,0.292407,0.021540,321.362303,24.395601,0.999394,0.990016,0.004034,0.447736,-0.000016,0.000012,0.000005,0.000013,-0.000017,80.994935,0.000018,
2011,2983,-5.4267734612936,7.34384197350663,0.000673998524405306,0.006013,0.000237,0.006448,0.260198,0.082868,316.441422,24.205727,0.999307,0.992377,0.003450,0.448462,0.000020,-0.000022,-0.000021,0.000029,-0.000031,-22.665430,0.000035,
2011,2773,-5.39643287583349,2.78517974701574,-0.0305839526537284,0.006121,0.000291,0.001008,0.279570,0.053630,319.610320,24.392033,0.999522,0.991616,0.003784,0.405769,-0.000042,0.000004,-0.000004,0.000004,-0.000042,-85.015554,0.000047,
2416,2818,3.39835511591136,3.782047278105,-0.0197898939366041,0.006179,0.000227,0.000102,0.283703,0.047762,317.904049,24.719127,0.999256,0.988635,0.004342,0.465384,-0.000002,0.000029,0.000000,0.000029,-0.000002,-89.483834,0.000032,
2281,2248,0.566384825764562,-8.66660492231244,0.0100912884466311,0.006194,-0.000301,-0.000124,0.284267,0.005080,327.398147,23.520233,0.999168,0.981105,0.005300,0.384153,-0.000013,-0.000007,-0.000006,-0.000004,-0.000016,-57.619017,0.000021,
2086,2773,-3.76788395787744,2.78777048653486,-0.0231756200772679,0.006413,0.000131,0.002789,0.287499,0.062304,319.243972,24.419865,0.999621,0.991410,0.003809,0.433903,-0.000025,0.000003,-0.000013,0.000008,-0.000030,-68.720365,0.000032,
2026,2818,-5.07786414548332,3.76257469587186,-0.0247662425963426,0.005788,-0.000065,0.002824,0.259151,0.053570,318.813272,24.285146,0.999389,0.991865,0.003644,0.492440,-0.000029,0.000015,0.000000,0.000015,-0.000029,-89.683457,0.000029,
2161,3133,-2.19644714894081,10.6055161158725,0.0297722053216489,0.006061,0.000192,0.002986,0.270570,0.056329,313.477036,24.679693,0.999497,0.993372,0.003484,0.442324,-0.000008,0.000009,-0.000003,0.000010,-0.000009,-79.364867,0.000011,
2251,2293,-0.0963670670977201,-7.68056567962527,0.00225787734615324,0.006191,0.000144,-0.000273,0.284951,0.026682,326.652221,23.740489,0.999134,0.983927,0.005004,0.399303,-0.000003,-0.000003,-0.000001,-0.000002,-0.000004,-54.641505,0.000006,
2476,3163,4.63761015546107,11.2839703881442,0.0212771533026057,0.005729,0.000447,0.001223,0.259185,0.057986,312.688620,26.166923,0.999555,0.990634,0.003732,0.376491,-0.000001,0.000053,0.000013,0.000056,-0.000003,77.498749,0.000063,
2236,2128,-0.3936483953545,-11.2943465290535,0.0183936549977375,0.006055,0.000513,-0.001241,0.281672,0.047289,329.470713,23.627775,0.998879,0.981490,0.005328,0.333099,0.000011,-0.000019,-0.000004,0.000011,-0.000019,-7.856620,0.000019,
2296,2308,0.881549954609991,-7.35268743082653,0.000648068899522514,0.005978,-0.000319,0.003175,0.263313,0.036244,326.313543,23.529999,0.999257,0.985186,0.004970,0.466380,-0.000014,-0.000014,-0.000006,-0.000008,-0.000020,-44.320324,0.000030,
2281,2368,0.544019012269562,-6.04197334280348,0.0104065141541128,0.005762,-0.000749,0.005459,0.245837,-0.000225,325.424947,23.712452,0.999095,0.982802,0.005152,0.425384,-0.000008,0.000009,-0.000004,0.000010,-0.000009,-78.112331,0.000011,
2236,2038,-0.377093331276154,-13.2711285913513,0.0335869768243811,0.006333,-0.000228,0.004217,0.276357,0.040324,331.039841,23.390982,0.998985,0.979212,0.005581,0.415955,0.000005,-0.000026,-0.000022,0.000016,-0.000037,-27.408011,0.000037,
2011,2578,-5.36725959890255,-1.45992264258052,-0.0223633640847538,0.005594,0.000344,-0.000811,0.259910,0.052264,322.816058,24.478821,0.999057,0.986299,0.004733,0.467740,-0.000011,0.000009,-0.000005,0.000010,-0.000012,-77.160603,0.000013,
2206,3268,-1.24454275991546,13.535980200935,0.0142440500408725,0.006401,0.000354,0.001887,0.289617,0.062168,311.007448,24.980642,0.999540,0.993230,0.003346,0.473124,-0.000009,0.000025,0.000001,0.000025,-0.000009,88.583163,0.000026,
2026,2608,-5.0462156514767,-0.804207692341208,-0.0334741464131412,0.006238,-0.000093,0.003701,0.277129,0.072895,322.159608,24.494119,0.999041,0.987376,0.004547,0.436199,-0.000010,0.000025,0.000007,0.000026,-0.000011,78.649477,0.000026,
2161,3058,-2.18324156986244,8.97796487114419,0.0338938524673722,0.006181,0.000250,0.001466,0.280625,0.049431,314.746862,24.600984,0.999670,0.995174,0.003264,0.469095,-0.000001,0.000001,-0.000008,0.000008,-0.000008,-48.998045,0.000009,
2041,2668,-4.72870507314478,0.500721648848312,-0.0241784776866893,0.006344,0.000081,0.001223,0.288809,0.033499,321.187743,24.393996,0.999287,0.988880,0.004295,0.453829,-0.000022,-0.000004,0.000007,-0.000002,-0.000025,70.912126,0.000029,
2491,3253,4.94471724121109,13.2384620493804,0.0115340255513843,0.006044,0.000513,0.003384,0.265465,0.066319,311.172308,26.524227,0.999746,0.993595,0.003287,0.439709,0.000030,0.000028,0.000029,0.000058,0.000000,43.963961,0.000067,
2221,2053,-0.709026143091496,-12.9386968054376,0.0159211635001952,0.005462,0.000207,0.001093,0.246804,0.033657,330.654109,23.592113,0.998966,0.977537,0.005660,0.330752,-0.000002,-0.000036,-0.000016,0.000004,-0.000043,-21.647270,0.000047,
2116,2833,-3.12658644006597,4.093857295411,-0.0210067589445657,0.005915,0.000113,0.003422,0.262510,0.055844,318.118261,24.484466,0.999613,0.993074,0.003553,0.395073,-0.000007,0.000015,-0.000003,0.000016,-0.000008,-82.001760,0.000016,
2191,3298,-1.57612214347973,14.1853132240394,0.00291710361460673,0.006008,0.000080,0.001732,0.272002,0.046885,310.448282,24.968692,0.999813,0.996257,0.002689,0.413101,-0.000024,0.000041,-0.000012,0.000044,-0.000026,-79.951148,0.000044,
2401,2743,3.08547340349742,2.14901624638079,-0.0310928193322866,0.006267,-0.000003,0.002317,0.279524,0.037349,319.010488,24.484778,0.999482,0.990385,0.003984,0.446257,-0.000007,0.000035,0.000002,0.000035,-0.000007,86.682234,0.000037,
2056,2683,-4.40479614670076,0.827048399391678,-0.0159850452846513,0.006128,0.000177,-0.001542,0.286637,0.036570,320.924246,24.383767,0.999429,0.990834,0.003932,0.456282,-0.000034,-0.000009,-0.000001,-0.000009,-0.000034,-87.080698,0.000045,
2086,2683,-3.75402612590028,0.828955582685779,-0.0257464120087434,0.006043,0.000235,0.000681,0.276389,0.050395,320.671416,24.356363,0.999590,0.992339,0.003446,0.490131,-0.000025,-0.000001,-0.000009,0.000002,-0.000028,-72.071225,0.000031,
2461,3103,4.32316613650974,9.97924274524429,0.0193623034688812,0.005869,-0.000006,0.005664,0.248699,0.051840,313.613151,25.817641,0.999640,0.992318,0.003585,0.439930,-0.000007,0.000042,0.000009,0.000044,-0.000009,79.402130,0.000046,
2056,2908,-4.43960522136623,5.71874025987109,-0.00772214366719481,0.006140,0.000197,0.003901,0.272269,0.060928,317.327175,24.344131,0.999498,0.992514,0.003595,0.438839,-0.000012,0.000030,-0.000018,0.000037,-0.000018,-70.034020,0.000037,
2386,2668,2.77394017359837,0.513087020677474,-0.0194190514914681,0.006008,0.000059,0.003525,0.263335,0.050904,320.300072,24.257353,0.999331,0.987861,0.004371,0.464354,-0.000005,0.000019,-0.000004,0.000020,-0.000005,-81.182233,0.000020,
2356,2503,2.15284921558113,-3.08916763891926,-0.00593725221813202,0.006011,-0.000600,0.004551,0.259594,0.017729,323.075964,23.846824,0.999452,0.988205,0.004378,0.418068,0.000005,0.000007,0.000003,0.000009,0.000002,54.728331,0.000012,
2116,2923,-3.13982424140169,6.04744991188112,-0.00263215820604046,0.006025,0.000330,0.001492,0.273434,0.051634,316.819543,24.460427,0.999002,0.989488,0.004258,0.433242,-0.000005,0.000019,-0.000004,0.000020,-0.000005,-81.764455,0.000020,
2206,2023,-1.02902150058787,-13.600025927378,0.0379811457526102,0.006211,0.000107,0.000725,0.282260,0.029947,331.392678,23.587564,0.999037,0.981304,0.005367,0.386736,0.000003,-0.000051,-0.000024,0.000013,-0.000061,-20.770845,0.000064,
2266,2158,0.255969362313564,-10.6371160334252,0.0195439919670548,0.006403,0.000150,0.001246,0.289359,0.053396,328.951972,23.531074,0.999153,0.983657,0.005158,0.320571,-0.000001,-0.000021,-0.000006,0.000001,-0.000023,-16.461966,0.000026,
2071,2758,-4.0914712635201,2.46042004122661,-0.0256311584138302,0.006245,0.000008,0.002161,0.281582,0.048011,319.539920,24.366256,0.999528,0.991670,0.003718,0.466942,-0.000031,-0.000002,-0.000006,-0.000001,-0.000032,-79.030200,0.000037,
2131,2908,-2.81171571179454,5.72118878382689,0.000358337719205792,0.006020,-0.000299,0.003036,0.268185,0.012667,317.018196,24.426682,0.999374,0.989015,0.004177,0.454309,0.000002,0.000023,-0.000003,0.000023,0.000002,-80.639633,0.000028,
2176,3238,-1.88832131626124,12.8819809549305,0.041468068109964,0.006179,0.000199,0.004681,0.270743,0.053365,311.803696,24.830154,0.999741,0.994892,0.003014,0.428273,-0.000012,0.000034,-0.000002,0.000034,-0.000012,-87.003762,0.000035,
2131,3028,-2.83071937114966,8.32670981633335,0.0126810046288597,0.006195,-0.000055,0.005338,0.269737,0.058665,315.167245,24.510175,0.999494,0.992116,0.003617,0.457033,0.000002,0.000009,-0.000005,0.000012,-0.000001,-61.932444,0.000013,
2416,2833,3.39510068909956,4.10887583335556,-0.018667560270103,0.006088,-0.000185,0.003865,0.265544,0.033694,317.650448,24.817970,0.998774,0.986968,0.004515,0.399859,-0.000001,0.000027,0.000002,0.000028,-0.000001,85.750876,0.000031,
2296,2413,0.862842956329214,-5.05609428185221,-0.000475958959100353,0.006391,-0.000307,0.002664,0.284181,0.022018,324.627276,23.828657,0.999373,0.986907,0.004650,0.375912,-0.000011,0.000008,-0.000008,0.000011,-0.000014,-69.834675,0.000014,
2026,2833,-5.07984939557805,4.08887328659875,-0.0234227901996178,0.005982,-0.000122,0.002356,0.269342,0.037044,318.591040,24.332636,0.999698,0.994204,0.003362,0.418488,-0.000029,0.000027,-0.000005,0.000028,-0.000030,-84.722162,0.000033,
2011,2788,-5.39841294331813,3.11084912245377,-0.0250456132359318,0.006011,0.000493,0.000080,0.277095,0.062487,319.410881,24.376227,0.999568,0.991709,0.003703,0.418221,-0.000044,0.000018,-0.000005,0.000018,-0.000044,-85.349984,0.000044,
2011,2593,-5.36950492325698,-1.13272020089236,-0.0215532418327484,0.005664,0.000433,0.001495,0.256928,0.059834,322.577152,24.509096,0.999071,0.987400,0.004734,0.433838,-0.000015,0.000024,0.000006,0.000025,-0.000016,82.158480,0.000025,
2176,3103,-1.86651132442512,9.95589849588075,0.0260575401479741,0.005986,-0.000324,0.006213,0.256687,0.036308,313.868949,24.701233,0.999606,0.994013,0.003201,0.440849,-0.000010,0.000004,-0.000005,0.000006,-0.000011,-73.268079,0.000011,
2251,2488,-0.131683678524393,-3.41937256160585,-0.00377111828572652,0.006006,-0.000311,0.004735,0.260255,0.024079,323.425790,23.997514,0.999649,0.990332,0.003848,0.464870,-0.000003,0.000010,-0.000003,0.000011,-0.000004,-79.153948,0.000011,
2041,2893,-4.76311002992765,5.39202410086838,-0.00640494808999392,0.005740,-0.000173,0.006172,0.247492,0.041081,317.645162,24.342333,0.999169,0.991681,0.003831,0.399412,-0.000008,0.000048,-0.000010,0.000050,-0.000010,-80.548518,0.000053,
2431,2878,3.71317631091887,5.08907116676208,-0.014326682577348,0.006133,0.000080,0.002884,0.271320,0.056569,316.979069,24.998294,0.999514,0.991084,0.003629,0.409670,-0.000012,0.000016,-0.000007,0.000018,-0.000013,-76.536619,0.000019,
2146,3088,-2.51510012824318,9.63004988209028,0.0132603901522543,0.006322,-0.000086,0.004008,0.279524,0.052871,314.140326,24.644505,0.999724,0.995014,0.003060,0.391571,-0.000004,0.000000,-0.000007,0.000005,-0.000009,-52.117344,0.000009,
2101,2908,-3.46291453686668,5.72053915661709,0.00109182651090123,0.006003,0.000043,0.005030,0.262109,0.065638,317.153848,24.419835,0.999348,0.992510,0.003810,0.455471,-0.000004,0.000025,-0.000008,0.000027,-0.000006,-75.075424,0.000028,
2161,3193,-2.20638323116831,11.9050168679844,0.0359801604226391,0.006010,-0.000297,0.004619,0.263123,0.037602,312.541058,24.660931,0.999629,0.993831,0.003222,0.477863,-0.000013,0.000024,-0.000006,0.000025,-0.000014,-81.217847,0.000025,
2221,2068,-0.711015436802118,-12.6095710526571,0.017381887603733,0.005976,0.000149,0.001662,0.268554,0.046628,330.446785,23.625298,0.999084,0.977792,0.005622,0.332603,-0.000001,-0.000029,-0.000009,0.000002,-0.000032,-15.865185,0.000035,
2206,1993,-1.02464688972348,-14.2563533978473,0.0239647062169865,0.006283,0.000498,-0.002471,0.295687,0.039913,331.770342,23.574711,0.999417,0.983863,0.004957,0.369467,0.000019,-0.000023,-0.000027,0.000032,-0.000036,-26.085781,0.000039,
2086,2818,-3.77465581574994,3.76581022564117,-0.0185499225470949,0.006342,0.000391,0.000290,0.291599,0.068124,318.556152,24.411004,0.999403,0.992401,0.003668,0.445511,-0.000021,0.000011,-0.000009,0.000013,-0.000023,-75.697346,0.000023,
2071,2713,-4.08525451071869,1.48222495119632,-0.0279888784722857,0.005854,-0.000038,0.006903,0.250018,0.076549,320.218078,24.396606,0.999243,0.990721,0.003884,0.474080,-0.000030,-0.000007,-0.000005,-0.000006,-0.000031,-78.773321,0.000040,
2311,2263,1.21777603679489,-8.33807306350572,0.0159773381206492,0.005917,-0.000534,0.006295,0.249594,0.039162,327.142340,23.466514,0.999099,0.984034,0.004971,0.369386,-0.000006,-0.000009,-0.000004,-0.000003,-0.000012,-31.952056,0.000016,
2371,2593,2.46228255140392,-1.12344041789171,-0.0169153034973419,0.006251,0.000171,0.000508,0.285239,0.031682,321.553525,24.053357,0.999296,0.987503,0.004479,0.446939,0.000011,0.000003,0.000001,0.000012,0.000003,4.229889,0.000015,
2056,2923,-4.44169180048181,6.04421600505624,-0.0061760061251448,0.006143,0.000337,0.001242,0.279941,0.050997,317.103936,24.335613,0.999531,0.992648,0.003540,0.431530,-0.000016,0.000019,-0.000012,0.000022,-0.000019,-72.514078,0.000024,
2461,3118,4.32044882539107,10.3047654075771,0.0188656769997806,0.006195,0.000121,0.005456,0.264539,0.060154,313.378980,25.839163,0.999623,0.990889,0.003726,0.480358,-0.000005,0.000056,0.000011,0.000058,-0.000006,80.129523,0.000063,
2386,2683,2.77052348382313,0.842014204714559,-0.0312606328338347,0.006296,0.000179,0.001871,0.282570,0.052769,319.975447,24.381530,0.999377,0.987872,0.004215,0.386100,-0.000007,0.000024,-0.000002,0.000024,-0.000007,-86.854851,0.000024,
2011,2998,-5.42851358218892,7.66851865984274,0.00793215241787948,0.006021,0.000074,0.004634,0.265397,0.054377,316.263515,24.199479,0.999411,0.993271,0.003304,0.413282,0.000016,-0.000019,-0.000023,0.000028,-0.000030,-25.905994,0.000034,
2341,2443,1.83789502461818,-4.39925153662012,-0.00414620934333243,0.006083,0.000401,-0.001780,0.285447,0.043068,324.088049,23.782604,0.999364,0.988223,0.004414,0.386860,0.000003,0.000008,-0.000006,0.000012,-0.000001,-58.289236,0.000013,
2476,3178,4.63471619654586,11.6089333958854,0.0264570568082263,0.005756,0.000239,0.004942,0.246249,0.072341,312.473091,26.180309,0.999659,0.992166,0.003520,0.433067,0.000000,0.000061,0.000011,0.000063,-0.000002,80.338572,0.000072,
2206,2038,-1.03238359591299,-13.2690166213013,0.0273295184512676,0.006087,0.000580,0.000158,0.278553,0.063294,331.058839,23.623739,0.999040,0.980480,0.005364,0.404894,0.000005,-0.000035,-0.000023,0.000016,-0.000046,-24.684421,0.000046,
2011,2803,-5.40121239742664,3.4363029518921,-0.026482395917526,0.005804,0.000028,0.004338,0.255871,0.051349,319.134895,24.310728,0.999467,0.992351,0.003640,0.460636,-0.000035,0.000015,0.000001,0.000015,-0.000035,88.680713,0.000035,
2281,2263,0.562279044648314,-8.33485167330196,-0.00102210397471936,0.005967,-0.000192,0.004720,0.257783,0.039698,327.035437,23.713396,0.999482,0.986460,0.004721,0.256236,-0.000008,-0.000009,-0.000007,-0.000001,-0.000015,-44.708577,0.000019,
2146,2983,-2.4984367576005,7.3517528465838,-1.40504278078879E-05,0.006233,0.000087,0.003182,0.277768,0.054156,315.740597,24.526740,0.999696,0.994645,0.003103,0.461598,0.000003,0.000012,0.000001,0.000012,0.000003,81.654477,0.000016,
2026,2623,-5.04782149539136,-0.478892716568723,-0.0253852399972061,0.006281,0.000060,0.001758,0.284474,0.050521,321.992349,24.453574,0.999141,0.987533,0.004534,0.445171,-0.000018,0.000009,0.000004,0.000010,-0.000019,81.112186,0.000019,
2101,3133,-3.49716191857017,10.6013353627807,0.0282795239293705,0.006229,0.000358,-0.000223,0.288344,0.055926,313.740039,24.469687,0.999803,0.995642,0.002791,0.402662,0.000000,0.000017,-0.000003,0.000018,-0.000001,-79.824552,0.000020,
2086,2788,-3.77020425269678,3.11304364216571,-0.0199371440825757,0.006218,0.000217,0.002019,0.280772,0.053374,319.021291,24.368785,0.999416,0.990779,0.003917,0.475031,-0.000028,0.000002,-0.000014,0.000007,-0.000034,-68.605890,0.000035,
2326,2308,1.53628197346485,-7.35096380376907,-0.00358177502238277,0.006410,0.000383,-0.001186,0.298086,0.049176,326.292821,23.507400,0.998944,0.983664,0.005090,0.382610,-0.000016,-0.000022,-0.000012,-0.000006,-0.000032,-37.664573,0.000041,
2296,2323,0.878944738074264,-7.02468365515257,0.00520068074388291,0.005890,-0.000495,0.004937,0.253315,0.031773,326.099163,23.599183,0.999162,0.983623,0.005183,0.424594,-0.000010,-0.000009,-0.000003,-0.000007,-0.000012,-50.234931,0.000019,
2266,2263,0.237026797745074,-8.33789809299709,0.0237928263932758,0.006399,-0.000484,0.009812,0.260863,0.043177,327.266574,23.747237,0.999676,0.988878,0.004402,0.291035,-0.000005,-0.000012,-0.000011,0.000003,-0.000021,-35.917100,0.000022,
2041,2908,-4.76431697560426,5.71799703327899,-0.00858844146483762,0.006583,0.000483,-0.000475,0.305139,0.058303,317.440245,24.320949,0.999481,0.991991,0.003588,0.430127,-0.000003,0.000036,-0.000014,0.000040,-0.000007,-71.759318,0.000043,
2491,3268,4.94114448492644,13.5643104406323,0.0085074618061185,0.006025,0.000021,0.006139,0.253820,0.052032,310.888400,26.624224,0.999838,0.995117,0.002908,0.382484,0.000038,0.000008,0.000026,0.000053,-0.000007,30.336125,0.000057,
2011,2608,-5.37237657661011,-0.804399761518567,-0.036609258603221,0.006019,-0.000028,0.003190,0.268567,0.054059,322.220350,24.523542,0.999575,0.992250,0.003741,0.402748,-0.000015,0.000031,0.000015,0.000035,-0.000020,73.449715,0.000035,
2026,2848,-5.08302764535991,4.41365300463283,-0.0415859098890792,0.005783,0.000292,-0.004174,0.278243,0.018849,318.205757,24.100965,0.999700,0.995452,0.003150,0.622325,-0.000027,0.000045,-0.000001,0.000045,-0.000027,-89.469449,0.000045,
2101,2923,-3.46536318857201,6.04646668891481,-0.000947412270932091,0.005968,0.000161,0.002837,0.266970,0.058806,316.897585,24.424629,0.999270,0.991060,0.003935,0.444770,-0.000005,0.000016,-0.000006,0.000018,-0.000007,-74.508051,0.000018,
2131,3043,-2.8328743236491,8.65210908335259,0.0183678868087327,0.006114,-0.000111,0.004712,0.267946,0.064877,314.968286,24.538117,0.999489,0.992979,0.003464,0.439943,0.000000,0.000004,-0.000008,0.000010,-0.000006,-51.514759,0.000010,
2236,2143,-0.396357078724215,-10.9662173386431,0.0169902508845894,0.006008,0.000340,-0.001696,0.280945,0.025918,329.217413,23.600288,0.998770,0.981869,0.005235,0.363537,0.000006,-0.000030,-0.000001,0.000006,-0.000030,-1.840340,0.000032,
2296,2428,0.859993344825678,-4.72817782238869,-0.000658201728811036,0.006264,-0.000088,0.002425,0.279251,0.045458,324.377917,23.850471,0.999534,0.988751,0.004320,0.408990,-0.000006,-0.000006,-0.000014,0.000007,-0.000020,-45.028908,0.000020,
2176,3118,-1.86864980822945,10.2810543770438,0.0292949157591238,0.005988,-0.000039,0.003171,0.266323,0.036140,313.660592,24.715817,0.999488,0.993494,0.003426,0.437403,-0.000012,0.000004,-0.000007,0.000007,-0.000015,-70.432771,0.000015,
2416,2848,3.39265193524192,4.43504186341697,-0.0169994532402029,0.006298,0.000090,0.001962,0.282305,0.042868,317.436521,24.840808,0.999275,0.988762,0.004120,0.433957,-0.000006,0.000028,-0.000003,0.000028,-0.000006,-84.380807,0.000030,
2446,2968,4.02184347771113,7.04726448615536,-0.00841425288876962,0.005808,0.000125,0.002827,0.256593,0.053004,315.568394,25.355521,0.999625,0.992730,0.003603,0.383336,0.000005,-0.000016,-0.000006,0.000007,-0.000017,-14.584392,0.000017,
2461,3133,4.31762696743958,10.6306246633045,0.0212991941047562,0.006232,-0.000044,0.005907,0.264471,0.050919,313.153257,25.931323,0.999565,0.989964,0.003811,0.432115,0.000002,0.000050,0.000006,0.000051,0.000001,82.802525,0.000059,
2056,2938,-4.44407855552539,6.36926104611156,-0.00038691695522175,0.005976,-0.000070,0.004907,0.261836,0.051956,316.890504,24.310631,0.999335,0.991911,0.003687,0.451628,-0.000012,0.000012,-0.000007,0.000014,-0.000014,-74.203655,0.000016,
2206,2053,-1.03571527264338,-12.9378979867448,0.0148995800426519,0.006038,0.000632,-0.001630,0.282015,0.050981,330.717437,23.702590,0.998922,0.976318,0.005745,0.334464,0.000003,-0.000038,-0.000017,0.000010,-0.000044,-20.094319,0.000047,
2056,2698,-4.40757242621142,1.15410493278001,-0.0215990125017242,0.006086,0.000256,-0.000418,0.281654,0.057418,320.629183,24.367668,0.999297,0.991064,0.003858,0.488299,-0.000030,-0.000018,0.000001,-0.000018,-0.000030,84.112559,0.000049,
2011,2818,-5.40361376388557,3.76152755890521,-0.0248508257582216,0.005781,-0.000393,0.008014,0.244698,0.037032,318.894477,24.255212,0.999160,0.991354,0.003803,0.489752,-0.000032,0.000018,-0.000004,0.000019,-0.000032,-85.664763,0.000032,
2251,2308,-0.0990038611226183,-7.35236542663673,0.00541754892259405,0.005917,0.000396,-0.000948,0.274685,0.043795,326.426011,23.786628,0.998593,0.980471,0.005521,0.395687,-0.000003,-0.000008,0.000000,-0.000003,-0.000008,3.562983,0.000012,
2251,2503,-0.135056497304266,-3.09028370623058,-0.00888448213879656,0.005720,-0.000262,0.005625,0.244243,0.028605,323.123507,24.125040,0.999531,0.989405,0.004112,0.366640,-0.000002,0.000001,-0.000006,0.000005,-0.000006,-52.245036,0.000007,
2041,2923,-4.76661930056285,6.04265298237848,-0.00526581831911699,0.006474,0.000155,0.000722,0.296655,0.039295,317.216237,24.258551,0.999457,0.992384,0.003552,0.465406,-0.000005,0.000023,-0.000008,0.000025,-0.000007,-74.591465,0.000026,
2071,2773,-4.09340643759378,2.78639802592996,-0.0193002741435748,0.006258,0.000099,0.001976,0.282729,0.042522,319.350562,24.396198,0.999426,0.990280,0.003951,0.428264,-0.000030,0.000006,-0.000006,0.000007,-0.000031,-80.091803,0.000032,
2491,3283,4.93791355122442,13.8890004035774,0.00332129381706636,0.006025,0.000198,0.002969,0.266057,0.043515,310.610783,26.603766,0.999840,0.995690,0.002851,0.452058,0.000048,-0.000037,0.000025,0.000054,-0.000043,15.332634,0.000057,
2206,2008,-1.02707742055331,-13.928658699818,0.0320708578471454,0.006020,0.000014,0.000500,0.274168,0.018435,331.576192,23.565140,0.999368,0.981548,0.005183,0.377634,0.000008,-0.000058,-0.000022,0.000015,-0.000065,-16.738706,0.000068,
2041,2683,-4.73145248965917,0.827953038814428,-0.0296673924102038,0.006279,0.000084,0.002144,0.283306,0.041593,320.893314,24.402935,0.999394,0.991028,0.003939,0.446076,-0.000026,-0.000017,0.000001,-0.000017,-0.000026,84.955607,0.000044,
2011,2623,-5.37384621831054,-0.479524238494676,-0.0259199615479133,0.006103,-0.000016,0.002581,0.274140,0.052621,322.073083,24.443907,0.999624,0.992538,0.003563,0.469213,-0.000025,0.000009,0.000011,0.000012,-0.000028,73.189663,0.000029,
2146,3103,-2.51756967851987,9.95402307027295,0.0180485277856519,0.006062,-0.000001,0.004194,0.267003,0.057118,313.923532,24.552198,0.999831,0.996620,0.002650,0.495019,-0.000007,-0.000001,-0.000002,0.000000,-0.000007,-72.852294,0.000009,
2116,2968,-3.1468396522356,7.02440547966121,0.00289421714944638,0.006018,0.000169,0.001642,0.272723,0.050773,316.132323,24.487910,0.999672,0.992983,0.003322,0.413580,0.000005,0.000010,-0.000001,0.000010,0.000005,-83.372127,0.000015,
2131,3283,-2.87294240049733,13.8541152337348,0.0165444284144769,0.006074,0.000480,0.003041,0.271561,0.059516,311.033296,24.606419,0.999723,0.995413,0.002862,0.437383,-0.000018,0.000035,-0.000005,0.000036,-0.000019,-84.335650,0.000036,
2281,2383,0.541150478709181,-5.71264195862104,-0.000902561318525841,0.006214,-0.000507,0.002605,0.276253,0.007620,325.118038,23.756020,0.998872,0.983331,0.005207,0.419347,-0.000006,0.000006,-0.000008,0.000009,-0.000010,-64.116110,0.000011,
2026,2638,-5.04976787640492,-0.153438802055518,-0.017255179104211,0.006032,0.000323,0.000614,0.276222,0.052642,321.809662,24.405269,0.999310,0.990659,0.003983,0.485984,-0.000016,-0.000002,0.000008,0.000002,-0.000019,67.116094,0.000022,
2161,3208,-2.20847162019016,12.230257959786,0.0397875268862435,0.006116,-0.000001,0.003073,0.272805,0.036714,312.337017,24.708210,0.999608,0.994296,0.003120,0.438685,-0.000012,0.000026,-0.000007,0.000027,-0.000013,-80.565423,0.000027,
2086,2833,-3.77724027762548,4.09152553022254,-0.0134773105479553,0.005990,0.000087,0.002913,0.267723,0.051631,318.331261,24.434059,0.999746,0.994951,0.003041,0.404521,-0.000018,0.000015,-0.000010,0.000018,-0.000021,-74.801179,0.000022,
2401,2758,3.08276796258788,2.47531873313166,-0.0266686421442728,0.006146,0.000126,0.002516,0.273270,0.037364,318.797026,24.526018,0.999295,0.988665,0.004297,0.450458,-0.000006,0.000040,0.000002,0.000040,-0.000006,87.958089,0.000044,
2356,2518,2.14985553590165,-2.76161949988554,-0.00605576321254375,0.005721,-0.000250,0.002700,0.252954,0.019907,322.825022,23.887355,0.999290,0.986527,0.004594,0.419616,0.000004,0.000004,0.000001,0.000005,0.000003,44.934849,0.000007,
2266,2173,0.251904979411961,-10.308946917289,0.0124836572929894,0.005657,-0.000071,0.003391,0.248020,0.050493,328.610816,23.440261,0.999473,0.984781,0.004993,0.437637,-0.000002,-0.000011,-0.000001,-0.000002,-0.000011,-8.330893,0.000014,
2161,3148,-2.19946641761534,10.9310073294688,0.0240264536664085,0.005932,0.000135,0.002380,0.266490,0.051973,313.179657,24.681710,0.999485,0.992454,0.003677,0.444950,-0.000009,0.000018,-0.000003,0.000019,-0.000009,-84.692952,0.000019,
2176,3253,-1.89179429745496,13.2071616566692,0.0323108371845251,0.005910,-0.000075,0.004729,0.258061,0.035051,311.468774,24.827448,0.999738,0.994772,0.003081,0.423629,-0.000008,0.000029,0.000003,0.000029,-0.000008,85.954064,0.000030,
2221,2083,-0.713471324756345,-12.2808324524953,0.0160237807079397,0.006079,0.000056,0.000220,0.277841,0.037648,330.203890,23.619369,0.999133,0.979693,0.005496,0.351723,0.000002,-0.000017,-0.000004,0.000003,-0.000018,-11.056499,0.000019,
2461,3148,4.31486432431165,10.9561157382277,0.0232156142158146,0.006114,0.000128,0.003276,0.269064,0.052941,312.927924,25.978695,0.999493,0.989460,0.003824,0.439876,0.000001,0.000044,0.000006,0.000045,0.000000,81.805922,0.000052,
2266,2278,0.233700775381635,-8.00906106261918,0.00835096642873623,0.006460,-0.000098,0.004407,0.281677,0.041320,326.916843,23.671171,0.999528,0.986576,0.004685,0.393699,-0.000002,-0.000006,-0.000012,0.000008,-0.000016,-40.724231,0.000016,
2206,3283,-1.24735816044,13.8614489599567,0.0113873657309682,0.006406,0.000238,0.001786,0.290176,0.059292,310.737927,25.034538,0.999384,0.992383,0.003453,0.431328,-0.000012,0.000025,0.000000,0.000025,-0.000012,89.331820,0.000025,
2086,2803,-3.77257492718364,3.43937741890507,-0.0165939856351542,0.006071,0.000062,0.002786,0.271745,0.052464,318.796535,24.411826,0.999238,0.990919,0.003923,0.430063,-0.000025,0.000002,-0.000008,0.000005,-0.000027,-74.093930,0.000029,
2236,2173,-0.401792349725998,-10.3075149099775,0.011235176651951,0.006178,0.000723,-0.001808,0.289289,0.045827,328.694278,23.691105,0.998868,0.984480,0.005005,0.340628,0.000001,-0.000015,0.000004,0.000002,-0.000016,14.519306,0.000018,
2011,3013,-5.43080634346942,7.99329860086254,0.0106976363360332,0.005845,-0.000062,0.004509,0.257568,0.043643,316.034981,24.158088,0.999569,0.993773,0.003294,0.431337,0.000017,-0.000017,-0.000016,0.000023,-0.000023,-21.715091,0.000027,
2281,2398,0.537925803583654,-5.38381172811025,-0.00304770263403498,0.006057,-0.000686,0.005429,0.259608,0.027855,324.840409,23.835759,0.999083,0.986072,0.004958,0.389705,-0.000007,0.000016,-0.000006,0.000017,-0.000008,-76.625589,0.000017,
2026,2863,-5.08409658823448,4.74091113941243,-0.0245803822847961,0.006333,-0.000033,0.001507,0.287977,0.050811,318.112588,24.313726,0.999293,0.992460,0.003874,0.431148,-0.000024,0.000043,0.000002,0.000043,-0.000024,88.283564,0.000043,
2206,2068,-1.0374433047695,-12.6106461951215,0.0260162426955617,0.006196,0.000445,0.000244,0.283287,0.047819,330.570767,23.687950,0.999124,0.979202,0.005518,0.365364,0.000004,-0.000030,-0.000008,0.000006,-0.000031,-12.313871,0.000034,
2476,3193,4.63183287078328,11.9340407477945,0.0287225730602927,0.005885,0.000172,0.006859,0.244866,0.067577,312.244659,26.212126,0.999568,0.992208,0.003475,0.451767,0.000004,0.000059,0.000010,0.000061,0.000002,79.817293,0.000071,
2431,2893,3.71006032316022,5.4154062922967,-0.0165636992750819,0.006074,0.000103,0.001690,0.273079,0.063216,316.717111,25.023418,0.999534,0.991188,0.003706,0.440881,-0.000011,0.000009,-0.000006,0.000010,-0.000013,-75.119490,0.000013,
2101,2938,-3.4678399827871,6.37237539733459,-0.00235798138476184,0.005943,0.000151,0.001832,0.268757,0.048387,316.643446,24.440204,0.999330,0.991074,0.003886,0.419516,-0.000005,0.000017,-0.000004,0.000018,-0.000006,-79.618288,0.000018,
2446,2983,4.01852638141193,7.37319769477085,-0.00854788493137448,0.005743,-0.000068,0.005820,0.242406,0.060233,315.307725,25.383554,0.999596,0.991405,0.003798,0.414259,0.000007,-0.000013,-0.000007,0.000009,-0.000015,-17.334341,0.000015,
2101,3148,-3.49955323672119,10.9250944794547,0.0371578615333306,0.006032,0.000254,0.004663,0.264935,0.068558,313.546485,24.382873,0.999865,0.996637,0.002650,0.502238,-0.000002,0.000027,-0.000003,0.000028,-0.000002,-83.461667,0.000031,
2131,3058,-2.83521605652114,8.97748130054037,0.0166477401827478,0.006034,0.000171,-0.000461,0.279781,0.039411,314.721165,24.550287,0.999344,0.992895,0.003628,0.407051,0.000003,0.000002,-0.000010,0.000012,-0.000008,-43.699492,0.000012,
2041,2698,-4.73369196808435,1.15457806075101,-0.0296061332488193,0.006298,0.000083,0.001616,0.285686,0.051239,320.653086,24.405333,0.999285,0.991174,0.003893,0.445946,-0.000025,-0.000025,0.000003,-0.000022,-0.000028,42.420149,0.000050,
2416,2863,3.38988083058121,4.76127418100392,-0.0124539895984412,0.006225,-0.000131,0.003393,0.273672,0.036590,317.221184,24.910682,0.999476,0.989674,0.003928,0.405036,-0.000008,0.000029,-0.000005,0.000029,-0.000009,-82.978906,0.000030,
2071,2728,-4.08672531384557,1.80881931578617,-0.028198979051524,0.006377,0.000761,0.001022,0.291154,0.087583,320.013898,24.402112,0.999156,0.989737,0.004083,0.476650,-0.000035,-0.000002,-0.000002,-0.000002,-0.000035,-85.643087,0.000041,
2131,3298,-2.87527335255868,14.1786526461207,0.0186235706358389,0.006124,0.000513,0.003054,0.273926,0.073410,310.807304,24.586358,0.999668,0.993868,0.003188,0.475800,-0.000020,0.000055,-0.000015,0.000058,-0.000023,-78.855526,0.000059,
2056,2713,-4.40995179647757,1.48135512064033,-0.0249569912102174,0.006386,0.000262,0.001993,0.288692,0.069961,320.364687,24.401140,0.999030,0.990173,0.003991,0.462360,-0.000028,-0.000011,0.000000,-0.000011,-0.000028,89.182643,0.000040,
2311,2278,1.21528643962084,-8.0095101171467,0.0151521950486426,0.006086,-0.000664,0.004210,0.264415,0.015197,326.908107,23.536467,0.999089,0.983932,0.004880,0.309766,-0.000005,0.000003,-0.000005,0.000005,-0.000008,-63.515549,0.000008,
2176,3268,-1.89516421731117,13.5328684324371,0.0163391828614863,0.006139,-0.000084,0.003773,0.271660,0.040940,311.102518,24.816550,0.999652,0.994077,0.003193,0.451269,-0.000005,0.000029,0.000005,0.000030,-0.000006,81.957447,0.000031,
2056,2953,-4.44620813484741,6.69487594391241,0.000989860255344865,0.005912,0.000221,0.001604,0.268299,0.058820,316.664325,24.304661,0.999126,0.992338,0.003726,0.458532,0.000000,0.000003,-0.000011,0.000013,-0.000010,-48.502443,0.000013,
2146,3118,-2.51943613174186,10.2797027289591,0.0239091454976688,0.006114,0.000400,0.000970,0.279364,0.069967,313.739522,24.618273,0.999684,0.994960,0.003073,0.448507,-0.000009,0.000003,-0.000005,0.000005,-0.000011,-67.867212,0.000011,
2086,2848,-3.7792341238514,4.41645250338816,-0.00983107755854462,0.006047,0.000338,0.001251,0.275245,0.063948,318.125884,24.348912,0.999680,0.993751,0.003287,0.500887,-0.000016,0.000023,-0.000005,0.000024,-0.000016,-82.944002,0.000025,
2116,2983,-3.14844167487784,7.34885131676102,0.0122706992336248,0.006246,0.000370,0.001400,0.284090,0.069664,315.977990,24.426333,0.999732,0.994027,0.003140,0.496714,0.000003,0.000007,-0.000001,0.000007,0.000003,-81.116475,0.000010,
2206,2083,-1.04076993105084,-12.2816876560468,0.0213642567391616,0.005985,-0.000152,0.003945,0.261744,0.038733,330.269783,23.665201,0.999038,0.978504,0.005641,0.399424,0.000006,-0.000016,-0.000003,0.000006,-0.000016,-6.875221,0.000016,
2221,2098,-0.715619759727389,-11.9532058291498,0.0238753462426757,0.006253,-0.000689,0.004625,0.271497,0.029528,330.022201,23.617610,0.999052,0.979968,0.005534,0.367175,0.000001,-0.000020,-0.000001,0.000001,-0.000020,-3.069340,0.000023,
2491,3298,4.93482128512965,14.2145662734165,0.00444967927217021,0.005929,0.000343,0.003272,0.260558,0.052816,310.367754,26.684761,0.999699,0.993443,0.003381,0.437623,0.000052,-0.000067,0.000018,0.000054,-0.000069,8.629012,0.000073,
2341,2458,1.83426795237503,-4.07158860013841,-0.00906395780788216,0.006050,-0.000291,0.003556,0.265099,0.028085,323.783862,23.786454,0.999503,0.988094,0.004326,0.406286,0.000003,0.000017,0.000000,0.000017,0.000003,88.531184,0.000022,
2071,2788,-4.09555603859904,3.11185980561756,-0.0164025111117212,0.006271,0.000178,0.001807,0.283850,0.043141,319.132743,24.349655,0.999327,0.989234,0.004090,0.472170,-0.000033,0.000005,-0.000008,0.000007,-0.000035,-78.146919,0.000037,
2161,3163,-2.20132074697465,11.2561835528567,0.0297311405395817,0.006228,0.000290,0.002154,0.280976,0.070412,312.996418,24.705272,0.999615,0.992977,0.003450,0.448795,-0.000009,0.000023,-0.000004,0.000023,-0.000009,-83.646691,0.000023,
2026,2878,-5.08582046677973,5.0666343992118,-0.0203589344351371,0.006611,0.000306,0.000896,0.302563,0.051350,317.918632,24.325147,0.998809,0.988404,0.004468,0.410242,-0.000010,0.000054,0.000004,0.000054,-0.000010,86.708537,0.000057,
2146,1993,-2.33468912553091,-14.2547843710082,0.0273678060523252,0.005815,0.000253,0.000033,0.266448,0.031093,331.959712,24.036448,0.999323,0.982423,0.005014,0.321034,0.000042,-0.000035,0.000017,0.000045,-0.000039,11.791425,0.000049,
2476,3208,4.62947770892432,12.2593782556102,0.031544909894933,0.006124,0.000467,0.004300,0.265773,0.078400,312.042962,26.256253,0.999387,0.991619,0.003672,0.473971,0.000007,0.000052,0.000008,0.000054,0.000005,79.968378,0.000065,
2401,2773,3.08039991589694,2.80136695286051,-0.019097717974887,0.006037,0.000237,0.001769,0.271062,0.050510,318.613888,24.559211,0.999394,0.988656,0.004226,0.476046,-0.000006,0.000035,-0.000003,0.000036,-0.000006,-85.382766,0.000038,
2011,2833,-5.40431633201615,4.08828472456718,-0.0152909182194776,0.006412,0.000205,0.001874,0.290681,0.048926,318.775862,24.377904,0.999684,0.994410,0.003394,0.366550,-0.000030,0.000037,-0.000006,0.000038,-0.000030,-84.553321,0.000040,
2386,2698,2.76793289512408,1.1677152108067,-0.0238057141186232,0.006047,0.000121,0.002349,0.269389,0.049777,319.781026,24.378279,0.999455,0.990245,0.003868,0.429639,-0.000008,0.000027,-0.000001,0.000027,-0.000008,-89.025360,0.000028,
2356,2533,2.14701405184066,-2.4339598357646,-0.0113850216393416,0.005967,0.000131,0.000631,0.271732,0.037853,322.555876,23.880548,0.999293,0.987033,0.004591,0.484671,0.000006,-0.000005,0.000002,0.000006,-0.000005,10.528932,0.000007,
2176,3133,-1.87083944832062,10.6066028607014,0.0367273303066895,0.005950,0.000097,0.004436,0.260781,0.062779,313.471746,24.769099,0.999347,0.993358,0.003620,0.421690,-0.000011,0.000013,-0.000002,0.000013,-0.000011,-84.494044,0.000014,
2161,2038,-2.01524049826845,-13.2663896509324,0.0155101635753567,0.006016,-0.000024,-0.000382,0.276887,0.014524,331.095484,23.979983,0.999204,0.984539,0.004892,0.297298,0.000009,-0.000039,0.000001,0.000010,-0.000039,1.689621,0.000041,
2461,3163,4.31228988216402,11.2816507657646,0.0276815479076049,0.006070,0.000265,0.001808,0.272662,0.052429,312.722875,26.051572,0.999572,0.990746,0.003762,0.419763,0.000002,0.000050,0.000009,0.000051,0.000000,79.810125,0.000060,
2116,2938,-3.14253167885548,6.37340322602892,-0.00429039309585733,0.005939,0.000126,0.002477,0.266554,0.048475,316.554608,24.471598,0.999391,0.991308,0.003818,0.422066,-0.000005,0.000021,-0.000001,0.000021,-0.000005,-87.149812,0.000022,
2011,2638,-5.37643173362897,-0.151895233930674,-0.0341242156860062,0.006068,0.000348,-0.000291,0.280408,0.050142,321.768011,24.461296,0.999197,0.987281,0.004373,0.438372,-0.000020,-0.000005,0.000018,0.000007,-0.000032,57.010142,0.000034,
2041,2713,-4.73656505183843,1.48137339094403,-0.0341801412623681,0.005982,-0.000074,0.001335,0.271901,0.037943,320.358173,24.413286,0.999098,0.990188,0.004118,0.417502,-0.000023,-0.000019,0.000003,-0.000017,-0.000025,63.792859,0.000042,
2056,2728,-4.4124968228167,1.80810318518857,-0.0272121107360022,0.006402,0.000275,0.003599,0.284948,0.070583,320.098868,24.414321,0.999261,0.990707,0.003862,0.444690,-0.000033,-0.000003,0.000001,-0.000003,-0.000033,87.145694,0.000040,
2326,2323,1.53310079371241,-7.02301392734208,-0.00276569131443694,0.006122,0.000285,0.001171,0.276781,0.050119,326.036000,23.530022,0.999032,0.981855,0.005311,0.397360,-0.000015,-0.000012,-0.000004,-0.000009,-0.000018,-52.255314,0.000028,
2041,2938,-4.76978543908311,6.36839169020975,-0.00489467659036791,0.005993,-0.000060,0.006995,0.257010,0.057077,316.935836,24.242057,0.999221,0.991274,0.003828,0.491660,-0.000002,0.000012,-0.000004,0.000013,-0.000003,-73.220321,0.000013,
2236,2158,-0.399419502431893,-10.6359341966855,0.00787403129669428,0.006279,0.000406,-0.000556,0.289762,0.032312,328.908319,23.664870,0.998628,0.983209,0.005233,0.329398,0.000003,-0.000026,0.000000,0.000003,-0.000026,-0.347669,0.000028,
2431,2908,3.70667612477487,5.74106011995045,-0.0160710849653469,0.005894,-0.000106,0.005081,0.252147,0.047462,316.455636,25.032516,0.999645,0.991395,0.003614,0.465331,-0.000014,-0.000001,-0.000006,0.000001,-0.000016,-67.325406,0.000018,
2176,3283,-1.89818292168175,13.8581907116335,0.0131201713666655,0.005839,0.000092,0.002555,0.261668,0.042401,310.819569,24.849925,0.999714,0.995117,0.002954,0.430153,-0.000005,0.000029,0.000009,0.000032,-0.000007,76.282073,0.000033,
2266,2188,0.249899875846694,-9.9798886179527,0.0180945774539509,0.006020,-0.000278,0.004880,0.259716,0.041642,328.427181,23.575959,0.999075,0.983931,0.005151,0.320954,-0.000004,-0.000006,-0.000006,0.000001,-0.000012,-39.368802,0.000013,
2446,2998,4.01676212666142,7.6984187314935,0.00222082379394806,0.006110,0.000081,0.006026,0.258567,0.061227,315.169044,25.430059,0.999340,0.988161,0.004169,0.420084,0.000005,-0.000007,-0.000002,0.000005,-0.000007,-8.377326,0.000007,
2281,2638,0.49397222955356,-0.144378236667265,-0.0192370782619378,0.006314,0.000030,0.002341,0.282372,0.043133,320.838640,24.276129,0.999364,0.986016,0.004369,0.426650,0.000006,0.000013,-0.000003,0.000014,0.000005,-67.262697,0.000019,
2071,2983,-4.12497849449741,7.34671281579026,0.00124115635350108,0.006589,0.000198,0.002301,0.297449,0.047351,316.123742,24.320900,0.999313,0.991585,0.003675,0.459115,0.000010,-0.000001,-0.000012,0.000017,-0.000009,-31.777210,0.000017,
2206,2263,-1.07216115691458,-8.33783774465007,0.0100257503456191,0.005968,-0.000672,0.004939,0.257978,0.019800,327.274694,23.888132,0.998947,0.982155,0.005239,0.391706,0.000001,0.000005,0.000008,0.000011,-0.000005,52.050730,0.000011,
2161,3223,-2.21080826218881,12.5551961528428,0.0435741023605942,0.006090,0.000065,0.003233,0.271258,0.055652,312.121567,24.710988,0.999663,0.994590,0.003050,0.463545,-0.000012,0.000034,-0.000008,0.000035,-0.000014,-80.467009,0.000035,
2116,2998,-3.15160900138863,7.67522821224864,0.0055888131479378,0.005968,0.000348,0.001363,0.271369,0.066826,315.664771,24.458232,0.999569,0.992920,0.003384,0.464968,0.000001,0.000010,-0.000002,0.000011,0.000001,-77.130357,0.000013,
2266,2293,0.230803064380037,-7.68055770678113,0.00185350816281016,0.006385,-0.000052,0.000086,0.292556,0.033889,326.631546,23.667333,0.999369,0.984683,0.004992,0.417904,-0.000006,-0.000009,-0.000010,0.000003,-0.000018,-39.973150,0.000019,
2416,2878,3.38658546884487,5.08813237855398,-0.0140752307895582,0.006073,0.000195,0.004212,0.263913,0.072022,316.952552,24.954970,0.999489,0.990945,0.003732,0.443827,-0.000011,0.000019,-0.000002,0.000019,-0.000011,-86.731913,0.000019,
2506,1993,5.53433449698496,-14.2660256041432,0.0355186872458262,0.005989,0.000156,-0.001376,0.278907,0.018160,331.943501,21.518231,0.999278,0.973271,0.006188,0.275356,-0.000020,-0.000235,0.000069,0.000000,-0.000255,16.370923,0.000294,
2296,2443,0.856370290953951,-4.40112808087275,-0.0112038794314913,0.006378,-0.000538,0.005625,0.273530,0.018926,324.042158,23.750886,0.999616,0.989053,0.004232,0.513917,0.000000,-0.000007,-0.000013,0.000010,-0.000017,-37.581234,0.000017,
2011,2848,-5.40702845437442,4.41284885817867,-0.016549801545068,0.006114,-0.000064,0.003222,0.273219,0.045002,318.505236,24.237553,0.999718,0.995171,0.003270,0.490748,-0.000025,0.000063,0.000000,0.000063,-0.000025,-89.741161,0.000063,
2206,2098,-1.04322907473093,-11.9527631491187,0.021038359818192,0.006119,-0.000402,0.004408,0.266393,0.021600,330.030704,23.700639,0.999104,0.981973,0.005307,0.366699,0.000004,-0.000019,0.000001,0.000004,-0.000019,2.414822,0.000021,
2101,2953,-3.47006333533894,6.69843862791631,-0.00830061219994604,0.006463,0.000142,0.000829,0.295717,0.052230,316.376312,24.428486,0.999457,0.991742,0.003672,0.435974,0.000001,0.000013,-0.000003,0.000014,0.000000,-75.076986,0.000015,
2371,2608,2.45971084275646,-0.795996506330241,-0.0179916401129958,0.006558,0.000382,-0.000427,0.302767,0.043811,321.318217,24.095724,0.999081,0.987074,0.004511,0.458649,0.000010,0.000001,0.000005,0.000013,-0.000001,24.403642,0.000014,
2401,2788,3.07694966380922,3.12893031863145,-0.0213165206919257,0.005974,-0.000144,0.005337,0.255137,0.054741,318.334429,24.668177,0.999497,0.988317,0.004275,0.416750,-0.000006,0.000035,-0.000003,0.000035,-0.000007,-85.208251,0.000037,
2056,2743,-4.41515388072743,2.1341081260551,-0.0311428098139004,0.006163,0.000287,0.001211,0.280678,0.051858,319.818966,24.370101,0.999479,0.991657,0.003697,0.464887,-0.000034,0.000004,0.000000,0.000004,-0.000034,89.901075,0.000037,
2011,2653,-5.37847387251224,0.174719000864336,-0.0413105152836692,0.006476,0.000595,-0.003793,0.308797,0.033121,321.493861,24.414407,0.999047,0.987003,0.004487,0.456714,-0.000021,0.000003,0.000013,0.000008,-0.000027,66.090112,0.000028,
2086,2863,-3.78136211281988,4.74343246050414,-0.0123779158518005,0.006435,0.000440,0.000632,0.294994,0.069382,317.879992,24.417137,0.999504,0.991482,0.003800,0.437041,-0.000013,0.000026,-0.000006,0.000027,-0.000014,-80.879869,0.000027,
2281,2413,0.535419822673571,-5.05651637689639,-0.000192074405561016,0.006082,-0.000619,0.006034,0.258748,0.033083,324.620917,23.842687,0.999291,0.987324,0.004612,0.417168,-0.000008,0.000010,-0.000005,0.000011,-0.000009,-75.452087,0.000012,
2041,2953,-4.77148645983955,6.69420005548921,-0.000727516467293299,0.006067,0.000273,0.002033,0.274372,0.064024,316.743682,24.273172,0.999402,0.992923,0.003447,0.459276,0.000009,0.000000,-0.000011,0.000016,-0.000007,-33.779064,0.000016,
2056,2968,-4.44855937631538,7.01997683889211,0.00556939884103258,0.005851,0.000092,0.005147,0.255410,0.045291,316.445891,24.297889,0.999192,0.991522,0.003737,0.445754,0.000008,0.000000,-0.000016,0.000021,-0.000013,-38.002933,0.000021,
2221,2113,-0.718710214404094,-11.6246405466019,0.0225442518596424,0.005757,-0.000544,0.003738,0.251700,0.005641,329.750493,23.621711,0.998977,0.981744,0.005302,0.361370,0.000004,-0.000017,0.000001,0.000004,-0.000017,1.626923,0.000018,
2191,2188,-1.3864785281916,-9.97905849735695,0.0128665192748372,0.005589,-0.000064,0.001930,0.250252,0.038681,328.540181,23.920953,0.998673,0.978033,0.005677,0.358569,0.000006,-0.000005,0.000004,0.000008,-0.000006,19.823672,0.000008,
2086,3058,-3.81046741893995,8.97318475667979,0.0207975144119246,0.006460,0.000152,0.000170,0.297635,0.037183,314.986494,24.324745,0.999539,0.992953,0.003360,0.476534,0.000019,0.000003,-0.000016,0.000029,-0.000007,-31.220897,0.000030,
2026,2653,-5.05238608001291,0.173986937811961,-0.0277342830035536,0.006297,0.000158,0.000478,0.288805,0.042575,321.491959,24.397475,0.999371,0.991340,0.003789,0.474847,-0.000018,0.000006,0.000008,0.000009,-0.000020,73.917941,0.000021,
2356,2548,2.14419037361097,-2.10694655348699,-0.00939753552574984,0.005988,-0.000087,0.002693,0.265350,0.029333,322.322893,23.911412,0.999259,0.986692,0.004604,0.484987,0.000007,0.000000,0.000004,0.000009,-0.000002,24.676861,0.000009,
2296,2338,0.87620931501716,-6.69564685627399,-0.00320887593949237,0.006255,-0.000195,0.001590,0.281478,0.031159,325.814540,23.635812,0.999310,0.985053,0.004786,0.419338,-0.000011,0.000002,-0.000007,0.000005,-0.000014,-66.278778,0.000014,
2101,3163,-3.50236379169396,11.2507346099673,0.0323489995007549,0.005978,0.000243,0.004590,0.262618,0.055011,313.258753,24.415835,0.999785,0.995315,0.002889,0.455632,-0.000008,0.000039,-0.000007,0.000040,-0.000009,-81.480174,0.000042,
2026,2893,-5.08837583277462,5.39187220297362,-0.0111091125639291,0.005944,0.000172,0.003382,0.264919,0.041134,317.714884,24.343005,0.999263,0.992485,0.003636,0.371642,-0.000010,0.000051,-0.000004,0.000052,-0.000010,-85.965142,0.000055,
2131,3073,-2.83723274015263,9.30276671010903,0.0217608467818309,0.006448,0.000338,0.003757,0.286363,0.070355,314.525510,24.546380,0.999652,0.994523,0.003292,0.446633,0.000002,0.000006,-0.000009,0.000013,-0.000005,-51.582602,0.000013,
2251,2518,-0.137887928811079,-2.762786247333,-0.0128501365286411,0.005620,-0.000040,0.002835,0.248910,0.042109,322.852105,24.113659,0.999356,0.987281,0.004420,0.416325,-0.000002,0.000009,-0.000001,0.000009,-0.000002,-82.925207,0.000009,
2341,2473,1.8315932258484,-3.74399644467978,-0.00460262155633018,0.005939,-0.000058,0.004792,0.255841,0.059506,323.568566,23.829435,0.999517,0.988078,0.004236,0.432662,0.000005,0.000010,0.000001,0.000010,0.000005,80.700616,0.000016,
2461,3178,4.30898399851602,11.6071667939953,0.0331381000539182,0.005760,0.000034,0.006964,0.238918,0.062533,312.488589,26.121338,0.999653,0.991847,0.003615,0.413193,0.000002,0.000057,0.000007,0.000058,0.000001,83.132522,0.000068,
2161,3178,-2.20353787017312,11.5809624321606,0.0354861633767314,0.006361,0.000180,0.004942,0.278531,0.073753,312.796935,24.710676,0.999542,0.991296,0.003675,0.455555,-0.000011,0.000026,-0.000002,0.000026,-0.000011,-86.637678,0.000027,
2071,2998,-4.12672061267395,7.67181536435142,0.0171161868357217,0.006168,0.000623,0.001138,0.281569,0.073350,315.996129,24.359274,0.999595,0.992652,0.003351,0.442713,0.000011,0.000004,-0.000012,0.000020,-0.000005,-36.894979,0.000021,
2311,2293,1.21181974168013,-7.6810329956463,0.00843636370780132,0.005751,-0.000129,0.002666,0.254519,0.032712,326.599998,23.503386,0.999187,0.985344,0.004840,0.395100,-0.000009,-0.000002,-0.000007,0.000002,-0.000013,-59.583540,0.000014,
2236,2413,-0.447030985583126,-5.05294298312869,-0.0282836608251955,0.005877,-0.000526,0.003661,0.257817,0.033559,324.460287,24.085010,0.999579,0.990998,0.003868,0.308133,-0.000019,0.000005,-0.000009,0.000009,-0.000022,-70.971752,0.000022,
2041,2728,-4.73800645518187,1.80731584530449,-0.0276844088789971,0.006475,0.000234,0.001888,0.293144,0.046661,320.190404,24.414921,0.999380,0.991263,0.003679,0.417250,-0.000028,-0.000008,0.000004,-0.000007,-0.000029,77.645585,0.000038,
2326,2338,1.53167383838263,-6.6961429248033,0.00881235870292585,0.006418,0.000571,-0.001162,0.298503,0.051038,325.912141,23.564639,0.999209,0.983861,0.004922,0.399533,-0.000014,0.000001,-0.000008,0.000004,-0.000017,-66.866722,0.000018,
2146,3133,-2.52198663970833,10.6041528643221,0.0294509957730043,0.005984,0.000149,0.005021,0.261007,0.067390,313.522866,24.587741,0.999551,0.994021,0.003350,0.483050,-0.000006,0.000013,-0.000001,0.000013,-0.000006,-86.408624,0.000013,
2251,2323,-0.101916687338569,-7.02372443977114,-0.000419857731685624,0.006258,-0.000020,0.001759,0.281352,0.032965,326.141788,23.816452,0.998719,0.982574,0.005319,0.380597,0.000003,-0.000005,0.000000,0.000003,-0.000005,0.697525,0.000005,
2476,3223,4.62654978233742,12.5854026911603,0.026542101741768,0.006302,0.000477,0.000027,0.290178,0.054568,311.778892,26.357103,0.999247,0.991822,0.003733,0.404606,0.000007,0.000033,0.000014,0.000039,0.000001,66.662221,0.000046,
2071,2803,-4.09803832587322,3.43881589907943,-0.0225228161883706,0.006533,0.000070,0.001834,0.295868,0.046453,318.849811,24.372356,0.999297,0.990365,0.004014,0.449630,-0.000028,0.000004,-0.000002,0.000004,-0.000029,-86.002112,0.000031,
2011,3028,-5.43246433157003,8.31841565476123,0.018621925924208,0.005985,-0.000137,0.004102,0.265172,0.049339,315.864454,24.169134,0.999519,0.993957,0.003376,0.413017,0.000019,-0.000013,-0.000006,0.000020,-0.000014,-10.848789,0.000021,
2011,2668,-5.38076729974686,0.50007306084072,-0.0289973436916284,0.006042,0.000005,0.002177,0.272484,0.041598,321.317947,24.394271,0.998985,0.987951,0.004339,0.473622,-0.000027,-0.000007,0.000016,0.000002,-0.000035,61.252322,0.000040,
2041,2968,-4.77375761614748,7.01888646054121,0.00140014157727819,0.005919,0.000270,0.000790,0.270988,0.043841,316.514528,24.217748,0.999455,0.992929,0.003379,0.486305,0.000013,-0.000004,-0.000017,0.000024,-0.000014,-31.805460,0.000024,
2446,3013,4.01406986973868,8.02451206526237,0.000932337478616319,0.006271,0.000321,0.002973,0.277428,0.056239,314.931642,25.484732,0.999084,0.986021,0.004344,0.411970,0.000000,-0.000003,0.000001,0.000000,-0.000004,18.855268,0.000004,
2506,2008,5.53075023048956,-13.9364659468963,0.0285297971434488,0.005649,0.000697,-0.006945,0.285073,0.010023,331.649917,21.496355,0.999317,0.975642,0.006057,0.354057,-0.000011,-0.000165,0.000046,0.000001,-0.000178,15.419938,0.000204,
2056,2758,-4.41721934536778,2.45936920282959,-0.020124621869229,0.005886,-0.000081,0.003501,0.261381,0.049021,319.648750,24.364688,0.999410,0.990847,0.003886,0.462069,-0.000030,0.000000,-0.000004,0.000000,-0.000031,-81.818775,0.000035,
2236,2188,-0.404659572686857,-9.97912675824549,0.0155000410311459,0.005937,-0.000310,0.002722,0.263302,0.020181,328.462379,23.768013,0.999172,0.986258,0.004776,0.261842,-0.000002,-0.000012,-0.000001,-0.000002,-0.000012,-5.243555,0.000015,
2221,2338,-0.759994541536468,-6.6931898794066,-0.0237853431468693,0.005992,0.000465,-0.001599,0.280291,0.046373,325.766141,23.952527,0.999669,0.990435,0.004069,0.394037,0.000001,0.000000,0.000003,0.000003,-0.000002,36.451549,0.000003,
2146,2008,-2.33606620148052,-13.9266849730052,0.0330152299554243,0.006367,0.000998,-0.001414,0.296391,0.052705,331.796283,23.991367,0.999146,0.982780,0.005098,0.398982,0.000028,-0.000066,0.000016,0.000031,-0.000068,9.543899,0.000068,
2101,2968,-3.47215694037969,7.02368774731147,0.00198118606147091,0.006163,0.000232,0.001161,0.280912,0.049766,316.203297,24.465363,0.999599,0.991524,0.003567,0.397209,0.000007,0.000008,-0.000005,0.000012,0.000002,-47.968296,0.000016,
2221,2128,-0.720984717001738,-11.2951153086148,0.0239018942556868,0.005866,0.000319,0.002456,0.261110,0.062878,329.529245,23.666906,0.998716,0.981222,0.005358,0.395500,0.000006,-0.000022,-0.000001,0.000006,-0.000022,-1.948401,0.000023,
2281,2653,0.491300630998175,0.182473808928698,-0.0209896159837513,0.006280,0.000091,-0.000376,0.289945,0.031752,320.588127,24.295180,0.999465,0.988881,0.004105,0.424525,0.000005,0.000015,-0.000001,0.000015,0.000005,-84.551820,0.000021,
2266,2323,0.225402059287116,-7.02410087482148,0.0114821974995039,0.006065,-0.000306,0.006188,0.257688,0.053381,326.192171,23.817485,0.998785,0.979792,0.005714,0.342437,-0.000001,-0.000009,-0.000006,0.000002,-0.000012,-27.226900,0.000013,
2206,2113,-1.04574178132219,-11.6237561239306,0.0171519853723225,0.006078,0.000215,-0.000394,0.279894,0.025755,329.770730,23.689087,0.998867,0.983315,0.005082,0.402158,0.000005,-0.000017,0.000003,0.000005,-0.000017,6.678748,0.000018,
2506,2023,5.52755078184637,-13.6058413537318,0.0298951956574456,0.006113,0.000461,0.000599,0.277185,0.047384,331.410716,21.627099,0.999216,0.971976,0.006422,0.325625,0.000002,-0.000100,0.000030,0.000011,-0.000109,15.305267,0.000120,
2071,3013,-4.12918149485931,7.9964758416158,0.0231868877112333,0.005921,0.000243,0.004450,0.260583,0.067417,315.781986,24.325043,0.999507,0.991963,0.003515,0.466986,0.000016,0.000009,-0.000015,0.000028,-0.000003,-38.844262,0.000030,
2251,2533,-0.141235933749297,-2.43398387268279,-0.0226751126530189,0.005698,-0.000004,0.003769,0.249484,0.047810,322.527112,24.182692,0.999644,0.992003,0.003652,0.377663,-0.000002,0.000010,-0.000002,0.000010,-0.000002,-80.172103,0.000010,
2041,2743,-4.7407841148902,2.13327717090728,-0.0268141815407148,0.006091,-0.000007,0.004333,0.268652,0.054235,319.930280,24.378450,0.999504,0.991803,0.003674,0.453804,-0.000029,0.000003,0.000002,0.000003,-0.000030,85.660770,0.000032,
2161,3238,-2.21382578760097,12.8806188989686,0.0384311027603985,0.006083,-0.000038,0.004883,0.265782,0.040302,311.827408,24.745430,0.999678,0.994689,0.003047,0.422273,-0.000011,0.000031,-0.000008,0.000032,-0.000013,-80.106246,0.000033,
2086,3073,-3.81347015258248,9.29912569439574,0.0203375217160442,0.006011,-0.000009,0.001830,0.272107,0.037509,314.712310,24.374723,0.999468,0.991975,0.003480,0.424720,0.000017,0.000011,-0.000013,0.000027,0.000001,-38.327350,0.000032,
2041,2983,-4.77577134132308,7.34482372079782,0.00624535120005021,0.006134,0.000185,0.003890,0.272278,0.054992,316.311806,24.268493,0.999305,0.992114,0.003623,0.438364,0.000014,-0.000009,-0.000017,0.000023,-0.000019,-28.290985,0.000025,
2236,2428,-0.448408935110837,-4.72763940718892,-0.0154541575436724,0.006138,0.000009,0.002927,0.272393,0.049598,324.340118,23.998586,0.999412,0.990068,0.004085,0.432701,-0.000017,-0.000006,-0.000013,0.000003,-0.000026,-55.586676,0.000028,
2416,2893,3.38406718730007,5.41425163100505,-0.0131271861864661,0.006299,-0.000003,0.002611,0.280052,0.050156,316.731920,25.011589,0.999519,0.990995,0.003763,0.412776,-0.000012,0.000012,-0.000001,0.000012,-0.000012,-87.396085,0.000014,
2476,3238,4.62256444473014,12.9114349564074,0.0135766261254844,0.006423,0.000340,-0.000163,0.296516,0.058352,311.429671,26.390693,0.999648,0.993850,0.003261,0.430087,0.000008,0.000035,0.000019,0.000045,-0.000002,62.831428,0.000051,
2176,3298,-1.90127130210542,14.18380769695,0.0033896333852681,0.005871,0.000453,0.000742,0.268891,0.045437,310.499030,24.878065,0.999824,0.996538,0.002523,0.415819,-0.000007,0.000042,-0.000003,0.000042,-0.000007,-86.534011,0.000045,
2401,2803,3.07426367702517,3.45518512196809,-0.023107303459426,0.006110,0.000085,0.002333,0.272412,0.055725,318.092386,24.667993,0.999533,0.990058,0.004103,0.463651,-0.000006,0.000031,-0.000002,0.000032,-0.000006,-86.344116,0.000033,
2056,2983,-4.45057994360201,7.34600916267129,0.00542089130078693,0.006235,0.000231,0.005742,0.271511,0.058067,316.216172,24.321648,0.999165,0.989807,0.003914,0.428651,0.000008,-0.000005,-0.000017,0.000020,-0.000017,-34.465245,0.000021,
2116,2953,-3.14471904554256,6.69918665171089,-0.00444986310225204,0.006196,0.000036,0.002180,0.279239,0.044514,316.321652,24.482767,0.999582,0.991837,0.003582,0.409805,0.000000,0.000017,0.000000,0.000017,0.000000,89.100245,0.000019,
2011,2863,-5.40933171468781,4.73922118282616,-0.0125679285304727,0.006151,-0.000208,0.008432,0.260759,0.052158,318.282176,24.295358,0.999318,0.991554,0.004017,0.428017,-0.000021,0.000061,0.000003,0.000061,-0.000021,87.604017,0.000062,
2251,2338,-0.104922300218636,-6.69524338830481,-0.00251256384342469,0.005997,0.000167,0.001138,0.271529,0.029130,325.872163,23.867480,0.998925,0.983865,0.005179,0.351117,-0.000001,0.000000,-0.000004,0.000003,-0.000005,-49.395500,0.000005,
2011,3163,-5.45200878352999,11.2431363663504,0.0418983395275632,0.005766,-0.000016,0.003735,0.256303,0.054503,313.849565,24.033499,0.999466,0.993943,0.003393,0.436789,0.000005,0.000055,0.000012,0.000057,0.000003,77.198470,0.000068,
2341,2488,1.82897393788798,-3.41714264419929,-0.00376529962056793,0.005846,0.000215,0.001983,0.261499,0.059350,323.338472,23.807360,0.999473,0.987916,0.004199,0.492387,0.000007,0.000017,0.000006,0.000019,0.000004,64.010808,0.000025,
2266,2308,0.227982823615545,-7.35290247772567,0.0108018238606178,0.005805,-0.000002,0.003185,0.255756,0.060400,326.427124,23.712366,0.998987,0.982139,0.005367,0.426924,-0.000007,-0.000015,-0.000007,-0.000003,-0.000018,-29.993439,0.000024,
2221,2143,-0.72358041096857,-10.9665147132492,0.022454412274385,0.006062,-0.000106,0.004179,0.264503,0.048226,329.279463,23.674593,0.998826,0.983311,0.005182,0.394881,0.000002,-0.000032,0.000001,0.000002,-0.000032,2.315938,0.000036,
2281,2428,0.532716564698667,-4.72867146472592,-0.00126985735204244,0.006010,-0.000277,0.004061,0.262221,0.046821,324.372629,23.858923,0.999544,0.988882,0.004307,0.443860,-0.000002,-0.000004,-0.000010,0.000007,-0.000013,-42.271019,0.000013,
2161,2053,-2.01710799441288,-12.9389460765568,0.0258923663404289,0.006074,-0.000310,0.002349,0.271122,0.023055,330.935755,23.957519,0.999147,0.983807,0.004997,0.341188,0.000006,-0.000039,0.000006,0.000007,-0.000040,7.349733,0.000043,
2101,2983,-3.47454855057815,7.34892395374679,0.00479216566884588,0.006192,0.000098,0.003828,0.274486,0.063128,315.976142,24.436906,0.999607,0.992973,0.003378,0.439531,0.000006,0.000004,-0.000005,0.000010,0.000000,-40.286117,0.000012,
2371,2623,2.45595771161704,-0.468781345260822,-0.0210581810102894,0.006094,0.000143,0.001917,0.273056,0.034791,321.019186,24.126305,0.999148,0.987747,0.004395,0.460876,0.000007,0.000012,0.000001,0.000013,0.000007,80.527528,0.000020,
2356,2563,2.14074372807278,-1.7782561434223,-0.0127889786539299,0.005683,-0.000108,0.003113,0.249904,0.033287,322.035001,24.040847,0.999400,0.989513,0.004243,0.399521,0.000006,0.000004,0.000003,0.000008,0.000002,37.459032,0.000011,
2056,2773,-4.41924207905213,2.78486776745492,-0.0131537251640452,0.005807,-0.000187,0.004236,0.255624,0.038275,319.458158,24.360173,0.999229,0.988807,0.004187,0.450461,-0.000031,0.000011,-0.000005,0.000011,-0.000032,-83.182446,0.000032,
2311,2308,1.20801273975043,-7.35074787155613,-0.0107058087402834,0.005999,-0.000070,0.000881,0.272062,0.035789,326.215051,23.532044,0.999344,0.987537,0.004725,0.404445,-0.000011,-0.000013,-0.000004,-0.000008,-0.000016,-37.754991,0.000024,
2386,2713,2.76590323853169,1.4936715349014,-0.0189603644234353,0.006357,0.000080,0.000174,0.291412,0.029886,319.599933,24.397585,0.999608,0.992171,0.003508,0.434049,-0.000008,0.000037,-0.000002,0.000037,-0.000008,-87.983234,0.000039,
2326,2353,1.5276211527631,-6.36691702469734,0.000453510586169159,0.005798,0.000402,-0.000961,0.269370,0.057103,325.570353,23.618477,0.999163,0.982522,0.004874,0.388588,-0.000008,0.000004,-0.000002,0.000004,-0.000009,-79.226306,0.000009,
2026,2908,-5.08966570146464,5.71695553596791,-0.00250622075287765,0.006287,0.000379,0.000934,0.287633,0.066558,317.565530,24.309313,0.999347,0.992323,0.003596,0.420532,-0.000003,0.000038,-0.000010,0.000041,-0.000006,-77.525223,0.000044,
2086,2878,-3.78412849874104,5.06829420029607,-0.00820841105826275,0.005901,0.000186,0.002294,0.265519,0.062677,317.642137,24.356910,0.999454,0.991939,0.003789,0.489112,-0.000005,0.000037,-0.000004,0.000038,-0.000006,-84.108958,0.000041,
2116,3013,-3.15342198674681,7.9999366985054,0.0118407271276055,0.006242,0.000097,0.001886,0.282364,0.047815,315.483921,24.444344,0.999126,0.989681,0.003991,0.462434,0.000004,0.000012,-0.000006,0.000015,0.000001,-62.784333,0.000019,
2026,2668,-5.05470957136067,0.49986584568876,-0.0270999728396077,0.006213,-0.000037,0.000751,0.284109,0.027370,321.250191,24.351386,0.999267,0.990845,0.003886,0.496270,-0.000021,-0.000006,0.000010,-0.000001,-0.000027,62.911706,0.000032,
2281,2668,0.488754276454632,0.510474250355685,-0.0205718410057329,0.006527,0.000027,0.001086,0.296388,0.031825,320.353839,24.431090,0.999640,0.991192,0.003933,0.316726,0.000005,0.000017,-0.000003,0.000018,0.000004,-75.600671,0.000023,
2206,2128,-1.04821837835398,-11.2943508769213,0.0164134694912832,0.006120,0.000773,-0.001437,0.285337,0.055796,329.528375,23.727987,0.998922,0.982820,0.005151,0.413305,0.000005,-0.000021,0.000001,0.000005,-0.000021,1.497688,0.000022,
2161,3253,-2.21748441304962,13.2060906595488,0.0241931312592101,0.005834,0.000051,0.003382,0.258959,0.040562,311.455614,24.722615,0.999677,0.994485,0.003100,0.454073,-0.000008,0.000024,-0.000003,0.000024,-0.000008,-85.174088,0.000025,
2131,3088,-2.83924443448046,9.62724470404682,0.0282024968652763,0.006388,0.000139,0.001960,0.288910,0.050260,314.337541,24.530709,0.999837,0.995571,0.003045,0.446934,-0.000002,0.000002,-0.000008,0.000009,-0.000008,-52.217922,0.000010,
2176,2113,-1.70057117960947,-11.6222516955655,0.0120986244153301,0.006025,0.000388,-0.000077,0.276595,0.053348,329.812379,23.875054,0.999196,0.980453,0.005455,0.420254,0.000009,-0.000020,0.000014,0.000015,-0.000026,22.453769,0.000026,
2461,3193,4.30636238481512,11.9322637471021,0.0323052934798511,0.005998,0.000225,0.004217,0.260359,0.068406,312.257038,26.122708,0.999608,0.991408,0.003637,0.470926,0.000005,0.000056,0.000007,0.000057,0.000004,82.843864,0.000068,
2191,1993,-1.35229187317097,-14.2566721624847,0.0327066448264191,0.005903,0.000055,0.003300,0.260088,0.041099,331.848632,23.712099,0.999470,0.984583,0.005009,0.338681,0.000030,-0.000030,-0.000005,0.000031,-0.000030,-4.542066,0.000035,
2191,2203,-1.38875854036589,-9.65020588693724,0.00688054492525225,0.006078,0.000317,-0.000321,0.279902,0.053626,328.278396,23.896494,0.998685,0.979248,0.005640,0.415390,0.000011,0.000003,0.000006,0.000014,0.000000,26.628438,0.000016,
2146,2023,-2.33958798078625,-13.5960918064915,0.0277965759697736,0.006012,0.000265,0.004564,0.261829,0.065749,331.477309,24.064356,0.998816,0.982437,0.005169,0.351109,0.000014,-0.000064,0.000010,0.000015,-0.000065,7.169058,0.000068,
2206,2278,-1.07435125325522,-8.00896707540542,0.00805001940574357,0.006278,-0.000135,0.002222,0.280987,0.031670,327.039032,23.937569,0.998895,0.983067,0.005179,0.372962,0.000005,0.000010,0.000004,0.000012,0.000003,58.001701,0.000016,
2056,2998,-4.45300304889877,7.67147902069701,0.00833573732370496,0.005901,0.000233,0.004259,0.260340,0.058918,315.985141,24.330522,0.999279,0.990083,0.003900,0.414474,0.000007,0.000001,-0.000017,0.000021,-0.000013,-39.506963,0.000021,
2101,3178,-3.50496351537111,11.5751369035211,0.0282843373483388,0.006072,0.000014,0.004269,0.267829,0.046163,312.985205,24.339034,0.999827,0.995780,0.002741,0.523725,-0.000011,0.000042,-0.000005,0.000043,-0.000012,-84.653946,0.000044,
2071,2818,-4.10030569999249,3.76469379284079,-0.0177290162339432,0.006281,0.000448,0.001119,0.286465,0.064862,318.636840,24.369353,0.999376,0.991023,0.004009,0.467777,-0.000025,0.000013,-0.000003,0.000013,-0.000026,-85.091142,0.000026,
2296,2458,0.853641237079788,-4.07087861134963,-0.0164046229726864,0.006410,0.000577,0.000741,0.291977,0.061164,323.772890,23.931570,0.999398,0.987797,0.004470,0.406984,0.000000,-0.000001,-0.000007,0.000006,-0.000008,-43.229364,0.000008,
2431,2923,3.70403771313008,6.06820668870812,-0.0142417755479869,0.005914,0.000232,0.002984,0.261028,0.063851,316.234185,25.160517,0.999654,0.992317,0.003608,0.403266,-0.000010,-0.000008,-0.000011,0.000002,-0.000020,-47.895740,0.000023,
2011,3043,-5.43455012356057,8.64343118329688,0.0185607226370621,0.006056,0.000204,0.001758,0.274966,0.060005,315.629458,24.116500,0.999447,0.994060,0.003469,0.463568,0.000022,-0.000016,-0.000011,0.000025,-0.000019,-15.072492,0.000027,
2146,3148,-2.52512671939495,10.9298039265084,0.0250325527020436,0.005722,0.000263,0.005975,0.246050,0.065465,313.225694,24.609851,0.999568,0.992926,0.003474,0.465751,-0.000007,0.000020,-0.000001,0.000020,-0.000007,-88.166291,0.000021,
2446,3028,4.01130002324294,8.35024489185012,0.00768627155599688,0.005910,0.000153,0.002523,0.262511,0.051069,314.727840,25.564090,0.999366,0.988378,0.004102,0.378761,-0.000004,0.000000,0.000000,0.000000,-0.000004,84.484157,0.000004,
2041,2758,-4.74268010576589,2.45807558602229,-0.0199666321141763,0.006186,-0.000265,0.006147,0.267968,0.063156,319.744063,24.285322,0.999405,0.991256,0.003942,0.548136,-0.000027,-0.000003,-0.000005,-0.000002,-0.000028,-79.776134,0.000033,
2191,2008,-1.35493986347641,-13.9278097989454,0.0271163600643263,0.006100,-0.000162,0.002812,0.270609,0.034561,331.572458,23.637508,0.999434,0.984581,0.004952,0.425170,0.000018,-0.000065,-0.000001,0.000018,-0.000065,-0.695114,0.000067,
2296,2473,0.850401479238457,-3.74338830086002,-0.0166867543139233,0.005943,0.000667,0.001073,0.269441,0.056041,323.505190,23.957969,0.998823,0.983401,0.005163,0.406829,0.000002,-0.000003,-0.000004,0.000004,-0.000005,-28.200696,0.000006,
2041,2998,-4.7779844570128,7.67029342911477,0.00909478377599271,0.006022,0.000054,0.002881,0.269918,0.047220,316.089072,24.285055,0.999261,0.990393,0.003864,0.405726,0.000010,-0.000003,-0.000018,0.000023,-0.000016,-34.843917,0.000023,
2371,2638,2.45301998573614,-0.141214454056758,-0.0205921947688807,0.006117,-0.000148,0.003519,0.268350,0.032884,320.774324,24.216914,0.999206,0.988378,0.004287,0.410047,0.000002,0.000021,-0.000004,0.000022,0.000002,-78.554394,0.000027,
2251,2548,-0.143275323336457,-2.10820843330615,-0.0166401964312968,0.006028,-0.000483,0.005954,0.257337,0.040927,322.342933,24.133584,0.999742,0.993649,0.003397,0.443826,-0.000002,0.000008,-0.000004,0.000010,-0.000003,-71.140634,0.000010,
2476,3253,4.61882476424458,13.2368456107808,0.0125986215052762,0.006168,0.000296,0.004171,0.268257,0.068158,311.146518,26.433407,0.999688,0.993470,0.003231,0.452342,0.000014,0.000033,0.000022,0.000048,-0.000001,56.266728,0.000054,
2506,2038,5.52477077685236,-13.2784891862903,0.0431791050048673,0.006100,-0.000588,0.009698,0.241085,0.046879,331.244000,21.636517,0.999245,0.970300,0.006472,0.379961,0.000010,-0.000078,0.000023,0.000016,-0.000083,13.715682,0.000089,
2026,2923,-5.09214400471662,6.04213935204268,0.000616262467360684,0.006190,0.000040,0.005432,0.270683,0.057780,317.331165,24.283053,0.999448,0.992586,0.003532,0.427832,-0.000005,0.000023,-0.000003,0.000023,-0.000006,-83.527918,0.000025,
2011,2878,-5.41135641537192,5.06584002486827,-0.0173591989319561,0.006362,0.000456,0.003088,0.285228,0.065234,318.022503,24.309310,0.999066,0.990869,0.004038,0.414779,-0.000003,0.000070,0.000005,0.000071,-0.000003,86.342209,0.000080,
2206,2143,-1.05090080962,-10.9654015908532,0.0189286496563454,0.006123,-0.000197,0.003040,0.271015,0.036074,329.293637,23.815408,0.999234,0.985010,0.004874,0.325657,0.000003,-0.000031,0.000001,0.000003,-0.000031,1.475218,0.000035,
2011,3178,-5.45416700842307,11.5676846453082,0.0442374221519231,0.005726,-0.000022,0.002758,0.257090,0.043420,313.625244,24.007528,0.999740,0.995630,0.002733,0.438635,0.000000,0.000066,0.000012,0.000068,-0.000002,79.679670,0.000077,
2116,3028,-3.15600152747648,8.32555853249662,0.0135093413611571,0.006200,-0.000061,0.004736,0.271993,0.054391,315.242877,24.461885,0.999383,0.991822,0.003635,0.454070,0.000004,0.000009,-0.000006,0.000013,0.000000,-56.743783,0.000015,
2221,2353,-0.762221227924485,-6.36758978533526,-0.0147719001046767,0.005948,-0.000407,0.001826,0.267045,0.023544,325.586947,23.873894,0.999477,0.988795,0.004321,0.470260,-0.000002,0.000004,0.000001,0.000004,-0.000002,77.756604,0.000004,
2056,3013,-4.45570225618732,7.99693454509729,0.00688524973060112,0.005648,0.000359,0.004195,0.248966,0.072520,315.717349,24.299857,0.999096,0.987479,0.004472,0.452534,0.000011,0.000007,-0.000017,0.000027,-0.000008,-41.607877,0.000027,
2131,3103,-2.84200345547665,9.95231284357371,0.0329533882791111,0.006070,-0.000086,0.005899,0.262369,0.054108,314.105986,24.538043,0.999813,0.995882,0.002903,0.447962,-0.000005,0.000002,-0.000004,0.000003,-0.000006,-65.941854,0.000006,
2326,2368,1.52467779371408,-6.03891544876389,-0.0060187446537725,0.006184,0.000423,-0.000123,0.284194,0.046031,325.288813,23.601758,0.999334,0.986173,0.004595,0.430444,-0.000009,0.000011,0.000001,0.000011,-0.000009,87.174184,0.000012,
2071,3028,-4.13163672313752,8.32258328324241,0.0141495931866871,0.006221,0.000470,0.001306,0.283533,0.067389,315.484684,24.321007,0.999624,0.993648,0.003214,0.467140,0.000018,0.000009,-0.000016,0.000030,-0.000003,-37.367757,0.000033,
2071,2833,-4.10282644795348,4.0901113708877,-0.00515965040119681,0.005810,-0.000494,0.008645,0.242946,0.031497,318.455139,24.438009,0.999448,0.991844,0.003671,0.362125,-0.000022,0.000017,-0.000006,0.000018,-0.000023,-81.512053,0.000024,
2101,2998,-3.4772290876511,7.67513464757121,0.00100494529033313,0.006090,0.000392,0.002310,0.274350,0.071356,315.699661,24.462250,0.999629,0.993475,0.003299,0.422943,0.000005,0.000008,-0.000005,0.000012,0.000001,-54.339806,0.000014,
2236,2203,-0.406429358740152,-9.65306741017064,0.0187727169706591,0.006532,0.000016,0.002942,0.289987,0.048418,328.275736,23.572667,0.999462,0.988814,0.004425,0.508705,-0.000005,-0.000005,0.000001,-0.000004,-0.000006,36.517193,0.000011,
2161,3268,-2.22004222247107,13.5311321416278,0.0212008903698688,0.006039,0.000052,0.003433,0.268303,0.048689,311.194057,24.719863,0.999669,0.994503,0.003145,0.473596,-0.000003,0.000026,0.000000,0.000026,-0.000003,89.075412,0.000028,
2341,2503,1.82540327091148,-3.08918790499234,-0.0103767436525573,0.005700,-0.000158,0.003374,0.249834,0.041833,323.028448,23.840724,0.999363,0.987294,0.004323,0.479495,0.000007,0.000009,0.000002,0.000010,0.000006,56.171244,0.000016,
2191,2023,-1.35727175857993,-13.5978748905061,0.0278049999992618,0.006216,0.000044,0.002634,0.276572,0.047136,331.342934,23.718669,0.999193,0.984353,0.004964,0.374679,0.000010,-0.000059,-0.000005,0.000011,-0.000059,-3.806410,0.000063,
2101,3193,-3.50713198246411,11.9003434173747,0.0393961971179806,0.005783,0.000134,0.006331,0.248509,0.050668,312.813499,24.416317,0.999618,0.994291,0.003129,0.450835,-0.000014,0.000041,-0.000009,0.000043,-0.000016,-80.842631,0.000043,
2476,3268,4.61526255537166,13.5626289805777,0.0103278555751558,0.006066,0.000010,0.006910,0.253089,0.064963,310.865434,26.520249,0.999845,0.995339,0.002828,0.417174,0.000021,0.000018,0.000023,0.000042,-0.000003,43.195117,0.000047,
2191,2218,-1.3909104626222,-9.32185206217638,0.00852121830837405,0.006342,0.000520,-0.000132,0.291519,0.056204,328.062089,23.924198,0.998720,0.981326,0.005571,0.407025,0.000004,0.000007,0.000002,0.000008,0.000003,64.714660,0.000011,
2086,2893,-3.78619534353463,5.39380932177686,-0.00509034984105483,0.006133,-0.000237,0.003889,0.271543,0.057531,317.430421,24.351084,0.999440,0.993718,0.003585,0.488367,-0.000005,0.000038,-0.000006,0.000039,-0.000005,-81.745712,0.000042,
2266,2563,0.18109614398811,-1.7820240016382,-0.011786384392849,0.005912,-0.000204,0.002321,0.263901,0.038965,322.121670,24.052125,0.999431,0.989988,0.004146,0.525507,0.000000,0.000005,-0.000008,0.000011,-0.000005,-54.070673,0.000011,
2221,2158,-0.725870588556209,-10.6363917994204,0.0141251851000561,0.006527,0.000845,-0.001566,0.304483,0.073400,329.008050,23.713454,0.998583,0.985144,0.005259,0.403225,0.000001,-0.000026,0.000002,0.000001,-0.000027,4.834430,0.000030,
2356,2578,2.13832564063621,-1.4516331836188,-0.00936158860218939,0.005880,-0.000285,0.003653,0.257033,0.044617,321.827474,24.037963,0.999281,0.987582,0.004441,0.453278,0.000007,0.000015,0.000004,0.000017,0.000005,68.226446,0.000023,
2236,2443,-0.450543511557793,-4.39989079392686,-0.00443791439352026,0.006109,-0.000370,0.006638,0.258906,0.027962,324.175705,24.159804,0.999653,0.991613,0.003927,0.272163,-0.000012,0.000001,-0.000014,0.000010,-0.000021,-57.016447,0.000021,
2056,2788,-4.42162238695937,3.11225829193101,-0.0207744373252581,0.006213,-0.000017,0.003963,0.275184,0.045231,319.170137,24.402059,0.999260,0.989265,0.004098,0.410383,-0.000037,0.000011,-0.000006,0.000012,-0.000037,-82.459191,0.000038,
2176,2128,-1.70355511291555,-11.2932191868597,0.0135105013721386,0.005680,-0.000131,0.003590,0.249317,0.030039,329.555738,23.956374,0.999042,0.981031,0.005390,0.330858,0.000009,-0.000023,0.000010,0.000012,-0.000026,16.117723,0.000026,
2086,3088,-3.81604107080911,9.6242911260973,0.0235473533236927,0.005825,0.000080,0.004498,0.255920,0.056793,314.478236,24.361781,0.999515,0.991298,0.003600,0.454946,0.000012,0.000005,-0.000011,0.000020,-0.000002,-36.010421,0.000022,
2386,2728,2.76277935778445,1.82041970790642,-0.0166870973075106,0.006278,-0.000224,0.004342,0.272772,0.042895,319.356027,24.440134,0.999581,0.991543,0.003721,0.448127,-0.000006,0.000029,0.000003,0.000030,-0.000006,85.338632,0.000031,
2281,2683,0.485908260312076,0.836558176184241,-0.0213173628258687,0.006491,0.000237,0.001784,0.292528,0.050673,320.100370,24.367392,0.999670,0.991651,0.003734,0.427448,0.000005,0.000017,-0.000005,0.000019,0.000003,-69.620343,0.000025,
2011,3058,-5.43601898736766,8.96801930110064,0.0272023210998213,0.006251,0.000273,-0.000256,0.289415,0.044503,315.471937,24.111035,0.999309,0.993009,0.003467,0.440575,0.000024,0.000003,-0.000001,0.000024,0.000003,-3.983260,0.000030,
2026,2938,-5.09495047707867,6.36788714433462,0.00233404222797162,0.005803,-0.000132,0.009102,0.242713,0.060304,317.073721,24.291264,0.999195,0.990855,0.003940,0.411671,-0.000001,0.000008,0.000001,0.000008,-0.000001,86.380583,0.000008,
2161,2068,-2.01937364092734,-12.6097913299901,0.0246888741839939,0.006244,0.000151,0.001022,0.283130,0.043996,330.696794,23.954220,0.999314,0.984306,0.005013,0.379080,0.000006,-0.000029,0.000013,0.000010,-0.000033,18.269606,0.000034,
2446,3043,4.0084096881956,8.67534134146381,0.0115064888508982,0.005841,-0.000229,0.004213,0.252910,0.045676,314.505055,25.568881,0.999288,0.988102,0.004121,0.419640,-0.000011,0.000015,0.000001,0.000015,-0.000011,88.905432,0.000016,
2461,3208,4.3035325028968,12.25817627356,0.0303074294751013,0.006172,0.000607,0.002017,0.276789,0.074661,312.010191,26.196189,0.999532,0.989693,0.003926,0.456848,0.000007,0.000050,0.000006,0.000051,0.000007,82.203640,0.000063,
2026,2683,-5.05833387639556,0.829072308569437,-0.0430558660597171,0.005951,0.000011,0.002948,0.266093,0.042799,320.855284,24.447843,0.999794,0.995960,0.002921,0.406246,-0.000025,-0.000023,0.000005,-0.000019,-0.000029,51.413201,0.000048,
2146,3163,-2.52653720144589,11.2544999550277,0.0345730983132171,0.006063,0.000176,0.003833,0.268275,0.064353,313.082591,24.631254,0.999624,0.991621,0.003619,0.449776,-0.000008,0.000026,-0.000003,0.000027,-0.000008,-84.475842,0.000027,
2506,2053,5.52092561548137,-12.9480126206095,0.0386168189498903,0.006093,-0.001442,0.013324,0.226466,0.032111,330.948974,21.749625,0.999272,0.981589,0.005457,0.316711,0.000016,-0.000075,0.000020,0.000020,-0.000079,12.061093,0.000082,
2191,2038,-1.36032608457321,-13.2664730966473,0.0168835197633257,0.006277,0.000308,0.000451,0.286266,0.048753,331.020192,23.819639,0.999230,0.986247,0.004702,0.293699,0.000012,-0.000036,-0.000004,0.000013,-0.000036,-4.868014,0.000037,
2011,2893,-5.41371204512489,5.3911649232851,-0.0142989028872194,0.006044,0.000387,0.002240,0.272858,0.053655,317.792308,24.290988,0.999325,0.992461,0.003569,0.409049,-0.000001,0.000062,-0.000007,0.000063,-0.000002,-83.841743,0.000071,
2266,2338,0.222167726777077,-6.69541623932371,-0.000257168552309395,0.006052,-0.000023,0.002124,0.270659,0.038016,325.865069,23.803082,0.999050,0.982986,0.005208,0.369165,-0.000004,0.000000,-0.000009,0.000007,-0.000011,-50.537365,0.000011,
2401,2818,3.07136013371155,3.78175057739691,-0.0204536753522575,0.005728,0.000275,-0.000061,0.263640,0.057732,317.861153,24.733934,0.999430,0.989123,0.004325,0.444947,-0.000010,0.000028,-0.000002,0.000028,-0.000010,-86.280374,0.000029,
2041,3013,-4.78067622391064,7.99664140669045,0.00550230057007184,0.005987,0.000050,0.004512,0.263831,0.062406,315.808271,24.320110,0.999484,0.991773,0.003712,0.377607,0.000011,0.000004,-0.000017,0.000025,-0.000009,-38.726986,0.000025,
2296,2713,0.805235224370289,1.49133819811786,-0.0366520286142418,0.006054,0.000057,0.001957,0.271785,0.044068,319.446235,24.369463,0.999759,0.993104,0.003504,0.475926,0.000002,0.000024,-0.000001,0.000024,0.000002,-88.146156,0.000029,
2251,2353,-0.107180691632234,-6.36897197789693,0.00761587262394414,0.005886,-0.000526,0.004459,0.255338,0.025862,325.698789,23.840589,0.999128,0.985446,0.004919,0.399555,-0.000005,0.000004,0.000000,0.000004,-0.000005,-87.907200,0.000005,
2011,3193,-5.45610933844809,11.8930025430689,0.0401312264173157,0.006202,0.000319,0.000355,0.285701,0.045380,313.374231,24.005111,0.999746,0.995515,0.002691,0.429690,-0.000003,0.000075,0.000010,0.000076,-0.000004,83.015894,0.000086,
2041,2773,-4.74552666593038,2.78552293032271,-0.0262404424952933,0.005907,-0.000264,0.004142,0.260685,0.048661,319.440779,24.359535,0.999146,0.990150,0.004083,0.452080,-0.000032,0.000011,-0.000006,0.000012,-0.000032,-82.621866,0.000033,
2476,3283,4.6131128307962,13.8871652123382,0.0172514896361804,0.005852,0.000227,0.000555,0.267465,0.046518,310.691756,26.561027,0.999842,0.995872,0.002825,0.413081,0.000030,-0.000016,0.000027,0.000042,-0.000028,24.699220,0.000043,
2116,3208,-3.18345055646005,12.2264601816033,0.0454155786146657,0.006252,0.000256,0.003146,0.279518,0.069940,312.578152,24.491637,0.999638,0.994002,0.003233,0.468289,-0.000010,0.000037,-0.000011,0.000040,-0.000012,-77.308692,0.000041,
2416,2908,3.38095503949072,5.73981246127957,-0.0122872207255682,0.006295,-0.000395,0.005488,0.269156,0.024926,316.483540,25.023636,0.999587,0.991484,0.003687,0.422634,-0.000014,0.000003,-0.000003,0.000003,-0.000015,-78.964783,0.000016,
2431,2938,3.70147510462271,6.39389384199476,-0.0115284897543688,0.006101,0.000295,0.002968,0.269693,0.061757,316.020683,25.182838,0.999677,0.991948,0.003678,0.428308,-0.000007,-0.000012,-0.000011,0.000002,-0.000021,-38.308029,0.000023,
2026,2953,-5.09627011963588,6.69338077283924,0.00422028491135507,0.006207,0.000439,0.001328,0.282925,0.064653,316.885466,24.279211,0.999434,0.992150,0.003572,0.417718,0.000010,-0.000004,-0.000005,0.000012,-0.000005,-17.445737,0.000012,
2206,2293,-1.07638940646994,-7.68000236307026,0.00199904103413928,0.006681,0.000836,-0.005403,0.323953,0.035268,326.789344,23.968302,0.999102,0.985517,0.004833,0.364876,0.000003,0.000002,0.000008,0.000011,-0.000005,43.249526,0.000011,
2161,3283,-2.22279332754042,13.856232916152,0.0235873813296621,0.005743,0.000288,0.004251,0.252239,0.060877,310.952048,24.751947,0.999731,0.995002,0.002953,0.462075,-0.000001,0.000030,0.000005,0.000031,-0.000001,80.707471,0.000035,
2221,2173,-0.728323929432346,-10.3078615670737,0.0109227624529353,0.006462,0.001584,-0.007300,0.320113,0.059565,328.755763,23.706822,0.998919,0.984606,0.005046,0.417676,-0.000002,-0.000014,0.000007,0.000002,-0.000017,24.921537,0.000019,
2281,2443,0.529644777464334,-4.40125211266316,-0.00479137911094085,0.006006,-0.000577,0.005594,0.256821,0.024778,324.095455,23.854190,0.999631,0.989582,0.004170,0.455867,0.000003,-0.000003,-0.000011,0.000012,-0.000012,-37.234869,0.000014,
2296,2488,0.848171297508689,-3.41660782142223,-0.0139981809279561,0.006225,0.000515,0.000876,0.283014,0.044767,323.298603,23.957410,0.999385,0.988792,0.004270,0.427284,0.000003,0.000002,-0.000005,0.000007,-0.000002,-40.677114,0.000008,
2056,2803,-4.42367154889532,3.43879671621238,-0.0240900835565299,0.006708,0.000024,0.004061,0.297779,0.056650,318.921280,24.399817,0.999248,0.990284,0.004035,0.418735,-0.000031,0.000007,-0.000001,0.000007,-0.000031,-88.856649,0.000032,
2251,2563,-0.145736068178312,-1.78127874910405,-0.0158818775310579,0.006073,-0.000115,0.004730,0.263551,0.049005,322.112442,24.132859,0.999585,0.991393,0.003770,0.476908,-0.000006,0.000007,-0.000009,0.000012,-0.000011,-61.349662,0.000013,
2311,2323,1.20587645927963,-7.02331278368906,-0.00172575692090504,0.006279,-0.000438,0.005400,0.269405,0.043232,326.045000,23.582184,0.999183,0.984212,0.005025,0.395818,-0.000009,-0.000007,0.000001,-0.000007,-0.000010,63.796068,0.000016,
2071,2848,-4.10573455993184,4.41741358251266,-0.0173987287118393,0.005879,-0.000098,0.006214,0.253284,0.052705,318.119024,24.442657,0.999687,0.994093,0.003200,0.375589,-0.000019,0.000025,-0.000002,0.000025,-0.000019,-87.084761,0.000026,
2326,2383,1.52150719067355,-5.71100833902804,-0.00142406292735586,0.006014,-0.000668,0.007298,0.250477,0.021405,325.050803,23.702613,0.999535,0.987647,0.004541,0.340977,-0.000003,0.000008,-0.000006,0.000010,-0.000006,-67.580800,0.000010,
2011,3073,-5.43868928608169,9.29301662765148,0.025564028968347,0.006171,-0.000223,0.003025,0.276728,0.045514,315.201352,24.063706,0.999292,0.993320,0.003532,0.476243,0.000026,0.000017,0.000011,0.000033,0.000010,34.285176,0.000045,
2101,3013,-3.47932012063254,7.99947127623946,0.00476345016238611,0.006277,0.000149,0.003646,0.278899,0.049684,315.491807,24.400149,0.999429,0.992259,0.003493,0.463865,0.000008,0.000012,-0.000009,0.000019,0.000001,-52.711633,0.000023,
2146,2038,-2.34261690863088,-13.2670581434744,0.0248651364365742,0.005665,-0.000365,0.005644,0.242498,0.032176,331.193365,24.073636,0.999015,0.983221,0.005168,0.319939,0.000011,-0.000045,0.000010,0.000012,-0.000047,9.459620,0.000049,
2131,3118,-2.84481944623839,10.2782662433797,0.0263613919792078,0.006049,0.000222,0.003892,0.267574,0.060348,313.810766,24.557293,0.999749,0.995546,0.003006,0.439603,-0.000007,0.000005,-0.000007,0.000008,-0.000010,-63.596421,0.000011,
2026,2698,-5.06037115733276,1.15476937678685,-0.0424693199479975,0.006050,0.000207,0.001411,0.274946,0.050007,320.626368,24.372469,0.999818,0.995501,0.003000,0.479394,-0.000023,-0.000031,0.000009,-0.000017,-0.000037,33.044030,0.000055,
2041,3028,-4.78269284607859,8.32096700032294,0.00875661216474555,0.005994,0.000383,0.002610,0.269485,0.057761,315.597249,24.238846,0.999556,0.992285,0.003679,0.445827,0.000013,0.000006,-0.000013,0.000023,-0.000005,-37.109858,0.000025,
2176,2143,-1.70586023599966,-10.9658020423396,0.0239100309134415,0.005617,-0.000774,0.010496,0.224875,0.050819,329.376972,23.948001,0.998781,0.980749,0.005446,0.375007,0.000009,-0.000029,0.000007,0.000010,-0.000030,10.201599,0.000031,
2116,3223,-3.18621591896348,12.550758909093,0.045855680084685,0.006067,-0.000184,0.005073,0.265075,0.047832,312.322530,24.455950,0.999659,0.994851,0.003089,0.483954,-0.000014,0.000040,-0.000013,0.000043,-0.000017,-77.046919,0.000043,
2101,3208,-3.50876234129495,12.225775499962,0.0432805792625004,0.006186,0.000174,0.003520,0.275423,0.058497,312.627212,24.471377,0.999626,0.994080,0.003177,0.403564,-0.000017,0.000040,-0.000009,0.000041,-0.000018,-81.592095,0.000042,
2401,2833,3.06853771343951,4.10860328293514,-0.0214914900806207,0.006218,0.000064,0.003794,0.272100,0.056528,317.616109,24.805628,0.999315,0.988779,0.004235,0.417571,-0.000010,0.000028,0.000000,0.000028,-0.000010,-89.559285,0.000028,
2416,2923,3.3783716358016,6.06673146018375,-0.0102374646294834,0.006329,-0.000047,0.003380,0.278585,0.033152,316.264677,25.139959,0.999658,0.992514,0.003552,0.361983,-0.000012,-0.000003,-0.000009,0.000002,-0.000017,-57.710586,0.000019,
2191,2233,-1.39366299539092,-8.9934623149702,0.00714712443686949,0.006086,0.000246,-0.001862,0.285090,0.031270,327.802802,23.956602,0.998888,0.982406,0.005327,0.366871,0.000000,0.000014,0.000005,0.000015,-0.000002,70.395622,0.000017,
2371,2653,2.44972125311396,0.186338940286149,-0.0266558252947107,0.006086,-0.000029,0.002575,0.270382,0.053420,320.481551,24.233742,0.999310,0.987693,0.004417,0.455761,-0.000004,0.000022,-0.000005,0.000023,-0.000005,-79.810494,0.000024,
2236,2458,-0.453331145500773,-4.07336274909971,-0.0021049565540352,0.005695,-0.000447,0.005608,0.243243,0.031645,323.937362,24.106873,0.999540,0.989872,0.004181,0.351366,-0.000007,0.000005,-0.000009,0.000009,-0.000012,-62.710863,0.000012,
2206,2158,-1.05377352220672,-10.6372120643303,0.0153025739220993,0.005982,0.000173,0.002291,0.267084,0.060065,329.018495,23.729414,0.999054,0.985732,0.004916,0.455561,0.000004,-0.000026,0.000002,0.000004,-0.000027,4.071861,0.000029,
2161,3298,-2.22541009051088,14.1811407274335,0.0211168905344152,0.005842,0.000411,0.004094,0.257288,0.051095,310.690573,24.765349,0.999811,0.996433,0.002570,0.447610,-0.000001,0.000044,-0.000006,0.000045,-0.000001,-82.412180,0.000051,
2056,3028,-4.45741411478643,8.32251095244153,0.00377686360468488,0.006339,0.000718,0.001735,0.287928,0.080868,315.485657,24.278680,0.999495,0.992126,0.003599,0.475999,0.000014,0.000008,-0.000016,0.000028,-0.000006,-39.899825,0.000029,
2266,2578,0.178247686773719,-1.45281796676389,-0.0237770107937649,0.006278,0.000520,-0.002364,0.296485,0.056670,321.809989,24.143759,0.999272,0.988472,0.004349,0.478418,0.000004,0.000016,-0.000005,0.000018,0.000002,-68.696369,0.000022,
2251,2578,-0.148033498273467,-1.45375216816629,-0.0163989673586116,0.006230,0.000358,0.001459,0.281677,0.055092,321.882834,24.182306,0.999466,0.989722,0.004019,0.457593,-0.000002,0.000017,-0.000007,0.000019,-0.000004,-70.538345,0.000020,
2341,2518,1.82284718427258,-2.76094937368076,-0.00794121447779617,0.005833,0.000016,0.004142,0.253364,0.050590,322.808589,23.961039,0.999081,0.984475,0.004651,0.405572,0.000007,0.000004,0.000001,0.000008,0.000004,14.550527,0.000012,
2281,2698,0.483032645978739,1.1626050224106,-0.0129968672385985,0.005982,-0.000270,0.005394,0.256903,0.046780,319.890813,24.401795,0.999814,0.993544,0.003435,0.417297,0.000004,0.000014,-0.000003,0.000015,0.000003,-73.452848,0.000020,
2446,3058,4.00579750123274,9.00163940424567,0.00977675471801831,0.006294,-0.000065,0.003310,0.277179,0.043201,314.269016,25.648890,0.999544,0.990688,0.003828,0.388491,-0.000012,0.000015,0.000000,0.000015,-0.000012,-89.630599,0.000016,
2071,2863,-4.10735996774519,4.74245444166937,-0.0159630981896726,0.006174,0.000211,0.000547,0.283157,0.048506,317.917431,24.372011,0.999435,0.991607,0.003768,0.438458,-0.000014,0.000026,-0.000004,0.000027,-0.000015,-84.052632,0.000027,
2236,2218,-0.409637546779688,-9.32259420482058,0.00769611205049614,0.006545,-0.000083,0.000405,0.298784,0.026481,327.949978,23.686147,0.999021,0.983490,0.005061,0.397606,-0.000007,-0.000003,0.000000,-0.000003,-0.000007,85.286423,0.000010,
2071,3043,-4.13451336295408,8.64831100028287,0.0127936314751764,0.005954,0.000074,0.003444,0.265014,0.059981,315.210352,24.345197,0.999584,0.993556,0.003260,0.431472,0.000019,0.000003,-0.000020,0.000033,-0.000010,-34.148068,0.000033,
2116,3043,-3.15820294363025,8.65170165951008,0.0202693446016724,0.005924,-0.000263,0.003129,0.263939,0.035803,315.046452,24.589642,0.999663,0.993681,0.003272,0.310143,0.000003,0.000003,-0.000009,0.000012,-0.000006,-45.810981,0.000012,
2461,3223,4.30005108300653,12.5840063207329,0.0248140060091941,0.006030,0.000578,0.000395,0.276348,0.059318,311.717195,26.267819,0.999530,0.991733,0.003655,0.422969,0.000009,0.000034,0.000013,0.000040,0.000004,67.294365,0.000048,
2251,2368,-0.110730785014084,-6.038876513645,-0.00659643437990098,0.006087,-0.000482,0.005619,0.260813,0.028780,325.342672,23.924837,0.999419,0.988495,0.004593,0.343883,-0.000010,0.000009,-0.000004,0.000010,-0.000011,-77.973361,0.000012,
2221,2368,-0.764123551582429,-6.03937545743297,-0.00477983218570444,0.006016,-0.000359,0.002985,0.266528,0.044933,325.426921,24.003403,0.999629,0.989392,0.004220,0.382654,-0.000007,0.000010,-0.000006,0.000012,-0.000009,-72.421136,0.000012,
2191,2053,-1.36332583234467,-12.9380626913504,0.0151148493395681,0.006038,0.000147,0.002534,0.268825,0.046794,330.747677,23.760815,0.999207,0.982838,0.005073,0.368761,0.000011,-0.000036,0.000000,0.000011,-0.000036,-0.435444,0.000037,
2026,2713,-5.06233760033373,1.48093931248891,-0.0371442137295617,0.006128,-0.000106,0.002983,0.274169,0.042996,320.427045,24.397403,0.999663,0.994357,0.003390,0.438095,-0.000022,-0.000028,0.000009,-0.000016,-0.000034,36.643320,0.000051,
2011,3208,-5.45809150322904,12.2180964915965,0.0396807528709928,0.006481,0.000504,-0.001093,0.302615,0.052865,313.142099,24.002133,0.999609,0.993773,0.003160,0.427157,-0.000002,0.000071,0.000018,0.000075,-0.000006,77.155458,0.000084,
2086,2908,-3.78873284541967,5.71989817839736,-0.00372211561273161,0.006007,-0.000238,0.005470,0.261134,0.049729,317.187417,24.391915,0.999438,0.992516,0.003676,0.438468,-0.000006,0.000026,-0.000012,0.000030,-0.000010,-71.790153,0.000031,
2476,3298,4.6093694439428,14.213043730357,0.00602723157669516,0.006200,0.000251,0.001937,0.278230,0.049705,310.361273,26.609563,0.999655,0.993563,0.003399,0.423140,0.000032,-0.000038,0.000030,0.000043,-0.000049,20.426530,0.000054,
2101,3028,-3.48176126414762,8.3247588672515,0.00713583447810606,0.006125,0.000111,0.003717,0.271691,0.046578,315.260032,24.401415,0.999250,0.991808,0.003658,0.459845,0.000008,0.000010,-0.000010,0.000019,-0.000001,-49.053073,0.000021,
2056,2818,-4.42610037359591,3.76440755289942,-0.0211677653800848,0.006438,-0.000061,0.004129,0.285122,0.055456,318.689760,24.377384,0.999222,0.989738,0.004100,0.434473,-0.000031,0.000015,-0.000003,0.000016,-0.000031,-86.383028,0.000031,
2356,2593,2.13525652013358,-1.12321497147714,-0.0165028397047422,0.006006,0.000039,0.001054,0.272065,0.035153,321.538841,24.133263,0.999221,0.987319,0.004494,0.388249,0.000009,-0.000003,0.000003,0.000010,-0.000004,11.929140,0.000010,
2506,2068,5.51944197800046,-12.6197034463955,0.0522273447485304,0.006166,-0.000797,0.008465,0.248810,0.030807,330.842954,21.859032,0.999469,0.984154,0.005045,0.269597,0.000017,-0.000020,0.000013,0.000021,-0.000024,17.172949,0.000026,
2296,2728,0.803155958048968,1.81733364625235,-0.0262342486960279,0.006130,-0.000249,0.004476,0.266632,0.040961,319.284434,24.424308,0.999594,0.991455,0.003749,0.447914,0.000003,0.000017,0.000001,0.000018,0.000003,86.838965,0.000022,
2431,2953,3.69787504164893,6.7205380475982,-0.0179870984132435,0.005940,0.000384,0.002269,0.264953,0.061580,315.716428,25.231236,0.999725,0.993190,0.003507,0.429415,-0.000004,-0.000014,-0.000007,0.000000,-0.000018,-28.681096,0.000020,
2266,2353,0.218577665176245,-6.36808657616196,0.000427990327864336,0.005355,-0.000541,0.005950,0.225857,0.037378,325.584056,23.778331,0.999221,0.984075,0.005039,0.420909,-0.000006,0.000004,-0.000005,0.000006,-0.000008,-66.037497,0.000009,
2056,3043,-4.46012010795357,8.64753647407326,0.00790555377221835,0.005965,0.000091,0.005303,0.260439,0.064910,315.248588,24.283157,0.999705,0.995092,0.003031,0.449416,0.000016,0.000002,-0.000022,0.000033,-0.000014,-36.118718,0.000033,
2011,2908,-5.41539799835025,5.71654347247796,-0.0079259263768563,0.006142,0.000459,0.000373,0.282554,0.067657,317.611381,24.279672,0.999168,0.992434,0.003630,0.421937,0.000004,0.000048,-0.000015,0.000053,-0.000001,-72.676130,0.000061,
2086,3103,-3.81825538691915,9.94948594643679,0.0278155442030652,0.005913,0.000129,0.006867,0.253170,0.068940,314.266312,24.368759,0.999753,0.994170,0.003067,0.458154,0.000011,0.000006,-0.000005,0.000014,0.000003,-33.469616,0.000018,
2176,1993,-1.6784941375357,-14.2575426075241,0.0434322599313646,0.006479,-0.000343,0.004437,0.283032,0.013721,332.006437,23.850231,0.999309,0.982409,0.005193,0.278025,0.000040,-0.000025,0.000008,0.000040,-0.000026,6.942755,0.000041,
2041,3043,-4.78479093775209,8.64580818734184,0.0152651317343953,0.005880,0.000229,0.003252,0.262447,0.054438,315.400417,24.228621,0.999730,0.995187,0.002952,0.444312,0.000015,0.000000,-0.000019,0.000028,-0.000013,-33.948047,0.000028,
2176,2158,-1.71162940939621,-10.6308069103555,-0.0253360160618286,0.005446,-0.000467,0.006849,0.228488,0.031373,328.727964,24.038947,0.999391,0.958989,0.006927,0.281966,0.000010,-0.000030,0.000004,0.000010,-0.000031,6.323056,0.000031,
2131,3133,-2.84731981329578,10.6029651120969,0.031950938533214,0.005813,-0.000115,0.005926,0.250445,0.042937,313.595729,24.564244,0.999688,0.995076,0.003055,0.419574,-0.000004,0.000014,-0.000003,0.000015,-0.000004,-81.134115,0.000015,
2191,2248,-1.39614836264326,-8.66584190404544,0.00857547228429212,0.006060,0.000079,-0.001246,0.281958,0.007353,327.570361,23.951842,0.998803,0.982691,0.005272,0.364279,0.000001,0.000008,0.000004,0.000010,-0.000001,66.717928,0.000011,
2011,3088,-5.44103635428994,9.61814291162076,0.0354568888763538,0.005759,-0.000113,0.006744,0.247665,0.060180,315.010452,24.092053,0.999615,0.994997,0.003031,0.449263,0.000020,0.000006,0.000011,0.000026,-0.000001,28.805841,0.000030,
2011,3223,-5.46089176203076,12.5429584420256,0.0421297725058594,0.006269,-0.000278,0.005824,0.273865,0.049604,312.888903,24.009014,0.999434,0.992754,0.003480,0.403390,-0.000008,0.000046,0.000013,0.000049,-0.000011,77.138369,0.000051,
2311,2338,1.2031948431441,-6.69520023872546,-0.00322102609806052,0.006386,-0.000123,0.004440,0.277723,0.047243,325.798433,23.598461,0.999196,0.983833,0.004881,0.417651,-0.000009,0.000003,-0.000004,0.000004,-0.000010,-73.755673,0.000010,
2071,2878,-4.11001364740191,5.06848083923285,-0.0179847594135936,0.006023,0.000225,0.000680,0.275821,0.043625,317.649448,24.371452,0.999206,0.989776,0.004217,0.430737,-0.000006,0.000039,-0.000003,0.000039,-0.000006,-85.811087,0.000042,
2026,2968,-5.09856184574408,7.01820221125802,0.00712860440762597,0.006110,0.000248,0.002389,0.275447,0.055032,316.658663,24.230390,0.999453,0.992191,0.003498,0.446640,0.000016,-0.000010,-0.000012,0.000021,-0.000014,-21.172519,0.000022,
2206,2173,-1.05611459566569,-10.3077933031362,0.00891385992673577,0.006093,0.001017,-0.005406,0.296812,0.051765,328.753401,23.764182,0.999290,0.986600,0.004681,0.432082,0.000001,-0.000014,0.000006,0.000004,-0.000017,19.643405,0.000017,
2296,2503,0.844245170473439,-3.08784005200867,-0.0218026644629958,0.005794,0.000022,0.003306,0.254885,0.038943,322.961861,24.042939,0.999687,0.992782,0.003652,0.367253,0.000002,-0.000004,-0.000009,0.000008,-0.000011,-36.388445,0.000011,
2491,1993,5.20559877264086,-14.2662650429239,0.0377955200379461,0.005798,-0.000255,0.003277,0.252268,0.021301,331.889795,21.584810,0.999111,0.968446,0.006776,0.319023,-0.000019,-0.000175,0.000030,-0.000014,-0.000181,10.543794,0.000217,
2191,2068,-1.36660183786553,-12.6099028720698,0.011208618521664,0.005726,-0.000553,0.005395,0.245405,0.005123,330.451707,23.700803,0.999450,0.984194,0.005065,0.405125,0.000011,-0.000029,0.000007,0.000012,-0.000030,9.978387,0.000030,
2386,2743,2.76010494065278,2.14709684844968,-0.0157659990645698,0.006178,0.000268,0.001206,0.279655,0.060538,319.126308,24.464872,0.999629,0.992001,0.003686,0.484598,-0.000006,0.000034,0.000004,0.000034,-0.000006,83.584927,0.000036,
2326,2398,1.51970223984192,-5.38483124164504,0.0078312835324823,0.005967,-0.000016,0.003173,0.262785,0.031599,324.898241,23.659088,0.999475,0.987988,0.004557,0.430567,-0.000001,0.000018,-0.000006,0.000019,-0.000002,-73.737787,0.000021,
2146,3178,-2.5287634913113,11.5792041935589,0.0389535033384618,0.006131,0.000150,0.004738,0.268740,0.071828,312.874559,24.616859,0.999494,0.991181,0.003643,0.478365,-0.000009,0.000029,-0.000003,0.000029,-0.000009,-85.479250,0.000030,
2161,2083,-2.02165672929793,-12.2798818690572,0.026117666202822,0.006252,0.000375,0.000006,0.286731,0.037967,330.470860,24.081192,0.999304,0.983893,0.005091,0.259414,0.000007,-0.000013,0.000015,0.000015,-0.000021,27.476104,0.000021,
2461,3238,4.2974800756867,12.909628753074,0.0237429969499772,0.006428,0.000444,-0.001307,0.301062,0.053560,311.486459,26.340138,0.999742,0.993988,0.003211,0.397957,0.000013,0.000035,0.000017,0.000044,0.000003,61.425584,0.000053,
2026,2728,-5.06386546040709,1.80642404826799,-0.0251451961282783,0.006179,0.000361,0.003500,0.275247,0.064556,320.285207,24.388346,0.999561,0.992292,0.003648,0.458709,-0.000027,-0.000015,0.000011,-0.000008,-0.000034,58.879223,0.000044,
2116,3238,-3.18925805892241,12.8763482361046,0.0380031519779322,0.006012,-0.000067,0.004967,0.262877,0.044773,312.008954,24.477062,0.999655,0.995067,0.002934,0.461605,-0.000017,0.000035,-0.000014,0.000038,-0.000021,-75.592778,0.000038,
2101,3223,-3.5110867242582,12.5499725955971,0.0482642924224592,0.006057,0.000087,0.004367,0.266971,0.050446,312.415524,24.438098,0.999609,0.994183,0.003189,0.428542,-0.000023,0.000042,-0.000011,0.000043,-0.000025,-80.854493,0.000043,
2101,3043,-3.48401783461346,8.65040646096447,0.0149846639759517,0.005849,-0.000049,0.004381,0.257036,0.046128,315.066285,24.472795,0.999555,0.993126,0.003376,0.388255,0.000006,0.000005,-0.000013,0.000019,-0.000008,-43.049750,0.000019,
2011,3238,-5.46269274199006,12.8669767054272,0.0500034251458601,0.006167,0.000144,0.003137,0.276534,0.052200,312.712498,23.966304,0.999551,0.993306,0.003402,0.435442,-0.000011,0.000026,0.000000,0.000026,-0.000011,-89.241133,0.000027,
2341,2533,1.8202450734225,-2.43332260064066,-0.0122916295757136,0.006183,0.000267,0.001637,0.278263,0.057402,322.553823,23.971007,0.999186,0.985512,0.004624,0.440261,0.000011,-0.000003,0.000000,0.000011,-0.000003,1.140420,0.000011,
2206,2308,-1.07913871076777,-7.35285368407608,0.00476522531755563,0.006307,0.000695,-0.005113,0.305855,0.044455,326.552780,23.921655,0.998988,0.985215,0.004799,0.439331,0.000002,-0.000004,0.000003,0.000004,-0.000006,22.513791,0.000006,
2041,2788,-4.74745161364467,3.1119554671635,-0.0214948992266386,0.006096,-0.000136,0.005715,0.265080,0.064935,319.241088,24.400596,0.999235,0.988735,0.004081,0.419785,-0.000037,0.000015,-0.000005,0.000015,-0.000038,-84.743015,0.000038,
2266,2593,0.175178579955105,-1.12601538902714,-0.0224251774890263,0.006127,0.000092,0.002295,0.274034,0.051493,321.555734,24.159961,0.999128,0.987222,0.004534,0.483355,0.000005,0.000005,-0.000007,0.000012,-0.000002,-46.031006,0.000013,
2371,2668,2.44673940345087,0.512379527229683,-0.020497229559453,0.005777,-0.000677,0.006239,0.242907,0.024113,320.262157,24.268594,0.999476,0.988759,0.004297,0.432861,-0.000007,0.000021,-0.000005,0.000022,-0.000008,-79.838285,0.000022,
2146,2053,-2.34470324809945,-12.939010934828,0.0271184916887819,0.005686,-0.000422,0.003327,0.250425,0.033515,330.979764,24.021785,0.998843,0.981792,0.005303,0.384308,0.000007,-0.000045,0.000012,0.000010,-0.000048,12.010228,0.000051,
2266,2368,0.216000835883516,-6.0391471744665,-0.0060578135935998,0.005906,-0.000318,0.005770,0.251847,0.037433,325.313190,23.835259,0.999024,0.984119,0.005071,0.391518,-0.000009,0.000010,-0.000008,0.000012,-0.000012,-71.047694,0.000014,
2251,2593,-0.150890578228978,-1.12660623745499,-0.0217460239981619,0.006354,0.000141,0.000682,0.289829,0.039971,321.603265,24.181069,0.999270,0.987628,0.004425,0.467956,-0.000001,0.000009,-0.000008,0.000014,-0.000005,-60.020533,0.000014,
2176,2173,-1.71617885051761,-10.2975040139107,-0.0611038050896582,0.005666,-0.000601,0.004475,0.245904,0.015215,328.205054,24.127232,0.999822,0.924185,0.009010,0.193923,0.000007,-0.000015,0.000005,0.000008,-0.000016,11.147866,0.000016,
2236,2233,-0.413362993187935,-8.99356486079402,0.00202733731526905,0.006088,-0.000323,0.004072,0.265915,0.023851,327.628084,23.711316,0.998975,0.983515,0.005009,0.393738,-0.000009,0.000007,0.000006,0.000009,-0.000011,70.898988,0.000012,
2401,2848,3.06614982006198,4.43389199340291,-0.014988692360248,0.006225,-0.000040,0.003715,0.272703,0.052588,317.426960,24.797065,0.999505,0.990769,0.003873,0.467195,-0.000014,0.000027,-0.000005,0.000028,-0.000014,-82.778647,0.000028,
2491,2008,5.20269188488622,-13.9363557572411,0.0332476932267127,0.005976,0.000135,-0.001455,0.278636,0.021628,331.636562,21.613742,0.999238,0.972976,0.006262,0.353075,-0.000008,-0.000120,0.000013,-0.000006,-0.000122,6.566296,0.000144,
2251,2383,-0.112946728416144,-5.71305316596499,-0.0087271391968784,0.006321,-0.000411,0.001029,0.286611,0.017839,325.109448,23.755357,0.999097,0.986860,0.004739,0.527403,-0.000009,0.000003,-0.000007,0.000006,-0.000012,-65.304033,0.000012,
2221,2188,-0.73114021530877,-9.97970727749679,0.0135474448958917,0.006560,0.000248,0.000138,0.300439,0.037732,328.516713,23.741066,0.998935,0.982200,0.005239,0.383208,-0.000003,-0.000008,0.000003,-0.000002,-0.000009,23.531184,0.000012,
2011,3253,-5.46510731933555,13.192572508828,0.0453831275343646,0.006136,0.000671,-0.000537,0.285362,0.077998,312.436905,23.978766,0.999864,0.996033,0.002647,0.435617,-0.000006,0.000025,-0.000010,0.000027,-0.000009,-74.207992,0.000028,
2026,2983,-5.10079468277123,7.34433888130085,0.0012378870867451,0.006379,0.000750,-0.000270,0.295386,0.068787,316.384895,24.222700,0.999306,0.992177,0.003639,0.457856,0.000017,-0.000018,-0.000012,0.000021,-0.000022,-17.549715,0.000025,
2056,3058,-4.46205324209712,8.97290213852053,0.00860743717527157,0.006260,0.000025,0.003720,0.278491,0.055727,315.027923,24.293264,0.999583,0.993729,0.003280,0.423868,0.000020,0.000006,-0.000020,0.000034,-0.000008,-35.485668,0.000035,
2506,2083,5.51582572681266,-12.2908512310495,0.0396448129005762,0.006163,0.000073,0.001817,0.274686,0.049322,330.522490,21.712983,0.999487,0.984925,0.004813,0.499039,0.000015,-0.000013,0.000014,0.000020,-0.000019,22.215486,0.000023,
2431,2968,3.69479920260315,7.04558840828531,-0.0161098633733445,0.005676,-0.000066,0.002192,0.252858,0.023404,315.475486,25.233534,0.999838,0.995210,0.003087,0.438063,-0.000004,-0.000015,-0.000009,0.000001,-0.000020,-29.379884,0.000022,
2071,3058,-4.13637250698916,8.97279260453017,0.0152396636841559,0.006380,-0.000152,0.004204,0.282396,0.040422,315.004042,24.295621,0.999382,0.992823,0.003388,0.457593,0.000023,0.000004,-0.000018,0.000034,-0.000007,-31.308198,0.000037,
2086,2923,-3.79113472688892,6.04614121116775,-0.00855757657649292,0.006124,0.000001,0.002518,0.275120,0.047571,316.916771,24.401136,0.999402,0.991169,0.003787,0.425558,-0.000007,0.000016,-0.000008,0.000019,-0.000010,-72.052156,0.000019,
2176,2008,-1.6824200571493,-13.9264537891495,0.0230892023781735,0.006199,-0.000007,0.001387,0.279700,0.040836,331.593122,23.776446,0.999297,0.985129,0.004856,0.396087,0.000022,-0.000057,0.000010,0.000024,-0.000059,6.831302,0.000059,
2116,3058,-3.16064080107505,8.9756085236959,0.0160730753481175,0.006055,0.000175,0.000634,0.277501,0.042460,314.780942,24.418473,0.999604,0.993575,0.003411,0.490820,0.000007,0.000000,-0.000010,0.000014,-0.000007,-35.596831,0.000014,
2011,3268,-5.46730703909542,13.5166244548478,0.0498768218663486,0.006208,0.000631,0.002997,0.279112,0.083338,312.223216,23.923932,0.999872,0.996016,0.002639,0.482406,0.000002,0.000018,-0.000010,0.000023,-0.000003,-63.943799,0.000026,
2296,2518,0.841513460079401,-2.76043763711801,-0.0269246210048664,0.006168,0.000144,0.003308,0.272152,0.048515,322.693340,24.017913,0.999651,0.991579,0.003760,0.433149,0.000002,-0.000003,-0.000007,0.000007,-0.000008,-36.532796,0.000009,
2026,2743,-5.06639532466479,2.13217793885507,-0.0204767998086481,0.005878,-0.000131,0.007422,0.250471,0.061032,320.056611,24.373562,0.999408,0.990602,0.003957,0.460267,-0.000031,0.000000,0.000009,0.000003,-0.000033,75.201403,0.000037,
2191,2083,-1.36812618306072,-12.2802311941837,0.0153475571537456,0.006261,-0.000625,0.002845,0.277852,-0.010304,330.277042,23.846651,0.999361,0.983537,0.005165,0.261441,0.000012,-0.000014,0.000010,0.000015,-0.000017,19.269706,0.000019,
2101,3238,-3.51366399418609,12.8751306251912,0.0437900048824531,0.006224,0.000255,0.004296,0.274987,0.062480,312.140512,24.422976,0.999674,0.994545,0.003043,0.455708,-0.000029,0.000035,-0.000013,0.000038,-0.000032,-79.299474,0.000041,
2281,2458,0.527103173928108,-4.07243472996461,-0.00676194377865613,0.006174,0.000052,0.003691,0.271150,0.065814,323.849759,23.934247,0.999739,0.990870,0.003982,0.446217,0.000004,0.000003,-0.000007,0.000010,-0.000003,-43.373093,0.000011,
2386,2758,2.7564929849613,2.47460850673834,-0.0258751092833904,0.006276,0.000198,0.001425,0.283331,0.043772,318.800930,24.518033,0.999329,0.989079,0.004101,0.458034,-0.000006,0.000039,0.000004,0.000039,-0.000006,85.023948,0.000042,
2041,3058,-4.78637283759822,8.97014117712941,0.0276377246785273,0.006131,-0.000124,0.007233,0.262838,0.048553,315.260075,24.215308,0.999710,0.994667,0.003075,0.443304,0.000019,0.000008,-0.000016,0.000031,-0.000003,-36.081945,0.000034,
2311,2353,1.19992015914641,-6.36646699599613,-0.00557131948380629,0.005805,0.000235,0.001270,0.262023,0.047968,325.520351,23.671832,0.999399,0.985910,0.004531,0.379288,-0.000005,0.000004,-0.000001,0.000004,-0.000005,-84.025262,0.000005,
2116,3253,-3.19196505234963,13.2021068462981,0.0349469270561258,0.005939,0.000025,0.004164,0.262036,0.056297,311.736560,24.530831,0.999727,0.996369,0.002603,0.421382,-0.000017,0.000025,-0.000013,0.000029,-0.000021,-74.182909,0.000030,
2221,2383,-0.766838639065675,-5.71232585294639,-0.00534894600303915,0.005935,-0.000133,0.003222,0.262153,0.044521,325.175948,23.950150,0.999503,0.988895,0.004261,0.456188,-0.000005,0.000004,-0.000010,0.000010,-0.000011,-57.110242,0.000012,
2026,2998,-5.10292401390342,7.66939474534539,0.00823146903792349,0.006222,0.000360,0.001071,0.284318,0.050510,316.188349,24.239725,0.999353,0.992854,0.003486,0.411856,0.000014,-0.000012,-0.000014,0.000020,-0.000018,-22.951911,0.000022,
2236,2473,-0.455490756218754,-3.74691391203029,-0.00292772386495699,0.005934,0.000190,0.001832,0.266708,0.060842,323.711662,23.996575,0.999576,0.990926,0.003977,0.513371,-0.000005,0.000005,-0.000002,0.000006,-0.000005,-80.786764,0.000006,
2281,2713,0.480363222868721,1.48900324742431,-0.0140129281650729,0.005876,0.000112,0.002401,0.262205,0.047958,319.644003,24.391036,0.999736,0.993100,0.003501,0.457261,0.000005,0.000018,-0.000003,0.000019,0.000004,-76.641110,0.000024,
2011,3283,-5.469930561837,13.8413138734107,0.045642951683817,0.006210,0.000318,0.003696,0.277170,0.068027,311.940648,23.903974,0.999825,0.996354,0.002623,0.473403,0.000006,0.000038,-0.000003,0.000038,0.000005,-83.946631,0.000047,
2356,2608,2.13289683248714,-0.796792687938733,-0.0108924019118604,0.006267,-0.000039,0.003869,0.274238,0.072996,321.344366,24.113480,0.999210,0.987215,0.004476,0.485482,0.000009,-0.000007,0.000007,0.000011,-0.000010,20.264084,0.000012,
2266,2383,0.21371938961774,-5.71104768847663,-0.0161696525661341,0.006536,-0.000112,-0.000973,0.303130,0.017931,325.037867,23.805807,0.998362,0.981103,0.005498,0.428765,-0.000007,0.000006,-0.000010,0.000011,-0.000012,-61.684426,0.000013,
2296,2743,0.801422812264608,2.14338455394511,-0.016400582454537,0.006538,-0.000098,0.006250,0.279499,0.064807,319.135531,24.455679,0.999457,0.990351,0.003935,0.470380,0.000002,0.000017,0.000000,0.000017,0.000002,-89.782283,0.000021,
2176,2023,-1.68444948158751,-13.5976450228992,0.0286002551826527,0.006264,0.000106,0.001337,0.282882,0.053305,331.401380,23.809599,0.999072,0.985279,0.004834,0.391064,0.000012,-0.000056,0.000004,0.000013,-0.000057,3.605938,0.000059,
2056,2833,-4.42856799162425,4.09010200768493,-0.0147011664346905,0.006040,-0.000163,0.006264,0.260716,0.041288,318.476025,24.406224,0.998984,0.987310,0.004436,0.385580,-0.000028,0.000021,-0.000007,0.000022,-0.000029,-81.782722,0.000031,
2011,3298,-5.47255736290056,14.1664934450512,0.0395936223511626,0.006127,0.000657,0.001183,0.280232,0.062231,311.647501,23.914212,0.999480,0.993399,0.003382,0.443853,0.000000,0.000061,-0.000002,0.000061,0.000000,-88.554622,0.000070,
2176,2188,-1.71394250176711,-9.97811720856233,0.00522882129098434,0.005737,-0.000260,0.002793,0.254452,0.021648,328.526909,24.007775,0.999137,0.947440,0.007587,0.332109,0.000002,-0.000007,0.000000,0.000002,-0.000007,-2.339200,0.000007,
2011,3103,-5.44309799734796,9.94353922657987,0.0341879660246605,0.005838,0.000165,0.002723,0.262377,0.071292,314.769747,24.081197,0.999638,0.994793,0.003011,0.458330,0.000016,0.000016,0.000018,0.000034,-0.000003,44.727340,0.000038,
2026,3238,-5.13765821279109,12.867814515073,0.0584560278370532,0.005946,0.000123,0.004211,0.263240,0.054868,312.672922,24.048159,0.999613,0.994957,0.002975,0.433925,-0.000025,0.000035,-0.000005,0.000036,-0.000025,-85.111901,0.000037,
2056,1993,-4.29795447032739,-14.2527416587004,0.0264126661195974,0.005909,0.000136,0.000920,0.268396,0.029268,332.369167,24.623256,0.998668,0.981133,0.005522,0.363735,0.000122,-0.000036,0.000082,0.000157,-0.000071,23.025759,0.000157,
2056,3073,-4.46438173712849,9.29719933892988,0.0150915963169496,0.005882,0.000137,0.003424,0.261973,0.064444,314.821468,24.228360,0.999533,0.992333,0.003624,0.491157,0.000020,0.000015,-0.000015,0.000033,0.000002,-40.269839,0.000039,
2191,2263,-1.39968128468656,-8.33681603336794,0.00455377043260796,0.005609,-0.000200,0.002869,0.248357,0.026163,327.261301,23.982480,0.998857,0.981555,0.005386,0.369918,0.000005,0.000009,0.000002,0.000010,0.000004,71.470105,0.000015,
2146,3193,-2.53134857015239,11.90417727513,0.0387449917448066,0.006058,-0.000211,0.004289,0.266516,0.034863,312.625539,24.647854,0.999546,0.993139,0.003307,0.417010,-0.000010,0.000028,-0.000008,0.000030,-0.000012,-79.197093,0.000030,
2116,3268,-3.19429981092663,13.5270888562719,0.0303976409675215,0.006214,0.000207,0.001470,0.282780,0.056466,311.473516,24.520209,0.999745,0.995918,0.002745,0.434342,-0.000017,0.000029,-0.000010,0.000031,-0.000019,-77.800116,0.000032,
2071,3073,-4.13907722634926,9.298214187593,0.0166749171805236,0.005854,0.000144,0.002178,0.264094,0.063323,314.753021,24.287528,0.999451,0.992059,0.003543,0.484304,0.000022,0.000013,-0.000015,0.000033,0.000002,-36.507987,0.000039,
2026,1993,-4.95161042139525,-14.2517739801164,0.0299451690440264,0.006039,0.000462,-0.000801,0.279328,0.032913,332.582003,24.885459,0.998648,0.981803,0.005552,0.314798,0.000141,-0.000019,0.000148,0.000229,-0.000107,30.817638,0.000229,
2266,2398,0.210831233840906,-5.38265719463566,-0.01235011009868,0.006131,0.000211,0.000236,0.280718,0.045924,324.804296,23.895450,0.998934,0.986131,0.004842,0.394377,-0.000009,0.000017,-0.000007,0.000019,-0.000010,-76.679297,0.000019,
2386,2773,2.75336034735741,2.80076496760013,-0.0212768127835261,0.005928,-0.000130,0.004620,0.255769,0.040225,318.567650,24.554464,0.999295,0.988928,0.004154,0.461482,-0.000006,0.000036,-0.000001,0.000036,-0.000006,-88.432082,0.000038,
2086,2938,-3.79263209884022,6.37129915272104,0.00112510037138236,0.006303,0.000486,0.000759,0.288661,0.067790,316.767059,24.395511,0.999377,0.991540,0.003745,0.449985,-0.000007,0.000014,-0.000006,0.000016,-0.000008,-75.895822,0.000016,
2056,2008,-4.30007310085493,-13.9251562793315,0.0387828733146307,0.005782,-0.001123,0.009395,0.238425,0.017345,332.202324,24.639647,0.998793,0.982385,0.005436,0.333386,0.000102,-0.000059,0.000068,0.000127,-0.000084,20.131485,0.000129,
2341,2548,1.81734571082326,-2.10667126213641,-0.00766935690506898,0.006013,-0.000177,0.005193,0.257959,0.061639,322.329038,23.979241,0.999018,0.983819,0.004867,0.473714,0.000012,0.000002,0.000002,0.000012,0.000002,11.604408,0.000015,
2281,2728,0.477152877384395,1.81635268930327,-0.0219060583425517,0.005964,-0.000030,0.002469,0.265985,0.044501,319.337764,24.421730,0.999660,0.992524,0.003552,0.451328,0.000006,0.000012,-0.000003,0.000013,0.000005,-66.416485,0.000018,
2176,2203,-1.71583323760495,-9.65064503894362,0.0115252401906787,0.006030,-0.000360,0.004680,0.262017,0.033202,328.345718,23.989466,0.998298,0.976047,0.006011,0.376525,0.000006,0.000001,0.000000,0.000006,0.000001,-4.878784,0.000008,
2296,2758,0.798069653920681,2.47020551528142,-0.0247082716149407,0.006244,-0.000118,0.002255,0.279449,0.027968,318.822211,24.478419,0.999463,0.990451,0.003938,0.440875,0.000001,0.000024,0.000003,0.000024,0.000001,81.998513,0.000028,
2026,2008,-4.95500381319049,-13.92157839816,0.0209154869878603,0.005826,-0.000443,0.006864,0.248310,0.058412,332.235873,24.858554,0.998350,0.983397,0.005540,0.361865,0.000119,-0.000041,0.000135,0.000195,-0.000118,29.708597,0.000197,
2056,3088,-4.46669721379824,9.62254047723982,0.01715071961695,0.005758,-0.000001,0.002531,0.258718,0.050766,314.590818,24.256741,0.999532,0.992479,0.003476,0.442501,0.000017,0.000006,-0.000014,0.000026,-0.000004,-34.568542,0.000028,
2506,2098,5.51135169490017,-11.9578672925639,0.0334474210524149,0.005953,-0.000532,0.008591,0.238789,0.047591,330.190852,22.041805,0.999587,0.985796,0.004817,0.233374,0.000012,-0.000017,0.000001,0.000012,-0.000017,1.065670,0.000018,
2326,2413,1.51604493887301,-5.0568152679688,-0.00605027244137091,0.005848,0.000257,-0.000629,0.270509,0.008954,324.547740,23.600803,0.999371,0.987882,0.004633,0.502627,-0.000001,0.000011,-0.000004,0.000013,-0.000002,-71.464883,0.000013,
2026,3013,-5.10542165184087,7.99547953561217,0.00755834410205125,0.006078,0.000347,0.001051,0.277791,0.055805,315.931680,24.279666,0.999542,0.993493,0.003436,0.366613,0.000016,-0.000005,-0.000009,0.000019,-0.000009,-20.844934,0.000019,
2116,3283,-3.19704116349822,13.8518265938712,0.0268292554221148,0.006242,0.000393,0.002200,0.281907,0.056770,311.197178,24.496651,0.999764,0.995763,0.002828,0.460207,-0.000021,0.000037,-0.000005,0.000038,-0.000021,-85.431344,0.000038,
2296,2533,0.838538189840687,-2.4339430921022,-0.0351536335464289,0.006350,0.000161,0.000955,0.288486,0.044738,322.398462,23.900776,0.999703,0.993606,0.003440,0.577837,0.000003,-0.000004,-0.000008,0.000008,-0.000009,-33.432715,0.000010,
2041,3073,-4.78891429644866,9.29525476881372,0.0280637951416907,0.005888,0.000024,0.006870,0.252678,0.056049,315.009052,24.186147,0.999493,0.992491,0.003611,0.471309,0.000020,0.000018,-0.000010,0.000029,0.000009,-42.055181,0.000040,
2101,3058,-3.48592834497835,8.97465123813259,0.0193398231554625,0.005977,0.000238,0.002501,0.268562,0.053900,314.869993,24.387120,0.999682,0.994355,0.003168,0.482145,0.000011,0.000002,-0.000013,0.000021,-0.000008,-35.649582,0.000021,
2146,3208,-2.5335266300584,12.2293900664231,0.0402672080425077,0.006219,0.000353,0.002955,0.278254,0.063243,312.404311,24.649641,0.999609,0.993959,0.003164,0.450278,-0.000011,0.000031,-0.000009,0.000032,-0.000012,-78.794641,0.000033,
2026,2023,-4.95658977552756,-13.5926412820525,0.0196557185128654,0.006117,0.000653,0.000767,0.278670,0.081053,332.015519,24.814061,0.998418,0.983245,0.005570,0.422752,0.000090,-0.000092,0.000102,0.000136,-0.000138,24.111814,0.000158,
2281,2473,0.523975923603789,-3.74501788138948,-0.00769189869367892,0.005989,0.000022,0.006086,0.254670,0.072451,323.582759,23.935281,0.999493,0.989339,0.004242,0.481057,0.000006,0.000002,-0.000004,0.000009,0.000000,-33.955614,0.000010,
2266,2413,0.208920444946209,-5.05666768870839,-0.000322855063188854,0.006144,-0.000039,0.002043,0.275237,0.033721,324.657245,23.887729,0.999163,0.987436,0.004534,0.416631,-0.000010,0.000013,-0.000005,0.000014,-0.000011,-77.617678,0.000015,
2461,3253,4.29345483765394,13.2350821681483,0.0205355179958246,0.006101,0.000367,0.003737,0.267057,0.071438,311.178833,26.365447,0.999738,0.994093,0.003113,0.443616,0.000021,0.000032,0.000018,0.000045,0.000007,53.223800,0.000057,
2161,2098,-2.02440267676923,-11.9516599241269,0.0255245388264598,0.006054,0.000439,0.000991,0.274687,0.040567,330.213373,24.028989,0.999587,0.984510,0.004958,0.327389,0.000007,-0.000018,0.000015,0.000014,-0.000025,24.987777,0.000025,
2071,2893,-4.11254115893124,5.39445496096151,-0.0141919081930837,0.005859,-0.000045,0.004346,0.257785,0.057462,317.419117,24.394228,0.999407,0.992228,0.003763,0.418245,-0.000006,0.000040,-0.000007,0.000042,-0.000007,-81.145007,0.000044,
2446,3073,4.00253350719763,9.32684087754171,0.00487673015908285,0.006423,-0.000394,0.003291,0.283049,0.022464,313.988560,25.630056,0.999714,0.993556,0.003351,0.438159,-0.000011,0.000026,-0.000001,0.000026,-0.000011,-89.185555,0.000026,
2416,2938,3.37534854379443,6.39216975496987,-0.00521557494067793,0.006074,-0.000098,0.006198,0.256576,0.051144,316.039829,25.135232,0.999638,0.991938,0.003703,0.431934,-0.000007,-0.000006,-0.000010,0.000003,-0.000016,-46.613594,0.000017,
2176,2038,-1.68733418256052,-13.2676855735662,0.0273253325016185,0.005962,-0.000038,0.001570,0.268346,0.034442,331.135248,23.907545,0.999183,0.985164,0.004802,0.290265,0.000012,-0.000033,0.000004,0.000012,-0.000034,5.117491,0.000034,
2236,2248,-0.41551056531031,-8.66538459839679,0.00544964008196303,0.006160,0.000175,0.002097,0.275803,0.046467,327.424538,23.732749,0.998824,0.982029,0.005350,0.418304,-0.000008,-0.000004,0.000005,0.000000,-0.000012,56.221715,0.000013,
2131,3148,-2.84976860959185,10.9281470369567,0.0347402416091995,0.005658,0.000368,0.005590,0.244469,0.063743,313.367868,24.563699,0.999612,0.993609,0.003248,0.445607,-0.000005,0.000023,-0.000002,0.000023,-0.000005,-85.679427,0.000024,
2356,2623,2.12942239739695,-0.469219238664792,-0.0138665663599795,0.005882,-0.000088,0.004092,0.255757,0.054927,321.057253,24.186027,0.999167,0.987665,0.004422,0.434414,0.000005,0.000007,0.000003,0.000009,0.000003,51.127861,0.000012,
2266,2608,0.172140449592302,-0.798845160346012,-0.0208788036402439,0.005887,-0.000397,0.005422,0.252511,0.045148,321.303758,24.217223,0.999224,0.987446,0.004472,0.445895,0.000002,0.000000,0.000000,0.000002,0.000000,-3.379856,0.000002,
2431,2983,3.69313591095545,7.37041546257615,-0.000476824191082414,0.005943,-0.000114,0.004982,0.254847,0.044132,315.363505,25.254331,0.999657,0.991510,0.003666,0.487166,-0.000003,-0.000012,-0.000009,0.000003,-0.000018,-31.134266,0.000019,
2221,2203,-0.733861366826584,-9.65095366135751,0.00877945202745423,0.006651,0.000533,-0.001192,0.309000,0.038728,328.244015,23.734745,0.999131,0.983937,0.004997,0.412214,-0.000002,-0.000002,0.000004,0.000002,-0.000006,43.750501,0.000006,
2116,3298,-3.19980553692224,14.1770961620045,0.0232296551038189,0.006226,0.000644,0.002553,0.280343,0.081562,310.919395,24.501738,0.999684,0.993859,0.003265,0.481862,-0.000022,0.000061,-0.000013,0.000062,-0.000024,-81.434930,0.000063,
2491,2023,5.20028131741634,-13.6068227072536,0.0423579012659729,0.005955,0.000588,-0.000814,0.275452,0.052097,331.467027,21.738859,0.999183,0.971951,0.006302,0.320531,0.000005,-0.000074,0.000006,0.000005,-0.000074,4.327910,0.000083,
2011,3118,-5.44548910213811,10.2692421979982,0.0286256503165987,0.006101,0.000393,0.003047,0.273696,0.071487,314.489677,24.086914,0.999666,0.995400,0.002904,0.440053,0.000016,0.000030,0.000016,0.000041,0.000005,56.461953,0.000050,
2041,2803,-4.74952439315404,3.43780981646518,-0.0230466157181013,0.006308,0.000054,0.003819,0.280205,0.063293,318.999940,24.361844,0.999373,0.990479,0.003793,0.449216,-0.000030,0.000010,0.000001,0.000010,-0.000030,89.065940,0.000031,
2086,2953,-3.79522350329322,6.69710235636551,-0.00111265147478434,0.006321,0.000247,0.001783,0.286500,0.067427,316.502041,24.389439,0.999314,0.992533,0.003651,0.454201,0.000001,0.000009,-0.000006,0.000012,-0.000002,-61.898672,0.000013,
2251,2608,-0.153770177128877,-0.800097925218168,-0.0169526578019941,0.005982,-0.000142,0.003462,0.263619,0.048464,321.373970,24.190425,0.999188,0.986338,0.004629,0.491172,-0.000002,0.000003,-0.000003,0.000005,-0.000003,-66.030936,0.000005,
2206,2188,-1.0589314784593,-9.97920801992802,0.0113587487023779,0.005956,0.000300,-0.001064,0.276613,0.021183,328.512191,23.844481,0.998986,0.982105,0.005225,0.340587,0.000001,-0.000007,0.000004,0.000003,-0.000009,22.771471,0.000009,
2026,2038,-4.95875463761006,-13.2655445187469,0.0267452962849575,0.005790,0.000172,0.002364,0.259197,0.059933,331.815701,24.745064,0.998521,0.979379,0.005723,0.464315,0.000069,-0.000091,0.000089,0.000108,-0.000131,23.964289,0.000140,
2026,3253,-5.14081645564079,13.1933014695057,0.0469278103474835,0.005885,0.000173,0.005123,0.257929,0.057559,312.325743,24.034905,0.999853,0.996263,0.002590,0.438825,-0.000026,0.000030,-0.000012,0.000032,-0.000028,-78.555985,0.000035,
2371,2683,2.44323037191331,0.841047579932805,-0.0353385218243716,0.006116,-0.000327,0.003919,0.266877,0.026221,319.917419,24.343876,0.999442,0.989306,0.004065,0.401620,-0.000010,0.000024,-0.000004,0.000025,-0.000010,-84.128274,0.000025,
2086,3118,-3.82055120577063,10.2748188046345,0.0265943813785725,0.005945,0.000238,0.004118,0.262659,0.067044,314.020665,24.371674,0.999764,0.994358,0.002968,0.451486,0.000005,0.000010,-0.000009,0.000016,-0.000002,-52.991749,0.000018,
2401,2863,3.06326492961196,4.76107645482847,-0.0177547585942648,0.006345,0.000289,0.001963,0.284716,0.057196,317.170664,24.889156,0.999461,0.990582,0.003840,0.425012,-0.000016,0.000028,-0.000006,0.000029,-0.000017,-82.153682,0.000029,
2326,2428,1.51219765536675,-4.726184531668,-0.0168115188910747,0.006006,-0.000142,0.004568,0.259764,0.039836,324.202984,23.764871,0.999521,0.990115,0.004208,0.405792,0.000004,0.000005,-0.000008,0.000013,-0.000003,-46.408543,0.000013,
2296,2548,0.836501098739117,-2.10642537676888,-0.0199059857227439,0.006126,0.000099,0.003697,0.268900,0.046829,322.262529,24.085716,0.999316,0.988978,0.004290,0.425557,0.000003,0.000002,-0.000007,0.000009,-0.000004,-42.996109,0.000009,
2146,3223,-2.53598775081791,12.5538252751534,0.0455995176486681,0.006094,0.000132,0.005361,0.265204,0.070310,312.190668,24.626423,0.999595,0.994102,0.003109,0.486969,-0.000013,0.000037,-0.000010,0.000039,-0.000015,-78.974660,0.000039,
2311,2368,1.19746946064868,-6.03915380047245,-0.00576639052218297,0.006244,0.000150,0.002984,0.276305,0.057149,325.290771,23.633008,0.999620,0.988742,0.004189,0.461284,-0.000007,0.000010,0.000000,0.000010,-0.000007,89.857488,0.000010,
2431,2998,3.69065236448789,7.69715575403586,0.0028376692052916,0.006099,0.000030,0.004135,0.265228,0.047858,315.155870,25.386881,0.999345,0.985007,0.004544,0.407592,-0.000004,-0.000006,-0.000004,-0.000001,-0.000009,-38.480598,0.000011,
2011,3133,-5.4479646174691,10.594446142023,0.0253133710407383,0.006061,0.000298,0.001879,0.275009,0.065287,314.218620,24.071606,0.999631,0.994620,0.003062,0.436029,0.000019,0.000048,0.000022,0.000060,0.000007,61.865364,0.000073,
2236,2488,-0.458859000863047,-3.41803045062501,-0.0115656035234224,0.006042,-0.000290,0.005160,0.260739,0.038536,323.390462,24.094264,0.999531,0.989062,0.004121,0.415836,-0.000006,0.000010,-0.000003,0.000011,-0.000006,-78.772597,0.000011,
2266,2623,0.169849303867181,-0.472391133675821,-0.0187891547751065,0.006205,-0.000728,0.006528,0.263337,0.030129,321.088939,24.226422,0.999423,0.988638,0.004231,0.447837,0.000002,0.000007,-0.000001,0.000007,0.000002,-78.853199,0.000009,
2056,2023,-4.3022910922594,-13.5936963864179,0.0237037324820335,0.006291,-0.000109,0.002231,0.282227,0.035463,331.879715,24.672783,0.998527,0.983739,0.005389,0.317185,0.000077,-0.000095,0.000040,0.000085,-0.000104,12.461328,0.000111,
2026,3268,-5.14381798341367,13.518534719131,0.0349635426230748,0.006005,0.000262,0.005992,0.261201,0.067606,311.983409,23.993870,0.999843,0.996649,0.002550,0.478804,-0.000024,0.000021,-0.000011,0.000024,-0.000027,-77.552305,0.000029,
2041,2818,-4.75182520051894,3.76356234848485,-0.0220750869471544,0.006127,0.000192,0.001686,0.277867,0.063449,318.762393,24.335793,0.999281,0.990336,0.003920,0.467756,-0.000029,0.000016,-0.000002,0.000016,-0.000029,-87.000084,0.000029,
2386,2788,2.75026671705493,3.12861136695344,-0.0250570683481897,0.005980,0.000188,0.003963,0.260711,0.061535,318.295842,24.660174,0.999628,0.991684,0.003759,0.420558,-0.000007,0.000034,-0.000002,0.000034,-0.000007,-87.660018,0.000036,
2206,2323,-1.08178578516503,-7.02508973999836,0.00671512532710494,0.006452,0.000279,0.000283,0.295310,0.046686,326.316593,23.934761,0.999080,0.985811,0.004571,0.447103,0.000007,-0.000003,0.000000,0.000007,-0.000003,0.311801,0.000007,
2056,2848,-4.43089740978822,4.41599240856696,-0.0183852899145336,0.006018,0.000102,0.002080,0.271612,0.045995,318.212558,24.361838,0.999319,0.990748,0.003865,0.429155,-0.000026,0.000030,-0.000005,0.000030,-0.000026,-84.613837,0.000033,
2221,2398,-0.769063719426374,-5.38365668524985,-0.00229469786461323,0.006069,-0.000155,0.002915,0.269272,0.041813,324.965619,24.086978,0.999650,0.991385,0.003824,0.336895,-0.000006,0.000013,-0.000008,0.000016,-0.000009,-69.307874,0.000016,
2281,2743,0.474581273012078,2.14263960143897,-0.0174868703976472,0.006080,-0.000294,0.006546,0.257636,0.049215,319.122511,24.450329,0.999461,0.990502,0.003856,0.455496,0.000004,0.000012,-0.000003,0.000013,0.000003,-71.772789,0.000017,
2086,2968,-3.79777176468527,7.02227056516291,0.00484507402495638,0.005895,0.000120,0.003279,0.262497,0.060256,316.283907,24.392904,0.999351,0.991984,0.003663,0.441842,0.000009,0.000005,-0.000008,0.000015,-0.000001,-38.352087,0.000017,
2251,2398,-0.115477023402246,-5.38404512198406,-0.00636903343553286,0.006264,0.000035,0.000945,0.284461,0.028596,324.883755,23.903869,0.999126,0.989913,0.004380,0.414711,-0.000012,0.000012,-0.000005,0.000013,-0.000013,-78.246015,0.000015,
2296,2773,0.795434522362456,2.79671937670044,-0.023502458741973,0.006075,-0.000089,-0.000250,0.280200,0.017223,318.589000,24.526911,0.999353,0.989383,0.004143,0.411739,0.000000,0.000019,0.000001,0.000019,0.000000,88.150974,0.000023,
2116,3073,-3.16353958976957,9.30241616292318,0.0103321853111993,0.006033,0.000608,0.001217,0.274951,0.064620,314.484898,24.493523,0.999726,0.993370,0.003577,0.440403,0.000006,0.000006,-0.000009,0.000015,-0.000003,-44.866509,0.000015,
2146,2068,-2.34693994461027,-12.6087829727024,0.0248248088117862,0.005923,0.000311,0.001841,0.266060,0.060946,330.734835,24.097342,0.998782,0.980747,0.005457,0.347490,0.000006,-0.000035,0.000018,0.000012,-0.000042,20.363665,0.000043,
2191,2098,-1.3717232287419,-11.9525181930225,0.00691915968900503,0.006120,-0.001270,0.008442,0.253731,-0.000587,329.942745,23.656580,0.999459,0.986104,0.004969,0.479426,0.000010,-0.000020,0.000012,0.000015,-0.000024,19.183921,0.000024,
2491,2038,5.1969957089253,-13.278186477344,0.0425197136675024,0.005757,0.000698,-0.000687,0.265985,0.042408,331.217495,21.726132,0.999260,0.972473,0.006311,0.385984,0.000008,-0.000058,0.000005,0.000008,-0.000059,4.059554,0.000064,
2101,3253,-3.51648553533236,13.2006452802942,0.0432742367015067,0.006047,0.000216,0.006583,0.260189,0.073678,311.875628,24.468046,0.999735,0.995537,0.002829,0.421554,-0.000032,0.000026,-0.000012,0.000029,-0.000035,-78.476201,0.000037,
2026,3283,-5.1455372109566,13.8432777299926,0.0411739774729654,0.006192,0.000325,0.004702,0.273389,0.066485,311.801986,24.022873,0.999785,0.996228,0.002682,0.437448,-0.000031,0.000033,-0.000002,0.000033,-0.000031,-88.599151,0.000037,
2146,3238,-2.53930191983276,12.8800674645911,0.0361675320066865,0.005982,0.000082,0.006022,0.257984,0.060606,311.858521,24.706105,0.999614,0.994318,0.003071,0.404039,-0.000014,0.000033,-0.000011,0.000036,-0.000016,-77.629823,0.000036,
2041,3088,-4.79139665744473,9.6218994565756,0.0189140459876285,0.006130,0.000098,0.003865,0.272303,0.057002,314.706946,24.247443,0.999677,0.994372,0.003076,0.402407,0.000016,0.000007,-0.000009,0.000021,0.000002,-32.096915,0.000026,
2056,2038,-4.30493488619783,-13.2645656371932,0.0193304873448596,0.006152,0.000035,0.002273,0.275804,0.035172,331.596849,24.640061,0.998466,0.981561,0.005515,0.348101,0.000056,-0.000095,0.000033,0.000063,-0.000102,11.672477,0.000103,
2416,2953,3.3719814473556,6.71920476353788,-0.0113215795515202,0.006016,-0.000110,0.004562,0.259995,0.057441,315.746512,25.214951,0.999736,0.992157,0.003709,0.405647,-0.000004,-0.000008,-0.000006,0.000001,-0.000013,-34.937415,0.000014,
2086,3133,-3.82258463920884,10.5999658525351,0.0289229990535773,0.006059,0.000480,0.002030,0.274022,0.068038,313.806511,24.380468,0.999728,0.993902,0.003012,0.441586,0.000005,0.000019,-0.000005,0.000021,0.000003,-71.824566,0.000026,
2056,3103,-4.46826990176541,9.94713669086885,0.026303992617386,0.005996,0.000113,0.002538,0.269749,0.060510,314.433727,24.241402,0.999499,0.992107,0.003526,0.461211,0.000018,0.000010,-0.000007,0.000022,0.000006,-29.563755,0.000029,
2266,2428,0.205923558124027,-4.72827648659627,-0.00408513527116838,0.006167,-0.000046,0.003051,0.272977,0.035206,324.380722,23.940721,0.999277,0.988293,0.004376,0.392253,-0.000006,0.000000,-0.000011,0.000008,-0.000014,-52.196484,0.000014,
2461,3268,4.28864413694076,13.5615675357068,-0.000997376295686081,0.006018,0.000390,0.002914,0.266367,0.068482,310.750335,26.410079,0.999754,0.994569,0.002962,0.448717,0.000030,0.000019,0.000019,0.000044,0.000004,36.904046,0.000053,
2326,2443,1.50999717822938,-4.39942496853263,-0.0107636777241851,0.005995,0.000024,0.002846,0.265310,0.046729,324.016437,23.762011,0.999391,0.988461,0.004434,0.451360,0.000009,0.000004,-0.000008,0.000015,-0.000002,-35.629081,0.000016,
2341,2563,1.81415359508001,-1.77871859316091,-0.0110176231225978,0.005843,-0.000337,0.004532,0.252424,0.048723,322.051934,24.057890,0.999100,0.985785,0.004643,0.419911,0.000011,0.000004,0.000003,0.000012,0.000003,16.587627,0.000016,
2266,2638,0.166988145014592,-0.145342992454225,-0.0194991481278635,0.005969,-0.000488,0.005049,0.257502,0.031042,320.833689,24.255013,0.999349,0.987807,0.004250,0.446454,0.000002,0.000010,-0.000003,0.000011,0.000000,-69.476621,0.000013,
2026,3298,-5.14820649109016,14.1681204820248,0.0360554284307,0.006127,0.000483,0.003706,0.273178,0.064308,311.513455,24.004177,0.999479,0.993958,0.003236,0.442459,-0.000046,0.000059,-0.000001,0.000059,-0.000046,-89.291337,0.000062,
2026,3028,-5.10736330949039,8.31935212396449,0.0164763047731071,0.006012,0.000080,0.002686,0.270213,0.054273,315.754971,24.190707,0.999474,0.992380,0.003698,0.443547,0.000019,-0.000003,-0.000003,0.000020,-0.000003,-7.681735,0.000021,
2146,3253,-2.54222052082484,13.205405540405,0.0240426307761368,0.006062,0.000403,0.000920,0.277289,0.062964,311.530524,24.680431,0.999623,0.993977,0.003127,0.438719,-0.000012,0.000026,-0.000007,0.000027,-0.000014,-79.549750,0.000027,
2191,2278,-1.40134434872614,-8.00842360421723,0.00342627731276934,0.006459,-0.000209,0.001586,0.291360,0.024775,327.052960,24.010078,0.998836,0.980884,0.005451,0.357239,0.000008,0.000009,-0.000004,0.000012,0.000005,-49.098305,0.000018,
2026,2053,-4.96068058729415,-12.9347810244673,0.0286150642859866,0.006037,-0.000219,0.003847,0.266372,0.045846,331.597136,24.949032,0.999710,0.992637,0.003633,0.239847,0.000057,-0.000068,0.000083,0.000099,-0.000110,26.474241,0.000121,
2491,2053,5.19213207467674,-12.9452606268515,0.0182079740370114,0.005979,0.000285,-0.001663,0.279755,0.009012,330.785786,21.860737,0.999161,0.977640,0.005820,0.281214,0.000011,-0.000051,0.000006,0.000012,-0.000052,5.708047,0.000055,
2191,2113,-1.37290179253747,-11.6241917808827,0.0248531564268433,0.006103,-0.001026,0.006657,0.258634,0.006051,329.855334,23.818376,0.999098,0.982902,0.005199,0.341189,0.000011,-0.000018,0.000012,0.000016,-0.000023,19.750086,0.000023,
2041,3103,-4.79343496000655,9.94638496157281,0.0210904318784628,0.006063,0.000295,-0.000168,0.280565,0.056501,314.489010,24.187881,0.999716,0.994685,0.002991,0.453015,0.000014,0.000012,-0.000002,0.000015,0.000011,-34.021222,0.000026,
2386,2803,2.74711773348542,3.45483560252523,-0.0313273789998334,0.006108,0.000024,0.002575,0.271528,0.039291,318.010078,24.646086,0.999868,0.995004,0.003319,0.455550,-0.000006,0.000030,-0.000001,0.000030,-0.000006,-88.361062,0.000032,
2056,3118,-4.47041603463684,10.2720623746652,0.0312198373345609,0.006107,-0.000171,0.005512,0.266399,0.053790,314.226831,24.249170,0.999548,0.993442,0.003205,0.440418,0.000014,0.000016,-0.000009,0.000024,0.000005,-47.903592,0.000032,
2116,3088,-3.16545664148481,9.62754707455449,0.0144006699389934,0.006184,0.000518,-0.000904,0.288211,0.059625,314.287387,24.508308,0.999704,0.993168,0.003427,0.423073,0.000002,0.000002,-0.000008,0.000011,-0.000006,-45.426846,0.000011,
2221,2413,-0.771575585500987,-5.05665658477524,-8.8274049858228E-05,0.006072,-0.000380,0.004142,0.265458,0.042682,324.738116,24.064114,0.999622,0.991128,0.003900,0.381089,-0.000008,0.000005,-0.000009,0.000010,-0.000012,-63.246827,0.000013,
2101,3268,-3.5188113274102,13.5255101152832,0.0388478952655191,0.006308,0.000330,0.004036,0.279763,0.073884,311.612543,24.446346,0.999792,0.996294,0.002707,0.443383,-0.000036,0.000027,-0.000011,0.000029,-0.000038,-80.819838,0.000040,
2356,2638,2.12707085845092,-0.142632424977194,-0.00896220345833854,0.005973,-0.000308,0.003819,0.260770,0.027299,320.859807,24.249120,0.999278,0.987827,0.004380,0.382914,0.000000,0.000015,-0.000003,0.000016,0.000000,-77.846183,0.000018,
2026,3043,-5.10954293420725,8.64384065800962,0.019126732497341,0.005975,0.000066,0.002450,0.269177,0.053591,315.532116,24.119219,0.999461,0.992770,0.003648,0.503667,0.000023,-0.000007,-0.000009,0.000025,-0.000009,-15.121250,0.000026,
2056,2863,-4.43264506321165,4.74133028017124,-0.0117148251775916,0.006088,0.000242,0.000272,0.280028,0.054576,318.033052,24.344242,0.999341,0.991078,0.003856,0.449576,-0.000022,0.000029,-0.000008,0.000030,-0.000024,-81.301851,0.000032,
2071,2908,-4.11488553457924,5.71972682078369,-0.00895203968406122,0.005797,-0.000145,0.008171,0.243973,0.057921,317.205390,24.379912,0.999562,0.992667,0.003522,0.429399,-0.000006,0.000028,-0.000014,0.000033,-0.000011,-70.563540,0.000033,
2371,2698,2.44067663701192,1.16690925784154,-0.0294533887379771,0.005860,-0.000101,0.002552,0.260136,0.040802,319.716201,24.325082,0.999387,0.990620,0.003765,0.476262,-0.000011,0.000026,-0.000003,0.000026,-0.000011,-85.114081,0.000026,
2071,3088,-4.14162757272999,9.62315983845086,0.0180376742974317,0.005735,-0.000022,0.004117,0.253083,0.069326,314.508892,24.255769,0.999421,0.991104,0.003680,0.517945,0.000019,0.000006,-0.000013,0.000027,-0.000002,-31.532836,0.000030,
2221,2218,-0.737030724727202,-9.32232463477006,0.0123460742553902,0.006007,-0.000126,0.001570,0.270425,0.030848,327.993431,23.818582,0.999078,0.983148,0.005024,0.342091,-0.000005,0.000002,0.000004,0.000004,-0.000007,65.954112,0.000007,
2146,2083,-2.35004000337918,-12.2782859005018,0.0129542454292277,0.005945,0.000241,0.000484,0.271184,0.041853,330.400119,24.144285,0.998816,0.981412,0.005410,0.293104,0.000006,-0.000022,0.000018,0.000015,-0.000032,26.380481,0.000032,
2341,2578,1.8114953899413,-1.4512970988115,-0.0147044852573117,0.006028,0.000280,0.001276,0.272495,0.064907,321.797658,24.060957,0.999084,0.985851,0.004539,0.470608,0.000013,0.000012,0.000005,0.000017,0.000008,42.128781,0.000026,
2281,2488,0.520557856591704,-3.41865305462132,-0.0113674912513488,0.005793,-0.000435,0.009626,0.233685,0.043899,323.289045,23.854992,0.999653,0.991064,0.004000,0.561864,0.000006,0.000009,-0.000006,0.000014,0.000001,-50.346973,0.000017,
2041,1993,-4.62528196897249,-14.2518106314056,0.0240006464996441,0.005814,0.000256,0.001161,0.263445,0.054417,332.428228,24.724142,0.998708,0.981746,0.005519,0.393197,0.000150,-0.000039,0.000102,0.000194,-0.000084,23.576919,0.000195,
2086,3148,-3.82477723820709,10.9246626371341,0.0380781025549481,0.005820,0.000517,0.003670,0.258299,0.079507,313.622497,24.382424,0.999796,0.995514,0.002795,0.448835,0.000003,0.000028,-0.000006,0.000030,0.000001,-76.573578,0.000035,
2176,2218,-1.71855957007704,-9.32174673846598,0.00948010386076703,0.005966,-0.000293,0.005175,0.257601,0.028992,328.082656,24.034843,0.998691,0.979802,0.005554,0.341875,-0.000001,0.000004,-0.000005,0.000007,-0.000005,-58.647601,0.000007,
2446,3088,4.00057492395733,9.65274955137026,0.0167729586088399,0.006506,-0.000248,0.003463,0.286319,0.039981,313.845544,25.749531,0.999713,0.993551,0.003406,0.387203,-0.000009,0.000037,0.000001,0.000037,-0.000009,88.173294,0.000038,
2056,2053,-4.30668437830726,-12.9348464529101,0.0133436558766675,0.006710,0.000715,-0.002567,0.315269,0.023827,331.345902,24.659832,0.997903,0.977749,0.005988,0.315090,0.000042,-0.000079,0.000030,0.000049,-0.000087,13.320644,0.000087,
2101,3073,-3.48821834760124,9.30075257173846,0.0208982887993443,0.005985,0.000440,0.001766,0.271161,0.065073,314.640467,24.454361,0.999574,0.991910,0.003600,0.426385,0.000010,0.000010,-0.000011,0.000021,-0.000001,-44.249768,0.000023,
2326,2458,1.5071461498056,-4.07128740632198,-0.0161818245165932,0.006225,0.000001,0.001351,0.281040,0.046417,323.743874,23.790157,0.999451,0.988050,0.004379,0.458780,0.000008,0.000010,-0.000004,0.000012,0.000005,-53.015345,0.000018,
2026,3058,-5.11141315711455,8.96931803162416,0.0213023398442829,0.006248,-0.000155,0.001646,0.283807,0.022450,315.320485,24.169495,0.999216,0.991219,0.003829,0.411566,0.000024,0.000008,-0.000004,0.000025,0.000007,-14.702425,0.000033,
2296,2563,0.834271605960904,-1.77994947717593,-0.00614254225064315,0.005974,-0.000403,0.008601,0.245204,0.046653,322.110632,24.167019,0.998921,0.986909,0.004902,0.374629,0.000001,0.000004,-0.000009,0.000011,-0.000006,-50.002042,0.000011,
2176,2053,-1.69007066298915,-12.9388896253051,0.0283423271597485,0.005995,-0.000564,0.006933,0.253107,0.050490,330.887769,23.895918,0.999226,0.984592,0.004781,0.333588,0.000008,-0.000035,0.000007,0.000009,-0.000036,8.467095,0.000037,
2281,2758,0.471247321399005,2.46970279580503,-0.0234051613725228,0.005898,-0.000419,0.006580,0.249101,0.036729,318.820449,24.489737,0.999411,0.990164,0.003900,0.431416,0.000003,0.000021,0.000001,0.000021,0.000003,87.706556,0.000026,
2236,2503,-0.461802858553529,-3.09015188449307,-0.0159032980415645,0.005963,0.000241,0.004296,0.260122,0.051553,323.110630,24.109756,0.999457,0.987924,0.004285,0.435890,-0.000003,0.000002,-0.000004,0.000005,-0.000005,-59.923819,0.000006,
2131,3163,-2.85189495920793,11.2529229709767,0.034149950703295,0.005929,0.000043,0.003425,0.263369,0.042698,313.136895,24.550598,0.999529,0.991783,0.003548,0.442131,-0.000007,0.000031,-0.000005,0.000032,-0.000008,-83.112317,0.000033,
2071,2923,-4.1163660061532,6.04498772000607,-0.00711666406095901,0.006113,0.000154,0.000773,0.279825,0.053611,317.012634,24.348448,0.999489,0.991968,0.003626,0.452829,-0.000009,0.000016,-0.000009,0.000019,-0.000011,-72.155037,0.000019,
2056,3133,-4.47264664694726,10.5970962583217,0.0295985013891595,0.006298,-0.000053,0.004607,0.277827,0.050088,313.979906,24.226972,0.999188,0.992432,0.003417,0.452587,0.000015,0.000026,-0.000005,0.000028,0.000013,-68.042311,0.000042,
2101,3283,-3.52199042087129,13.8502736084387,0.0279713338260876,0.006259,0.000175,0.003525,0.278885,0.049709,311.275269,24.408899,0.999733,0.996565,0.002663,0.456441,-0.000044,0.000035,-0.000004,0.000035,-0.000044,-87.249972,0.000047,
2236,2263,-0.417645402439032,-8.33701457226498,0.0106081723942566,0.006377,0.000046,0.003632,0.280801,0.041561,327.230463,23.821380,0.999045,0.983135,0.005285,0.347838,-0.000003,-0.000005,0.000005,0.000002,-0.000009,39.875740,0.000010,
2506,2113,5.50832246321146,-11.6296223492617,0.0299185860811235,0.006027,0.000012,0.004961,0.256407,0.053753,329.937465,21.965197,0.999609,0.986225,0.004816,0.380338,0.000005,-0.000025,-0.000012,0.000009,-0.000029,-18.680615,0.000030,
2071,3103,-4.14301317946146,9.94810272996651,0.0287963332658592,0.006060,0.000203,0.003848,0.268903,0.071192,314.369824,24.290511,0.999617,0.992960,0.003295,0.480900,0.000020,0.000008,-0.000007,0.000023,0.000005,-24.166632,0.000030,
2491,2068,5.18914817660363,-12.6158368163327,0.016480706714276,0.006669,-0.000358,0.003414,0.291644,0.022495,330.541255,21.888329,0.999342,0.979558,0.005663,0.329419,0.000012,-0.000007,0.000006,0.000013,-0.000009,16.014780,0.000014,
2461,3283,4.2851584785686,13.8869471823439,-0.00330820938472698,0.005901,0.000377,0.004854,0.253669,0.067367,310.471524,26.462001,0.999581,0.992036,0.003540,0.448745,0.000042,-0.000012,0.000024,0.000051,-0.000021,20.706706,0.000051,
2161,2113,-2.02694021679544,-11.622621282152,0.0200503479837835,0.006277,0.000148,0.000116,0.287487,0.025046,329.939770,24.021620,0.999359,0.982627,0.005205,0.332817,0.000009,-0.000020,0.000014,0.000015,-0.000026,22.299727,0.000026,
2266,2443,0.203254169388281,-4.40021335690412,-0.00310366186027977,0.005982,-0.000280,0.001369,0.269964,0.000591,324.143151,24.049530,0.999623,0.989525,0.004160,0.275904,-0.000003,0.000002,-0.000012,0.000013,-0.000013,-51.034470,0.000015,
2086,2983,-3.80009648634227,7.34753694490026,0.00395881606709736,0.006066,-0.000138,0.003813,0.268743,0.043182,316.038711,24.371689,0.999469,0.992866,0.003503,0.444409,0.000009,0.000001,-0.000008,0.000014,-0.000004,-32.118670,0.000015,
2131,1993,-2.66235671504526,-14.2539314423535,0.0266949761735304,0.005511,0.000412,0.000187,0.252141,0.037850,331.998029,24.167782,0.999245,0.980347,0.005308,0.302131,0.000032,-0.000040,0.000024,0.000039,-0.000048,16.993358,0.000051,
2206,2203,-1.06148104390959,-9.64966440756381,0.00708341124379785,0.006350,0.000218,0.000324,0.290282,0.046560,328.248190,23.890992,0.999048,0.981588,0.005301,0.338736,0.000004,-0.000002,0.000005,0.000008,-0.000005,30.736175,0.000008,
2011,3148,-5.45026314012252,10.918503981666,0.0303699349870499,0.005801,0.000209,0.002383,0.261683,0.065479,314.003279,23.999605,0.999572,0.994114,0.003303,0.495160,0.000018,0.000046,0.000020,0.000056,0.000008,62.883524,0.000070,
2101,3298,-3.52521689336379,14.1756052147515,0.0191392138746096,0.005928,0.000597,0.001340,0.270218,0.073005,310.946672,24.392730,0.999602,0.995041,0.003009,0.495640,-0.000048,0.000060,-0.000012,0.000061,-0.000049,-83.856664,0.000065,
2056,2068,-4.30961586422186,-12.6065004172493,0.0182047818427122,0.006175,-0.000267,0.004818,0.269732,0.012725,331.100747,24.681046,0.998663,0.979618,0.005472,0.281038,0.000028,-0.000064,0.000028,0.000036,-0.000072,15.534859,0.000072,
2071,3118,-4.14461068080721,10.2725310422031,0.0410935495779654,0.006161,-0.000049,0.004880,0.270461,0.050861,314.229726,24.312005,0.999795,0.994461,0.002909,0.434828,0.000014,0.000012,-0.000010,0.000023,0.000004,-41.979275,0.000029,
2416,2968,3.36963249229774,7.0444417615414,-0.00398940690985228,0.005873,-0.000156,0.002661,0.260371,0.051025,315.563479,25.239712,0.999816,0.994197,0.003310,0.421507,-0.000004,-0.000010,-0.000009,0.000002,-0.000016,-34.818154,0.000018,
2041,2008,-4.62827467291665,-13.9218541402172,0.01940279089348,0.005512,-0.000584,0.004455,0.240260,0.018931,332.126798,24.787157,0.997952,0.980704,0.005883,0.291190,0.000124,-0.000056,0.000097,0.000166,-0.000098,23.519241,0.000167,
2026,3073,-5.11374720565459,9.29397845435507,0.0221675157224013,0.006180,-0.000396,0.001587,0.280809,0.018006,315.080560,24.113415,0.999219,0.992293,0.003696,0.452601,0.000025,0.000020,0.000003,0.000027,0.000018,27.220771,0.000046,
2431,3013,3.68774276548121,8.02329766447668,0.00271587861851685,0.005986,0.000145,0.001831,0.268672,0.057660,314.912723,25.438909,0.999314,0.986417,0.004346,0.414470,-0.000006,-0.000004,-0.000002,-0.000002,-0.000008,-56.824240,0.000010,
2281,2503,0.517932036124652,-3.0887408413855,-0.0138760511117084,0.005828,-0.000346,0.006325,0.246387,0.045225,323.036583,24.085672,0.999693,0.992052,0.003821,0.361352,0.000007,0.000001,-0.000010,0.000014,-0.000006,-37.077240,0.000014,
2191,2128,-1.37530817467219,-11.2946343383421,0.0182111516547252,0.006273,-0.000021,0.001011,0.284413,0.011502,329.584427,23.831050,0.998870,0.981735,0.005292,0.351734,0.000012,-0.000022,0.000009,0.000014,-0.000024,14.249364,0.000024,
2146,3268,-2.54461665905374,13.530562850502,0.0212014711359529,0.006289,0.000534,-0.000590,0.292471,0.069170,311.276033,24.690792,0.999650,0.994546,0.003054,0.440871,-0.000011,0.000030,-0.000005,0.000030,-0.000011,-83.046699,0.000031,
2056,3148,-4.47453225256038,10.9221365388874,0.035498139179424,0.006180,0.000487,0.000539,0.284004,0.058102,313.790393,24.243441,0.999543,0.993711,0.003191,0.437554,0.000012,0.000033,-0.000006,0.000034,0.000010,-75.142318,0.000047,
2371,2713,2.4380631846719,1.49437609114819,-0.031574582924577,0.006048,0.000086,-0.000471,0.279614,0.035514,319.473582,24.412351,0.999501,0.991403,0.003669,0.425133,-0.000011,0.000034,-0.000004,0.000034,-0.000011,-84.547160,0.000035,
2131,3178,-2.85409762362315,11.5780984539156,0.0342083967470899,0.006074,0.000162,0.001133,0.277156,0.064840,312.905720,24.539069,0.999264,0.988670,0.003970,0.480443,-0.000008,0.000033,-0.000004,0.000034,-0.000009,-84.407728,0.000035,
2086,3163,-3.82788015206921,11.2503581880384,0.0283931278099772,0.005750,0.000217,0.003525,0.255369,0.056392,313.293498,24.400390,0.999831,0.995609,0.002807,0.405530,-0.000004,0.000040,-0.000011,0.000043,-0.000007,-76.969144,0.000046,
2116,1993,-2.99100342191607,-14.2497823434313,0.00768705321706875,0.005384,0.000237,0.000203,0.246245,0.027075,331.895762,24.407372,0.999696,0.989950,0.004226,0.158047,0.000037,-0.000047,0.000030,0.000047,-0.000056,17.915706,0.000060,
2251,2623,-0.156003605401576,-0.473439170683008,-0.0131247922003013,0.006185,-0.000224,0.004247,0.270356,0.052545,321.169385,24.213638,0.999214,0.986859,0.004480,0.496096,-0.000002,0.000009,-0.000005,0.000011,-0.000004,-69.735886,0.000011,
2056,2878,-4.43526597657421,5.06714040204153,-0.0107922696587934,0.005891,0.000196,0.002518,0.264649,0.061588,317.781691,24.332926,0.999187,0.990196,0.004113,0.462409,-0.000013,0.000042,-0.000007,0.000043,-0.000014,-83.005279,0.000044,
2221,2428,-0.773441536407031,-4.73182376408371,0.00793406226972593,0.005939,0.000832,0.000296,0.272072,0.065917,324.570316,23.879970,0.999636,0.990330,0.004042,0.608724,-0.000008,-0.000007,-0.000012,0.000004,-0.000019,-45.764123,0.000020,
2341,2593,1.80848521310894,-1.1234549316384,-0.0175759890151426,0.006165,-0.000032,0.002712,0.273670,0.048112,321.531128,24.147924,0.999327,0.987894,0.004304,0.404369,0.000014,-0.000006,0.000004,0.000015,-0.000007,9.888303,0.000015,
2086,2998,-3.80225744976358,7.67349199320137,0.00857164905136187,0.005984,0.000122,0.003193,0.266866,0.051635,315.830741,24.429845,0.999601,0.993266,0.003294,0.393022,0.000010,0.000006,-0.000008,0.000016,-0.000001,-38.360236,0.000018,
2056,2083,-4.31245235450168,-12.2762104543418,0.00666627685529875,0.006209,-0.000025,0.003435,0.275274,0.024737,330.769540,24.680477,0.998811,0.980953,0.005332,0.292079,0.000018,-0.000039,0.000023,0.000026,-0.000048,19.664747,0.000048,
2401,2878,3.05967671636835,5.0880122445624,-0.021449845913196,0.006066,0.000256,0.003113,0.267778,0.072992,316.877602,24.945224,0.999446,0.992028,0.003610,0.430108,-0.000018,0.000018,-0.000003,0.000018,-0.000018,-85.357258,0.000021,
2461,3298,4.28267642595784,14.2117987243899,-0.00256630050358808,0.006111,0.000320,0.001632,0.275473,0.059412,310.253128,26.492239,0.999593,0.993425,0.003400,0.463373,0.000050,-0.000034,0.000029,0.000059,-0.000043,17.135280,0.000061,
2326,2473,1.50460865065489,-3.74481999170214,-0.00536938519030628,0.005716,0.000126,0.002240,0.254665,0.043088,323.565120,23.823671,0.999495,0.987783,0.004252,0.457144,0.000011,0.000003,-0.000003,0.000012,0.000002,-19.618190,0.000015,
2416,2983,3.36680310078907,7.36967857417594,-0.000920401773782942,0.005963,-0.000006,0.005441,0.254412,0.061287,315.338276,25.221783,0.999846,0.994420,0.003234,0.496855,-0.000003,-0.000010,-0.000009,0.000004,-0.000016,-35.022628,0.000017,
2506,2128,5.50482407165708,-11.3002463534683,0.025770173661499,0.006121,-0.000163,0.006288,0.255500,0.061862,329.659640,21.989189,0.999634,0.985399,0.004897,0.428764,0.000007,-0.000034,-0.000010,0.000009,-0.000036,-12.797009,0.000038,
2056,2893,-4.4377169400673,5.39304585949561,-0.00604020040492514,0.005726,-0.000160,0.006278,0.246325,0.055784,317.559252,24.375054,0.999420,0.992751,0.003728,0.408394,-0.000014,0.000044,-0.000012,0.000046,-0.000016,-78.822609,0.000047,
2266,2653,0.164237862980325,0.182837578324019,-0.0242317052259864,0.006126,-0.000288,0.003336,0.270483,0.042977,320.562979,24.347498,0.999582,0.990119,0.003970,0.391971,0.000002,0.000013,0.000000,0.000013,0.000002,-89.158814,0.000016,
2071,3223,-4.16110954638697,12.5476681216792,0.0456394360532499,0.006139,0.000311,0.003290,0.274319,0.066973,312.556100,24.279863,0.999510,0.993726,0.003251,0.452421,-0.000007,0.000043,-0.000012,0.000046,-0.000010,-77.149581,0.000048,
2296,2788,0.792554373697413,3.12311394549141,-0.0169903033293508,0.005900,-0.000107,0.005771,0.251891,0.067353,318.370710,24.549197,0.999280,0.990282,0.004027,0.469437,0.000003,0.000019,0.000001,0.000019,0.000003,85.052766,0.000024,
2491,2083,5.18651354067753,-12.2881534438821,0.0242441109504625,0.006509,-0.000432,0.003881,0.282508,0.028391,330.355338,21.875059,0.999408,0.978363,0.005552,0.410354,0.000010,-0.000002,0.000010,0.000015,-0.000008,29.336777,0.000015,
2041,3118,-4.79575415699185,10.2712907643998,0.0239272631328618,0.006120,0.000262,0.003063,0.274193,0.061183,314.261724,24.169596,0.999709,0.994769,0.002966,0.467224,0.000009,0.000021,-0.000005,0.000023,0.000007,-69.924287,0.000031,
2206,2338,-1.08514715113943,-6.69567741446679,0.00125763289764791,0.006105,0.000295,0.001360,0.276035,0.050372,326.009230,24.029127,0.999518,0.989092,0.004244,0.375566,0.000003,-0.000002,-0.000005,0.000006,-0.000005,-33.109828,0.000007,
2086,2143,-3.66764121820058,-10.9643204557581,0.0107903089730144,0.006062,-0.000251,0.002843,0.269907,0.035878,329.680151,24.348685,0.998970,0.984629,0.005055,0.459593,-0.000006,-0.000018,0.000015,0.000004,-0.000028,34.320384,0.000030,
2446,3103,3.99762258200601,9.97761297907359,0.0206163083791466,0.006146,0.000142,0.002425,0.273854,0.054143,313.619790,25.727791,0.999737,0.993354,0.003460,0.474244,-0.000002,0.000039,0.000006,0.000040,-0.000003,81.998475,0.000044,
2071,3133,-4.14711369353518,10.5980205121127,0.0335105813110204,0.006341,0.000200,0.001806,0.287620,0.043974,313.938502,24.297978,0.999618,0.994176,0.003012,0.437659,0.000015,0.000022,-0.000006,0.000026,0.000011,-58.913197,0.000038,
2281,2773,0.469165737117567,2.79620445209761,-0.0201234313038867,0.005957,0.000022,0.002024,0.267250,0.044231,318.621884,24.534741,0.999242,0.989002,0.004145,0.421683,0.000003,0.000017,-0.000001,0.000017,0.000003,-85.925983,0.000022,
2161,2128,-2.03056606217028,-11.2935574820175,0.0145436918145947,0.005761,-0.000204,0.004436,0.250550,0.038803,329.616090,23.993366,0.999321,0.981188,0.005367,0.388363,0.000008,-0.000022,0.000011,0.000012,-0.000026,18.514159,0.000026,
2176,2233,-1.72119979225929,-8.99320596255957,0.0039645552770935,0.005911,0.000054,0.001106,0.267796,0.045480,327.805383,23.996625,0.998942,0.982212,0.005144,0.411604,-0.000005,0.000011,-0.000001,0.000011,-0.000005,-84.961480,0.000011,
2131,3193,-2.85692290778349,11.9032643790693,0.0354419000551047,0.005830,0.000181,0.003547,0.258590,0.054687,312.652260,24.569627,0.999519,0.992221,0.003486,0.443824,-0.000010,0.000033,-0.000009,0.000034,-0.000012,-78.924761,0.000035,
2116,2008,-2.99265780646586,-13.9242356201423,0.0139161473553031,0.005743,-0.000450,0.001560,0.258499,0.007693,331.721125,24.178351,0.999664,0.991714,0.004219,0.374440,0.000026,-0.000071,0.000024,0.000032,-0.000076,13.365728,0.000077,
2176,2068,-1.69242685141924,-12.6105686913232,0.0289813249416397,0.005923,-0.000345,0.004837,0.256391,0.034924,330.655925,23.873586,0.999372,0.984609,0.004961,0.355997,0.000008,-0.000028,0.000013,0.000012,-0.000032,17.764324,0.000033,
2086,3178,-3.82914977656599,11.5738086071657,0.0401442989849556,0.006131,0.000362,0.002935,0.274726,0.061645,313.166550,24.315500,0.999727,0.995590,0.002814,0.493874,-0.000007,0.000045,-0.000008,0.000046,-0.000009,-81.135153,0.000049,
2221,2233,-0.739891631894732,-8.99466005645679,0.0131216249867521,0.005701,-0.000047,0.002141,0.254608,0.023680,327.742826,23.789504,0.999017,0.983293,0.005131,0.385449,-0.000007,0.000011,0.000011,0.000016,-0.000012,64.200701,0.000017,
2041,2023,-4.62968636732677,-13.5931812948408,0.0196553133369548,0.006003,0.000151,-0.000127,0.275726,0.049200,331.924081,24.728463,0.998117,0.980928,0.005779,0.376041,0.000093,-0.000096,0.000071,0.000116,-0.000120,18.432597,0.000136,
2491,2098,5.18462321503629,-11.9606645496102,0.0416855171077373,0.006016,-0.000342,0.001164,0.270446,-0.003347,330.247069,21.992021,0.999659,0.984218,0.004886,0.322843,0.000007,-0.000012,-0.000004,0.000008,-0.000013,-10.415879,0.000013,
2116,3103,-3.1669677379972,9.95199144726847,0.0268075091370292,0.006587,0.000086,0.002922,0.295354,0.050966,314.153704,24.519277,0.999835,0.995791,0.002913,0.405790,-0.000001,0.000002,-0.000004,0.000005,-0.000004,-54.514794,0.000005,
2191,2143,-1.37820458526468,-10.9658417126656,0.0214602322245128,0.006003,-0.000368,0.005909,0.256643,0.047665,329.342254,23.855997,0.998998,0.983416,0.005115,0.380260,0.000010,-0.000029,0.000007,0.000011,-0.000030,9.273056,0.000031,
2056,3163,-4.47682832265717,11.2471463750379,0.0359378131296353,0.006317,0.000313,0.001789,0.286787,0.057600,313.551904,24.235910,0.999593,0.992530,0.003400,0.437935,0.000005,0.000045,-0.000009,0.000047,0.000003,-77.406105,0.000057,
2266,2458,0.19967454884728,-4.07069997970343,-0.0183266863944027,0.006239,-0.000069,0.002140,0.279359,0.033187,323.782010,24.078467,0.999719,0.990939,0.003983,0.306946,-0.000001,0.000008,-0.000007,0.000012,-0.000005,-60.438762,0.000012,
2326,2488,1.50206137533966,-3.41706409153902,-0.00410819743029833,0.005872,0.000240,0.002423,0.261272,0.062104,323.338976,23.868828,0.999448,0.988050,0.004194,0.466887,0.000013,0.000008,0.000000,0.000013,0.000008,-3.043036,0.000022,
2071,3148,-4.14976825013427,10.9231438155962,0.0361090488809168,0.005988,0.000391,0.002759,0.268739,0.063067,313.696375,24.291189,0.999759,0.995909,0.002711,0.459078,0.000013,0.000030,-0.000007,0.000033,0.000010,-69.450595,0.000045,
2251,2413,-0.118195914892507,-5.05631246223057,-0.00504802181444575,0.005927,0.000206,-0.001372,0.276651,0.017885,324.644487,23.951964,0.999162,0.988919,0.004321,0.380657,-0.000014,0.000007,-0.000005,0.000008,-0.000015,-76.462516,0.000015,
2236,2518,-0.464811996264697,-2.76198362490757,-0.0213708480530954,0.005763,0.000378,0.001431,0.260310,0.060938,322.821967,24.150690,0.999474,0.988369,0.004184,0.426759,-0.000004,0.000012,0.000000,0.000012,-0.000004,89.316941,0.000012,
2131,3208,-2.85857312810409,12.2284017998935,0.0409877177484077,0.006178,0.000526,0.001331,0.281554,0.087806,312.475876,24.582911,0.999688,0.994300,0.003120,0.468242,-0.000010,0.000034,-0.000009,0.000035,-0.000012,-78.454542,0.000036,
2296,2578,0.831607284150916,-1.45261168414653,-0.0118556467929807,0.006036,-0.000193,0.002816,0.267718,0.045908,321.842164,24.160654,0.999275,0.989205,0.004270,0.411222,0.000007,0.000019,-0.000005,0.000021,0.000005,-70.050373,0.000028,
2356,2653,2.12386023573685,0.184961565020579,-0.0175632671918038,0.006127,-0.000002,0.002017,0.274367,0.043080,320.557500,24.252105,0.999409,0.987478,0.004459,0.435458,-0.000006,0.000017,-0.000004,0.000018,-0.000006,-80.289918,0.000018,
2101,3088,-3.49032134634469,9.62535421074542,0.0242664670946624,0.006080,0.000278,0.001312,0.276840,0.050025,314.429913,24.424955,0.999419,0.987941,0.004175,0.441045,0.000007,0.000006,-0.000008,0.000015,-0.000002,-43.998193,0.000016,
2491,2113,5.18191602313926,-11.632572367094,0.0466247511975553,0.006098,-0.000262,0.002543,0.268952,0.017470,330.044936,21.978338,0.999665,0.984369,0.004896,0.419315,-0.000002,-0.000015,-0.000014,0.000007,-0.000024,-31.624067,0.000025,
2146,2098,-2.35241234253703,-11.950883943957,0.019103668391665,0.005879,-0.000404,0.005018,0.254315,0.016239,330.194245,24.119871,0.999173,0.983480,0.005124,0.302908,0.000005,-0.000027,0.000017,0.000012,-0.000035,23.825998,0.000035,
2371,2728,2.43550248316837,1.8209386208582,-0.0244970559252238,0.006076,-0.000074,0.002991,0.268573,0.055252,319.277472,24.470380,0.999542,0.991121,0.003720,0.428051,-0.000009,0.000026,-0.000001,0.000026,-0.000009,-88.292727,0.000027,
2386,2818,2.74437080591789,3.78134471496156,-0.0271310498292223,0.006056,0.000016,0.004199,0.263328,0.049479,317.792322,24.710807,0.999683,0.991837,0.003792,0.444218,-0.000010,0.000028,-0.000001,0.000028,-0.000010,-88.122013,0.000029,
2401,2893,3.05751229593659,5.41345373366623,-0.0138941436801474,0.006107,0.000351,0.001673,0.274934,0.073801,316.703481,24.965169,0.999485,0.991620,0.003718,0.456303,-0.000019,0.000011,-0.000002,0.000011,-0.000019,-85.997845,0.000019,
2161,2143,-2.03334717377335,-10.9649437012677,0.0139825029413601,0.005590,-0.000154,0.006258,0.237178,0.064904,329.356942,23.970845,0.999365,0.972226,0.006088,0.450116,0.000008,-0.000024,0.000009,0.000011,-0.000026,14.905430,0.000026,
2086,3193,-3.8316321425283,11.8994220055192,0.0434934917341252,0.006047,0.000524,0.005707,0.262947,0.082799,312.937233,24.367041,0.999441,0.994529,0.003051,0.461245,-0.000011,0.000045,-0.000013,0.000048,-0.000013,-77.832926,0.000049,
2026,3088,-5.11613764879415,9.62028185248286,0.0299327586174627,0.005868,-0.000019,0.005224,0.256651,0.064220,314.876005,24.205746,0.999627,0.994751,0.003100,0.395335,0.000020,0.000010,0.000004,0.000021,0.000008,17.292811,0.000031,
2221,2443,-0.776197640977866,-4.40236381154403,0.00277990093832159,0.006501,-0.000533,0.005279,0.281499,0.031268,324.293541,24.057633,0.999273,0.987760,0.004518,0.416748,-0.000004,-0.000002,-0.000013,0.000009,-0.000016,-46.945745,0.000016,
2341,2608,1.80445651595067,-0.795632613133606,-0.0267582788956702,0.005893,-0.000285,0.005862,0.250187,0.068125,321.187079,24.147368,0.999372,0.986801,0.004478,0.462604,0.000013,-0.000009,0.000007,0.000015,-0.000011,16.120974,0.000015,
2446,3118,3.99472386707967,10.3035441054766,0.0193240708014741,0.006187,0.000280,0.000429,0.283263,0.053241,313.372379,25.791022,0.999691,0.991989,0.003594,0.461410,0.000001,0.000051,0.000006,0.000051,0.000000,83.458624,0.000059,
2041,2038,-4.63235770053932,-13.2656967627587,0.0272076814750903,0.005375,-0.000268,0.004871,0.232973,0.035406,331.704654,24.693068,0.998543,0.979690,0.005688,0.393699,0.000067,-0.000093,0.000062,0.000088,-0.000114,18.905463,0.000120,
2071,2068,-3.98184468117875,-12.608590530595,0.0376162946135992,0.005696,-0.000143,0.003426,0.251489,0.023556,331.163733,24.627767,0.998237,0.967534,0.006934,0.250278,0.000028,-0.000064,0.000032,0.000038,-0.000074,17.329400,0.000074,
2431,3028,3.68474987635798,8.34888354391393,0.00807920924216887,0.005639,-0.000014,0.003159,0.247744,0.051822,314.691371,25.495898,0.999419,0.987574,0.004259,0.400647,-0.000008,-0.000001,-0.000003,0.000000,-0.000009,-68.174870,0.000010,
2146,3283,-2.54796101627403,13.8557425632215,0.0152076964288312,0.006118,0.000278,0.003015,0.273488,0.057238,310.961145,24.708350,0.999611,0.994456,0.003100,0.417754,-0.000014,0.000036,-0.000003,0.000036,-0.000014,-86.568156,0.000036,
2056,2098,-4.31454263513386,-11.9493717145417,0.0153917891777837,0.006004,-0.000667,0.006455,0.257175,0.011448,330.584271,24.619319,0.998877,0.980732,0.005385,0.337326,0.000011,-0.000039,0.000021,0.000018,-0.000047,19.898988,0.000047,
2311,2383,1.19522802094715,-5.71172554581382,0.00309363072216229,0.005995,0.000435,0.001702,0.269398,0.058997,325.115198,23.704340,0.999371,0.986997,0.004637,0.425347,-0.000003,0.000010,-0.000005,0.000012,-0.000005,-70.032613,0.000012,
2251,2638,-0.15925532937154,-0.145466287185222,-0.0177178216526386,0.006058,-0.000435,0.006136,0.258288,0.036839,320.875216,24.310225,0.999028,0.986454,0.004431,0.407523,-0.000003,0.000012,-0.000008,0.000016,-0.000007,-66.484945,0.000016,
2356,2668,2.12056554755967,0.511339729633463,-0.014931629776413,0.005798,-0.000400,0.006269,0.244133,0.040794,320.305666,24.260839,0.999520,0.989485,0.004157,0.463645,-0.000009,0.000018,-0.000003,0.000018,-0.000010,-82.681144,0.000018,
2086,3013,-3.80470360522424,7.99833608595555,0.00737794779951173,0.005987,0.000278,0.002650,0.268634,0.056497,315.578436,24.353990,0.999711,0.994072,0.003023,0.471902,0.000014,0.000010,-0.000012,0.000024,0.000000,-40.484653,0.000028,
2371,2743,2.43267002476184,2.14738189915003,-0.0260024824107745,0.006201,-0.000112,0.002649,0.275538,0.042447,319.027876,24.485096,0.999464,0.990276,0.003833,0.441939,-0.000010,0.000029,0.000000,0.000029,-0.000010,89.697497,0.000030,
2131,2008,-2.66317752305866,-13.9263577026318,0.0314783859171257,0.006746,0.000140,0.000128,0.308809,0.039247,331.854473,24.084863,0.999247,0.984553,0.005126,0.395144,0.000020,-0.000068,0.000022,0.000025,-0.000073,13.172828,0.000074,
2206,2218,-1.06460870712015,-9.32140745364904,0.00826165013074842,0.005799,0.000225,0.001977,0.259820,0.055034,327.986067,23.899601,0.998984,0.982364,0.005304,0.358093,0.000000,0.000003,0.000004,0.000005,-0.000003,54.330301,0.000005,
2206,2353,-1.08800369641216,-6.3688395782467,0.00189994943451666,0.005910,-0.000111,0.003617,0.259824,0.038380,325.756911,23.969141,0.999664,0.990007,0.004130,0.442073,-0.000002,0.000002,-0.000007,0.000008,-0.000007,-52.800256,0.000009,
2041,2053,-4.63621023237059,-12.9308008345391,-0.0132153795187833,0.006028,0.000308,0.001873,0.271455,0.049870,331.165218,24.774155,0.999680,0.992051,0.003758,0.324533,0.000049,-0.000074,0.000057,0.000071,-0.000097,21.330651,0.000100,
2476,1993,4.87897475344473,-14.2654298242267,0.0391791087424735,0.006781,0.000964,-0.003657,0.324032,0.055262,331.931029,21.708016,0.998607,0.971501,0.006349,0.336385,0.000020,-0.000160,0.000048,0.000032,-0.000172,13.930560,0.000182,
2071,2083,-3.98619928328405,-12.2757540260862,0.00250689870699716,0.005706,0.000425,0.001759,0.256893,0.065203,330.635901,24.569367,0.998696,0.968690,0.006682,0.352133,0.000018,-0.000041,0.000029,0.000030,-0.000053,22.126560,0.000053,
2146,3298,-2.5506822939364,14.1800155675313,0.0158173022034021,0.005907,0.000263,0.003203,0.263105,0.043441,310.710425,24.684060,0.999664,0.995212,0.002847,0.434368,-0.000017,0.000051,-0.000015,0.000055,-0.000020,-77.810697,0.000055,
2056,3178,-4.47916866872216,11.5715556474056,0.0456023268262697,0.005966,0.000270,0.005034,0.261482,0.072227,313.362635,24.216535,0.999680,0.994298,0.003090,0.465191,0.000003,0.000054,-0.000006,0.000054,0.000002,-82.877329,0.000064,
2056,2113,-4.31655725863181,-11.6205002083686,0.00874096524216839,0.006184,0.000087,-0.000940,0.286464,0.011969,330.317704,24.566567,0.998879,0.982562,0.005364,0.388736,0.000007,-0.000042,0.000019,0.000014,-0.000049,18.933363,0.000050,
2416,2998,3.36424041889184,7.69585633720049,-0.000275110208349361,0.006178,-0.000125,0.003934,0.269712,0.036623,315.113692,25.312639,0.999545,0.989143,0.003998,0.428362,-0.000003,-0.000004,-0.000005,0.000001,-0.000008,-43.427509,0.000009,
2431,3043,3.68182775113646,8.67475125381574,0.00546568521303925,0.005954,-0.000077,0.003829,0.259783,0.053165,314.435994,25.522567,0.999464,0.989298,0.004042,0.424684,-0.000013,0.000014,-0.000003,0.000015,-0.000013,-83.048615,0.000016,
2071,3238,-4.16304346351833,12.872534459596,0.0445214806272816,0.006549,0.000328,0.001004,0.299788,0.055713,312.326840,24.279450,0.999547,0.993642,0.003230,0.437046,-0.000014,0.000034,-0.000016,0.000039,-0.000019,-73.204272,0.000039,
2221,2248,-0.742858329815526,-8.66612285592404,0.00229498906315939,0.005879,0.000116,-0.000529,0.271374,0.031001,327.427846,23.711731,0.998927,0.983115,0.005171,0.492185,-0.000005,0.000002,0.000011,0.000010,-0.000013,53.859169,0.000013,
2191,2293,-1.40416941083255,-7.6803465205005,0.00195443314976274,0.006161,-0.000144,0.000203,0.282085,0.035081,326.789660,23.999281,0.998886,0.982770,0.005224,0.395191,0.000006,-0.000004,-0.000001,0.000006,-0.000004,-6.356497,0.000006,
2251,2428,-0.120889751052051,-4.72985524030281,-0.00417747409335334,0.006035,0.000235,0.001839,0.271128,0.038656,324.404199,23.852445,0.998779,0.987330,0.004503,0.525890,-0.000011,-0.000005,-0.000010,0.000003,-0.000018,-53.291459,0.000019,
2146,2113,-2.35360667958045,-11.6238365928683,0.0316194873335007,0.006138,-0.000042,0.003072,0.272203,0.031151,330.075644,24.096258,0.999331,0.984359,0.005040,0.351375,0.000005,-0.000029,0.000015,0.000011,-0.000035,20.944195,0.000035,
2086,3298,-3.85018337724663,14.1740578989771,0.0233120625974266,0.005712,0.000232,0.003322,0.254463,0.058714,311.041852,24.328097,0.999644,0.995010,0.002891,0.459269,-0.000053,0.000060,-0.000017,0.000062,-0.000056,-81.593192,0.000068,
2236,2533,-0.466343822357299,-2.43576332658314,-0.00878986638321066,0.006038,0.000248,0.002535,0.269313,0.049120,322.693311,24.201029,0.999744,0.991596,0.003630,0.386276,-0.000004,0.000014,0.000000,0.000014,-0.000004,-89.990030,0.000014,
2041,2068,-4.63803728846698,-12.6042304143743,-0.00648162832516164,0.006108,-0.000172,0.003839,0.269598,0.031379,330.979995,24.663145,0.999701,0.992237,0.003634,0.412543,0.000034,-0.000057,0.000052,0.000058,-0.000081,24.463906,0.000083,
2236,2278,-0.421090611115449,-8.00880126693789,0.00577755245359413,0.006079,-0.000476,0.006420,0.257957,0.018686,326.925772,23.817217,0.999078,0.984350,0.004995,0.352818,0.000002,0.000003,0.000003,0.000006,-0.000001,50.639241,0.000006,
2131,2023,-2.66667468219775,-13.5932183770049,0.0139327351009229,0.006648,0.000980,-0.002161,0.311483,0.048386,331.469332,24.254216,0.999120,0.984111,0.005249,0.245147,0.000005,-0.000068,0.000013,0.000007,-0.000070,9.527526,0.000077,
2161,1993,-2.00652073100083,-14.2533787592684,0.0248521206748933,0.006668,0.000753,-0.002181,0.312398,0.042116,331.929599,24.056531,0.999276,0.982649,0.005132,0.206450,0.000037,-0.000030,0.000003,0.000038,-0.000030,2.605934,0.000040,
2401,2908,3.05438230933119,5.7396564447234,-0.00901820546977206,0.005988,-0.000353,0.007631,0.247523,0.035905,316.472091,25.077901,0.999527,0.991031,0.003821,0.350244,-0.000020,0.000003,-0.000005,0.000004,-0.000021,-79.286399,0.000022,
2281,2788,0.46713573917933,3.12253959996976,-0.0142581689692065,0.006433,0.000014,0.005023,0.279141,0.061265,318.438583,24.578966,0.998967,0.987938,0.004401,0.422140,0.000005,0.000016,0.000000,0.000016,0.000005,87.692537,0.000021,
2266,2668,0.161595632283376,0.509282417171832,-0.0258337799081119,0.006231,-0.000128,0.002679,0.277616,0.049255,320.313348,24.317684,0.999599,0.990988,0.003848,0.454341,0.000004,0.000012,-0.000004,0.000014,0.000002,-68.878157,0.000017,
2101,3103,-3.49254724862706,9.95085455682182,0.0303863855206714,0.006131,0.000047,0.004769,0.269040,0.052775,314.228305,24.481328,0.999697,0.993200,0.003260,0.387395,0.000003,0.000006,-0.000003,0.000008,0.000001,-56.023664,0.000010,
2281,2518,0.515607675314001,-2.76290611541441,-0.0114731991323538,0.005889,-0.000157,0.004539,0.255265,0.049166,322.823221,23.989606,0.999767,0.992281,0.003736,0.490373,0.000009,0.000002,-0.000007,0.000013,-0.000002,-31.846348,0.000014,
2311,2398,1.19441710698709,-5.38665563086261,0.0188697441854515,0.006508,0.000244,-0.001490,0.303725,0.039280,325.039623,23.651057,0.999381,0.988248,0.004599,0.492130,-0.000002,0.000019,-0.000006,0.000020,-0.000003,-75.433598,0.000022,
2086,3208,-3.83336035540915,12.2242100573165,0.0445742641520042,0.006345,0.000680,0.000301,0.292461,0.080492,312.730497,24.356022,0.999512,0.994043,0.003205,0.467552,-0.000014,0.000043,-0.000012,0.000045,-0.000016,-78.782491,0.000046,
2491,2128,5.17909446846504,-11.3036701728841,0.0518742693280956,0.005945,0.000139,0.002738,0.261412,0.063605,329.838696,22.021377,0.999643,0.987683,0.004561,0.484201,0.000000,-0.000025,-0.000012,0.000005,-0.000030,-21.874467,0.000032,
2116,3118,-3.16999349580373,10.2770711917625,0.0248602825316198,0.006084,0.000215,0.001771,0.275604,0.053395,313.872918,24.490904,0.999801,0.995841,0.002855,0.439018,-0.000004,0.000005,-0.000009,0.000010,-0.000009,-58.252922,0.000011,
2371,2758,2.42936778293585,2.47482221138478,-0.0289231096490425,0.005932,0.000140,0.001795,0.266298,0.042295,318.749586,24.572403,0.999096,0.986720,0.004268,0.395440,-0.000009,0.000035,0.000001,0.000035,-0.000009,88.452029,0.000036,
2086,2158,-3.67046023726497,-10.6348970546693,0.0109635102849666,0.005804,-0.000816,0.006871,0.246330,0.020589,329.416833,24.453290,0.998999,0.984083,0.005102,0.341893,-0.000005,-0.000023,0.000006,-0.000004,-0.000025,16.013926,0.000031,
2251,2443,-0.123687647073407,-4.40031743220599,-0.00417150009286615,0.006119,-0.000406,0.004927,0.264676,0.015788,324.154288,24.075166,0.999453,0.989952,0.004139,0.305054,-0.000007,0.000001,-0.000012,0.000009,-0.000015,-54.917795,0.000016,
2041,3133,-4.79744354758819,10.5964370443066,0.0329782651480741,0.006297,0.000403,0.004069,0.279625,0.069606,314.097823,24.211314,0.999408,0.992816,0.003446,0.425200,0.000010,0.000034,-0.000001,0.000034,0.000010,-87.125698,0.000046,
2131,2038,-2.66969739047545,-13.2660957051376,0.0150650452088712,0.006272,-0.000035,0.003155,0.278109,0.037097,331.206000,24.113594,0.999197,0.984118,0.005307,0.383835,0.000002,-0.000049,0.000013,0.000005,-0.000052,13.377723,0.000057,
2266,2683,0.158642407469888,0.836616644210125,-0.0281176182944591,0.006046,0.000289,0.001540,0.272997,0.051250,320.045774,24.373016,0.999573,0.991944,0.003663,0.426884,0.000005,0.000015,-0.000009,0.000020,-0.000001,-59.785493,0.000023,
2296,2803,0.789605297058198,3.45079064417407,-0.0270467140291544,0.006139,0.000172,0.001697,0.276812,0.073954,318.066799,24.608864,0.999164,0.989521,0.004133,0.446622,0.000005,0.000018,0.000007,0.000021,0.000002,67.543423,0.000026,
2101,3118,-3.49509634148785,10.2760123929315,0.0239540997346808,0.006267,0.000214,0.002061,0.283327,0.057221,313.943931,24.429628,0.999780,0.994899,0.002886,0.443786,-0.000001,0.000008,-0.000007,0.000012,-0.000005,-61.814514,0.000012,
2326,2503,1.49848056496036,-3.08892982473521,-0.00847094486158539,0.005807,-0.000725,0.007644,0.239958,0.043570,323.037990,23.939924,0.999448,0.988582,0.004062,0.413032,0.000012,0.000003,-0.000004,0.000014,0.000001,-20.786935,0.000017,
2056,2128,-4.31943252805129,-11.2907259396926,0.00765379258058374,0.006003,-0.000359,0.005102,0.261066,0.038150,330.042077,24.637083,0.998749,0.982588,0.005471,0.342209,-0.000005,-0.000029,0.000019,0.000005,-0.000039,28.964669,0.000043,
2281,2803,0.463812550627193,3.44992290784311,-0.0226145675857197,0.006358,0.000054,0.003901,0.279495,0.050300,318.124612,24.641916,0.999095,0.988921,0.004294,0.376370,0.000005,0.000016,0.000006,0.000019,0.000003,66.844732,0.000023,
2311,2413,1.19005755643841,-5.05704099940266,0.00255037449272777,0.006143,0.000223,-0.001303,0.286352,0.018794,324.642981,23.712936,0.999432,0.988300,0.004494,0.443987,-0.000002,0.000010,-0.000005,0.000012,-0.000004,-70.687477,0.000012,
2071,3163,-4.1519252262123,11.2488467123267,0.0373120041693937,0.006115,0.000429,0.001976,0.276848,0.057489,313.469226,24.357386,0.999748,0.995123,0.002894,0.383177,0.000007,0.000043,-0.000011,0.000046,0.000003,-73.823154,0.000055,
2476,2008,4.8743087071925,-13.9350813332673,0.0281866792207097,0.006311,0.000430,-0.001188,0.293060,0.032528,331.566736,21.726848,0.999143,0.976207,0.005786,0.355779,0.000023,-0.000115,0.000031,0.000030,-0.000121,11.974162,0.000126,
2086,3223,-3.83566885224073,12.5488200428598,0.0461991382119322,0.006336,0.000499,-0.000262,0.293572,0.056609,312.500183,24.356895,0.999476,0.993254,0.003447,0.440660,-0.000021,0.000042,-0.000014,0.000045,-0.000024,-78.209131,0.000045,
2131,2053,-2.67210136749677,-12.937039438211,0.0204857710127726,0.005970,-0.000168,0.004185,0.261173,0.043916,330.993307,24.183986,0.998744,0.980366,0.005532,0.329210,0.000000,-0.000049,0.000016,0.000004,-0.000053,16.316518,0.000059,
2251,2458,-0.126240692539948,-4.07321095519369,-0.00460633552984291,0.006215,-0.000368,0.004599,0.270207,0.025651,323.913708,24.043473,0.999758,0.991339,0.003967,0.371492,-0.000004,0.000006,-0.000006,0.000008,-0.000007,-64.511051,0.000009,
2356,2683,2.11769838692426,0.839834430011898,-0.0229045972029667,0.006177,0.000046,0.003476,0.271600,0.050835,320.021835,24.368253,0.999529,0.989975,0.003983,0.405829,-0.000011,0.000020,-0.000001,0.000020,-0.000011,-87.903490,0.000020,
2041,2083,-4.63836065538665,-12.277531241091,0.0171168965273978,0.006201,0.000478,-0.002008,0.290245,0.023105,330.956396,24.743452,0.999290,0.987091,0.004511,0.318595,0.000021,-0.000027,0.000044,0.000047,-0.000053,30.715752,0.000058,
2026,3103,-5.11828879602114,9.94496688222033,0.0283196598421682,0.005983,0.000106,0.002627,0.269204,0.065719,314.630643,24.137631,0.999647,0.994192,0.003190,0.454378,0.000018,0.000018,0.000010,0.000028,0.000007,44.486797,0.000037,
2296,2593,0.830125697216261,-1.12643849460314,-0.00226087902314021,0.006384,0.000501,0.000294,0.292486,0.054764,321.703933,24.175899,0.999622,0.991893,0.003628,0.435028,0.000010,0.000007,-0.000005,0.000014,0.000003,-35.491816,0.000018,
2476,2023,4.87143065106464,-13.604671688469,0.0289153558616135,0.006486,0.000603,-0.000764,0.299544,0.051320,331.336947,21.849094,0.999364,0.981460,0.005283,0.312538,0.000028,-0.000076,0.000027,0.000034,-0.000082,13.744308,0.000082,
2146,2128,-2.35584148957604,-11.2943814538235,0.029793046337943,0.006409,0.000188,0.002455,0.286591,0.035335,329.833481,24.151634,0.999258,0.982419,0.005205,0.311258,0.000004,-0.000027,0.000012,0.000008,-0.000032,19.086508,0.000033,
2236,2548,-0.46997170568368,-2.10805133385304,-0.0198101324511413,0.006006,-0.000384,0.005204,0.259025,0.040770,322.348130,24.178577,0.999734,0.992350,0.003514,0.422690,-0.000006,0.000012,-0.000003,0.000013,-0.000006,-81.862405,0.000013,
2071,3178,-4.15408134259885,11.5734153350574,0.0379024671783554,0.006321,0.000417,0.001836,0.286807,0.061972,313.239197,24.309182,0.999809,0.996443,0.002657,0.431380,0.000004,0.000049,-0.000008,0.000050,0.000003,-79.710496,0.000060,
2071,2098,-3.98705117390471,-11.9497420674035,0.0275814637635676,0.005633,-0.000131,0.002961,0.249969,0.047011,330.597409,24.616985,0.998685,0.977781,0.005644,0.285172,0.000013,-0.000040,0.000026,0.000024,-0.000051,22.397784,0.000051,
2191,2158,-1.37988831782207,-10.6383054563901,0.0292823438949767,0.005989,0.000301,0.001565,0.269833,0.046754,329.179567,23.856773,0.999108,0.986172,0.004848,0.395674,0.000010,-0.000028,0.000006,0.000011,-0.000029,8.170088,0.000029,
2386,2833,2.74152666823676,4.1083475828909,-0.0272525014547682,0.006058,0.000188,0.003404,0.266367,0.062189,317.549391,24.789629,0.999551,0.988257,0.004227,0.421312,-0.000010,0.000030,0.000000,0.000030,-0.000010,-89.872903,0.000030,
2341,2623,1.80227952953136,-0.469343557040489,-0.0210606958293056,0.005981,-0.000185,0.004413,0.259314,0.052747,321.000554,24.174038,0.999343,0.987880,0.004320,0.457563,0.000009,0.000007,0.000003,0.000011,0.000004,36.143049,0.000016,
2371,2773,2.42691096211619,2.80054788548738,-0.0218529563414336,0.005921,-0.000051,0.003459,0.259861,0.048081,318.558294,24.579200,0.999437,0.990157,0.003863,0.435732,-0.000008,0.000033,-0.000002,0.000033,-0.000008,-86.570574,0.000034,
2281,2818,0.461700992283099,3.77470608238873,-0.0136986937026222,0.006144,-0.000209,0.001674,0.276982,0.022800,317.953251,24.619394,0.999274,0.989753,0.003980,0.398483,0.000003,0.000020,0.000007,0.000023,0.000001,69.934593,0.000027,
2221,2458,-0.779737044984632,-4.07444728742092,-0.00211742160979611,0.005575,-0.000085,0.000718,0.253725,0.024858,323.982378,24.074071,0.999174,0.985608,0.004854,0.414667,0.000001,0.000001,-0.000009,0.000010,-0.000008,-44.739438,0.000010,
2266,2698,0.15636893467218,1.16263900618667,-0.020998279382809,0.006000,0.000110,0.002366,0.268118,0.046191,319.856953,24.396658,0.999646,0.992452,0.003565,0.424076,0.000004,0.000014,-0.000008,0.000019,-0.000001,-60.758270,0.000021,
2311,2428,1.18629406556988,-4.72797525097921,-0.00333332310378864,0.006084,-0.000377,0.005409,0.260605,0.036702,324.324769,23.791859,0.999604,0.990163,0.004092,0.417203,0.000003,-0.000001,-0.000009,0.000010,-0.000009,-38.090839,0.000011,
2041,2098,-4.640198246728,-11.9501306139251,0.0251478910905121,0.006292,-0.000199,0.001397,0.284825,0.021387,330.777689,24.713245,0.999132,0.981631,0.005201,0.342541,0.000012,-0.000028,0.000037,0.000034,-0.000050,30.557415,0.000051,
2026,3118,-5.1206069936542,10.2707957139313,0.027461230833751,0.006104,0.000377,0.003593,0.272215,0.073729,314.381420,24.177145,0.999668,0.994723,0.003100,0.411935,0.000017,0.000030,0.000009,0.000035,0.000012,63.243484,0.000049,
2476,2038,4.86821201186157,-13.2765633429317,0.0323995781326403,0.006250,0.000287,0.001789,0.279004,0.032302,331.104245,21.835739,0.999372,0.979669,0.005574,0.366917,0.000029,-0.000061,0.000023,0.000035,-0.000066,13.510035,0.000066,
2071,3253,-4.16623755062931,13.1978707316651,0.0418420569377531,0.006119,0.000223,0.003852,0.271806,0.061610,312.030954,24.300591,0.999716,0.994988,0.002964,0.417102,-0.000017,0.000026,-0.000017,0.000032,-0.000022,-71.147960,0.000033,
2251,2473,-0.128789535991526,-3.74701223212723,0.00269337360242616,0.005788,-0.000160,0.004691,0.250396,0.043462,323.712516,23.996999,0.999685,0.991155,0.003904,0.460083,-0.000002,0.000005,0.000000,0.000005,-0.000002,-88.521009,0.000005,
2116,2023,-2.99421328594087,-13.5942039522572,0.0154285226440152,0.006378,0.000293,0.000515,0.290953,0.032377,331.524907,24.264991,0.999221,0.985339,0.005396,0.319292,0.000011,-0.000075,0.000012,0.000012,-0.000077,7.718287,0.000082,
2131,3223,-2.86126909443047,12.552824181502,0.0436626147215406,0.006012,0.000264,0.004352,0.264680,0.073268,312.236373,24.564497,0.999626,0.994439,0.003080,0.476476,-0.000013,0.000038,-0.000011,0.000040,-0.000015,-78.062086,0.000040,
2176,2083,-1.69513975086734,-12.2801297581065,0.0203435912918053,0.006038,0.000004,0.001277,0.272811,0.025951,330.359107,23.940893,0.999498,0.985344,0.004984,0.295725,0.000009,-0.000012,0.000014,0.000016,-0.000019,26.055727,0.000021,
2491,2143,5.17413370530892,-10.9710164822589,0.0322578332701937,0.005844,-0.000298,0.003770,0.252703,0.043288,329.422869,22.210991,0.999105,0.981250,0.005473,0.336856,0.000005,-0.000009,-0.000016,0.000015,-0.000019,-32.497652,0.000020,
2281,2533,0.513481865454875,-2.43656149918419,-0.00875658545174929,0.006008,0.000107,0.001074,0.272395,0.032641,322.620462,23.967899,0.999635,0.992786,0.003627,0.523996,0.000010,0.000003,-0.000006,0.000014,-0.000001,-30.717039,0.000016,
2161,2008,-2.00933478902361,-13.9251476221453,0.0241461235983707,0.006465,0.000504,-0.000212,0.297046,0.055889,331.668395,23.959842,0.999228,0.984847,0.004897,0.330913,0.000023,-0.000063,0.000005,0.000024,-0.000063,3.118847,0.000064,
2101,1993,-3.31574057727004,-14.2540891113902,0.0376019470620577,0.005831,0.000143,-0.001290,0.271083,0.017103,332.237426,24.434931,0.999699,0.990339,0.004259,0.224086,0.000055,-0.000051,0.000038,0.000068,-0.000063,17.918015,0.000076,
2116,3133,-3.17284437613396,10.6029720199175,0.0203918197288431,0.006060,0.000111,0.002757,0.271547,0.044568,313.586271,24.538017,0.999838,0.997129,0.002617,0.385299,-0.000001,0.000014,-0.000004,0.000015,-0.000003,-75.355701,0.000017,
2431,3058,3.67890634784171,9.00117615588025,0.00483930265062327,0.005909,0.000065,0.001985,0.264563,0.044845,314.189664,25.627597,0.999589,0.990992,0.003875,0.360416,-0.000013,0.000012,-0.000004,0.000013,-0.000014,-81.383356,0.000015,
2086,2173,-3.67202321668323,-10.3066096637604,0.0105370911111891,0.006242,-0.000297,0.001589,0.281803,0.033119,329.207706,24.425314,0.998997,0.984514,0.004953,0.383988,-0.000007,-0.000001,0.000010,0.000007,-0.000014,53.901438,0.000014,
2236,2563,-0.471796337928122,-1.78307419878305,-0.00749045715019747,0.005904,-0.000066,0.004978,0.255209,0.046563,322.204926,24.102837,0.999699,0.992214,0.003518,0.526123,-0.000009,0.000008,-0.000008,0.000012,-0.000012,-68.633032,0.000014,
2086,3028,-3.80682575557004,8.3237185799887,0.00828817766017664,0.006148,0.000280,0.001515,0.279349,0.049885,315.352301,24.357219,0.999553,0.993047,0.003325,0.460542,0.000015,0.000009,-0.000013,0.000026,-0.000001,-38.674194,0.000029,
2206,2368,-1.0904445536212,-6.03984333765601,-0.00416464165772368,0.006345,0.000214,0.002102,0.284722,0.058554,325.488509,24.014202,0.999528,0.988609,0.004320,0.435706,-0.000007,0.000012,-0.000013,0.000018,-0.000013,-63.233711,0.000019,
2266,2473,0.197377185840192,-3.74555751012777,-0.00713219218221184,0.005902,-0.000119,0.003666,0.258861,0.051311,323.613035,23.972032,0.999758,0.992023,0.003825,0.458066,0.000002,0.000007,-0.000003,0.000008,0.000000,-67.135719,0.000010,
2026,3133,-5.12261295379762,10.5956357080296,0.0315221063452782,0.006184,0.000505,0.003569,0.276055,0.083542,314.174452,24.158086,0.999539,0.994114,0.003273,0.430079,0.000019,0.000046,0.000015,0.000052,0.000013,66.176108,0.000069,
2041,3148,-4.79958269221729,10.9207045108231,0.0404136368526906,0.006113,0.000346,0.004897,0.268800,0.067704,313.904686,24.175293,0.999629,0.993974,0.003236,0.450693,0.000007,0.000039,-0.000001,0.000039,0.000007,-87.901404,0.000049,
2146,2143,-2.359543621156,-10.9651725999036,0.0147637582517177,0.006126,-0.000005,0.002489,0.273460,0.045331,329.454567,24.042911,0.999508,0.982116,0.005137,0.441616,0.000003,-0.000025,0.000011,0.000006,-0.000029,18.684179,0.000031,
2416,3013,3.36118334878379,8.02228019624728,0.000107639257009851,0.005949,0.000081,0.002807,0.263472,0.050639,314.864936,25.389888,0.999409,0.987066,0.004237,0.412009,-0.000003,-0.000004,-0.000005,0.000001,-0.000008,-41.539914,0.000009,
2221,2263,-0.745348887799484,-8.33630089586252,0.000716160267870691,0.006172,0.000045,0.000682,0.280984,0.035754,327.181675,23.854725,0.998903,0.983029,0.005222,0.375412,0.000000,0.000001,0.000010,0.000011,-0.000009,47.272585,0.000012,
2116,2053,-2.99945563725649,-12.9362900028021,0.0151968851768061,0.005904,0.000532,0.001246,0.267210,0.043747,331.018314,24.260491,0.998781,0.980076,0.005416,0.349372,0.000003,-0.000053,0.000016,0.000007,-0.000058,14.787911,0.000063,
2176,2248,-1.72362014358946,-8.66537252384578,0.0052349512109231,0.005841,-0.000058,0.000333,0.266956,0.029567,327.573807,24.001670,0.998857,0.981270,0.005316,0.405179,-0.000003,0.000006,-0.000001,0.000006,-0.000003,-81.293522,0.000006,
2131,3238,-2.86417264881413,12.8784771612565,0.0349837257353443,0.006186,0.000201,0.004362,0.272614,0.052417,311.926005,24.604997,0.999560,0.994503,0.003000,0.419269,-0.000015,0.000032,-0.000013,0.000036,-0.000018,-76.046326,0.000036,
2056,3193,-4.48154025820618,11.8969570312619,0.0411385449539807,0.006216,0.000174,0.004376,0.274956,0.075151,313.093451,24.219806,0.999583,0.994218,0.003113,0.458419,-0.000001,0.000055,-0.000010,0.000057,-0.000003,-79.929119,0.000064,
2086,3238,-3.83882764831693,12.8740560756581,0.0402738679638901,0.006167,0.000269,0.002513,0.277690,0.057385,312.189332,24.351854,0.999611,0.994095,0.003170,0.444011,-0.000030,0.000035,-0.000017,0.000039,-0.000034,-76.188966,0.000042,
2401,2923,3.05204337102218,6.06510217252013,-0.0067819395198967,0.006131,0.000108,0.004386,0.266107,0.051231,316.264705,25.052401,0.999491,0.991206,0.003830,0.436384,-0.000017,-0.000001,-0.000010,0.000003,-0.000022,-64.688549,0.000023,
2386,2848,2.73948874850428,4.43425608597177,-0.0239497537839384,0.006324,0.000528,-0.000793,0.293837,0.066929,317.360047,24.805633,0.999520,0.989822,0.003977,0.453193,-0.000013,0.000030,-0.000005,0.000030,-0.000014,-83.720063,0.000031,
2296,2818,0.787317054421468,3.77637026999,-0.0210558603050117,0.006121,0.000230,0.001346,0.277164,0.055602,317.873398,24.628697,0.999423,0.990616,0.003890,0.438056,0.000003,0.000021,0.000007,0.000024,0.000000,70.548196,0.000027,
2026,3148,-5.12459481409561,10.9196480783577,0.0380941767172658,0.006158,0.000384,0.003856,0.274023,0.078438,313.983011,24.096258,0.999599,0.995058,0.003077,0.475800,0.000017,0.000048,0.000015,0.000054,0.000011,67.684274,0.000070,
2041,2113,-4.64230910042903,-11.6215510108187,0.0196691723105005,0.006462,-0.000120,-0.002982,0.304794,0.006003,330.511839,24.661507,0.998774,0.981474,0.005517,0.374527,0.000008,-0.000036,0.000032,0.000025,-0.000053,27.978533,0.000053,
2281,2548,0.510142932376542,-2.10622981386344,-0.0234044149391934,0.006241,0.000547,-0.001903,0.293225,0.035160,322.274559,24.143127,0.999336,0.989769,0.004170,0.380468,0.000009,0.000006,-0.000006,0.000013,0.000001,-36.322435,0.000016,
2086,3043,-3.80877670131741,8.64817929857847,0.0212709909889668,0.005861,0.000182,0.002641,0.262894,0.051597,315.200204,24.350506,0.999625,0.992661,0.003405,0.466970,0.000015,0.000004,-0.000017,0.000027,-0.000009,-35.682760,0.000027,
2476,2053,4.86451265964427,-12.9469617330352,0.0306714179127994,0.005952,-0.000225,0.003991,0.256901,0.007027,330.825851,21.911706,0.999424,0.982615,0.005235,0.325879,0.000034,-0.000051,0.000022,0.000040,-0.000056,13.760887,0.000058,
2071,2938,-4.11841182988379,6.37034292270583,-0.00132938813629835,0.006126,0.000069,0.001463,0.278438,0.058913,316.815603,24.347981,0.999462,0.991386,0.003655,0.454974,-0.000007,0.000012,-0.000005,0.000014,-0.000009,-75.678205,0.000014,
2266,2713,0.154122498928221,1.48898682138151,-0.0139645447610519,0.005866,0.000355,0.001504,0.264924,0.050150,319.668816,24.444028,0.999710,0.993228,0.003511,0.406349,0.000006,0.000018,-0.000008,0.000023,0.000002,-63.009061,0.000027,
2341,2638,1.80014529901704,-0.142644950690645,-0.0180203811255524,0.006099,0.000306,0.000124,0.279849,0.044121,320.802959,24.212919,0.999330,0.987786,0.004352,0.447280,0.000003,0.000014,-0.000003,0.000015,0.000003,-75.536171,0.000019,
2041,3163,-4.80192421008475,11.2457511060232,0.0360256538102135,0.006363,0.000224,0.004328,0.281919,0.060638,313.636223,24.148007,0.999636,0.993559,0.003343,0.462156,-0.000003,0.000050,-0.000005,0.000050,-0.000003,-84.728051,0.000056,
2026,3163,-5.12668689401812,11.2444831082863,0.0398747960853711,0.006248,0.000122,0.003070,0.280255,0.056645,313.759420,24.100943,0.999596,0.994254,0.003236,0.438295,0.000006,0.000057,0.000009,0.000059,0.000005,80.055805,0.000071,
2236,2293,-0.424083921902028,-7.68024538897124,-0.00377386143384228,0.005964,0.000072,0.000736,0.271280,0.013108,326.617615,23.785376,0.999172,0.985760,0.004655,0.402685,-0.000002,-0.000005,0.000006,0.000003,-0.000009,36.505286,0.000010,
2071,3268,-4.16914790139792,13.5230441454188,0.0295977879110865,0.006272,0.000388,0.001920,0.284486,0.064887,311.695562,24.260672,0.999823,0.996068,0.002710,0.455743,-0.000020,0.000026,-0.000013,0.000029,-0.000024,-75.019342,0.000031,
2431,3073,3.67597787534035,9.32610327665098,0.00316449777386651,0.005956,0.000197,0.000404,0.272677,0.052395,313.938489,25.576087,0.999657,0.992381,0.003591,0.468727,-0.000010,0.000023,-0.000005,0.000023,-0.000011,-82.071213,0.000023,
2176,2263,-1.72612145410046,-8.33670214636606,0.0107117920565543,0.005652,-0.000115,0.003090,0.249771,0.045503,327.360157,24.099262,0.998840,0.980492,0.005583,0.337950,0.000003,0.000010,-0.000005,0.000012,0.000001,-62.229319,0.000015,
2371,2788,2.42453704812722,3.12811403859213,-0.0166271690423514,0.006007,0.000173,0.003343,0.264339,0.058561,318.361476,24.739605,0.999852,0.994487,0.003288,0.326718,-0.000007,0.000031,-0.000002,0.000031,-0.000007,-87.052616,0.000033,
2056,2143,-4.32111221303029,-10.9636835752444,0.00929217577788677,0.006226,-0.000340,0.001274,0.282095,0.009799,329.836779,24.547487,0.998815,0.983935,0.005368,0.400819,-0.000009,-0.000011,0.000009,-0.000001,-0.000019,40.870516,0.000022,
2161,2023,-2.01210454954122,-13.5960712450516,0.0214879443748259,0.006258,0.000478,-0.001049,0.290118,0.053447,331.398952,23.939822,0.999080,0.984275,0.004948,0.362382,0.000011,-0.000060,0.000000,0.000011,-0.000060,0.091835,0.000063,
2191,2173,-1.38352389177443,-10.3080264738641,0.01112341442672,0.005916,0.000462,-0.001356,0.275688,0.044131,328.792694,23.838575,0.999223,0.968747,0.006054,0.429301,0.000007,-0.000014,0.000008,0.000010,-0.000017,19.240203,0.000017,
2251,2728,-0.175307687511168,1.81506695879912,-0.0213267321793751,0.006099,-0.000080,0.004552,0.265609,0.050060,319.390698,24.414716,0.999310,0.990988,0.003792,0.459046,0.000007,0.000015,-0.000013,0.000025,-0.000002,-53.959915,0.000027,
2326,2518,1.49567166096906,-2.7609252641431,-0.0134013013117169,0.005938,-0.000182,0.004782,0.256051,0.047451,322.769537,23.976963,0.999332,0.986856,0.004328,0.415536,0.000012,-0.000001,-0.000003,0.000012,-0.000002,-13.973980,0.000013,
2071,2113,-3.98921921835386,-11.6203972065151,0.022875593913966,0.005992,0.000191,0.002304,0.268424,0.060368,330.335814,24.615210,0.998854,0.982204,0.005305,0.300437,0.000010,-0.000040,0.000024,0.000020,-0.000049,21.663388,0.000050,
2086,2188,-3.67441180672247,-9.97846590157928,0.0139144586799489,0.006198,-0.000480,0.005501,0.268496,0.047265,328.981515,24.428182,0.998749,0.983791,0.005196,0.396846,-0.000011,0.000023,0.000012,0.000027,-0.000015,72.554133,0.000027,
2071,3283,-4.17222701963984,13.8481481399132,0.0219884830091246,0.006151,0.000476,0.002894,0.276215,0.079744,311.377927,24.233477,0.999783,0.996284,0.002691,0.493090,-0.000026,0.000032,-0.000004,0.000032,-0.000026,-85.577723,0.000034,
2026,3178,-5.12896065931022,11.568953034375,0.0452298846279859,0.006021,0.000106,0.003565,0.268367,0.049239,313.547667,24.082517,0.999691,0.993928,0.003157,0.438319,0.000001,0.000068,0.000010,0.000070,-0.000001,81.526867,0.000080,
2101,2008,-3.31756216757907,-13.9273428934148,0.0402418220555205,0.006254,0.000079,0.000450,0.285377,0.030251,332.034440,24.239553,0.999694,0.991342,0.004264,0.437303,0.000041,-0.000073,0.000029,0.000048,-0.000080,13.628764,0.000081,
2236,2578,-0.475026352645763,-1.45441766386503,-0.0186121712042677,0.005941,-0.000116,0.002804,0.263896,0.023220,321.877217,24.191912,0.999432,0.989589,0.004029,0.435945,-0.000006,0.000016,-0.000007,0.000018,-0.000008,-74.818481,0.000018,
2056,2158,-4.32384767227951,-10.6338635062981,0.0099925600081292,0.005944,-0.000279,0.005138,0.258303,0.068939,329.577186,24.619214,0.999086,0.985970,0.004937,0.385960,-0.000015,-0.000022,-0.000011,-0.000007,-0.000030,-35.411954,0.000039,
2311,2443,1.18420312582873,-4.4016681076522,0.00451807153558548,0.006206,-0.000369,0.006114,0.263829,0.044256,324.151187,23.762621,0.999507,0.988885,0.004315,0.487347,0.000008,-0.000003,-0.000009,0.000013,-0.000008,-29.257795,0.000013,
2086,3253,-3.84116250860817,13.1982561640872,0.0476583654804585,0.006055,0.000005,0.006433,0.261071,0.048162,311.989454,24.340067,0.999746,0.994939,0.002961,0.444118,-0.000035,0.000027,-0.000017,0.000031,-0.000039,-75.221132,0.000041,
2071,3298,-4.17470036642523,14.1731793988058,0.0201036399857912,0.006177,0.000577,0.002199,0.279423,0.073559,311.119634,24.255932,0.999602,0.994886,0.002971,0.459725,-0.000032,0.000060,-0.000012,0.000061,-0.000033,-82.375361,0.000061,
2281,2833,0.45845645269371,4.1010083917174,-0.0159576129929064,0.005922,-0.000319,0.003590,0.260382,0.030073,317.673518,24.620737,0.999496,0.991454,0.003781,0.432393,-0.000001,0.000024,0.000009,0.000027,-0.000004,71.573590,0.000029,
2326,2533,1.49281362225225,-2.43339119830215,-0.0182250905844512,0.005941,0.000233,0.001002,0.269398,0.043474,322.499413,23.985203,0.999354,0.986720,0.004387,0.438886,0.000014,-0.000006,-0.000004,0.000015,-0.000007,-9.530058,0.000015,
2101,2023,-3.32096161609144,-13.5954223686353,0.0293922433342004,0.006112,0.000017,0.003991,0.268639,0.029918,331.686195,24.381745,0.999340,0.986576,0.005016,0.300531,0.000024,-0.000082,0.000013,0.000025,-0.000083,6.850251,0.000086,
2086,2203,-3.67743804465602,-9.64948419716007,0.0100915934896193,0.005690,-0.000192,0.004911,0.247015,0.060332,328.687030,24.438171,0.998449,0.981934,0.005358,0.401956,-0.000006,0.000027,0.000010,0.000030,-0.000009,74.048063,0.000031,
2071,2128,-3.99194662646186,-11.2914313512956,0.0184173953293225,0.006078,-0.000153,0.006465,0.260492,0.061288,330.050170,24.600118,0.998972,0.984954,0.005043,0.316528,0.000000,-0.000028,0.000020,0.000010,-0.000039,27.721003,0.000040,
2296,2608,0.826003191800154,-0.798024120990405,-0.0114409586506099,0.005932,0.000172,0.003689,0.260184,0.062658,321.351036,24.240073,0.999440,0.990031,0.003960,0.409932,0.000008,0.000001,0.000000,0.000008,0.000001,-1.437833,0.000009,
2086,1993,-3.64347730188125,-14.2529505529531,0.0313030777404038,0.005822,0.000346,0.000824,0.264619,0.046261,332.249765,24.506019,0.999210,0.984749,0.004906,0.287704,0.000075,-0.000052,0.000059,0.000098,-0.000076,21.522836,0.000103,
2146,2158,-2.36216044503132,-10.6344065533228,0.00873826458649773,0.006162,0.000219,-0.000310,0.283653,0.026816,329.172629,24.207890,0.999736,0.965712,0.006424,0.269083,0.000006,-0.000024,0.000006,0.000007,-0.000025,10.815171,0.000026,
2401,2938,3.04945280297994,6.3909265322538,-0.00352079214883361,0.006134,0.000477,0.003535,0.269534,0.073309,316.050411,25.066202,0.999481,0.991133,0.003875,0.489674,-0.000012,-0.000002,-0.000010,0.000004,-0.000018,-58.258763,0.000019,
2056,2173,-4.32599624660448,-10.3045945028906,0.00199907262492616,0.006305,0.000488,0.001358,0.285797,0.067464,329.297100,24.614099,0.999099,0.988337,0.004589,0.387361,-0.000020,0.000001,-0.000011,0.000005,-0.000025,-66.641238,0.000026,
2236,2308,-0.426844943054771,-7.35137337869448,-0.00605212737377769,0.006007,0.000179,0.001155,0.271942,0.037291,326.356805,23.831780,0.998818,0.984802,0.004900,0.403949,-0.000005,-0.000010,0.000006,-0.000001,-0.000014,34.464778,0.000017,
2236,2593,-0.477133076758481,-1.1278849914862,-0.0151426757763033,0.006134,-0.000108,0.001708,0.276406,0.039284,321.675613,24.179515,0.999300,0.987229,0.004519,0.486039,-0.000004,0.000009,-0.000007,0.000012,-0.000007,-66.129641,0.000012,
2191,2428,-1.42696171408766,-4.72947705504103,-0.00762302827843087,0.006559,0.000695,-0.002912,0.310647,0.045506,324.559313,24.088926,0.998686,0.985575,0.005034,0.462800,-0.000006,-0.000015,-0.000020,0.000010,-0.000030,-38.318128,0.000031,
2176,2098,-1.69836230593078,-11.9512799435138,0.00704071002343198,0.006187,0.000095,0.001294,0.279692,0.027629,330.014842,23.808434,0.999435,0.984103,0.005091,0.445990,0.000009,-0.000020,0.000015,0.000015,-0.000026,23.500662,0.000026,
2101,2038,-3.32437239637221,-13.2667786495729,0.0195441394419049,0.005743,-0.000294,0.005483,0.247277,0.040968,331.343240,24.232602,0.999425,0.986087,0.005108,0.466079,0.000015,-0.000067,0.000013,0.000017,-0.000069,9.066210,0.000072,
2206,2233,-1.06664610624991,-8.99515286330116,0.0143064119073983,0.006168,-0.000855,0.006108,0.263346,0.017680,327.799390,23.826207,0.999088,0.983395,0.005321,0.413089,-0.000003,0.000012,0.000009,0.000016,-0.000008,64.203806,0.000016,
2041,2128,-4.6449758781745,-11.2919799642201,0.0158522203083749,0.006440,0.000151,0.000199,0.295068,0.037903,330.229368,24.677198,0.998331,0.978902,0.006108,0.386358,-0.000005,-0.000022,0.000031,0.000019,-0.000046,37.318961,0.000047,
2221,2473,-0.782633236999434,-3.74617737196645,-0.00825475222791283,0.005614,0.000595,-0.000489,0.259674,0.053719,323.694094,24.081727,0.999375,0.986959,0.004570,0.456022,0.000001,0.000002,-0.000004,0.000006,-0.000002,-48.117810,0.000006,
2431,3088,3.67481158516919,9.65094785405627,0.0242030096312646,0.006213,0.000270,0.002315,0.277490,0.060457,313.874200,25.664883,0.999695,0.993278,0.003428,0.436691,-0.000009,0.000033,-0.000003,0.000033,-0.000009,-85.976544,0.000035,
2491,2158,5.17100160080724,-10.6417473404422,0.0274093628051446,0.006124,0.000020,0.002710,0.269705,0.028917,329.157210,22.251209,0.999088,0.979630,0.005634,0.344191,0.000017,-0.000009,-0.000030,0.000037,-0.000028,-33.312791,0.000038,
2341,2653,1.79629425019212,0.185447951272401,-0.0277700503418714,0.005895,0.000263,0.001232,0.266647,0.047296,320.464113,24.265206,0.999454,0.989244,0.004173,0.435557,-0.000002,0.000016,-0.000002,0.000016,-0.000003,-82.600469,0.000017,
2131,3253,-2.86686200609926,13.2035584131093,0.0303141629928518,0.006139,0.000321,0.001699,0.278533,0.058975,311.647166,24.592821,0.999652,0.995024,0.002893,0.442314,-0.000014,0.000023,-0.000011,0.000026,-0.000017,-75.122305,0.000026,
2131,2068,-2.67370328220033,-12.6082746553303,0.0270998563868261,0.006224,0.000521,0.002724,0.277401,0.079474,330.823472,24.216962,0.998155,0.975478,0.006103,0.340498,-0.000001,-0.000039,0.000021,0.000008,-0.000048,23.575297,0.000052,
2071,3193,-4.1567671437145,11.8985960600888,0.0415863224437203,0.006098,0.000286,0.006357,0.263658,0.079071,313.001628,24.326724,0.999585,0.994874,0.002992,0.426576,0.000001,0.000050,-0.000012,0.000052,-0.000002,-76.569263,0.000060,
2266,2728,0.150797654616312,1.81623191251371,-0.0239136904473867,0.005996,0.000158,0.002133,0.268755,0.045088,319.345593,24.450005,0.999499,0.991428,0.003723,0.421175,0.000008,0.000013,-0.000009,0.000021,0.000001,-52.416282,0.000025,
2116,2038,-2.99677243327963,-13.2658875175869,0.013868424928944,0.006282,0.000190,0.000744,0.285888,0.027307,331.266881,24.196172,0.999156,0.983905,0.005306,0.390233,0.000006,-0.000057,0.000013,0.000008,-0.000060,10.944163,0.000065,
2281,2563,0.507191675482453,-1.78008161454574,-0.0204686781891041,0.006016,0.000164,0.001394,0.271790,0.041645,322.034920,24.092554,0.999188,0.988406,0.004479,0.466389,0.000005,0.000005,-0.000009,0.000014,-0.000003,-45.628148,0.000014,
2326,2548,1.4898069666177,-2.10625179555672,-0.017020523842973,0.005950,-0.000127,0.005253,0.255063,0.058818,322.251852,23.996993,0.999143,0.985030,0.004706,0.477743,0.000016,0.000001,-0.000002,0.000016,0.000001,-6.696639,0.000019,
2191,2308,-1.40733822800664,-7.35328188451241,0.00628754350276495,0.005415,-0.000459,0.003123,0.238607,0.036920,326.540921,23.967751,0.998832,0.982721,0.005231,0.445248,0.000004,-0.000014,-0.000007,0.000006,-0.000016,-18.109707,0.000016,
2056,2188,-4.32792904127855,-9.97749925325802,0.00847025281063907,0.006376,0.000146,0.003849,0.281988,0.054982,329.106730,24.580359,0.998876,0.985266,0.005025,0.405497,-0.000030,0.000027,-0.000004,0.000028,-0.000030,-86.073180,0.000033,
2071,2143,-3.99419705243265,-10.9630182891289,0.015724305914091,0.006006,0.000106,0.002220,0.269347,0.066082,329.796007,24.555611,0.998957,0.984543,0.005135,0.365861,-0.000004,-0.000015,0.000012,0.000003,-0.000022,32.994862,0.000024,
2086,3268,-3.84403604440585,13.5239026449229,0.0364922030759658,0.006164,0.000203,0.003789,0.273892,0.060752,311.662898,24.340336,0.999751,0.995698,0.002802,0.454206,-0.000040,0.000027,-0.000015,0.000030,-0.000043,-77.903310,0.000044,
2206,2383,-1.09373024977938,-5.71198629110891,-0.0074368130646576,0.005935,0.000009,0.003430,0.261672,0.048184,325.196123,24.018499,0.999251,0.986877,0.004515,0.439684,-0.000004,0.000004,-0.000015,0.000016,-0.000016,-52.389717,0.000018,
2401,2953,3.04595424660243,6.71737830151589,-0.00681823334622322,0.005977,-0.000005,0.005471,0.255138,0.064579,315.763175,25.126586,0.999533,0.991865,0.003769,0.465529,-0.000008,-0.000004,-0.000007,0.000001,-0.000014,-52.117994,0.000015,
2266,2488,0.194087224038046,-3.4182154990877,-0.0148869056228591,0.005970,-0.000499,0.005387,0.256199,0.031720,323.303171,23.934683,0.999681,0.991375,0.003892,0.503008,0.000002,0.000014,-0.000004,0.000015,0.000000,-72.876183,0.000018,
2056,3208,-4.48379514059459,12.2218501518627,0.0422779275123162,0.006068,0.000585,0.000925,0.277974,0.077617,312.860824,24.213596,0.999545,0.993881,0.003176,0.460518,-0.000003,0.000052,-0.000007,0.000053,-0.000004,-82.778524,0.000059,
2116,3148,-3.17513875681507,10.9275536850113,0.0249039356392018,0.006054,0.000658,0.004424,0.266616,0.085747,313.374036,24.472855,0.999733,0.995152,0.002968,0.494042,-0.000002,0.000024,-0.000004,0.000025,-0.000003,-81.514510,0.000027,
2476,2068,4.86227027593119,-12.6177668064646,0.0327729289971899,0.006432,-0.000036,0.001936,0.286720,0.006615,330.631330,21.973681,0.999358,0.979830,0.005583,0.323216,0.000035,-0.000014,0.000022,0.000044,-0.000023,20.681101,0.000044,
2491,2173,5.16843673061112,-10.314215182169,0.0323809481950548,0.006134,-0.000050,0.001611,0.274386,0.018825,328.961632,22.238669,0.998448,0.970862,0.006412,0.407770,0.000012,0.000000,-0.000041,0.000047,-0.000035,-40.994646,0.000049,
2071,2953,-4.12117578945781,6.69637292399634,-0.00310884568341407,0.006011,0.000148,0.004028,0.265867,0.068793,316.543920,24.355621,0.999231,0.991818,0.003741,0.453550,0.000003,0.000005,-0.000007,0.000011,-0.000003,-50.910963,0.000011,
2356,2698,2.11472729392695,1.1652703626244,-0.0164960800065046,0.005785,-0.000175,0.006548,0.242726,0.062597,319.803127,24.316470,0.999506,0.991275,0.003789,0.508439,-0.000011,0.000023,0.000000,0.000023,-0.000011,89.412488,0.000023,
2416,3028,3.35798997021342,8.34802661743774,0.000556233983445509,0.005888,-0.000137,0.005558,0.250518,0.049346,314.610354,25.424529,0.999481,0.988754,0.004103,0.422968,-0.000005,-0.000002,-0.000006,0.000002,-0.000010,-51.732072,0.000010,
2086,2218,-3.67943155563846,-9.32091204486066,0.010428941247369,0.005915,0.000189,0.003711,0.260933,0.079022,328.462320,24.454009,0.998492,0.983068,0.005189,0.406440,-0.000008,0.000033,0.000008,0.000034,-0.000010,78.667555,0.000035,
2026,3193,-5.13122410841557,11.8940590589771,0.0467404916943224,0.005983,0.000271,0.003154,0.267874,0.062953,313.314630,24.082162,0.999635,0.993313,0.003247,0.441333,-0.000005,0.000073,0.000006,0.000074,-0.000006,85.722806,0.000082,
2431,3103,3.67108257050672,9.977192578392,0.0171550610215832,0.006026,0.000140,0.002288,0.268970,0.054101,313.560610,25.721930,0.999766,0.994133,0.003295,0.422201,-0.000002,0.000037,0.000001,0.000037,-0.000002,88.999411,0.000042,
2131,3268,-2.86994708833769,13.5290263321352,0.0219363354532902,0.006144,0.000355,0.002148,0.277427,0.055146,311.330099,24.610617,0.999696,0.995248,0.002842,0.424801,-0.000014,0.000028,-0.000009,0.000030,-0.000016,-78.846789,0.000030,
2116,2293,-3.03827800128843,-7.6795391380228,0.00144005558655635,0.006022,0.000098,0.003467,0.266344,0.068111,327.045469,24.347215,0.999025,0.986364,0.004751,0.387158,0.000010,0.000019,0.000008,0.000023,0.000006,60.395228,0.000031,
2281,2848,0.455412189898052,4.42903095130378,-0.0218841490167279,0.006026,0.000152,0.003455,0.265819,0.059537,317.384093,24.735299,0.999645,0.993094,0.003626,0.374845,-0.000001,0.000026,0.000009,0.000029,-0.000004,73.325463,0.000031,
2341,2668,1.79366334614487,0.512486035217457,-0.0222447012531575,0.005823,0.000062,0.003353,0.255879,0.048114,320.255554,24.355913,0.999665,0.991730,0.003889,0.382519,-0.000005,0.000015,-0.000001,0.000015,-0.000006,-86.489630,0.000015,
2281,2578,0.505815729262757,-1.45389340256047,-0.0108504556062599,0.006385,0.000286,-0.002082,0.300390,0.039454,321.900847,24.116719,0.999062,0.986956,0.004697,0.468317,0.000010,0.000018,-0.000005,0.000020,0.000008,-64.853632,0.000029,
2131,2128,-2.68445465544557,-11.292406632312,0.0112615830906293,0.006054,0.000187,0.002449,0.270425,0.037296,329.721927,24.195269,0.998872,0.982013,0.005275,0.356133,0.000001,-0.000028,0.000015,0.000007,-0.000034,22.864794,0.000036,
2191,2323,-1.40946999226379,-7.02507959618134,0.00496331099560621,0.005804,-0.000036,0.001770,0.260877,0.038777,326.310089,23.988376,0.999050,0.985178,0.004834,0.442831,0.000010,-0.000011,-0.000010,0.000013,-0.000014,-21.669264,0.000016,
2491,2188,5.16437917021225,-9.98348419773221,0.0213788974849081,0.006264,-0.000771,0.003400,0.273218,0.011770,328.625594,22.351715,0.998506,0.971472,0.006322,0.349964,0.000020,0.000014,-0.000036,0.000053,-0.000020,-42.727925,0.000054,
2056,2203,-4.33055555269216,-9.6485203139245,0.00299092654557853,0.006216,0.000025,0.001713,0.280606,0.045203,328.818728,24.595226,0.998517,0.981621,0.005476,0.378330,-0.000027,0.000035,-0.000005,0.000036,-0.000027,-85.341184,0.000037,
2086,2008,-3.64536732378717,-13.9246106882494,0.0316618729534071,0.006158,0.000052,0.000210,0.281736,0.020509,332.030065,24.468699,0.999360,0.987137,0.004718,0.301876,0.000057,-0.000075,0.000048,0.000073,-0.000091,17.982535,0.000096,
2311,2458,1.18071912841118,-4.07285421903946,-0.00655921014691785,0.006183,-0.000327,0.004420,0.268614,0.053544,323.820258,23.789350,0.999416,0.987864,0.004504,0.503871,0.000005,0.000002,-0.000005,0.000009,-0.000001,-35.981561,0.000010,
2071,3208,-4.15867728934014,12.2229746921731,0.0424555080823552,0.006215,0.000525,0.001056,0.284326,0.077559,312.784538,24.275799,0.999505,0.994307,0.003146,0.471535,0.000000,0.000047,-0.000010,0.000049,-0.000002,-78.233844,0.000055,
2146,2173,-2.36233419205334,-10.3111673754943,0.042598286751911,0.006340,-0.000094,0.002591,0.282973,0.041112,329.214065,24.082184,0.999836,0.944277,0.008113,0.418434,0.000005,-0.000005,0.000009,0.000010,-0.000010,29.790994,0.000011,
2221,2278,-0.747851483282339,-8.00848834758261,0.00750289149550554,0.005941,-0.000166,0.003087,0.262650,0.036871,326.978056,23.907883,0.998694,0.983712,0.005192,0.344228,0.000004,0.000008,0.000007,0.000013,-0.000001,52.767627,0.000015,
2296,2833,0.78476041483092,4.10259245687733,-0.0168170611399887,0.005853,0.000325,-0.000574,0.271352,0.050525,317.658742,24.684694,0.999701,0.992838,0.003572,0.406800,-0.000002,0.000025,0.000009,0.000028,-0.000005,73.341410,0.000030,
2266,2743,0.148450971222374,2.14235676178654,-0.0206715875507371,0.006230,0.000010,0.003918,0.273604,0.058232,319.133774,24.445809,0.999317,0.988971,0.004036,0.464357,0.000006,0.000013,-0.000009,0.000019,0.000000,-55.418010,0.000022,
2236,2608,-0.479446368688382,-0.800381532066034,-0.0190097437217105,0.006513,0.000466,-0.001232,0.303543,0.048569,321.426960,24.204084,0.999170,0.985780,0.004662,0.492807,-0.000002,0.000003,-0.000004,0.000005,-0.000004,-63.275913,0.000005,
2191,2443,-1.4302899858076,-4.40120076901474,-0.00882253451857196,0.006096,0.000380,0.000634,0.278190,0.064573,324.274096,24.142415,0.998887,0.985571,0.004948,0.444454,-0.000005,-0.000008,-0.000019,0.000013,-0.000026,-42.688253,0.000026,
2131,2083,-2.67732480538502,-12.2787905787514,0.0144473949950452,0.006012,-0.000241,0.005638,0.258810,0.034007,330.459389,24.188970,0.998636,0.979070,0.005700,0.332535,0.000000,-0.000027,0.000022,0.000012,-0.000039,28.970449,0.000040,
2071,2968,-4.12386950727032,7.02218761349585,-0.00444961753879625,0.005859,0.000230,0.005280,0.255353,0.081580,316.277941,24.348020,0.999022,0.991013,0.003931,0.470012,0.000011,0.000003,-0.000010,0.000018,-0.000004,-34.521527,0.000019,
2416,3043,3.35584665183137,8.67340352376813,0.00819694871745469,0.005859,0.000154,0.002811,0.259362,0.053060,314.437888,25.471219,0.999560,0.990522,0.003915,0.426959,-0.000009,0.000012,-0.000006,0.000014,-0.000010,-75.653933,0.000014,
2281,2593,0.502405219271306,-1.12598444089629,-0.016108186576048,0.006149,0.000130,-0.000986,0.285883,0.030512,321.598883,24.180220,0.999242,0.988414,0.004339,0.424386,0.000011,0.000006,-0.000006,0.000015,0.000003,-32.926065,0.000019,
2221,2488,-0.785284817213885,-3.41878415917053,-0.00893383893878763,0.005856,-0.000183,0.003073,0.259119,0.044008,323.445256,24.103223,0.999441,0.987066,0.004373,0.444967,0.000000,0.000007,-0.000006,0.000010,-0.000003,-60.600950,0.000010,
2236,2323,-0.429522311190933,-7.02386932277491,-0.00534421105481897,0.006239,-0.000400,0.006126,0.266363,0.028032,326.115350,23.821536,0.998572,0.986166,0.004861,0.428049,-0.000001,-0.000007,0.000005,0.000002,-0.000010,29.221817,0.000011,
2071,2158,-3.99707818827416,-10.6356543515552,0.0163542275814734,0.005530,-0.000576,0.004936,0.239575,0.044462,329.531502,24.483041,0.999071,0.984655,0.005073,0.416593,-0.000006,-0.000023,-0.000002,-0.000006,-0.000023,-6.373078,0.000030,
2131,2368,-2.72366951584135,-6.04055945420804,-0.00401335834379779,0.006186,0.000337,0.000383,0.283132,0.051896,325.744389,24.262418,0.999054,0.985760,0.004731,0.432586,-0.000003,0.000016,-0.000019,0.000027,-0.000015,-58.547104,0.000027,
2086,3283,-3.84671902567623,13.8485725650785,0.0356884040754153,0.005992,-0.000091,0.004019,0.265240,0.049336,311.402117,24.336132,0.999645,0.995489,0.002828,0.444491,-0.000048,0.000034,-0.000008,0.000034,-0.000049,-84.605907,0.000050,
2311,2473,1.17784001673943,-3.74473440196999,-0.00566175924376466,0.005775,0.000153,0.001480,0.260075,0.042945,323.576018,23.889186,0.999278,0.986742,0.004546,0.426889,0.000009,-0.000002,-0.000003,0.000010,-0.000003,-14.296232,0.000010,
2386,2863,2.73675043862604,4.75999517514021,-0.0145722496064877,0.006022,0.000204,0.002739,0.267191,0.063991,317.167366,24.862747,0.999418,0.989856,0.003949,0.436104,-0.000015,0.000031,-0.000006,0.000032,-0.000016,-83.099213,0.000032,
2116,2068,-3.00154112016453,-12.6074829470024,0.0173325256322414,0.006097,0.000533,0.002166,0.273362,0.055117,330.801505,24.271987,0.998693,0.970679,0.006509,0.355908,0.000001,-0.000043,0.000020,0.000009,-0.000051,21.096312,0.000055,
2146,2203,-2.37017938473175,-9.64932467151097,0.00310413108809371,0.005932,-0.000150,0.001758,0.266816,0.022501,328.385693,24.160768,0.998710,0.978150,0.005634,0.344047,0.000005,0.000012,0.000009,0.000018,-0.000001,55.655853,0.000020,
2026,3208,-5.13320091097357,12.2187078842535,0.0483123581714722,0.006208,0.000295,0.002379,0.280462,0.065631,313.095305,24.054598,0.999532,0.993092,0.003333,0.460695,-0.000008,0.000070,0.000011,0.000071,-0.000010,81.955143,0.000077,
2176,2353,-1.74222350335709,-6.36723804697277,-0.00803999929786414,0.005788,0.000237,0.002984,0.256628,0.057228,325.759493,24.122676,0.998464,0.981051,0.005537,0.413030,0.000001,-0.000002,-0.000022,0.000021,-0.000023,-42.977084,0.000025,
2161,2158,-2.03820104304567,-10.6285705285861,-0.0320517908284614,0.006064,0.000213,0.002564,0.270397,0.060681,328.763324,24.206835,0.999851,0.944851,0.008403,0.224656,0.000013,-0.000024,0.000005,0.000013,-0.000024,7.425240,0.000024,
2266,2758,0.145076390557776,2.47001021639912,-0.0289582519006331,0.006227,0.000186,0.005042,0.269896,0.075019,318.816368,24.491520,0.999313,0.989204,0.004050,0.461260,0.000005,0.000021,-0.000004,0.000022,0.000004,-76.577115,0.000027,
2086,2023,-3.64895058021354,-13.5935521454061,0.0170293455033175,0.005810,0.000184,0.000407,0.265326,0.016451,331.651416,24.493828,0.999019,0.983539,0.005297,0.276134,0.000037,-0.000092,0.000025,0.000041,-0.000097,10.634406,0.000097,
2266,2503,0.191567860658242,-3.08971552208316,-0.0126291545939239,0.005904,-0.000248,0.004488,0.256252,0.049289,323.078444,24.063076,0.999664,0.992084,0.003897,0.418805,0.000003,0.000004,-0.000007,0.000010,-0.000003,-47.156465,0.000010,
2341,2683,1.79072271252216,0.839244967689865,-0.0261092084514871,0.006010,-0.000070,0.003593,0.263604,0.042933,319.987260,24.353397,0.999637,0.991619,0.003841,0.417022,-0.000007,0.000017,0.000001,0.000017,-0.000007,87.012197,0.000018,
2131,2098,-2.6795825694148,-11.9495219513136,0.0127386154298392,0.006343,-0.000761,0.006874,0.270151,0.028895,330.215521,24.227805,0.998957,0.983639,0.005090,0.297705,0.000000,-0.000031,0.000021,0.000011,-0.000041,26.415966,0.000042,
2326,2563,1.48745011985098,-1.77865860777584,-0.0157679098999779,0.006122,-0.000045,0.003073,0.270535,0.050550,322.034277,24.078873,0.998899,0.983957,0.004922,0.422842,0.000015,0.000003,-0.000002,0.000015,0.000003,-9.118666,0.000019,
2161,2278,-2.05567473599476,-8.00867926114401,0.00597959675479842,0.005947,-0.000759,0.006387,0.253187,0.032854,327.133634,24.130116,0.998374,0.978368,0.005902,0.372784,0.000007,0.000011,-0.000007,0.000017,0.000001,-51.234113,0.000020,
2236,2623,-0.482307077325434,-0.472974227883242,-0.0164208762828935,0.006286,0.000366,0.001391,0.284616,0.061250,321.186047,24.276819,0.999217,0.986007,0.004628,0.454468,-0.000003,0.000008,-0.000006,0.000011,-0.000006,-66.541311,0.000011,
2056,3223,-4.48617727409151,12.5464498951525,0.0441074300015885,0.006077,0.000477,0.002738,0.273186,0.070590,312.626315,24.197394,0.999512,0.993702,0.003179,0.462721,-0.000010,0.000044,-0.000009,0.000045,-0.000012,-80.435572,0.000047,
2431,3118,3.66765748857068,10.3035880531409,0.00910448820530974,0.006314,-0.000035,0.003357,0.278237,0.057953,313.256204,25.781361,0.999834,0.995108,0.003084,0.415844,0.000001,0.000047,0.000000,0.000047,0.000001,89.412542,0.000055,
2281,2863,0.452626129828371,4.75468063815025,-0.0184067441687148,0.006014,-0.000567,0.007674,0.250915,0.044476,317.154217,24.750959,0.999698,0.993437,0.003481,0.371475,-0.000003,0.000031,0.000004,0.000032,-0.000004,83.315984,0.000035,
2356,2713,2.11184096700739,1.49326013809453,-0.0195213026167949,0.005898,0.000000,0.005492,0.251739,0.058930,319.542267,24.441752,0.999465,0.991701,0.003683,0.418751,-0.000009,0.000032,0.000000,0.000032,-0.000009,89.604281,0.000032,
2281,2608,0.498746674282692,-0.797819928234432,-0.0187232565485829,0.006010,-0.000442,0.007398,0.251310,0.054113,321.298505,24.262913,0.999156,0.987584,0.004496,0.393945,0.000009,0.000000,0.000000,0.000009,0.000000,-0.621752,0.000010,
2071,2173,-3.99894220043953,-10.3070774600767,0.0175304300799439,0.005939,-0.000566,0.005971,0.255452,0.041432,329.316105,24.513312,0.998980,0.985701,0.004950,0.382676,-0.000009,0.000000,0.000001,0.000001,-0.000009,85.056429,0.000011,
2296,2623,0.82298126361373,-0.471015721172108,-0.0186327664209784,0.005965,0.000357,0.000869,0.271321,0.061718,321.058770,24.206851,0.999399,0.989223,0.004008,0.473103,0.000005,0.000013,-0.000004,0.000014,0.000003,-69.473916,0.000018,
2191,2458,-1.43323715859787,-4.07381740433235,-0.0145424585502951,0.005942,0.000317,-0.001297,0.277127,0.023302,323.983269,24.137386,0.998961,0.986721,0.004842,0.424424,0.000000,-0.000001,-0.000015,0.000015,-0.000015,-44.921730,0.000017,
2116,2308,-3.04033382621039,-7.352473353316,0.00158703631421986,0.006206,0.000102,0.001500,0.280622,0.036989,326.819920,24.305363,0.999080,0.985494,0.004918,0.403169,0.000008,0.000011,-0.000002,0.000012,0.000007,-66.337742,0.000020,
2221,2293,-0.749989695109768,-7.68082620237738,0.00656452640401994,0.006124,0.000527,-0.001433,0.285731,0.039181,326.751626,23.872584,0.998976,0.985450,0.004810,0.402836,0.000001,0.000001,0.000010,0.000011,-0.000009,44.476260,0.000012,
2371,2803,2.42180321779754,3.45278630582524,-0.0130935264816117,0.006027,-0.000215,0.005474,0.257504,0.046376,318.140737,24.647367,0.999853,0.994804,0.003298,0.447588,-0.000006,0.000027,-0.000001,0.000027,-0.000006,-88.004511,0.000029,
2401,2968,3.04422437188969,7.04269155936523,0.00655855574427733,0.006069,-0.000176,0.004976,0.261159,0.067911,315.636298,25.189872,0.999845,0.995002,0.003210,0.450258,-0.000008,-0.000007,-0.000009,0.000002,-0.000017,-46.472901,0.000019,
2386,2878,2.7340473797584,5.08697665857314,-0.0132356358830066,0.006149,0.000395,0.003185,0.271521,0.078183,316.937680,24.961007,0.999451,0.991909,0.003695,0.394894,-0.000016,0.000021,-0.000003,0.000021,-0.000017,-85.455587,0.000022,
2251,2653,-0.161699148782468,0.181220553456065,-0.0175579219345536,0.006047,-0.000281,0.003190,0.267491,0.036281,320.642376,24.318749,0.999412,0.989115,0.004115,0.422479,-0.000001,0.000018,-0.000003,0.000018,-0.000001,-81.474941,0.000020,
2146,2218,-2.37224832453077,-9.32170812272094,0.0158495270303547,0.005785,-0.000020,0.006878,0.244691,0.062043,328.228163,24.199226,0.998766,0.979455,0.005453,0.355026,0.000000,0.000014,0.000004,0.000014,-0.000001,76.064762,0.000016,
2131,2113,-2.68191192026943,-11.6210993106218,0.0147414069035108,0.006136,-0.000212,0.004843,0.266916,0.040312,329.988149,24.219095,0.999076,0.983911,0.005080,0.326587,0.000002,-0.000031,0.000018,0.000010,-0.000039,23.861449,0.000041,
2161,2518,-2.0974493658472,-2.76367280090803,-0.0274574958997391,0.005942,-0.000298,0.005199,0.257170,0.027003,322.983957,24.268267,0.998854,0.985965,0.004891,0.417128,0.000002,0.000006,-0.000002,0.000007,0.000001,-68.893374,0.000009,
2161,2293,-2.05734203089355,-7.6803875618052,0.00012889957082507,0.006549,0.000315,-0.002316,0.307808,0.020777,326.897766,24.116314,0.998634,0.981679,0.005427,0.386628,0.000009,-0.000001,-0.000004,0.000011,-0.000003,-20.693514,0.000011,
2296,2848,0.782440245395236,4.42798462715247,-0.0170252955861656,0.006303,0.000426,-0.000355,0.291375,0.053489,317.433072,24.626822,0.999704,0.992942,0.003558,0.497727,-0.000003,0.000027,0.000007,0.000028,-0.000005,77.320765,0.000030,
2431,3133,3.66498841189674,10.6281600587197,0.0174489829894924,0.006136,-0.000161,0.005787,0.261005,0.055895,313.063490,25.784318,0.999738,0.993178,0.003329,0.459526,0.000006,0.000043,-0.000003,0.000043,0.000006,-85.934092,0.000054,
2341,2698,1.78846957081701,1.16436820842714,-0.015085170421969,0.005867,-0.000355,0.005452,0.250534,0.054448,319.823057,24.310813,0.999642,0.992805,0.003725,0.507966,-0.000007,0.000021,0.000004,0.000022,-0.000007,82.524052,0.000022,
2101,2218,-3.35298051107868,-9.32094686497118,0.0077324633233502,0.005987,-0.000360,0.006499,0.255780,0.058915,328.362624,24.379037,0.998285,0.982087,0.005491,0.389271,0.000000,0.000028,0.000010,0.000031,-0.000004,72.235820,0.000034,
2236,2338,-0.431652424485282,-6.6950603314026,-0.00456592642012765,0.006232,0.000492,-0.000014,0.286197,0.053480,325.898901,23.901543,0.999028,0.986453,0.004744,0.396452,-0.000005,-0.000003,0.000000,-0.000003,-0.000005,78.393370,0.000008,
2491,2203,5.16104788020565,-9.65353174160479,0.0147781138629739,0.006188,0.000358,-0.001276,0.288106,0.043508,328.342381,22.407693,0.998408,0.973033,0.006225,0.387463,0.000028,0.000003,-0.000032,0.000050,-0.000019,-34.136204,0.000050,
2176,2278,-1.72824098642775,-8.01034148923654,0.0144190787519847,0.005985,-0.000988,0.006303,0.254844,0.015763,327.155365,24.017881,0.998706,0.980426,0.005579,0.403849,0.000008,0.000009,-0.000010,0.000018,-0.000001,-46.777465,0.000020,
2476,2083,4.85826862074027,-12.2877203274585,0.027028948358975,0.006245,-0.000187,0.005104,0.266130,0.036284,330.320447,22.002217,0.999454,0.980549,0.005363,0.384799,0.000035,-0.000007,0.000025,0.000046,-0.000019,25.255598,0.000047,
2221,2503,-0.78776919025141,-3.09057147190111,-0.014921531915661,0.006315,0.000397,0.002083,0.283599,0.057613,323.176607,24.133229,0.999445,0.987507,0.004333,0.448948,0.000004,0.000000,-0.000006,0.000009,-0.000004,-36.650372,0.000009,
2176,2593,-1.7829149547946,-1.12906379662568,-0.01738622338803,0.005892,-0.000342,0.003152,0.261086,0.021356,321.806204,24.299683,0.999138,0.988326,0.004276,0.417241,-0.000012,0.000013,0.000003,0.000013,-0.000012,83.268774,0.000015,
2086,2038,-3.65076553317482,-13.2657930102912,0.0220134987473557,0.006000,-0.000017,0.000890,0.272549,0.032348,331.460050,24.425969,0.999002,0.983897,0.005223,0.362350,0.000025,-0.000083,0.000022,0.000029,-0.000088,10.984684,0.000089,
2116,3163,-3.17729013820189,11.252224677596,0.0328307952630666,0.005892,0.000335,0.004794,0.257910,0.069228,313.186790,24.497095,0.999617,0.993233,0.003355,0.455454,-0.000006,0.000035,-0.000007,0.000036,-0.000007,-80.123384,0.000038,
2221,2308,-0.752784875742162,-7.35293347559416,0.0056607550079093,0.006114,0.000153,0.000594,0.278711,0.044015,326.495229,23.861556,0.998936,0.986812,0.004561,0.439820,-0.000001,-0.000005,0.000008,0.000006,-0.000011,38.778248,0.000011,
2071,2188,-4.00108698941054,-9.97860916847574,0.0122331755157461,0.006499,-0.000488,0.007497,0.276897,0.042090,329.052603,24.467054,0.998755,0.985296,0.005184,0.429406,-0.000016,0.000026,0.000005,0.000026,-0.000017,82.639546,0.000027,
2056,3238,-4.48790484574962,12.8713080793616,0.0465858949822291,0.006446,0.000483,0.000381,0.296886,0.061690,312.425358,24.213937,0.999594,0.994388,0.003082,0.430811,-0.000018,0.000033,-0.000015,0.000037,-0.000022,-74.631139,0.000037,
2176,2368,-1.74419134236969,-6.03904812454228,-0.0102753080987554,0.006326,0.000506,0.000818,0.288130,0.047822,325.530107,24.160776,0.999082,0.986743,0.004658,0.379348,-0.000004,0.000012,-0.000024,0.000029,-0.000021,-54.131817,0.000030,
2416,3058,3.35300038080305,8.99911601180713,0.0101213830834013,0.006022,-0.000023,0.005501,0.256946,0.047896,314.206093,25.523631,0.999610,0.991363,0.003784,0.416344,-0.000008,0.000010,-0.000006,0.000011,-0.000010,-73.983322,0.000012,
2311,2488,1.17559678102988,-3.41743058632171,-0.00186317548320858,0.005946,0.000349,0.000729,0.270598,0.043988,323.375265,23.933861,0.999376,0.987920,0.004264,0.416481,0.000010,0.000000,-0.000003,0.000011,-0.000001,-15.709823,0.000012,
2131,2143,-2.68694245175126,-10.9641819182983,0.0120639442837387,0.006063,-0.000152,0.004855,0.263611,0.042635,329.481001,24.172258,0.999115,0.983509,0.005119,0.393078,0.000000,-0.000025,0.000012,0.000005,-0.000030,22.305958,0.000033,
2266,2518,0.189250199126594,-2.76396614669672,-0.0056698837689737,0.005619,-0.000179,0.002690,0.249172,0.048618,322.887173,24.004550,0.999630,0.991783,0.003804,0.503279,0.000004,0.000008,-0.000002,0.000009,0.000003,-66.286504,0.000012,
2191,2668,-1.46951715726037,0.506899224353177,-0.0199170923542056,0.005907,0.000296,0.002451,0.264183,0.051487,320.523696,24.428070,0.999751,0.994203,0.003267,0.377165,0.000001,0.000015,0.000001,0.000015,0.000001,87.467542,0.000018,
2491,2218,5.15741277832119,-9.32324329835865,0.0104019393261296,0.006195,0.000168,0.000716,0.280763,0.022316,328.055333,22.576782,0.998925,0.980424,0.005624,0.258772,0.000021,-0.000002,-0.000023,0.000035,-0.000017,-31.911585,0.000036,
2326,2578,1.48481369738849,-1.45145220611374,-0.0168722841509634,0.006136,0.000142,0.000190,0.281230,0.045765,321.792391,24.105849,0.999277,0.988119,0.004254,0.426461,0.000018,0.000015,0.000002,0.000019,0.000014,30.578957,0.000033,
2281,2878,0.450489483445324,5.07918247400964,-0.0134543407216938,0.005947,-0.000038,0.003862,0.260791,0.047421,316.961817,24.657640,0.999742,0.993408,0.003467,0.495318,-0.000004,0.000027,0.000006,0.000028,-0.000005,79.413658,0.000030,
2341,2713,1.78522460508982,1.49281796452593,-0.025618789071757,0.005997,0.000256,0.002183,0.268135,0.058666,319.507901,24.409322,0.999397,0.989929,0.004030,0.450978,-0.000004,0.000030,0.000004,0.000031,-0.000004,83.123730,0.000033,
2446,3133,3.99143204316775,10.6295675194689,0.0206540980542513,0.006101,0.000015,0.004293,0.264796,0.055333,313.118865,25.880099,0.999569,0.988603,0.004105,0.425362,0.000006,0.000046,0.000001,0.000046,0.000006,88.676769,0.000057,
2026,3223,-5.13588622604106,12.5439249406575,0.0487559643405575,0.005988,0.000066,0.004801,0.263568,0.060755,312.836954,24.084063,0.999521,0.993564,0.003221,0.414994,-0.000017,0.000049,0.000006,0.000050,-0.000018,84.901217,0.000051,
2101,2233,-3.35478320041682,-8.99331442122262,0.00984928551758912,0.006322,-0.000360,0.005415,0.274358,0.063564,328.157723,24.347117,0.998779,0.983476,0.005117,0.429193,-0.000001,0.000040,0.000015,0.000045,-0.000006,71.676644,0.000049,
2221,2518,-0.790278947327369,-2.76392146726419,-0.0122877770921832,0.006113,0.000469,0.000682,0.278867,0.063327,322.951293,24.111351,0.999340,0.986674,0.004399,0.496440,0.000002,0.000007,0.000000,0.000007,0.000002,-85.918883,0.000010,
2266,2773,0.142830728500812,2.79642496126442,-0.0262955914649297,0.006181,0.000368,0.000932,0.281441,0.071539,318.606168,24.534844,0.999238,0.988525,0.004136,0.440046,0.000004,0.000019,-0.000005,0.000020,0.000003,-74.416816,0.000025,
2161,2308,-2.05960965129769,-7.35131792326777,0.00294664412047041,0.006694,0.000419,-0.000407,0.308728,0.047511,326.679622,24.227459,0.998866,0.982133,0.005263,0.314391,0.000007,-0.000008,-0.000012,0.000013,-0.000015,-29.182839,0.000016,
2071,2203,-4.00334624098029,-9.65017036234213,0.0112026620827805,0.006330,-0.000156,0.003345,0.281062,0.041130,328.807159,24.470358,0.998477,0.982852,0.005321,0.424606,-0.000013,0.000031,0.000004,0.000031,-0.000013,85.326161,0.000031,
2401,2983,3.04121357628144,7.36876864011796,0.004230845082418,0.006199,-0.000032,0.005397,0.265635,0.067283,315.376055,25.222337,0.999699,0.992413,0.003621,0.462264,-0.000006,-0.000008,-0.000011,0.000004,-0.000018,-42.929279,0.000019,
2146,2188,-2.36535904004522,-9.98225774810258,0.0346994493797297,0.006217,0.000062,0.001874,0.279583,0.030529,328.903874,24.059797,0.999392,0.954403,0.007105,0.440924,0.000000,0.000006,0.000010,0.000014,-0.000007,53.410625,0.000014,
2191,2473,-1.43632278421333,-3.74574136470442,-0.0173191786599887,0.005751,0.000253,0.001120,0.260834,0.046862,323.700953,24.163970,0.999087,0.984973,0.005056,0.437354,0.000002,0.000006,-0.000007,0.000011,-0.000004,-52.769493,0.000011,
2476,2098,4.85500492536228,-11.9578273091017,0.0268573278196982,0.005941,-0.000092,0.003543,0.258192,0.033154,330.068654,22.116787,0.999485,0.979004,0.005488,0.326852,0.000032,-0.000019,0.000009,0.000034,-0.000020,9.636564,0.000034,
2116,3178,-3.17896803272439,11.576675543197,0.0389145409798743,0.006200,0.000310,0.003270,0.276649,0.061482,313.011445,24.484051,0.999572,0.992615,0.003403,0.462977,-0.000007,0.000038,-0.000006,0.000039,-0.000008,-82.034967,0.000041,
2116,2323,-3.04286916503186,-7.02367975965139,-0.00283087477993149,0.006213,0.000264,-0.000519,0.287009,0.039361,326.547495,24.347897,0.999213,0.987260,0.004598,0.368781,0.000005,0.000014,-0.000011,0.000022,-0.000003,-56.096079,0.000024,
2266,2533,0.18627741607181,-2.43649433538749,-0.01253408988822,0.005792,-0.000096,0.002329,0.258337,0.034881,322.596149,23.997176,0.999734,0.995487,0.003162,0.523630,0.000004,0.000008,-0.000002,0.000009,0.000004,-69.891727,0.000013,
2146,2443,-2.41024130615115,-4.4019740454867,-0.0105020594476173,0.005903,0.000112,0.003024,0.262179,0.044226,324.398853,24.255591,0.999178,0.987472,0.004690,0.429090,-0.000010,-0.000003,-0.000022,0.000017,-0.000029,-49.345014,0.000029,
2296,2863,0.779347800478579,4.75489468352247,-0.0158373026788468,0.006081,-0.000160,0.002457,0.271506,0.047136,317.178395,24.732641,0.999629,0.992859,0.003545,0.414979,-0.000006,0.000032,0.000004,0.000033,-0.000006,84.570520,0.000035,
2311,2503,1.17254648963476,-3.09022522091396,-0.00522323659180302,0.005973,0.000076,0.001674,0.268519,0.037067,323.102338,23.916900,0.999489,0.989233,0.004047,0.460021,0.000007,-0.000004,-0.000007,0.000010,-0.000008,-26.052929,0.000011,
2431,3148,3.66165026446868,10.9545688627668,0.011211717590129,0.005985,0.000239,0.002192,0.267549,0.058990,312.771368,25.865733,0.999692,0.993750,0.003195,0.430018,0.000007,0.000038,-0.000003,0.000038,0.000006,-85.316025,0.000049,
2041,3178,-4.80455282823553,11.5703649125976,0.0381487469934427,0.006000,0.000357,0.004888,0.263636,0.058406,313.390994,24.119184,0.999734,0.994001,0.003191,0.480053,-0.000008,0.000059,-0.000003,0.000059,-0.000008,-87.418111,0.000064,
2176,2383,-1.74678001081277,-5.71234911176562,-0.00968701559315832,0.006360,0.000122,0.003285,0.281984,0.040012,325.287331,24.093611,0.999200,0.988662,0.004423,0.452868,-0.000003,0.000003,-0.000025,0.000025,-0.000025,-48.753978,0.000029,
2086,2053,-3.65212643619363,-12.9373106366888,0.0289681705743874,0.006463,-0.000375,0.000312,0.295352,0.025625,331.300102,24.473124,0.998671,0.980896,0.005491,0.310391,0.000018,-0.000071,0.000024,0.000024,-0.000078,14.323541,0.000079,
2131,2383,-2.72634673438139,-5.71296547649592,-0.00273778139870728,0.005925,0.000176,0.001637,0.267404,0.066204,325.497342,24.260413,0.998909,0.985137,0.004819,0.456202,-0.000004,0.000002,-0.000020,0.000020,-0.000022,-48.905452,0.000024,
2236,2638,-0.484829754716898,-0.146171776365136,-0.0172120615326889,0.006498,0.000263,0.002113,0.292014,0.041909,320.943640,24.301689,0.999172,0.987009,0.004508,0.431989,-0.000004,0.000013,-0.000008,0.000016,-0.000007,-67.326348,0.000016,
2161,2173,-2.04138697258619,-10.3025733715751,-0.044759896483356,0.006118,0.000121,0.001960,0.274727,0.054105,328.422449,23.863537,0.999816,0.931202,0.008794,0.574589,0.000011,-0.000006,0.000006,0.000013,-0.000008,18.717386,0.000013,
2281,2893,0.447674069668505,5.40679635692135,-0.0202867995099609,0.006156,0.000279,0.001110,0.279764,0.054646,316.678396,24.764264,0.999652,0.992439,0.003507,0.423497,-0.000007,0.000020,0.000008,0.000022,-0.000009,74.974881,0.000022,
2371,2818,2.41842521414278,3.77895539018529,-0.0149496120301933,0.005903,-0.000284,0.008591,0.240749,0.048502,317.864135,24.641365,0.999882,0.994963,0.003299,0.496777,-0.000011,0.000027,-0.000001,0.000027,-0.000011,-89.075070,0.000027,
2326,2593,1.48212147967856,-1.12397067005614,-0.0213793847387365,0.006553,0.000293,-0.000050,0.301230,0.037920,321.531234,24.136517,0.999630,0.991605,0.003704,0.423153,0.000019,-0.000001,0.000003,0.000019,-0.000001,7.872460,0.000021,
2206,2503,-1.114219054358,-3.09148796872433,-0.0128824133272474,0.006238,0.000046,0.002257,0.279488,0.025931,323.228635,24.158414,0.999542,0.988365,0.004273,0.422533,0.000002,0.000003,-0.000005,0.000008,-0.000002,-48.215356,0.000008,
2386,2893,2.73143331061561,5.41295328950737,-0.0152138448553956,0.006236,0.000988,-0.001232,0.291663,0.093189,316.696538,24.945997,0.999448,0.992425,0.003679,0.468176,-0.000016,0.000015,-0.000002,0.000015,-0.000017,-85.779320,0.000018,
2356,2728,2.10947744811397,1.81927790034081,-0.0105576374221528,0.005904,-0.000223,0.008326,0.241966,0.062877,319.363567,24.479595,0.999495,0.990702,0.003801,0.423905,-0.000008,0.000024,0.000004,0.000025,-0.000008,83.447676,0.000025,
2221,2323,-0.756185318809965,-7.02416764691559,-0.00411891062066161,0.006225,-0.000282,0.004042,0.272656,0.030336,326.165624,23.866145,0.999064,0.987306,0.004516,0.442810,0.000005,-0.000002,0.000007,0.000009,-0.000007,32.206332,0.000010,
2491,2233,5.15321514814316,-8.99545339184364,0.0103281200956644,0.005562,-0.000527,0.006316,0.230142,0.027530,327.761778,22.541531,0.998931,0.980485,0.005749,0.360798,0.000019,0.000009,-0.000008,0.000024,0.000004,-27.908073,0.000030,
2476,2113,4.85090758406661,-11.6280007150994,0.0180600445269761,0.005640,-0.000259,0.003456,0.244691,0.045037,329.739513,22.121894,0.999404,0.976851,0.005805,0.393926,0.000024,-0.000018,0.000000,0.000024,-0.000018,-0.130497,0.000025,
2176,2608,-1.78573346847628,-0.801122756854035,-0.0241239803175972,0.005936,-0.000036,0.001419,0.268609,0.041147,321.513979,24.328443,0.999172,0.988569,0.004284,0.421427,-0.000013,0.000009,0.000003,0.000009,-0.000013,83.174951,0.000013,
2401,2998,3.038176069728,7.69580252811824,-0.00280486639769606,0.006274,0.000247,0.000713,0.286176,0.048097,315.092017,25.334022,0.999581,0.990080,0.003977,0.376239,-0.000004,-0.000002,-0.000007,0.000004,-0.000010,-50.150057,0.000010,
2206,2743,-1.15658186236523,2.14044628573294,-0.0243851541874847,0.005995,0.000105,0.003904,0.263518,0.040811,319.224489,24.479400,0.999542,0.990787,0.003838,0.394043,-0.000004,0.000006,-0.000014,0.000015,-0.000013,-54.463467,0.000017,
2101,2248,-3.35744075232237,-8.66435921835684,0.000364694842687641,0.006168,0.000483,-0.001601,0.288040,0.050159,327.851093,24.340029,0.999012,0.985035,0.004953,0.426984,-0.000006,0.000042,0.000016,0.000046,-0.000011,73.220248,0.000049,
2206,2398,-1.09584578853053,-5.38437198077454,-0.00301056009527656,0.006054,-0.000192,0.003147,0.267979,0.055383,324.996926,24.061956,0.999435,0.989079,0.004261,0.421741,-0.000004,0.000012,-0.000015,0.000021,-0.000013,-58.863749,0.000021,
2176,2293,-1.73069734737458,-7.68073727344912,0.0105386878422564,0.006054,-0.000199,0.002808,0.269110,0.049894,326.894691,24.097514,0.998775,0.981958,0.005381,0.372895,0.000007,-0.000002,-0.000006,0.000010,-0.000006,-27.322087,0.000010,
2146,2233,-2.37465602541019,-8.99340400720145,0.0109270347771258,0.005957,-0.000054,0.004198,0.260679,0.045158,327.961960,24.177787,0.998971,0.981060,0.005192,0.370110,-0.000003,0.000019,0.000006,0.000021,-0.000004,76.293068,0.000022,
2416,3073,3.35046908374548,9.32463698488034,0.0115548612418479,0.006115,0.000220,0.002915,0.270870,0.059247,313.986480,25.542443,0.999630,0.991697,0.003711,0.455616,-0.000006,0.000019,-0.000007,0.000021,-0.000008,-75.617252,0.000021,
2191,2338,-1.41122127027384,-6.69716865195922,0.0191704954207239,0.005956,-0.000517,0.006787,0.252005,0.037968,326.177224,24.143098,0.999661,0.990116,0.004204,0.303238,0.000006,-0.000006,-0.000015,0.000016,-0.000016,-33.927894,0.000019,
2131,2158,-2.68768404220186,-10.6370311928382,0.0280792794604281,0.006217,0.000251,-0.002021,0.291306,0.002354,329.401120,24.263943,0.999750,0.991605,0.004043,0.269040,0.000003,-0.000026,0.000007,0.000005,-0.000027,12.295765,0.000029,
2161,2533,-2.09930087944821,-2.43674658618389,-0.0226808253381705,0.006094,-0.000054,0.002766,0.271693,0.036140,322.795548,24.291776,0.999073,0.987172,0.004500,0.413653,-0.000002,0.000018,0.000003,0.000019,-0.000003,81.891028,0.000020,
2101,2053,-3.32597481286776,-12.9369313945681,0.0275404564291648,0.005868,-0.000120,0.003933,0.257591,0.048816,331.178635,24.401639,0.999025,0.974617,0.006084,0.309310,0.000011,-0.000060,0.000018,0.000015,-0.000064,13.583067,0.000067,
2281,2623,0.496176571587753,-0.471372548570407,-0.0200994000834953,0.006098,-0.000408,0.005394,0.262077,0.045184,321.054691,24.236009,0.999335,0.987865,0.004276,0.440203,0.000008,0.000009,-0.000002,0.000010,0.000006,-52.811576,0.000016,
2086,2068,-3.65547013302536,-12.6070943776166,0.0151552875602761,0.006246,0.000039,-0.000378,0.287561,0.027035,330.936899,24.444887,0.998796,0.962083,0.007391,0.343453,0.000014,-0.000058,0.000027,0.000023,-0.000067,18.591942,0.000068,
2116,3193,-3.18185072455446,11.9018044823836,0.0396157483627917,0.005855,0.000176,0.004856,0.255990,0.052608,312.751505,24.506159,0.999579,0.992776,0.003546,0.434009,-0.000009,0.000037,-0.000011,0.000040,-0.000011,-77.190079,0.000041,
2296,2878,0.776472998820807,5.08049990343623,-0.0133678426460051,0.005906,0.000018,0.004357,0.257116,0.061808,316.940370,24.711022,0.999640,0.992322,0.003595,0.480960,-0.000006,0.000026,0.000006,0.000028,-0.000007,79.731615,0.000029,
2161,2323,-2.06274299148459,-7.02466868304507,0.000839589363579307,0.006064,0.000300,-0.001859,0.284219,0.023992,326.396693,24.123642,0.999007,0.984095,0.005009,0.406880,0.000009,-0.000002,-0.000017,0.000022,-0.000015,-35.739910,0.000022,
2491,2248,5.15016068826958,-8.66690074961097,0.00796971347352837,0.005756,-0.000160,0.005876,0.240890,0.058088,327.510160,22.532207,0.998915,0.981295,0.005530,0.462108,0.000022,-0.000009,-0.000007,0.000024,-0.000010,-12.467808,0.000024,
2131,2398,-2.72852528950453,-5.38717749014273,0.0120114689367483,0.005438,-0.000511,0.005324,0.233783,0.023050,325.345458,24.284090,0.998652,0.984027,0.005010,0.396445,-0.000004,-0.000004,-0.000024,0.000020,-0.000027,-45.254783,0.000028,
2086,2233,-3.68157976684271,-8.99220305097349,0.00447906414740373,0.006603,-0.000299,0.005928,0.285997,0.076595,328.196542,24.443704,0.999048,0.985693,0.004643,0.415754,-0.000008,0.000046,0.000015,0.000050,-0.000012,75.335420,0.000052,
2506,2143,5.50171701752414,-10.9702354240736,0.0231432786121673,0.006108,-0.000009,0.003190,0.266945,0.040071,329.406547,22.123357,0.999161,0.976590,0.005870,0.336727,0.000010,-0.000011,-0.000009,0.000014,-0.000015,-19.933535,0.000017,
2191,2488,-1.43899899771517,-3.41796653705016,-0.0226600606314378,0.005710,0.000413,-0.002804,0.271331,0.042588,323.424223,24.172472,0.998882,0.983397,0.005317,0.440487,-0.000001,0.000012,-0.000008,0.000015,-0.000005,-65.414909,0.000016,
2191,2683,-1.47141551624211,0.832161172594226,-0.0117594094010087,0.006038,0.000197,0.003051,0.268359,0.064943,320.353089,24.366086,0.999631,0.993088,0.003494,0.467532,-0.000002,0.000016,-0.000006,0.000017,-0.000003,-73.616374,0.000018,
2266,2548,0.183898236982547,-2.1074631598869,-0.0149615573459414,0.006197,0.000042,0.001237,0.280611,0.029616,322.354189,24.169286,0.999561,0.992223,0.003719,0.372868,0.000004,0.000008,-0.000003,0.000010,0.000003,-60.604814,0.000013,
2101,2263,-3.36021602125005,-8.33750010476858,0.00451570675937774,0.005818,-0.000560,0.003780,0.255975,-0.003664,327.613131,24.327263,0.999002,0.984084,0.004989,0.389562,-0.000003,0.000044,0.000015,0.000049,-0.000008,73.463007,0.000053,
2386,2908,2.72736607963681,5.73913662307675,-0.0178006916654567,0.005884,-0.000091,0.006552,0.247110,0.063841,316.385600,24.994721,0.999396,0.991095,0.003873,0.432658,-0.000017,0.000007,-0.000005,0.000008,-0.000018,-78.767223,0.000018,
2251,2668,-0.164418841485254,0.508088324072403,-0.0157133031952412,0.005987,-0.000022,0.005090,0.258667,0.067958,320.405240,24.330372,0.999602,0.990699,0.003826,0.466451,0.000002,0.000017,-0.000007,0.000020,-0.000001,-69.152865,0.000022,
2221,2578,-0.801152817918325,-1.45458566355435,-0.0191908913161001,0.006096,0.000132,0.000446,0.278844,0.035612,321.921745,24.216954,0.999263,0.989191,0.004061,0.442683,-0.000002,0.000014,-0.000003,0.000015,-0.000002,-80.449097,0.000016,
2146,2458,-2.41273712359848,-4.07320688436398,-0.0179043882009751,0.006267,0.000257,0.001684,0.283051,0.066966,324.115019,24.296992,0.999238,0.987888,0.004622,0.419867,-0.000007,0.000003,-0.000024,0.000023,-0.000027,-50.502704,0.000029,
2236,2653,-0.487342844875517,0.180887358194305,-0.0082853108162908,0.006115,0.000087,0.003920,0.268487,0.044907,320.751000,24.414063,0.999435,0.989189,0.004233,0.344010,-0.000001,0.000018,-0.000001,0.000018,-0.000001,-85.934163,0.000021,
2161,2188,-2.04071609853878,-9.98095860078042,0.00348992419469596,0.005973,0.000394,0.001848,0.268503,0.056034,328.578512,23.760252,0.999755,0.911496,0.009650,0.690769,0.000003,0.000001,0.000005,0.000007,-0.000003,40.433159,0.000007,
2491,2263,5.14784852928628,-8.33817064395743,0.011045307349093,0.006148,-0.000185,0.004283,0.264926,0.036713,327.317124,22.651917,0.998814,0.979585,0.005360,0.381930,0.000018,-0.000025,-0.000013,0.000022,-0.000028,-15.141491,0.000030,
2116,2338,-3.04578211870539,-6.69644301083014,-0.00663348897961669,0.006168,-0.000346,0.003182,0.273824,0.024845,326.261486,24.276854,0.999317,0.986838,0.004594,0.430871,0.000003,0.000010,-0.000013,0.000020,-0.000007,-53.138120,0.000020,
2326,2608,1.47894016136762,-0.796606471760867,-0.0206770238044669,0.006379,-0.000010,0.003542,0.280823,0.052138,321.272964,24.184630,0.999522,0.989774,0.003980,0.424559,0.000017,-0.000003,0.000006,0.000019,-0.000005,15.400515,0.000019,
2506,2158,5.49859309267353,-10.641398841653,0.0251213565803141,0.005870,0.000227,0.002386,0.259330,0.030661,329.173094,22.192852,0.999255,0.978258,0.005555,0.321847,0.000022,-0.000008,-0.000028,0.000038,-0.000024,-31.122824,0.000039,
2041,3193,-4.80660220420769,11.8956498120582,0.043420353946658,0.005948,0.000207,0.004095,0.263486,0.067026,313.189616,24.163250,0.999657,0.993739,0.003243,0.435610,-0.000014,0.000062,-0.000008,0.000062,-0.000015,-84.302467,0.000065,
2056,3253,-4.49069070562027,13.1965809708366,0.0463879448568036,0.006129,0.000412,0.001366,0.279493,0.059028,312.160866,24.251056,0.999748,0.995304,0.002955,0.383995,-0.000021,0.000026,-0.000018,0.000032,-0.000027,-71.640133,0.000034,
2236,2353,-0.434092763025827,-6.3677828683002,-0.00297806624894292,0.006268,0.000090,-0.000306,0.288695,0.040669,325.672776,23.892623,0.998946,0.985347,0.004865,0.415423,-0.000008,0.000002,0.000001,0.000002,-0.000008,85.193916,0.000009,
2206,2248,-1.06998496065456,-8.66470736189248,0.000341761384731853,0.006117,-0.000343,0.002703,0.271954,0.031073,327.449249,23.884199,0.998941,0.982839,0.005251,0.388238,-0.000003,0.000005,0.000009,0.000011,-0.000009,55.793865,0.000011,
2446,3148,3.9889813537943,10.9549992903107,0.0233282657325731,0.006140,0.000391,0.000783,0.279904,0.065561,312.910432,25.918243,0.999585,0.990715,0.003750,0.448575,0.000006,0.000040,0.000000,0.000040,0.000006,89.222017,0.000050,
2296,2638,0.820709203039534,-0.144821448349482,-0.0141228813512271,0.006167,0.000099,0.001882,0.277054,0.032932,320.859087,24.231230,0.999346,0.988044,0.004140,0.450392,0.000002,0.000017,-0.000004,0.000018,0.000001,-74.360951,0.000022,
2176,2623,-1.78812350219703,-0.474517494981079,-0.0238821267637945,0.006036,-0.000023,0.001221,0.273849,0.038813,321.278271,24.321849,0.999431,0.988630,0.004203,0.438713,-0.000009,0.000010,0.000000,0.000010,-0.000009,-89.673280,0.000011,
2176,2308,-1.73345679312838,-7.3527063854653,0.00944843570647436,0.005733,0.000295,0.000939,0.260379,0.065367,326.635066,24.085616,0.998775,0.982219,0.005302,0.414668,0.000006,-0.000013,-0.000013,0.000012,-0.000019,-26.787337,0.000019,
2431,3163,3.65934997431351,11.2797847622285,0.0210676394079883,0.006094,0.000212,0.005084,0.261885,0.071980,312.602349,25.928551,0.999666,0.992685,0.003432,0.428830,0.000008,0.000044,-0.000001,0.000044,0.000008,-88.983370,0.000056,
2206,2518,-1.11706614213148,-2.76436662075349,-0.0177520104423365,0.006165,-0.000049,0.000403,0.282025,0.023921,322.947991,24.119460,0.999461,0.988081,0.004310,0.477277,0.000000,0.000009,0.000003,0.000010,0.000000,74.806752,0.000011,
2071,2218,-4.005675907318,-9.3201449257561,0.00599175322861356,0.006229,0.001030,-0.002872,0.294500,0.071299,328.535238,24.549373,0.998187,0.982557,0.005264,0.375446,-0.000015,0.000036,0.000003,0.000036,-0.000016,86.896980,0.000037,
2131,2413,-2.73179998001885,-5.05725450042822,-0.00617044222417462,0.005819,-0.000480,0.005876,0.249685,0.055413,324.966888,24.301145,0.998935,0.986042,0.004852,0.419536,-0.000004,-0.000009,-0.000021,0.000015,-0.000027,-41.552598,0.000027,
2041,3208,-4.80875130027359,12.2201149207619,0.0448994380131467,0.006030,0.000173,0.003352,0.269327,0.061010,312.962918,24.127503,0.999579,0.993297,0.003265,0.456364,-0.000016,0.000058,-0.000003,0.000058,-0.000016,-87.488066,0.000060,
2251,2743,-0.177581531989905,2.14170846087183,-0.02084435782524,0.006296,-0.000039,0.002371,0.281863,0.040174,319.167137,24.458507,0.999266,0.989114,0.004102,0.428744,0.000004,0.000012,-0.000012,0.000021,-0.000005,-53.336125,0.000022,
2161,2203,-2.0432783151979,-9.64892973998557,0.00320805581321792,0.005937,0.000170,0.002130,0.265919,0.054655,328.330312,24.101750,0.998892,0.961329,0.006696,0.360747,0.000006,0.000007,0.000005,0.000012,0.000001,48.134234,0.000014,
2281,3118,0.4087205435866,10.2909471135105,0.0131388284328864,0.005984,-0.000239,0.005486,0.257363,0.043575,313.261769,25.177666,0.999777,0.994678,0.003130,0.403786,0.000000,0.000008,-0.000004,0.000010,-0.000001,-67.428156,0.000011,
2506,2173,5.49527989592851,-10.3129134214262,0.0276825244503698,0.005545,0.000337,0.003389,0.240638,0.052250,328.933340,22.210545,0.998857,0.976185,0.005888,0.389631,0.000013,0.000007,-0.000044,0.000054,-0.000034,-43.223094,0.000055,
2341,2728,1.7822460246987,1.82011734872513,-0.0241944292082508,0.005990,-0.000163,0.005564,0.255871,0.045900,319.263245,24.521288,0.999385,0.988722,0.004143,0.363122,-0.000003,0.000024,0.000007,0.000026,-0.000004,77.162310,0.000028,
2371,2833,2.41528151904734,4.10723003777955,-0.0230854088050023,0.005843,0.000369,0.003109,0.257773,0.066274,317.567606,24.770545,0.999688,0.991175,0.003800,0.426587,-0.000012,0.000030,0.000000,0.000030,-0.000012,89.654868,0.000030,
2191,2353,-1.41414195452473,-6.37000341741572,0.0108021063238084,0.005968,-0.000106,0.004491,0.259895,0.036402,325.873963,24.013090,0.999340,0.987333,0.004572,0.448421,0.000001,-0.000003,-0.000017,0.000016,-0.000018,-41.137255,0.000020,
2401,3013,3.03548832701127,8.02165006293568,-0.00245302826408533,0.006428,0.000495,0.000047,0.295771,0.056702,314.859209,25.363321,0.999539,0.989558,0.003985,0.400349,-0.000003,-0.000004,-0.000007,0.000004,-0.000011,-41.839096,0.000011,
2236,2368,-0.437285859614899,-6.03936917786779,-0.00300485310140175,0.006024,-0.000307,0.004360,0.262323,0.045560,325.403661,23.959238,0.999369,0.987790,0.004541,0.376675,-0.000015,0.000007,-0.000005,0.000008,-0.000016,-77.784152,0.000016,
2266,2788,0.140537703317232,3.12245830261394,-0.0230111476430466,0.006312,0.000483,0.000584,0.288706,0.069086,318.396992,24.551011,0.999141,0.988601,0.004318,0.446878,0.000004,0.000015,-0.000002,0.000015,0.000003,-80.740705,0.000020,
2446,3163,3.98636713876056,11.2807832164071,0.0279410616827249,0.006188,0.000529,0.001288,0.280302,0.076923,312.703245,26.002940,0.999587,0.991045,0.003875,0.426349,0.000008,0.000046,0.000003,0.000046,0.000008,86.287274,0.000058,
2116,2083,-3.00377910007627,-12.2780894297074,0.013415772352289,0.006282,0.000374,-0.000835,0.290673,0.033819,330.545458,24.307984,0.998613,0.975751,0.006195,0.305543,0.000002,-0.000030,0.000021,0.000012,-0.000040,26.526886,0.000041,
2041,3223,-4.8113065068584,12.5451349449657,0.0447275537940754,0.005968,0.000155,0.005235,0.261224,0.059996,312.708194,24.132048,0.999532,0.993678,0.003159,0.442049,-0.000024,0.000043,-0.000006,0.000044,-0.000025,-84.744512,0.000044,
2221,2593,-0.80394746458644,-1.12738355218114,-0.021289871849433,0.006152,-0.000056,0.001922,0.276692,0.052072,321.658840,24.217210,0.999161,0.986715,0.004478,0.478660,-0.000002,0.000010,-0.000003,0.000011,-0.000003,-75.646776,0.000011,
2176,2638,-1.79045337873121,-0.148214212461816,-0.020228254966753,0.006243,-0.000321,0.005112,0.271273,0.043043,321.063214,24.314473,0.999589,0.990181,0.003976,0.462870,-0.000009,0.000009,-0.000003,0.000009,-0.000009,-81.466075,0.000010,
2086,2083,-3.6602876562558,-12.2733945359921,-0.0216796873066301,0.006178,0.000284,0.001345,0.279632,0.051436,330.380981,24.465254,0.999053,0.948492,0.008817,0.351519,0.000009,-0.000039,0.000026,0.000021,-0.000050,23.837379,0.000050,
2146,2248,-2.37707264878658,-8.66462572142685,0.00571038946463887,0.006137,0.000360,0.001452,0.277395,0.054329,327.693571,24.176539,0.998884,0.981552,0.005245,0.390994,-0.000004,0.000015,0.000005,0.000017,-0.000005,75.383920,0.000017,
2176,2323,-1.73651780183745,-7.02433188616816,-0.00120629430580266,0.005768,0.000298,-0.000862,0.267562,0.052720,326.311778,24.043671,0.998626,0.982065,0.005331,0.458658,0.000010,-0.000007,-0.000017,0.000020,-0.000017,-30.975844,0.000022,
2356,2743,2.10675996327634,2.14575453965968,-0.0120480922421393,0.005841,0.000037,0.004418,0.252929,0.051001,319.118127,24.495370,0.999589,0.991264,0.003658,0.435185,-0.000008,0.000027,0.000004,0.000028,-0.000009,83.550372,0.000028,
2476,2128,4.8483889332881,-11.2998971049423,0.0267749878542531,0.005762,-0.000660,0.007073,0.236428,0.030809,329.562041,22.191773,0.999185,0.973739,0.006147,0.369201,0.000026,-0.000024,0.000000,0.000026,-0.000024,0.248023,0.000029,
2191,2503,-1.44081479043017,-3.09146186732391,-0.0148387798277554,0.006077,0.000169,-0.000141,0.279791,0.031697,323.255509,24.196218,0.999191,0.985969,0.004804,0.421090,0.000005,0.000005,-0.000008,0.000013,-0.000003,-43.740685,0.000013,
2251,2683,-0.166987718476395,0.83462138906286,-0.0171663920007745,0.005905,0.000225,0.001275,0.267463,0.057474,320.158511,24.330458,0.999524,0.990653,0.003812,0.479438,0.000003,0.000019,-0.000012,0.000026,-0.000003,-61.017981,0.000028,
2056,3268,-4.49343968303013,13.5209570963566,0.043360230338692,0.006034,0.000232,0.002492,0.271844,0.050127,311.882785,24.199898,0.999731,0.995203,0.002902,0.419313,-0.000024,0.000024,-0.000014,0.000028,-0.000028,-74.691784,0.000032,
2311,2518,1.16948554794621,-2.76192627783774,-0.010487601200964,0.006047,0.000077,0.001411,0.272863,0.040089,322.819258,23.978364,0.999446,0.987647,0.004211,0.435199,0.000005,-0.000004,-0.000006,0.000008,-0.000007,-25.359656,0.000009,
2326,2623,1.47658490649115,-0.470783647411402,-0.0135085948222127,0.006101,0.000198,0.001384,0.275572,0.056324,321.084511,24.160937,0.999504,0.989267,0.004030,0.487116,0.000013,0.000014,0.000002,0.000015,0.000012,47.770667,0.000027,
2191,2698,-1.47428591955194,1.158108114383,-0.0141628822204325,0.005876,0.000501,0.002982,0.261203,0.060030,320.082882,24.302499,0.999691,0.994292,0.003245,0.541075,0.000000,0.000007,-0.000005,0.000010,-0.000003,-62.085621,0.000010,
2416,3088,3.34788449776451,9.65060573131172,0.0147199180081543,0.006171,0.000323,0.002215,0.276053,0.064337,313.772338,25.623619,0.999656,0.992759,0.003533,0.426493,-0.000004,0.000028,-0.000006,0.000029,-0.000005,-79.831403,0.000031,
2386,2923,2.72546091080237,6.06478326538308,-0.0107250338949711,0.006159,0.000157,0.004532,0.267132,0.066104,316.220103,25.035647,0.999299,0.990146,0.004071,0.437012,-0.000015,0.000004,-0.000010,0.000009,-0.000019,-66.356601,0.000019,
2506,2188,5.49214493227422,-9.98269967651449,0.0176154621716478,0.006080,0.000294,-0.000350,0.279544,0.042390,328.645503,22.289279,0.998884,0.975021,0.006070,0.365064,0.000020,0.000020,-0.000041,0.000061,-0.000021,-44.972982,0.000062,
2206,2758,-1.15853325755027,2.46659905832923,-0.0209243283915725,0.006251,0.000354,0.001942,0.281672,0.063198,319.027746,24.473517,0.999493,0.990523,0.003875,0.439203,-0.000003,0.000005,-0.000010,0.000012,-0.000010,-56.114655,0.000013,
2116,2353,-3.04879040123913,-6.36733371377476,-0.0102153735250567,0.005922,-0.000374,0.005295,0.256293,0.033064,325.971792,24.362020,0.999348,0.984575,0.004834,0.359375,-0.000003,0.000007,-0.000015,0.000017,-0.000013,-54.837971,0.000018,
2101,2068,-3.32794910857389,-12.6083946891203,0.0229735175626615,0.006207,0.000401,-0.000754,0.286943,0.053973,330.929707,24.319266,0.999224,0.951410,0.008320,0.401333,0.000008,-0.000048,0.000023,0.000016,-0.000056,19.428049,0.000058,
2431,3178,3.6570960129628,11.6044176668515,0.0264475180060799,0.006194,0.000160,0.002845,0.274712,0.050778,312.414748,25.947621,0.999651,0.992230,0.003472,0.437270,0.000011,0.000049,-0.000003,0.000050,0.000011,-86.093810,0.000065,
2131,2173,-2.69148343122039,-10.3076629406058,0.00816214220452594,0.006240,0.000172,-0.000096,0.286648,0.029271,328.989843,24.113701,0.999456,0.975940,0.005579,0.455465,0.000002,-0.000006,0.000010,0.000008,-0.000012,34.147738,0.000013,
2221,2533,-0.792798692412862,-2.43525805524181,-0.0139193643938142,0.006297,0.000650,0.000505,0.288012,0.072067,322.703185,24.237199,0.999604,0.989819,0.003909,0.399461,0.000000,0.000013,0.000001,0.000013,0.000000,83.375206,0.000015,
2056,3283,-4.49623357763832,13.8457028476847,0.0356965717336379,0.006133,0.000285,0.002838,0.275509,0.057368,311.576840,24.145613,0.999745,0.995380,0.002873,0.474100,-0.000034,0.000029,-0.000005,0.000030,-0.000034,-85.813270,0.000037,
2206,2533,-1.11905348278561,-2.43667989299811,-0.0107519840840382,0.006231,0.000279,-0.000065,0.286713,0.054852,322.767681,24.210910,0.999581,0.989067,0.004096,0.434326,-0.000003,0.000017,0.000006,0.000018,-0.000004,74.130531,0.000019,
2356,2758,2.10259586720302,2.4739454273248,-0.0275907671833124,0.005606,0.000324,0.002918,0.247584,0.065200,318.737963,24.536544,0.999433,0.989648,0.003915,0.447622,-0.000006,0.000032,0.000006,0.000033,-0.000007,80.997708,0.000035,
2056,3298,-4.4989611491054,14.1710226489008,0.0286461053422045,0.006268,0.000478,0.003264,0.280597,0.058934,311.277099,24.157901,0.999606,0.993994,0.003098,0.456579,-0.000046,0.000058,-0.000011,0.000059,-0.000047,-84.166536,0.000063,
2161,2548,-2.1016181409731,-2.11038550895296,-0.0205148484354254,0.006166,-0.000212,0.003514,0.272727,0.040707,322.572223,24.249116,0.999179,0.987527,0.004324,0.471680,-0.000002,0.000022,0.000004,0.000022,-0.000003,80.470956,0.000025,
2296,2893,0.774105885552824,5.4067233871352,-0.0113776125198228,0.006050,0.000043,0.003161,0.267814,0.055636,316.723117,24.767435,0.999618,0.992225,0.003533,0.447878,-0.000010,0.000017,0.000007,0.000019,-0.000012,75.906057,0.000019,
2071,2233,-4.00832616887859,-8.99242659673462,0.00889572168000541,0.006122,-0.000099,0.004083,0.269492,0.049750,328.293646,24.559205,0.998844,0.985535,0.004787,0.343374,-0.000014,0.000050,0.000010,0.000051,-0.000015,80.903735,0.000053,
2176,2398,-1.7492194153903,-5.38519421248337,-0.00182195251858275,0.006103,-0.000319,0.006400,0.260401,0.046371,325.089212,24.128474,0.999049,0.986631,0.004700,0.438024,-0.000003,0.000006,-0.000026,0.000028,-0.000025,-49.557410,0.000031,
2296,2653,0.817032676927237,0.182872574982881,-0.0226988294584771,0.005890,-0.000121,0.002234,0.263073,0.024988,320.529678,24.266908,0.999274,0.988198,0.004148,0.437429,0.000001,0.000019,-0.000003,0.000019,0.000001,-80.585237,0.000023,
2311,2533,1.16664875477328,-2.43482566430114,-0.0109269017306701,0.006027,-0.000085,0.001781,0.270670,0.039755,322.570372,23.982045,0.999452,0.988400,0.004172,0.464540,0.000007,-0.000007,-0.000006,0.000010,-0.000010,-19.112091,0.000011,
2206,2413,-1.0969197040205,-5.05699010650332,0.0161919070484373,0.006388,0.000310,0.005742,0.275339,0.082428,324.921507,24.208846,0.999622,0.991800,0.003867,0.319522,-0.000006,0.000004,-0.000014,0.000014,-0.000015,-54.929006,0.000017,
2146,2473,-2.41458945511881,-3.74710146179157,-0.0121677027270266,0.006272,0.000487,-0.001486,0.292962,0.045516,323.930940,24.265760,0.999232,0.986799,0.004914,0.438471,-0.000004,0.000011,-0.000016,0.000021,-0.000014,-57.883076,0.000022,
2326,2638,1.47320019680473,-0.142964969374681,-0.0180235259064716,0.005993,0.000145,0.003306,0.264033,0.061423,320.791257,24.224468,0.999399,0.988943,0.004103,0.464027,0.000008,0.000019,-0.000002,0.000020,0.000008,-80.341696,0.000028,
2086,2098,-3.66187102569335,-11.9453117531079,-0.00694482921892359,0.005928,0.000285,0.000703,0.270029,0.056595,330.253035,24.567307,0.998980,0.966967,0.006919,0.256234,0.000006,-0.000039,0.000025,0.000017,-0.000050,24.201317,0.000051,
2476,2143,4.84542336024174,-10.9694715242711,0.0208992469526379,0.006114,-0.000339,0.004106,0.263940,0.030883,329.297832,22.306644,0.998562,0.974730,0.005944,0.313902,0.000029,-0.000011,-0.000007,0.000030,-0.000012,-9.453383,0.000030,
2506,2203,5.48933137679321,-9.65435604897418,0.0213473758311125,0.006144,0.000582,0.000557,0.279130,0.067672,328.433707,22.313280,0.998937,0.973641,0.006205,0.430084,0.000030,0.000007,-0.000036,0.000056,-0.000019,-36.051929,0.000057,
2116,2368,-3.04996411548538,-6.04083015245905,-0.00436852293302081,0.006351,0.000110,-0.000884,0.294466,0.034158,325.817106,24.312809,0.999117,0.984580,0.004906,0.414707,-0.000005,0.000017,-0.000014,0.000023,-0.000012,-64.323291,0.000023,
2401,3028,3.03260694096418,8.34687345958115,0.00243925434637049,0.006225,0.000278,0.001876,0.279745,0.050253,314.639073,25.384389,0.999536,0.989854,0.004001,0.417446,-0.000004,-0.000002,-0.000008,0.000005,-0.000011,-47.056716,0.000011,
2281,2908,0.445022768901406,5.73284753953039,-0.0185317296133007,0.006163,0.000363,0.002007,0.277142,0.059413,316.445850,24.796667,0.999680,0.993301,0.003272,0.422961,-0.000006,0.000017,0.000005,0.000018,-0.000007,79.376782,0.000018,
2176,2338,-1.73982262877533,-6.69567405915507,-0.00202347554557036,0.005568,-0.000577,0.007170,0.233299,0.044028,326.028553,24.127116,0.999009,0.985342,0.004865,0.381092,0.000007,-0.000004,-0.000020,0.000023,-0.000019,-37.762121,0.000024,
2191,2368,-1.4168741996197,-6.04049147546909,8.40191516999766E-05,0.006231,0.000477,0.000525,0.284642,0.041846,325.566618,24.074000,0.999570,0.988159,0.004418,0.409731,-0.000003,0.000007,-0.000021,0.000023,-0.000019,-52.037859,0.000025,
2176,2653,-1.79371671531365,0.180795337410025,-0.0396012730513462,0.006214,0.000657,-0.003842,0.298033,0.047901,320.684193,24.365892,0.999604,0.990083,0.004027,0.429736,-0.000007,0.000015,0.000001,0.000015,-0.000007,86.394247,0.000015,
2041,3238,-4.81349730759888,12.8698785470747,0.0432760075298688,0.006115,0.000117,0.003235,0.273547,0.046420,312.463205,24.120135,0.999569,0.994902,0.002961,0.431495,-0.000030,0.000031,-0.000014,0.000034,-0.000033,-77.868897,0.000039,
2191,2518,-1.44318721129858,-2.76577086753564,-0.00643747801058225,0.005848,-0.000099,0.002572,0.260713,0.037921,323.064434,24.137429,0.999383,0.988217,0.004473,0.501602,0.000004,0.000008,0.000001,0.000008,0.000004,72.382992,0.000012,
2446,3178,3.98311015124309,11.6063910542516,0.0274468072840932,0.006101,0.000169,0.002907,0.270110,0.060079,312.442808,26.072574,0.999643,0.991751,0.003624,0.390563,0.000008,0.000052,0.000000,0.000052,0.000008,-89.400035,0.000065,
2491,2278,5.14504524514454,-8.0091187092999,0.013547132536246,0.006159,0.000072,0.003427,0.268818,0.064514,327.098641,22.750941,0.999209,0.981556,0.005068,0.371695,0.000020,-0.000003,-0.000006,0.000022,-0.000004,-12.720857,0.000023,
2236,2668,-0.489947373964529,0.507176659091364,-0.00653542582637101,0.005898,0.000252,0.002294,0.263949,0.068187,320.517740,24.379297,0.999503,0.990393,0.003960,0.423708,0.000002,0.000016,-0.000005,0.000017,0.000001,-72.049744,0.000020,
2071,2248,-4.01071277485264,-8.66504337661868,0.00705835658578735,0.006031,-0.000241,0.002396,0.270064,0.028832,328.038309,24.493968,0.998894,0.985359,0.004737,0.386909,-0.000018,0.000056,0.000012,0.000057,-0.000020,81.298667,0.000058,
2206,2773,-1.1610959241039,2.79310597335414,-0.0188655362392751,0.006089,0.000164,0.001306,0.276208,0.051119,318.795679,24.527623,0.999417,0.990247,0.004043,0.389824,-0.000001,0.000005,-0.000007,0.000010,-0.000006,-55.822791,0.000010,
2221,2818,-0.842914632885073,3.77144486389567,-0.00791860042824055,0.005820,-0.000653,0.008472,0.240548,0.031914,318.080703,24.571951,0.999609,0.990630,0.003869,0.391769,0.000004,0.000019,0.000009,0.000023,-0.000001,64.736456,0.000026,
2236,2383,-0.439653914770897,-5.71264388258021,-2.64352595991113E-05,0.005851,-0.000017,0.001548,0.263584,0.045654,325.187918,23.910049,0.999481,0.987928,0.004485,0.448751,-0.000014,0.000001,-0.000009,0.000005,-0.000018,-65.318217,0.000019,
2341,2743,1.78001090637629,2.14539171105541,-0.0163528211303969,0.006040,-0.000242,0.006506,0.254889,0.055446,319.084278,24.480303,0.999525,0.990145,0.003924,0.450238,-0.000003,0.000026,0.000006,0.000027,-0.000005,79.554780,0.000029,
2161,2338,-2.06575936663178,-6.69577729122532,-0.00366583841849888,0.006038,0.000071,0.001317,0.273244,0.038751,326.105890,24.168288,0.999287,0.988138,0.004389,0.389356,0.000007,-0.000001,-0.000020,0.000023,-0.000017,-38.905645,0.000024,
2086,2248,-3.68446921632457,-8.66427279717755,-0.000534788041761658,0.006081,0.000104,0.001770,0.274177,0.059107,327.902193,24.393114,0.999003,0.985212,0.004783,0.450715,-0.000012,0.000049,0.000017,0.000054,-0.000017,75.833061,0.000055,
2191,2713,-1.47778116629725,1.48714260121924,-0.0299515428541213,0.005971,0.000268,0.002138,0.268210,0.065442,319.713542,24.408444,0.999225,0.990220,0.003981,0.455538,0.000003,0.000011,-0.000006,0.000014,0.000000,-62.657723,0.000017,
2041,3253,-4.81607582879246,13.1943747062869,0.0440095848484248,0.005891,0.000173,0.003674,0.262051,0.052500,312.212701,24.082039,0.999633,0.994502,0.002962,0.466534,-0.000032,0.000026,-0.000018,0.000031,-0.000037,-74.420029,0.000040,
2146,2488,-2.41780939004175,-3.4197499851014,-0.0167675521911974,0.005997,-0.000057,0.001286,0.271782,0.035347,323.629207,24.247084,0.999172,0.986320,0.004803,0.456361,-0.000007,0.000016,-0.000018,0.000026,-0.000017,-60.952833,0.000026,
2386,2938,2.72266063344273,6.39064438590353,-0.00989478830456392,0.006107,0.000029,0.003460,0.268465,0.036748,315.983659,25.087170,0.999266,0.990075,0.004068,0.398730,-0.000010,0.000004,-0.000010,0.000009,-0.000015,-62.647203,0.000016,
2116,2383,-3.05272834679258,-5.71386727271946,-0.00710924018437709,0.006166,-0.000171,-0.000641,0.285158,0.007230,325.543686,24.255271,0.999181,0.984601,0.004857,0.450646,-0.000005,0.000000,-0.000014,0.000012,-0.000017,-49.993194,0.000017,
2206,2428,-1.10000535331145,-4.73180336060408,0.00949343494460209,0.006263,-0.000493,0.005004,0.271668,0.066417,324.621158,23.956314,0.999144,0.987798,0.004548,0.574407,-0.000007,-0.000009,-0.000014,0.000006,-0.000022,-43.227446,0.000023,
2101,2278,-3.36202312445279,-8.00924550591557,0.00325420825072342,0.006277,-0.000201,0.001198,0.284698,0.015444,327.389654,24.318869,0.998978,0.982831,0.005073,0.420424,0.000001,0.000038,0.000011,0.000041,-0.000002,74.807192,0.000046,
2131,2428,-2.73482600126791,-4.72809770881258,-0.0155781933390244,0.005892,0.000061,0.006760,0.250612,0.075941,324.646591,24.350093,0.999199,0.987558,0.004589,0.398531,-0.000008,-0.000017,-0.000017,0.000006,-0.000030,-38.170735,0.000032,
2401,3043,3.03040780664844,8.67194894070564,0.01163718971668,0.006188,0.000149,0.001488,0.279432,0.050907,314.470669,25.416291,0.999613,0.991210,0.003782,0.430671,-0.000006,0.000012,-0.000008,0.000015,-0.000009,-70.046439,0.000015,
2176,2413,-1.75169101950297,-5.05711315662298,-0.00244702178162015,0.005955,0.000288,0.003127,0.263996,0.065499,324.845045,24.158589,0.998712,0.985123,0.004934,0.441031,-0.000002,-0.000001,-0.000024,0.000022,-0.000026,-45.653381,0.000028,
2101,2083,-3.33143620548577,-12.2774907641547,0.00213219437057433,0.006424,0.000512,-0.000139,0.295210,0.051083,330.523792,24.287703,0.999048,0.958433,0.007845,0.435596,0.000007,-0.000033,0.000023,0.000018,-0.000043,24.557896,0.000044,
2161,2218,-2.04528866107485,-9.32155380563696,0.0103687668476482,0.006128,-0.000416,0.005471,0.264327,0.025192,328.147346,24.129245,0.998805,0.979622,0.005490,0.315914,0.000001,0.000006,0.000000,0.000006,0.000001,86.758713,0.000008,
2221,2548,-0.795205080350005,-2.10902477913767,-0.00916905177138005,0.006173,0.000469,0.000835,0.281231,0.067097,322.493538,24.215713,0.999750,0.991942,0.003510,0.435734,-0.000001,0.000013,0.000001,0.000013,-0.000001,87.364375,0.000014,
2431,3193,3.65467449557746,11.9293966368054,0.0337986396177712,0.006212,-0.000007,0.003602,0.272665,0.045827,312.228436,25.997062,0.999617,0.991457,0.003615,0.431524,0.000013,0.000049,-0.000004,0.000049,0.000013,-83.694578,0.000066,
2131,2188,-2.69314544760344,-9.97940252563109,0.0210943299601922,0.006251,-0.000015,0.001661,0.281857,0.022259,328.851177,24.249785,0.999267,0.983687,0.005023,0.320055,-0.000002,0.000009,0.000011,0.000016,-0.000009,58.290644,0.000016,
2071,1993,-3.97118803712441,-14.2522543327043,0.0262470114665803,0.005694,0.000059,0.002687,0.253445,0.047649,332.272377,24.578845,0.998673,0.980350,0.005581,0.321627,0.000112,-0.000046,0.000075,0.000142,-0.000076,21.796336,0.000142,
2266,2803,0.13742085176203,3.44924160696124,-0.0253841472170961,0.006094,0.000371,0.001049,0.277048,0.051835,318.121331,24.611449,0.998977,0.988472,0.004664,0.394632,0.000003,0.000017,0.000005,0.000018,0.000002,72.605449,0.000022,
2116,2098,-3.00577252838126,-11.949679956896,0.0200525913330125,0.006402,-0.000239,0.001923,0.287870,0.018645,330.357131,24.369636,0.999004,0.975776,0.006062,0.235111,0.000002,-0.000033,0.000020,0.000011,-0.000042,24.336224,0.000044,
2506,2218,5.48589497599204,-9.32606293249631,0.0197352367203507,0.006241,-0.000401,0.003761,0.270822,0.016674,328.169833,22.358159,0.999087,0.975362,0.005939,0.397728,0.000022,0.000006,-0.000022,0.000037,-0.000009,-34.909606,0.000039,
2491,2293,5.14161346190046,-7.68168717956262,0.0122750313226447,0.005982,-0.000377,0.004178,0.257679,0.030897,326.834737,22.730074,0.999367,0.982210,0.004943,0.420189,0.000023,-0.000003,-0.000005,0.000024,-0.000004,-11.130678,0.000025,
2206,2548,-1.12193444211443,-2.10879669254697,-0.0179874865774536,0.006371,0.000214,-0.000830,0.295552,0.053054,322.473056,24.230694,0.999622,0.990675,0.003839,0.430700,-0.000003,0.000016,0.000005,0.000017,-0.000004,75.871285,0.000018,
2236,2893,-0.528939660828033,5.40227534613874,0.00111534684424441,0.006037,-0.000058,0.003661,0.266101,0.048435,316.925271,24.669819,0.999708,0.991886,0.003606,0.430620,-0.000010,0.000024,0.000011,0.000027,-0.000013,73.089238,0.000027,
2041,3268,-4.81870357038363,13.5203383252667,0.0381875310460487,0.005991,0.000353,0.003639,0.266931,0.070555,311.922848,24.134700,0.999610,0.994060,0.003068,0.422796,-0.000032,0.000021,-0.000014,0.000025,-0.000036,-75.704833,0.000037,
2341,2758,1.77718125478123,2.47207796018239,-0.0146829296387523,0.005849,0.000000,0.005835,0.248578,0.069166,318.847651,24.519581,0.999542,0.990116,0.003994,0.461543,-0.000003,0.000029,0.000008,0.000032,-0.000005,76.085570,0.000034,
2101,2098,-3.33254650542093,-11.9472808551538,0.0168215290036642,0.006537,0.000804,-0.003079,0.309071,0.031036,330.417780,24.606671,0.999302,0.958078,0.008047,0.100409,0.000006,-0.000035,0.000022,0.000015,-0.000045,23.736298,0.000046,
2101,2293,-3.36457528798695,-7.68016978240219,0.00192283472648569,0.006320,0.000057,0.003605,0.279776,0.058162,327.131474,24.366699,0.999182,0.986095,0.004781,0.418680,0.000010,0.000023,0.000013,0.000031,0.000002,58.575217,0.000037,
2326,2653,1.46949916780252,0.185186804864792,-0.0294551965838536,0.005909,0.000051,0.002785,0.261974,0.058082,320.449579,24.274324,0.999413,0.989980,0.003994,0.446047,0.000004,0.000019,0.000000,0.000019,0.000004,-88.336433,0.000025,
2221,2563,-0.798498234738428,-1.78141155708506,-0.0172032247925813,0.006147,0.000272,0.002339,0.275159,0.060408,322.177415,24.214103,0.999574,0.991209,0.003710,0.450618,-0.000003,0.000008,-0.000004,0.000009,-0.000005,-69.850540,0.000009,
2071,2008,-3.97342784855956,-13.9224176624001,0.0210983232103104,0.006056,-0.000240,0.002917,0.269354,0.018554,332.005203,24.618657,0.998897,0.983121,0.005223,0.253404,0.000092,-0.000069,0.000064,0.000114,-0.000091,19.249636,0.000121,
2296,2908,0.771977646968804,5.73244923453156,-0.00506551374223818,0.006138,0.000062,0.002309,0.274761,0.047616,316.538403,24.814991,0.999578,0.992777,0.003470,0.421913,-0.000008,0.000015,0.000005,0.000016,-0.000009,79.080090,0.000016,
2281,3133,0.406314922434234,10.6153735013411,0.0205962730785814,0.005823,-0.000025,0.006294,0.247294,0.047527,313.069106,25.153387,0.999670,0.994508,0.003269,0.458659,-0.000002,0.000015,-0.000001,0.000015,-0.000002,-87.984733,0.000017,
2251,2968,-0.21645409693496,7.03423417390252,0.000417930555386192,0.005966,0.000774,0.002842,0.265810,0.087530,315.664050,24.884574,0.999557,0.993700,0.003376,0.396109,-0.000016,0.000010,0.000010,0.000014,-0.000020,71.433971,0.000020,
2146,2263,-2.37998140404673,-8.33533889586542,-0.003133344202638,0.006084,0.000437,-0.001090,0.282736,0.050625,327.383457,24.203633,0.998730,0.982986,0.005324,0.370796,0.000000,0.000018,0.000002,0.000018,0.000000,84.918609,0.000021,
2281,2923,0.442609667753615,6.05794264944937,-0.00964082190682802,0.006131,-0.000207,0.006244,0.261319,0.054125,316.260187,24.805989,0.999616,0.992884,0.003461,0.435740,-0.000005,0.000017,0.000000,0.000017,-0.000005,88.858066,0.000018,
2266,3043,0.0969570156297266,8.66211065159486,0.0121103706273971,0.006098,0.000321,0.001344,0.276670,0.059562,314.521827,24.978435,0.999568,0.992065,0.003574,0.436221,-0.000007,0.000002,-0.000002,0.000003,-0.000008,-79.920439,0.000008,
2131,2203,-2.69677496031013,-9.6495669327837,0.00529610857603302,0.006003,0.000192,0.000832,0.273074,0.037667,328.469477,24.210541,0.998689,0.979695,0.005458,0.383813,0.000002,0.000014,0.000008,0.000019,-0.000002,62.518525,0.000020,
2161,2563,-2.10368273461323,-1.78364681843021,-0.0116247814829649,0.006028,-0.000046,0.004000,0.264968,0.062591,322.395699,24.287361,0.999108,0.987172,0.004398,0.466029,-0.000002,0.000013,0.000001,0.000013,-0.000002,87.437158,0.000014,
2371,2848,2.41267505889193,4.43359722369254,-0.0247218027294593,0.005954,0.000688,-0.000482,0.275793,0.067737,317.327344,24.794667,0.999607,0.990408,0.003857,0.444863,-0.000013,0.000029,-0.000004,0.000030,-0.000013,-84.298905,0.000030,
2206,2443,-1.10450584361881,-4.40059280360311,-0.016544822402409,0.005920,-0.000019,0.001801,0.266249,0.054918,324.155017,24.075624,0.998631,0.983488,0.005251,0.462713,-0.000005,-0.000003,-0.000014,0.000010,-0.000018,-47.085834,0.000018,
2476,2158,4.84297441843387,-10.6408066156907,0.0204657646081046,0.006640,-0.000019,0.002632,0.293716,0.027663,329.081972,22.328275,0.998392,0.972137,0.006385,0.348402,0.000036,-0.000013,-0.000021,0.000044,-0.000020,-20.160888,0.000044,
2491,2308,5.13853590880655,-7.35231201860379,0.0111910201329692,0.005863,-0.000145,0.001435,0.262854,0.015044,326.587557,22.876428,0.998768,0.980791,0.005394,0.318799,0.000026,0.000002,-0.000005,0.000027,0.000001,-10.503262,0.000031,
2251,2758,-0.181261019513062,2.46949691688062,-0.0303909488733893,0.006208,-0.000090,0.005733,0.266777,0.042479,318.827922,24.520932,0.999286,0.989156,0.004127,0.392341,0.000003,0.000019,-0.000007,0.000021,0.000001,-69.492666,0.000025,
2221,2608,-0.806363016969787,-0.800071256677526,-0.0245155897894165,0.006534,0.000245,0.001521,0.295664,0.062435,321.407505,24.228899,0.998977,0.983547,0.004873,0.496988,-0.000003,0.000005,-0.000001,0.000005,-0.000003,-80.570498,0.000005,
2086,2113,-3.66300636491864,-11.6200270436309,0.01249013078899,0.005920,0.000006,0.001743,0.266583,0.035187,330.171656,24.495221,0.998882,0.983518,0.005168,0.308298,0.000005,-0.000038,0.000024,0.000016,-0.000049,24.121884,0.000050,
2266,2818,0.13539997679592,3.7744558975275,-0.0185646075242403,0.006271,0.000095,0.001102,0.284965,0.038500,317.942620,24.598389,0.999287,0.989703,0.004188,0.419772,0.000003,0.000021,0.000007,0.000024,0.000000,70.606985,0.000028,
2191,2728,-1.47991755548664,1.81283240964586,-0.0234582388301874,0.005934,0.000179,0.001988,0.266906,0.048592,319.523296,24.415206,0.999226,0.989911,0.004006,0.446645,0.000001,0.000010,-0.000009,0.000015,-0.000005,-58.510989,0.000016,
2311,2548,1.16347335514677,-2.10721872970141,-0.0115140081716731,0.006064,-0.000270,0.007253,0.253678,0.065499,322.304990,24.009712,0.999303,0.985626,0.004648,0.495732,0.000009,-0.000001,-0.000004,0.000010,-0.000002,-21.649948,0.000011,
2206,2563,-1.12472766595468,-1.78224353317018,-0.0132992426562737,0.006029,0.000236,0.002196,0.270307,0.061533,322.244198,24.229083,0.999586,0.991491,0.003749,0.458539,-0.000004,0.000009,-0.000001,0.000010,-0.000004,-87.101087,0.000010,
2191,2533,-1.44654099397581,-2.43697687361605,-0.0146701506974978,0.005752,-0.000110,0.004691,0.249684,0.058743,322.741269,24.203373,0.999382,0.988730,0.004257,0.472185,0.000001,0.000020,0.000005,0.000021,-0.000001,75.085472,0.000024,
2176,2428,-1.75394576180048,-4.72866753712351,-0.00808306940746206,0.006514,0.000347,0.001992,0.293229,0.051934,324.584670,24.212435,0.998953,0.985932,0.004824,0.387330,-0.000006,-0.000011,-0.000022,0.000013,-0.000031,-41.722102,0.000031,
2401,3058,3.0275626609444,8.99811738106951,0.0100882197693295,0.006378,0.000199,0.001328,0.288825,0.057655,314.221359,25.475817,0.999658,0.992242,0.003633,0.422604,-0.000004,0.000010,-0.000006,0.000012,-0.000006,-69.242289,0.000012,
2356,2773,2.10062685697145,2.80073593582628,-0.0238679430572688,0.005987,0.000535,0.000208,0.274739,0.073108,318.551792,24.612498,0.999504,0.990491,0.003742,0.418524,-0.000007,0.000029,0.000002,0.000029,-0.000007,86.862130,0.000030,
2386,2953,2.71950009759442,6.71647592102042,-0.0079299759857463,0.005718,0.000041,0.003832,0.249298,0.044095,315.735932,25.111398,0.999071,0.989169,0.004282,0.424407,-0.000007,0.000000,-0.000008,0.000005,-0.000012,-57.372682,0.000012,
2296,2953,0.764100307065014,6.71118264967065,-0.00240020379050065,0.006214,0.000552,0.001003,0.282973,0.084523,315.834132,24.946589,0.999113,0.988647,0.004202,0.415617,-0.000006,0.000021,0.000005,0.000022,-0.000007,78.721985,0.000022,
2206,2788,-1.16358092085589,3.11891278774218,-0.0219880010099018,0.006352,0.000077,0.000538,0.290676,0.031841,318.540599,24.488568,0.999212,0.988623,0.004297,0.426173,-0.000002,0.000002,-0.000007,0.000007,-0.000007,-52.799088,0.000008,
2476,2173,4.83953358239296,-10.3115642871953,0.0229592482758676,0.006288,-0.000235,0.005337,0.267316,0.035064,328.833674,22.428721,0.997853,0.965509,0.006986,0.314809,0.000029,-0.000003,-0.000029,0.000046,-0.000020,-30.735821,0.000046,
2116,2113,-3.00856828652688,-11.6218664125645,0.0178142630845741,0.006150,0.000192,0.002695,0.274217,0.040664,330.084617,24.248042,0.999144,0.985634,0.004916,0.385523,0.000002,-0.000032,0.000018,0.000011,-0.000040,23.559700,0.000041,
2041,3283,-4.82136465959334,13.844576898687,0.0339824063019023,0.005948,0.000121,0.003393,0.265540,0.055001,311.641194,24.075179,0.999567,0.993791,0.003144,0.458040,-0.000040,0.000028,-0.000004,0.000029,-0.000041,-86.321428,0.000042,
2371,2863,2.41005371945304,4.75909463834979,-0.0150546724051424,0.005893,0.000078,0.005193,0.252577,0.058317,317.140706,24.838014,0.999506,0.991163,0.003793,0.432723,-0.000014,0.000030,-0.000006,0.000031,-0.000015,-82.588646,0.000031,
2146,2278,-2.38228881688115,-8.00869237150002,-0.00173973753067003,0.006294,-0.000148,0.001641,0.283950,0.026234,327.155521,24.120106,0.998629,0.982210,0.005408,0.439790,0.000005,0.000017,-0.000004,0.000018,0.000004,-72.851155,0.000023,
2416,3103,3.3451137059153,9.97647077284184,0.0166478904121163,0.006075,0.000419,0.000720,0.277200,0.067014,313.543785,25.693440,0.999799,0.994793,0.003209,0.405899,0.000001,0.000034,-0.000004,0.000035,0.000001,-83.806453,0.000040,
2266,2833,0.132293913285046,4.10098413082233,-0.0215935974266586,0.006261,-0.000217,0.003626,0.276098,0.046252,317.664103,24.614297,0.999366,0.990132,0.003947,0.437037,-0.000001,0.000025,0.000009,0.000028,-0.000004,72.081103,0.000030,
2221,2623,-0.809715702680712,-0.473494398169528,-0.019535511492677,0.005864,-0.000500,0.007634,0.245042,0.051073,321.155472,24.270068,0.999127,0.985307,0.004744,0.464024,-0.000003,0.000009,-0.000004,0.000010,-0.000005,-73.095868,0.000010,
2161,2233,-2.04777053146625,-8.99392016268661,0.0118130514520089,0.005686,0.000052,0.000720,0.258715,0.028417,327.912618,24.092959,0.998890,0.980645,0.005273,0.368084,-0.000003,0.000013,0.000004,0.000014,-0.000004,76.841604,0.000014,
2071,2023,-3.97587425616381,-13.5933444289445,0.016500164341835,0.006079,0.000015,0.001693,0.273990,0.026618,331.731514,24.564485,0.998834,0.983867,0.005226,0.316545,0.000069,-0.000095,0.000039,0.000078,-0.000104,12.712480,0.000108,
2281,3148,0.403947085704448,10.9404335938897,0.0305406758622553,0.005573,-0.000030,0.007801,0.230826,0.066898,312.890388,25.190080,0.999545,0.993341,0.003651,0.467954,-0.000001,0.000017,0.000000,0.000017,-0.000001,-89.993009,0.000020,
2296,2668,0.814820625011865,0.510150451556989,-0.0178588774449508,0.005978,-0.000023,0.001135,0.270880,0.017787,320.333988,24.380837,0.999581,0.990454,0.003893,0.346523,0.000000,0.000022,-0.000004,0.000023,-0.000001,-79.843138,0.000026,
2116,2398,-3.0554221097752,-5.38593874864418,-0.00509930503579881,0.005836,-0.000035,0.000915,0.265457,0.020986,325.298561,24.296248,0.999020,0.985249,0.004800,0.428531,-0.000004,-0.000006,-0.000018,0.000013,-0.000023,-43.435670,0.000024,
2236,2398,-0.442609980933991,-5.38320326220779,-0.011676423409483,0.006152,0.000411,-0.001101,0.286148,0.045281,324.870347,23.974449,0.999459,0.990056,0.004139,0.407086,-0.000016,0.000012,-0.000008,0.000014,-0.000018,-75.784398,0.000019,
2401,3073,3.02455813635185,9.32368028306766,0.0123934623794639,0.006291,0.000150,0.003568,0.276728,0.061816,313.983042,25.511186,0.999604,0.991796,0.003687,0.435975,-0.000002,0.000017,-0.000007,0.000019,-0.000004,-72.149566,0.000020,
2191,2743,-1.48187926001613,2.13895879330779,-0.0156968729832556,0.006103,0.000146,0.003536,0.269901,0.059581,319.347463,24.447942,0.999425,0.990632,0.003917,0.439385,-0.000002,0.000006,-0.000011,0.000014,-0.000009,-54.850670,0.000014,
2191,2548,-1.44888235529555,-2.11030640965114,-0.0112342963006427,0.005702,-0.000161,0.004501,0.248017,0.058610,322.525609,24.204973,0.999570,0.990202,0.004000,0.485827,0.000001,0.000022,0.000006,0.000024,-0.000001,74.618592,0.000028,
2431,3208,3.65117324202134,12.2548590574244,0.031316527083618,0.006055,-0.000036,0.005724,0.257609,0.048447,311.946307,26.029492,0.999569,0.989939,0.003957,0.450335,0.000013,0.000044,-0.000005,0.000044,0.000012,-81.428289,0.000060,
2326,2668,1.46702456997233,0.512659122804919,-0.0265220079446635,0.005974,-0.000054,0.002341,0.266401,0.035715,320.234517,24.406354,0.999637,0.991544,0.003809,0.326339,0.000002,0.000019,0.000000,0.000019,0.000002,88.569953,0.000023,
2086,2263,-3.68656123358851,-8.33713587510721,0.000680740210100339,0.006068,0.000081,-0.000765,0.280879,0.017490,327.678325,24.363289,0.999058,0.984762,0.004797,0.440140,-0.000011,0.000055,0.000015,0.000058,-0.000014,77.780892,0.000061,
2131,2218,-2.69924644315579,-9.32143151772336,0.00990697381195105,0.005919,-0.000065,0.005216,0.256063,0.053240,328.249495,24.235340,0.998578,0.978988,0.005497,0.382762,0.000000,0.000017,0.000003,0.000018,-0.000001,79.898956,0.000020,
2251,2773,-0.183329160939657,2.79453928178144,-0.0197859865081682,0.005874,0.000103,0.003454,0.259015,0.049911,318.665373,24.489318,0.999294,0.988876,0.004114,0.454588,0.000003,0.000018,-0.000006,0.000020,0.000001,-70.383857,0.000023,
2206,2578,-1.12744906566261,-1.45546157839158,-0.0130441342596441,0.005972,0.000015,0.003797,0.262543,0.062638,321.995720,24.221147,0.999357,0.989633,0.004021,0.484959,-0.000003,0.000014,0.000001,0.000014,-0.000003,87.521788,0.000015,
2161,2353,-2.06843580453424,-6.36789137997502,-0.00950473941907148,0.006121,-0.000012,-0.000201,0.281691,0.019749,325.823957,24.147301,0.999030,0.986196,0.004694,0.403395,0.000001,-0.000002,-0.000022,0.000022,-0.000023,-43.424071,0.000026,
2146,2503,-2.42066568986914,-3.09170172998695,-0.0235209196240476,0.005976,0.000149,0.000218,0.274119,0.026974,323.332528,24.276281,0.998986,0.985214,0.004899,0.427936,0.000000,0.000006,-0.000018,0.000022,-0.000015,-49.967183,0.000022,
2236,2908,-0.531836289745026,5.72912907676758,-0.00454855091300033,0.005965,0.000100,0.000476,0.273234,0.054202,316.640234,24.719404,0.999671,0.992543,0.003567,0.407614,-0.000008,0.000018,0.000010,0.000022,-0.000011,71.534273,0.000022,
2506,2233,5.48273038823701,-8.99611461603378,0.0223594069817636,0.005853,-0.000100,0.002170,0.259332,0.009737,327.936841,22.559576,0.999010,0.980163,0.005486,0.252799,0.000022,0.000024,-0.000002,0.000026,0.000021,-59.443524,0.000047,
2341,2773,1.77505125679096,2.79853922689387,-0.0101632195717229,0.006165,-0.000130,0.005462,0.264381,0.064464,318.657051,24.583016,0.999582,0.992081,0.003655,0.429982,-0.000004,0.000025,0.000004,0.000025,-0.000005,82.468159,0.000027,
2311,2563,1.16093219480105,-1.77997828642494,-0.00930736965568713,0.006052,-0.000195,0.006383,0.256129,0.055462,322.082581,24.068848,0.999155,0.986889,0.004581,0.459611,0.000008,0.000003,-0.000006,0.000011,-0.000001,-34.024508,0.000013,
2281,2938,0.439955373272877,6.38346005558915,-0.00767318933873185,0.006011,-0.000061,0.005662,0.257818,0.055978,316.028668,24.801167,0.999561,0.992175,0.003598,0.469566,-0.000003,0.000026,0.000002,0.000026,-0.000004,85.377294,0.000028,
2371,2878,2.40769874207544,5.08556862609488,-0.00956284661589279,0.006109,-0.000112,0.006792,0.256762,0.048599,316.946020,24.943750,0.999493,0.993328,0.003543,0.357953,-0.000015,0.000021,-0.000003,0.000021,-0.000015,-85.476853,0.000021,
2266,2848,0.130144977249415,4.42722734591905,-0.018172577275493,0.006349,0.000376,0.000758,0.289833,0.057192,317.462028,24.653695,0.999574,0.992469,0.003623,0.433842,-0.000001,0.000026,0.000010,0.000029,-0.000004,72.270642,0.000032,
2101,2308,-3.36664791724751,-7.35299844737967,0.00568308585303612,0.006394,-0.000222,0.004154,0.281498,0.035548,326.923337,24.361726,0.999060,0.983460,0.005320,0.404309,0.000009,0.000015,0.000002,0.000016,0.000008,71.798107,0.000024,
2176,2668,-1.79529409375158,0.505731560555262,-0.019968054304627,0.006096,0.000384,0.000122,0.280273,0.064276,320.587526,24.363582,0.999614,0.992198,0.003637,0.460546,-0.000007,0.000012,-0.000001,0.000012,-0.000008,-87.675221,0.000012,
2071,2263,-4.01274055175734,-8.33610078989747,0.000153499394343726,0.006424,0.000415,-0.002437,0.302140,0.017671,327.771354,24.515081,0.999212,0.987210,0.004589,0.354025,-0.000018,0.000065,0.000009,0.000066,-0.000019,83.895378,0.000068,
2116,2413,-3.05770685650948,-5.05739267121986,-0.00387647488963694,0.005957,-0.000039,0.002238,0.267146,0.036122,325.067782,24.389478,0.999294,0.986783,0.004657,0.355433,-0.000003,-0.000011,-0.000016,0.000010,-0.000024,-38.508104,0.000024,
2281,3163,0.401847777983573,11.266584016141,0.0284044740346872,0.006192,0.000233,0.005393,0.267504,0.071232,312.663122,25.272158,0.999513,0.992546,0.003601,0.416960,0.000003,0.000019,0.000000,0.000019,0.000003,88.453120,0.000023,
2401,3088,3.02198423860333,9.649445072561,0.0155265507656281,0.006246,0.000285,0.001714,0.281469,0.063525,313.768342,25.576491,0.999500,0.991269,0.003785,0.416941,0.000000,0.000025,-0.000007,0.000027,-0.000002,-75.759064,0.000030,
2296,2968,0.761459648082852,7.03661385409707,-0.00339708405516603,0.006321,0.000274,0.000002,0.291210,0.062609,315.589541,24.944866,0.999402,0.991385,0.003658,0.424913,-0.000010,0.000011,0.000003,0.000011,-0.000010,82.110613,0.000013,
2221,2833,-0.845384327982611,4.09752578228105,-0.0102871615742401,0.005922,-0.000275,0.005496,0.254948,0.049725,317.831220,24.540103,0.999464,0.990742,0.003819,0.460374,0.000002,0.000024,0.000013,0.000030,-0.000003,65.399892,0.000033,
2416,3118,3.34223259084905,10.3018478587325,0.0199251067716091,0.006078,0.000070,0.003196,0.268153,0.054663,313.316574,25.745385,0.999835,0.995196,0.003020,0.388078,0.000005,0.000042,-0.000003,0.000042,0.000005,-84.949500,0.000052,
2326,2683,1.46442442155488,0.838553480752559,-0.0245794861076547,0.006310,-0.000302,0.006300,0.268142,0.043072,320.009095,24.359903,0.999711,0.991966,0.003766,0.415002,0.000001,0.000021,0.000002,0.000021,0.000001,82.973747,0.000025,
2386,2968,2.71652569205031,7.04326432187474,-0.0117509833523854,0.005875,0.000010,0.002942,0.259771,0.047825,315.468919,25.191177,0.999495,0.991030,0.003921,0.391120,-0.000007,-0.000004,-0.000010,0.000005,-0.000016,-49.372496,0.000016,
2476,2188,4.83698570159231,-9.98313070128395,0.023418019779001,0.006416,-0.000455,0.001114,0.289114,0.015462,328.617256,22.465597,0.998288,0.968978,0.006822,0.317744,0.000033,0.000011,-0.000028,0.000052,-0.000008,-34.067717,0.000056,
2266,3058,0.094115392496402,8.98781970100662,0.012686254744608,0.005985,0.000409,0.002228,0.268562,0.065777,314.273346,25.007995,0.999466,0.992400,0.003590,0.437556,-0.000006,-0.000006,-0.000004,-0.000002,-0.000010,-47.296269,0.000013,
2236,2683,-0.492960238516865,0.834010468620711,-0.0142239217977931,0.006060,0.000106,0.002282,0.271387,0.051565,320.217621,24.360874,0.999432,0.988880,0.004108,0.447196,0.000002,0.000017,-0.000010,0.000022,-0.000003,-62.814876,0.000024,
2131,2233,-2.70089208242541,-8.99310916776591,0.010930652970103,0.006350,0.000038,0.001225,0.287813,0.042744,328.048277,24.270573,0.998828,0.980904,0.005317,0.344988,-0.000002,0.000026,0.000007,0.000028,-0.000003,76.958276,0.000030,
2341,2788,1.77213682054304,3.12531496023878,-0.0146437908734356,0.006095,0.000308,0.001338,0.275726,0.067716,318.386577,24.601512,0.999586,0.993301,0.003504,0.451561,-0.000005,0.000026,0.000005,0.000026,-0.000006,81.791041,0.000028,
2116,2128,-3.01089234442811,-11.2933838450062,0.0151801392977973,0.006186,0.000232,0.000038,0.283749,0.020435,329.831635,24.230808,0.998843,0.983327,0.005277,0.388863,0.000000,-0.000027,0.000016,0.000007,-0.000034,24.891525,0.000036,
2131,2443,-2.73682885561207,-4.40280689407705,-0.00953083829114121,0.005831,0.000058,0.005631,0.251217,0.054537,324.456453,24.237822,0.999251,0.987994,0.004579,0.496286,-0.000011,-0.000008,-0.000019,0.000010,-0.000029,-47.169893,0.000030,
2191,2563,-1.45096973177422,-1.78406590884782,-0.00612440809589998,0.005726,-0.000092,0.003358,0.252689,0.038413,322.330436,24.206145,0.999461,0.990021,0.003977,0.479608,0.000001,0.000016,0.000002,0.000016,0.000001,82.946160,0.000019,
2491,2323,5.13515120741006,-7.0232215275013,0.00687627663506873,0.006446,-0.000489,0.007502,0.266222,0.052417,326.311488,22.916784,0.998563,0.981737,0.005410,0.377099,0.000017,0.000015,-0.000001,0.000018,0.000015,-26.378950,0.000033,
2146,2293,-2.38480436057889,-7.68089532471202,0.00366499918624186,0.005894,-0.000369,0.002152,0.263967,0.019893,326.938960,24.168926,0.998523,0.984254,0.005162,0.394672,0.000010,0.000006,-0.000001,0.000010,0.000005,-17.009657,0.000016,
2206,2803,-1.16648272859533,3.44535589873674,-0.0223233049158011,0.006315,-0.000037,0.004195,0.277422,0.048955,318.280511,24.498012,0.999042,0.986456,0.004537,0.450639,0.000004,0.000006,-0.000001,0.000006,0.000004,-76.895430,0.000010,
2206,2458,-1.10640872892577,-4.07412364815722,-0.00660850787727441,0.005841,0.000033,0.001132,0.264757,0.040489,323.994209,24.106181,0.999018,0.985013,0.005006,0.435235,0.000000,0.000001,-0.000009,0.000010,-0.000009,-46.833325,0.000011,
2101,2323,-3.36820322441059,-7.02504023313568,0.00738443360438623,0.006783,0.000430,-0.000555,0.313339,0.040849,326.727477,24.384882,0.999179,0.986911,0.004729,0.389570,0.000003,0.000017,-0.000008,0.000021,-0.000001,-64.273294,0.000024,
2236,2923,-0.53523867076747,6.05452399979185,-0.00975345558771323,0.005932,0.000052,0.005515,0.255340,0.054855,316.334723,24.648335,0.999663,0.993025,0.003489,0.500211,-0.000008,0.000018,0.000006,0.000020,-0.000009,76.832022,0.000020,
2206,2593,-1.13003166854206,-1.12871229386874,-0.00557074908203958,0.005891,-0.000693,0.010209,0.238321,0.069538,321.790810,24.271624,0.999104,0.986891,0.004458,0.458588,-0.000005,0.000012,0.000001,0.000012,-0.000005,87.543100,0.000012,
2221,2638,-0.812419216513884,-0.146230404860304,-0.0311388882354322,0.006218,-0.000117,0.002545,0.277735,0.041100,320.847999,24.236509,0.999007,0.986387,0.004741,0.507249,-0.000005,0.000013,-0.000005,0.000015,-0.000007,-75.076643,0.000015,
2251,2788,-0.185489738924932,3.12115118148529,-0.0204847197460367,0.006226,0.000240,0.000622,0.284523,0.043706,318.440940,24.530741,0.999380,0.989470,0.004071,0.430297,0.000002,0.000014,-0.000003,0.000015,0.000001,-75.442151,0.000019,
2086,2128,-3.66572706241664,-11.290937617492,0.00657297875187624,0.006023,-0.000458,0.003995,0.264700,0.024927,329.879867,24.487784,0.998962,0.985115,0.005040,0.307736,-0.000001,-0.000029,0.000021,0.000010,-0.000040,28.774237,0.000042,
2086,2278,-3.68913612119385,-8.00803422115603,0.000486365931976707,0.005989,-0.000122,0.001671,0.270200,0.033338,327.424086,24.446386,0.999392,0.988482,0.004366,0.374320,-0.000006,0.000047,0.000012,0.000050,-0.000008,77.709215,0.000053,
2386,2983,2.71452953951507,7.36808584116447,-0.000904910199039932,0.006241,-0.000278,0.007004,0.261914,0.048404,315.317202,25.198023,0.999524,0.990150,0.004063,0.427450,-0.000004,-0.000005,-0.000012,0.000008,-0.000017,-44.074722,0.000017,
2281,3178,0.3994689366952,11.5912644737009,0.0345683784412927,0.006090,0.000198,0.005281,0.263136,0.061498,312.465055,25.286249,0.999521,0.993010,0.003419,0.419511,0.000005,0.000019,0.000000,0.000019,0.000005,88.394073,0.000025,
2296,3193,0.722350112329888,11.9179295238318,0.0317801616863562,0.006157,0.000134,0.002909,0.274060,0.052363,312.187837,25.383953,0.999693,0.992973,0.003363,0.410354,0.000005,0.000019,-0.000002,0.000019,0.000005,-79.881612,0.000026,
2371,2893,2.40501793796759,5.41114429190694,-0.0128782418614719,0.005945,0.000573,-0.001011,0.277261,0.055370,316.694341,24.889907,0.999427,0.992145,0.003705,0.459411,-0.000016,0.000014,-0.000003,0.000014,-0.000016,-85.110996,0.000018,
2071,2038,-3.977740703178,-13.2645983465308,0.0198679924873773,0.006164,0.000612,0.000089,0.282590,0.070984,331.527547,24.539734,0.998891,0.985068,0.004996,0.385673,0.000052,-0.000093,0.000033,0.000059,-0.000100,12.388507,0.000101,
2446,3193,3.98055871452445,11.9312340172791,0.0330005977345991,0.006090,0.000143,0.002900,0.269640,0.059527,312.243030,26.094645,0.999679,0.991884,0.003532,0.418929,0.000009,0.000052,-0.000002,0.000052,0.000009,-87.628362,0.000066,
2431,3223,3.64806129636576,12.5805937791601,0.0318522918955182,0.005794,0.000038,0.004738,0.249303,0.050576,311.696018,26.108922,0.999572,0.991128,0.003749,0.421614,0.000012,0.000033,0.000000,0.000033,0.000012,89.598283,0.000047,
2161,2368,-2.07018113751181,-6.03986151218915,-0.00817527061383316,0.006656,0.000267,-0.001741,0.311108,0.022345,325.622155,24.193174,0.999096,0.989099,0.004255,0.371876,-0.000003,0.000012,-0.000024,0.000030,-0.000021,-53.828187,0.000030,
2296,2923,0.769615522252121,6.05695448442296,-0.000307604431498021,0.006263,0.000036,0.003625,0.276022,0.044195,316.335550,24.737981,0.999511,0.993042,0.003424,0.524855,-0.000007,0.000015,0.000000,0.000015,-0.000007,88.816973,0.000015,
2176,2443,-1.75679520455239,-4.40150021399462,-0.00765926198522493,0.006298,0.000137,0.004307,0.276067,0.049329,324.328924,24.200938,0.999272,0.986500,0.004666,0.410235,-0.000008,-0.000004,-0.000021,0.000015,-0.000028,-47.375687,0.000028,
2251,2698,-0.169695836339091,1.16137187343685,-0.0202126059920715,0.006001,0.000265,0.000270,0.275189,0.042938,319.897253,24.346313,0.999488,0.991091,0.003653,0.473018,0.000004,0.000016,-0.000012,0.000023,-0.000004,-58.878342,0.000025,
2266,2863,0.128530171001032,4.75165381321979,-0.0023049020053918,0.006391,-0.000100,0.002346,0.286334,0.037684,317.347657,24.652431,0.999774,0.994387,0.003287,0.440705,-0.000003,0.000032,0.000005,0.000032,-0.000004,81.742811,0.000035,
2161,2578,-2.10672762801241,-1.45650412701183,-0.0177458718685557,0.005926,-0.000203,0.004639,0.258325,0.060635,322.095254,24.259003,0.999075,0.987616,0.004328,0.503501,-0.000005,0.000011,0.000001,0.000011,-0.000005,87.924750,0.000011,
2146,2308,-2.38666071029235,-7.35316556517679,0.00856103348507986,0.006188,0.000061,0.002752,0.275847,0.039492,326.749760,24.184911,0.998915,0.983830,0.005121,0.407846,0.000007,-0.000001,-0.000009,0.000012,-0.000007,-32.548312,0.000012,
2041,3298,-4.8237083558987,14.1697540001995,0.0319030642802431,0.006107,0.000195,0.003318,0.273083,0.052518,311.385573,24.104756,0.999592,0.994631,0.003117,0.416691,-0.000057,0.000058,-0.000008,0.000058,-0.000057,-86.252992,0.000067,
2491,2338,5.13162411139509,-6.69370962768219,0.00360807773728311,0.005807,0.000501,0.001799,0.259231,0.060673,326.033560,23.040916,0.998996,0.985844,0.005179,0.322061,0.000019,0.000026,0.000005,0.000028,0.000016,62.325080,0.000045,
2131,2248,-2.70415376837415,-8.66479891573105,0.00308706419201599,0.005995,-0.000053,0.001083,0.271930,0.023348,327.726070,24.228027,0.998990,0.982476,0.005199,0.376630,-0.000003,0.000024,0.000007,0.000026,-0.000004,76.671226,0.000028,
2296,2983,0.759266654836569,7.36264346991767,0.00301334442150392,0.006380,0.000649,-0.000329,0.295220,0.079995,315.402043,25.013966,0.999249,0.989080,0.004027,0.402466,-0.000008,0.000007,0.000001,0.000007,-0.000008,86.864382,0.000009,
2431,3238,3.64428178073884,12.9062504870829,0.021694293283133,0.005774,0.000080,0.004317,0.250025,0.055025,311.365046,26.122148,0.999614,0.992431,0.003520,0.461607,0.000012,0.000032,0.000002,0.000032,0.000011,83.370255,0.000045,
2116,2143,-3.01334657507227,-10.9642366702698,0.0148573004507853,0.006399,-0.000207,0.004298,0.280813,0.039576,329.584750,24.265485,0.998331,0.978301,0.006022,0.379891,-0.000004,-0.000022,0.000012,0.000002,-0.000028,26.868478,0.000031,
2281,2953,0.437880430753776,6.70971088009226,-0.00559831627822405,0.006352,0.000194,0.003508,0.280830,0.061472,315.824051,24.864775,0.999291,0.989831,0.003998,0.438746,-0.000006,0.000022,0.000005,0.000023,-0.000007,80.741187,0.000024,
2311,2578,1.15692563150997,-1.45082698794344,-0.022808362516173,0.005649,-0.000046,0.004066,0.245619,0.061248,321.715208,24.154885,0.999496,0.991063,0.003853,0.412703,0.000013,0.000018,-0.000002,0.000019,0.000012,-72.317584,0.000031,
2191,2578,-1.45339255066883,-1.4569684629966,-0.0126555097467644,0.006160,-0.000119,0.001397,0.278797,0.031531,322.059185,24.174998,0.999476,0.990958,0.003815,0.519499,0.000001,0.000017,0.000004,0.000018,-0.000001,76.138934,0.000020,
2161,2248,-2.0503442384191,-8.66470653987351,0.00278968693936577,0.006099,0.000259,-0.000488,0.281491,0.039191,327.618416,24.091046,0.998844,0.979685,0.005265,0.393278,-0.000002,0.000008,0.000003,0.000009,-0.000003,72.182000,0.000009,
2341,2803,1.76908150360405,3.45210126454861,-0.0188338624025732,0.006210,-0.000026,0.001728,0.279551,0.049579,318.111017,24.649657,0.999514,0.992649,0.003615,0.421722,-0.000004,0.000024,0.000007,0.000026,-0.000005,76.499850,0.000027,
2146,2518,-2.42362165166366,-2.76430550715813,-0.0263592784724551,0.005958,-0.000529,0.004580,0.259910,0.021267,323.052137,24.284190,0.999075,0.986425,0.004668,0.423339,0.000000,0.000010,-0.000006,0.000013,-0.000003,-66.386491,0.000014,
2251,2713,-0.172624805340202,1.48864694154396,-0.0237011171065546,0.006077,0.000248,0.001564,0.274443,0.044789,319.623406,24.395413,0.999446,0.991403,0.003690,0.449380,0.000006,0.000021,-0.000011,0.000027,0.000000,-61.268790,0.000031,
2506,2248,5.47928564907447,-8.66892685230547,0.0239114196485843,0.005847,-0.000641,0.007593,0.237941,0.022745,327.686289,22.482505,0.998945,0.980644,0.005579,0.406518,0.000022,0.000003,-0.000002,0.000023,0.000002,-4.793195,0.000028,
2176,2458,-1.75938311826375,-4.07485877394105,-0.00381488905588867,0.005997,-0.000074,0.004949,0.260232,0.041638,324.103139,24.182946,0.999165,0.986833,0.004718,0.434081,-0.000005,0.000004,-0.000019,0.000019,-0.000020,-51.532989,0.000022,
2176,2683,-1.79797970550304,0.831859526011684,-0.0220666656080653,0.006224,-0.000017,0.002279,0.279337,0.050162,320.326133,24.323839,0.999397,0.990986,0.003884,0.499033,-0.000011,0.000012,-0.000007,0.000014,-0.000013,-73.746115,0.000015,
2191,2383,-1.41999441526105,-5.71315450638335,0.00135275275795266,0.005913,0.000030,0.005792,0.253429,0.051373,325.304051,24.054061,0.999310,0.987488,0.004549,0.455285,-0.000001,-0.000002,-0.000022,0.000020,-0.000024,-44.234472,0.000026,
2491,2353,5.12919338742178,-6.36715325129369,0.00696792563132931,0.006002,0.000514,-0.000217,0.275869,0.065789,325.836010,22.967828,0.998988,0.986208,0.005208,0.460728,0.000028,0.000057,0.000007,0.000058,0.000027,76.864425,0.000087,
2431,3253,3.6406987803834,13.2326391212284,0.0133294463363995,0.005977,0.000151,0.005976,0.253285,0.065024,311.051144,26.212585,0.999571,0.992608,0.003449,0.429654,0.000014,0.000028,-0.000001,0.000028,0.000014,-86.630878,0.000043,
2161,2593,-2.10937022423336,-1.12920684911532,-0.0187875651491822,0.005858,-0.000380,0.004787,0.254679,0.040124,321.839962,24.312801,0.999195,0.989055,0.004239,0.440089,-0.000009,0.000013,0.000004,0.000014,-0.000009,79.578120,0.000014,
2221,2653,-0.814479698251262,0.180627050435469,-0.0300848275283556,0.006486,0.000339,-0.000297,0.299326,0.035442,320.634959,24.273646,0.999331,0.988635,0.004330,0.484109,-0.000002,0.000020,0.000001,0.000020,-0.000002,86.692516,0.000022,
2356,2788,2.09810192200596,3.12702309923958,-0.0219396683532977,0.006025,0.000838,-0.001486,0.282575,0.079337,318.331505,24.633969,0.999688,0.993261,0.003455,0.441971,-0.000007,0.000029,0.000003,0.000029,-0.000008,85.733207,0.000030,
2311,2803,1.1161801918268,3.45034028776452,-0.0165857845607889,0.005982,-0.000057,0.005320,0.257007,0.063542,318.121402,24.602821,0.999433,0.991858,0.003779,0.455480,0.000002,0.000018,0.000011,0.000023,-0.000003,62.946597,0.000025,
2206,2608,-1.13298601839685,-0.80099327687654,-0.0154113190698695,0.005925,-0.000224,0.006358,0.252252,0.059402,321.479328,24.282932,0.999025,0.985421,0.004692,0.454998,-0.000005,0.000006,0.000002,0.000007,-0.000005,81.038104,0.000007,
2386,2998,2.7119870367221,7.69359338734078,0.0051460721579133,0.005985,-0.000051,0.005277,0.256406,0.050971,315.117284,25.236239,0.999573,0.990766,0.003873,0.434410,-0.000003,0.000000,-0.000009,0.000007,-0.000010,-49.532383,0.000011,
2251,2983,-0.218947292327169,7.35915474910319,0.003527562360091,0.005884,0.000302,0.002264,0.263802,0.070437,315.443792,24.862454,0.999574,0.992719,0.003548,0.423900,-0.000015,0.000008,0.000008,0.000011,-0.000018,72.220420,0.000018,
2371,2908,2.40160903277489,5.7374572827999,-0.0117451034236069,0.005757,0.000243,0.004583,0.248665,0.075801,316.430196,24.927167,0.999310,0.990777,0.003921,0.483100,-0.000016,0.000008,-0.000005,0.000009,-0.000017,-78.846526,0.000017,
2266,3073,0.09222091195468,9.31263214973835,0.0225035034039252,0.006028,0.000406,0.001443,0.273199,0.067390,314.115252,25.022764,0.999225,0.991236,0.003928,0.448891,-0.000006,-0.000005,-0.000005,-0.000001,-0.000011,-48.562988,0.000013,
2266,2878,0.125650893579515,5.07795974436326,-0.00724900456953037,0.006463,0.000298,0.000970,0.294329,0.034488,317.069909,24.657233,0.999687,0.992311,0.003553,0.457997,-0.000004,0.000028,0.000008,0.000030,-0.000006,76.688838,0.000032,
2071,2053,-3.97978594027202,-12.9360372225686,0.0205798025500599,0.006249,0.000580,-0.001354,0.290648,0.048079,331.301370,24.540590,0.998426,0.977812,0.005852,0.362156,0.000039,-0.000079,0.000033,0.000048,-0.000087,14.492509,0.000087,
2116,2428,-3.05987710061084,-4.73049159629986,-0.00274105753800313,0.006153,-0.000014,0.002994,0.273955,0.046165,324.842171,24.341302,0.999304,0.987502,0.004545,0.418379,-0.000007,-0.000018,-0.000012,0.000001,-0.000026,-32.647145,0.000029,
2476,2203,4.83346973121654,-9.65320393085852,0.0139388578214721,0.006475,0.000415,-0.002233,0.304885,0.028845,328.311142,22.507183,0.997968,0.969820,0.006698,0.348954,0.000037,0.000006,-0.000027,0.000052,-0.000010,-30.097958,0.000056,
2431,3268,3.63721639216427,13.5585781832778,0.00332439791088746,0.006063,0.000031,0.003318,0.267063,0.050172,310.734282,26.282205,0.999654,0.993456,0.003326,0.393629,0.000017,0.000018,-0.000002,0.000020,0.000016,-54.850569,0.000035,
2311,3283,1.0294510824546,13.8714929629238,0.00646028355248518,0.006125,0.000363,0.001269,0.278324,0.059544,310.488371,25.605774,0.999628,0.994045,0.002973,0.451793,0.000004,0.000026,-0.000004,0.000027,0.000004,-79.067620,0.000034,
2281,3193,0.396870071959842,11.9161587866569,0.0357122652623616,0.006091,0.000086,0.004556,0.265625,0.055830,312.231613,25.289547,0.999647,0.993322,0.003267,0.437071,0.000006,0.000021,-0.000001,0.000021,0.000006,-87.374606,0.000028,
2086,2293,-3.6919096779662,-7.68023331717399,0.000784189021374004,0.005751,-0.000379,0.005338,0.248651,0.035692,327.163772,24.434339,0.999665,0.991726,0.003979,0.389926,0.000005,0.000030,0.000016,0.000038,-0.000003,64.695170,0.000042,
2206,2473,-1.10972627725006,-3.74592595699645,-0.0145191893332139,0.005503,0.000629,-0.000767,0.255443,0.040941,323.676173,24.119353,0.999309,0.984234,0.005076,0.440913,0.000000,0.000004,-0.000004,0.000006,-0.000002,-57.958676,0.000006,
2206,2818,-1.16918845560385,3.77075196343349,-0.0175837578559594,0.005876,-0.000221,0.004306,0.256788,0.035792,318.055994,24.484524,0.999198,0.988248,0.004246,0.467320,0.000008,0.000016,0.000005,0.000019,0.000005,64.259663,0.000025,
2071,2278,-4.01566159862405,-8.00727436623877,0.000854602989591058,0.005875,0.000254,-0.000589,0.271611,0.044474,327.504939,24.571008,0.999867,0.994610,0.003615,0.324093,-0.000014,0.000054,0.000007,0.000055,-0.000015,83.822641,0.000057,
2191,2758,-1.48404069146887,2.46544608085664,-0.0163697815549426,0.006442,0.000250,0.002006,0.290357,0.064082,319.118520,24.457118,0.999476,0.991145,0.003741,0.449323,-0.000001,0.000005,-0.000009,0.000011,-0.000007,-54.674944,0.000012,
2296,3208,0.719088466285566,12.243286481134,0.0301423717529588,0.005871,0.000332,0.004168,0.256702,0.062385,311.910846,25.402410,0.999773,0.994174,0.003074,0.430613,0.000007,0.000020,-0.000002,0.000021,0.000006,-81.672938,0.000028,
2416,3133,3.33931698816174,10.6260622477942,0.0195328122817386,0.006098,0.000066,0.002705,0.270929,0.066386,313.070851,25.646966,0.999858,0.995252,0.002933,0.545046,0.000009,0.000040,-0.000005,0.000041,0.000008,-80.606270,0.000053,
2281,2968,0.435374958392153,7.03596587269492,-0.00472089497662864,0.006195,0.000472,-0.000769,0.288094,0.065874,315.593625,24.925540,0.999335,0.990389,0.003894,0.409396,-0.000010,0.000012,0.000002,0.000012,-0.000010,84.041772,0.000013,
2146,2533,-2.42527688264613,-2.43798005705852,-0.0187476364059762,0.006103,-0.000276,0.002285,0.273631,0.028774,322.886851,24.279251,0.999266,0.987762,0.004325,0.444537,-0.000003,0.000022,0.000001,0.000022,-0.000003,88.739509,0.000024,
2161,2383,-2.07335833385891,-5.7115244406327,-0.0142012468025428,0.006372,0.000459,-0.001510,0.297460,0.043827,325.316029,24.182569,0.999028,0.987601,0.004490,0.416072,-0.000004,0.000003,-0.000025,0.000025,-0.000026,-48.919776,0.000030,
2401,3103,3.01950283939431,9.97438581925066,0.0224577650094488,0.006143,0.000366,0.001784,0.276518,0.072676,313.576049,25.585816,0.999553,0.992707,0.003491,0.461213,0.000005,0.000032,-0.000005,0.000033,0.000004,-80.356051,0.000040,
2221,2668,-0.817386081453311,0.506865693697598,-0.0206565259158538,0.005926,-0.000366,0.005421,0.255058,0.040333,320.426168,24.317748,0.999542,0.992802,0.003671,0.463973,0.000001,0.000018,-0.000002,0.000018,0.000000,-83.417002,0.000021,
2431,3283,3.63415933839523,13.8837159333831,0.00102441322428604,0.006186,0.000245,0.003595,0.271796,0.059714,310.473166,26.300486,0.999776,0.994010,0.003132,0.433482,0.000021,-0.000006,0.000001,0.000021,-0.000006,2.449784,0.000022,
2131,2263,-2.70619144562981,-8.3374240833102,0.00921814744600624,0.005910,0.000115,0.000360,0.270297,0.019599,327.534237,24.232855,0.998892,0.983100,0.005225,0.375483,0.000001,0.000027,0.000005,0.000028,0.000000,80.248054,0.000032,
2101,2113,-3.33469613287749,-11.6219559569493,0.0246299043801059,0.006242,0.000906,-0.002363,0.293528,0.045768,330.227937,24.374658,0.999088,0.978648,0.005756,0.351189,0.000006,-0.000034,0.000022,0.000016,-0.000043,23.735092,0.000044,
2221,2848,-0.848310389733545,4.42448856360439,-0.0145282172462089,0.006010,-0.000161,0.006886,0.254623,0.067277,317.550888,24.580315,0.999343,0.990835,0.003772,0.456373,0.000002,0.000025,0.000013,0.000030,-0.000004,65.869474,0.000033,
2146,2323,-2.38974676638349,-7.02483944453703,0.00638661098048487,0.005756,-0.000031,0.003771,0.252908,0.042478,326.466890,24.206530,0.999249,0.984042,0.005054,0.399456,0.000007,0.000004,-0.000016,0.000022,-0.000011,-42.238580,0.000022,
2476,2218,4.82993514333369,-9.32368402399663,0.0161706898500711,0.006159,0.000328,0.001756,0.275308,0.050474,328.057015,22.631931,0.998850,0.979679,0.005848,0.305404,0.000025,0.000001,-0.000024,0.000040,-0.000014,-31.527582,0.000041,
2296,2683,0.812069148015564,0.836352167320612,-0.0170565834488912,0.006133,-0.000063,0.004284,0.267427,0.055970,320.093638,24.321422,0.999652,0.989924,0.003906,0.474698,0.000001,0.000024,-0.000004,0.000025,0.000000,-80.496550,0.000028,
2236,2938,-0.537588937315316,6.38084976585067,-0.00718398139787269,0.005996,0.000081,0.004751,0.260809,0.052220,316.116897,24.725809,0.999586,0.993314,0.003420,0.440638,-0.000008,0.000029,0.000007,0.000030,-0.000010,79.339542,0.000031,
2341,2818,1.76598624205345,3.77834893793104,-0.0192311538347099,0.006069,-0.000014,0.003116,0.268237,0.051808,317.852076,24.661869,0.999278,0.989256,0.003991,0.448207,-0.000010,0.000025,0.000007,0.000027,-0.000011,79.569713,0.000027,
2236,2698,-0.49591911727898,1.16116241476551,-0.022227660837757,0.006202,0.000021,0.000861,0.282471,0.034617,319.918247,24.375035,0.999461,0.990998,0.003714,0.437917,0.000003,0.000013,-0.000009,0.000019,-0.000003,-59.281084,0.000020,
2206,2623,-1.13570328796398,-0.474207262527784,-0.013582922771036,0.005637,-0.000089,0.006106,0.239864,0.053001,321.239109,24.310458,0.999307,0.985286,0.004735,0.438438,-0.000003,0.000009,-0.000002,0.000009,-0.000003,-81.574014,0.000009,
2116,2158,-3.01652834912625,-10.6350525654513,0.010491397910755,0.006059,-0.000504,0.007227,0.256517,0.040056,329.283086,24.284535,0.999002,0.984159,0.005133,0.367904,-0.000001,-0.000023,0.000005,0.000001,-0.000025,12.898428,0.000028,
2326,2698,1.46176881346528,1.16436518988496,-0.0220287462264537,0.006059,0.000000,0.003836,0.265264,0.055934,319.784069,24.309641,0.999546,0.990878,0.003934,0.512787,0.000000,0.000022,0.000004,0.000023,-0.000001,80.212977,0.000026,
2266,3088,0.0892105312000133,9.63806677103901,0.0248934492948933,0.005722,0.000048,0.003777,0.251233,0.051646,313.868205,25.067717,0.999541,0.991944,0.003692,0.412573,-0.000004,-0.000002,-0.000007,0.000004,-0.000010,-49.996666,0.000010,
2176,2698,-1.80100403675681,1.15951619718029,-0.0251264268271711,0.005968,0.000305,0.002728,0.266310,0.061215,320.043680,24.396315,0.999418,0.990837,0.003819,0.450369,-0.000010,0.000003,-0.000008,0.000007,-0.000014,-64.943697,0.000014,
2311,3043,1.07428177371591,8.66517816011334,0.0172974146688603,0.005908,-0.000022,0.005249,0.254206,0.058741,314.486900,25.141129,0.999623,0.991776,0.003579,0.419664,-0.000005,0.000006,-0.000001,0.000006,-0.000005,-83.682220,0.000006,
2101,2128,-3.33755109062433,-11.2937223851334,0.0202248949752288,0.006090,0.000137,-0.001000,0.282353,0.004555,329.939968,24.335852,0.999025,0.987361,0.004895,0.353245,0.000003,-0.000027,0.000020,0.000013,-0.000036,26.524664,0.000037,
2506,2263,5.47605454557849,-8.33863116969238,0.0160550644822592,0.006445,-0.000569,0.007962,0.263960,0.045756,327.403233,22.588596,0.998704,0.977261,0.005798,0.386904,0.000017,-0.000023,-0.000006,0.000018,-0.000024,-8.826104,0.000025,
2311,3298,1.02617187409564,14.1961407366088,0.00135215807432587,0.006036,0.000253,0.001528,0.273248,0.051065,310.194445,25.583730,0.999675,0.994364,0.002937,0.495922,0.000008,0.000018,-0.000009,0.000024,0.000002,-59.681162,0.000029,
2356,2803,2.09588840392987,3.45240700778905,-0.0134608463749828,0.006149,0.000439,0.000443,0.281325,0.063482,318.157332,24.648947,0.999810,0.994763,0.003287,0.449902,-0.000007,0.000027,0.000005,0.000028,-0.000008,81.334812,0.000029,
2326,2878,1.42904860143726,5.08180374088066,-0.00948839942452651,0.005962,-0.000063,0.004540,0.258638,0.056525,316.951247,24.755652,0.999536,0.991190,0.003802,0.480255,-0.000012,0.000024,0.000006,0.000025,-0.000014,80.400979,0.000025,
2296,2998,0.756431847769747,7.68755697426809,0.00738881721071039,0.006198,0.000512,0.002759,0.276338,0.076040,315.175272,24.991163,0.999443,0.990634,0.003765,0.450364,-0.000009,0.000009,-0.000001,0.000009,-0.000009,-85.590929,0.000011,
2146,2338,-2.39226861410959,-6.69654099080257,0.0021347468540398,0.005977,-0.000007,0.004060,0.262230,0.053969,326.198800,24.201992,0.999305,0.986383,0.004644,0.425500,0.000005,0.000002,-0.000019,0.000023,-0.000016,-43.036115,0.000024,
2296,2698,0.808857814629523,1.16362226522211,-0.0223833109958491,0.006021,-0.000129,0.003832,0.263852,0.058489,319.801600,24.350085,0.999740,0.992206,0.003629,0.479091,-0.000001,0.000021,-0.000002,0.000022,-0.000001,-85.218308,0.000025,
2296,2938,0.766689597438532,6.38475162983315,-0.00168910343040807,0.006124,0.000314,0.002680,0.273042,0.071293,316.075250,24.893686,0.999296,0.990708,0.003861,0.425957,-0.000004,0.000023,0.000002,0.000023,-0.000005,85.074548,0.000025,
2191,2593,-1.4565520646325,-1.12886448902186,-0.0148071590798509,0.005901,-0.000326,0.004330,0.257666,0.037188,321.776597,24.267302,0.999107,0.988033,0.004313,0.448177,-0.000003,0.000014,0.000005,0.000015,-0.000004,75.263419,0.000016,
2236,2953,-0.539127828743638,6.70655797261799,-0.00138267520770796,0.006535,0.000190,0.002480,0.293031,0.044942,315.953015,24.777407,0.999440,0.992547,0.003623,0.402200,-0.000012,0.000026,0.000009,0.000028,-0.000014,77.544981,0.000028,
2206,2833,-1.17068302024544,4.0968719120899,-0.0063772954526371,0.006178,0.000004,0.004052,0.271657,0.057163,317.920197,24.555416,0.999381,0.990414,0.003885,0.434195,0.000007,0.000022,0.000008,0.000025,0.000004,66.487416,0.000032,
2311,2593,1.15530394499239,-1.12483167588726,-0.0163673339015418,0.006164,0.000250,0.002261,0.275521,0.051349,321.555986,24.146217,0.999583,0.991496,0.003723,0.444423,0.000015,0.000003,-0.000001,0.000015,0.000003,-5.756214,0.000019,
2281,2983,0.432384432206835,7.36119689294524,-0.00435358849921386,0.006055,0.000566,0.001350,0.274628,0.078853,315.338622,24.884132,0.999403,0.990440,0.003865,0.491009,-0.000009,0.000009,0.000001,0.000009,-0.000009,87.284587,0.000010,
2491,2368,5.12581030619019,-6.03755813874585,0.000591900754898234,0.006410,0.000726,0.001688,0.287406,0.085116,325.550505,23.068899,0.998639,0.983313,0.005367,0.440203,0.000032,0.000061,0.000019,0.000071,0.000022,63.548505,0.000097,
2386,3013,2.70992688908035,8.01920383805914,0.0109953415035307,0.006165,0.000190,0.002759,0.273843,0.051188,314.938528,25.288111,0.999630,0.991232,0.003725,0.425326,-0.000002,-0.000005,-0.000010,0.000007,-0.000014,-39.900868,0.000014,
2281,3208,0.394830287796424,12.2413487479603,0.045448920116371,0.006037,0.000196,0.003986,0.265061,0.053689,312.066808,25.369954,0.999842,0.995375,0.002791,0.380950,0.000006,0.000023,0.000000,0.000023,0.000006,-88.398901,0.000030,
2416,3148,3.33717088820351,10.9515110646216,0.0309486253557907,0.006157,0.000023,0.004827,0.265775,0.050341,312.915546,25.765751,0.999772,0.994457,0.003056,0.456555,0.000009,0.000036,-0.000005,0.000037,0.000008,-80.343074,0.000048,
2116,2443,-3.06260942885662,-4.40426247823784,-0.00678245752368412,0.006009,-0.000025,0.002060,0.270111,0.028098,324.563365,24.216107,0.999317,0.988238,0.004530,0.530728,-0.000010,-0.000011,-0.000017,0.000006,-0.000028,-44.038614,0.000029,
2296,3223,0.716315912354876,12.5676912713865,0.0283146521093727,0.005920,0.000329,0.003162,0.262384,0.062996,311.655718,25.345299,0.999843,0.995322,0.002822,0.517119,0.000008,0.000029,-0.000002,0.000030,0.000008,-85.531630,0.000040,
2101,2338,-3.37115568888965,-6.69761902341968,0.00377261854072231,0.006585,-0.000232,0.002068,0.296423,0.021177,326.439330,24.336702,0.999298,0.988663,0.004403,0.421615,0.000001,0.000012,-0.000009,0.000017,-0.000004,-60.638298,0.000018,
2191,2773,-1.48804308486197,2.7925748379383,-0.0290964404111946,0.006174,-0.000486,0.006359,0.264150,0.045961,318.742278,24.458283,0.999312,0.989673,0.004131,0.444949,-0.000001,0.000005,-0.000007,0.000010,-0.000006,-55.956577,0.000010,
2371,2923,2.39890631964243,6.06389013012269,-0.0092331905347578,0.005668,0.000372,0.003757,0.247649,0.090932,316.205053,24.994566,0.999274,0.990506,0.003969,0.471530,-0.000014,0.000007,-0.000009,0.000010,-0.000018,-69.032787,0.000018,
2251,2998,-0.221263108799853,7.68373413461879,0.00987206782156136,0.006077,-0.000058,0.006295,0.259370,0.067742,315.248160,24.820150,0.999575,0.991833,0.003662,0.485925,-0.000015,0.000011,0.000005,0.000012,-0.000016,78.902962,0.000017,
2446,3208,3.97760367214149,12.2566887017466,0.0320063943364062,0.006146,0.000449,0.002108,0.275341,0.070181,311.994091,26.127105,0.999595,0.990737,0.003791,0.447904,0.000009,0.000046,-0.000003,0.000046,0.000009,-85.478255,0.000059,
2311,2818,1.11341220375899,3.77696182537111,-0.0166159398960986,0.005930,-0.000163,0.004557,0.257118,0.039414,317.876969,24.677864,0.999553,0.990353,0.003873,0.388475,-0.000003,0.000020,0.000011,0.000025,-0.000007,68.055556,0.000025,
2086,2308,-3.69433973689427,-7.35177904994202,-0.00481219480258233,0.005871,0.000076,0.003325,0.260167,0.030959,326.887084,24.435231,0.999415,0.989133,0.004454,0.385573,0.000004,0.000020,0.000005,0.000021,0.000003,74.208252,0.000027,
2431,3298,3.63047021073724,14.2087012266293,-0.00774092983880337,0.006048,0.000314,0.002008,0.271329,0.047392,310.152705,26.295873,0.999788,0.993971,0.003082,0.474279,0.000031,-0.000027,0.000002,0.000031,-0.000027,2.149442,0.000034,
2326,3118,1.38711098583062,10.2939979097855,0.0249348911871152,0.006231,0.000369,0.004516,0.271622,0.072172,313.331296,25.350985,0.999403,0.992569,0.003584,0.439388,0.000005,0.000019,-0.000008,0.000022,0.000002,-65.998323,0.000027,
2266,3103,0.0868380352280163,9.96382808663986,0.0201537474399629,0.006157,0.000267,0.000400,0.282535,0.048573,313.614397,25.088845,0.999726,0.993293,0.003416,0.413087,-0.000004,0.000002,-0.000007,0.000007,-0.000009,-56.376516,0.000010,
2161,2398,-2.07546200125127,-5.38629617307215,0.0013324449968195,0.006016,-0.000262,0.003289,0.266223,0.038483,325.173080,24.126240,0.999067,0.986485,0.004603,0.478241,-0.000004,0.000002,-0.000027,0.000026,-0.000028,-48.275277,0.000031,
2131,2278,-2.7087275581868,-8.00930780832097,0.00617120864353637,0.006178,-0.000514,0.003341,0.273514,0.004830,327.270707,24.227914,0.998890,0.983229,0.005244,0.373816,0.000005,0.000026,0.000000,0.000026,0.000005,89.817569,0.000034,
2341,2953,1.74198297003462,6.71351766511376,-0.00374901792304172,0.006141,0.000318,0.001344,0.278097,0.059480,315.789375,25.016381,0.999292,0.991361,0.003787,0.427969,-0.000007,0.000012,-0.000002,0.000012,-0.000007,-84.719154,0.000012,
2446,1993,4.22012533567242,-14.2630587824076,0.0259927528052231,0.006019,-0.000405,0.002620,0.265223,0.004117,331.691582,21.956126,0.999440,0.976918,0.005637,0.251906,-0.000010,-0.000111,0.000006,-0.000009,-0.000112,3.094251,0.000135,
2356,2818,2.09297291936494,3.7783931315856,-0.0108224154539016,0.006114,0.000109,0.003555,0.268640,0.054393,317.922531,24.671338,0.999671,0.992513,0.003598,0.457088,-0.000013,0.000026,0.000006,0.000027,-0.000014,81.262584,0.000027,
2236,2713,-0.498957805188343,1.48820078898532,-0.0250985573615026,0.006131,-0.000022,0.002688,0.273290,0.036210,319.641296,24.407589,0.999277,0.990306,0.003803,0.428410,0.000006,0.000018,-0.000010,0.000023,0.000001,-61.372047,0.000027,
2446,3223,3.97418648272002,12.5824145171693,0.0305213072729771,0.005966,0.000459,0.003566,0.261626,0.072207,311.721408,26.194420,0.999600,0.991432,0.003750,0.433515,0.000009,0.000033,0.000003,0.000034,0.000009,83.994354,0.000045,
2116,2173,-3.01839011373935,-10.3070860368759,0.0151281352406727,0.006031,-0.000493,0.003614,0.265936,0.027938,329.090157,24.306189,0.998969,0.984193,0.005139,0.340072,0.000000,-0.000003,0.000010,0.000008,-0.000011,41.491925,0.000012,
2206,2488,-1.1125280483163,-3.41765337818897,-0.0195271542795581,0.005691,0.000116,0.000257,0.260694,0.028960,323.396715,24.184240,0.999293,0.985765,0.004760,0.382081,-0.000003,0.000009,-0.000005,0.000011,-0.000004,-69.167996,0.000011,
2506,2278,5.47247463781958,-8.00981929752417,0.0116037330483891,0.006059,-0.000190,0.004389,0.260243,0.032125,327.119535,22.636506,0.998968,0.977766,0.005500,0.388952,0.000020,0.000001,0.000003,0.000020,0.000000,7.483418,0.000023,
2266,2893,0.122516213396548,5.40511024716329,-0.0114676705509282,0.006260,0.000363,-0.000042,0.288503,0.061853,316.783734,24.719521,0.999567,0.990822,0.003757,0.448523,-0.000006,0.000023,0.000012,0.000028,-0.000010,69.832340,0.000028,
2116,2458,-3.06492705989329,-4.07548404271024,-0.00791413322139078,0.006201,-0.000389,0.002492,0.277563,0.025757,324.318459,24.340846,0.999347,0.988543,0.004402,0.408403,-0.000008,-0.000007,-0.000021,0.000013,-0.000029,-45.282628,0.000029,
2161,2608,-2.11105647929569,-0.802029857348955,-0.0168634535806405,0.006244,0.000310,0.000434,0.286026,0.057816,321.644002,24.347667,0.999409,0.991362,0.003955,0.433566,-0.000008,0.000012,0.000004,0.000012,-0.000009,78.088650,0.000013,
2101,2143,-3.34071106475809,-10.9643554107245,0.0176802708264745,0.005927,-0.000450,0.006722,0.252224,0.028403,329.647543,24.361521,0.998821,0.983206,0.005325,0.355953,-0.000002,-0.000019,0.000014,0.000006,-0.000028,29.418369,0.000029,
2131,2458,-2.73894593021399,-4.07294022445823,-0.0161046658007535,0.006469,0.000155,0.003896,0.285833,0.092125,324.192588,24.372291,0.999311,0.988707,0.004507,0.406496,-0.000008,-0.000004,-0.000022,0.000016,-0.000029,-47.702609,0.000029,
2296,3238,0.713356161528822,12.8935394899619,0.023460236389667,0.005979,0.000374,0.001750,0.269958,0.060468,311.376344,25.411388,0.999674,0.993124,0.003273,0.477127,0.000010,0.000027,-0.000002,0.000027,0.000010,-85.001874,0.000039,
2446,2008,4.21808914089004,-13.9355650870009,0.0340860873060933,0.006140,-0.000059,0.000482,0.278812,0.021342,331.531749,21.892124,0.999413,0.977242,0.005721,0.388490,-0.000002,-0.000085,-0.000006,-0.000001,-0.000085,-4.224086,0.000099,
2176,2473,-1.76259306736947,-3.74639190410698,-0.00867601502335447,0.005668,-0.000086,0.005502,0.243436,0.056740,323.802896,24.233525,0.999196,0.985539,0.004990,0.412394,-0.000003,0.000011,-0.000010,0.000016,-0.000008,-61.891903,0.000016,
2251,2803,-0.188795704949083,3.44758859957814,-0.0221001097444855,0.006063,-0.000198,0.005661,0.260406,0.049295,318.159271,24.542044,0.999346,0.989480,0.004250,0.447727,0.000004,0.000016,0.000003,0.000017,0.000003,77.195334,0.000022,
2476,2233,4.82645474274029,-8.99673551821311,0.0207582024476096,0.005525,-0.000431,0.003813,0.238186,0.021345,327.816426,22.601654,0.999132,0.981936,0.005513,0.365243,0.000020,0.000007,-0.000013,0.000028,-0.000001,-30.766395,0.000032,
2206,2638,-1.13815959841582,-0.147107592010499,-0.0177507267603687,0.005853,0.000194,0.003347,0.258654,0.045648,320.979814,24.321365,0.999297,0.986619,0.004587,0.437541,-0.000003,0.000012,-0.000004,0.000013,-0.000004,-76.381485,0.000013,
2281,2998,0.429807389382095,7.68696369134224,0.00448436471708646,0.005902,0.000215,0.006025,0.251781,0.069141,315.144817,24.976111,0.999372,0.989613,0.003952,0.416141,-0.000009,0.000011,-0.000001,0.000011,-0.000009,-87.496752,0.000012,
2146,2353,-2.39441382670885,-6.36910150114205,0.00055879714244611,0.006184,0.000019,0.001143,0.280557,0.037186,325.962371,24.178861,0.999274,0.986497,0.004596,0.441509,-0.000001,0.000001,-0.000022,0.000022,-0.000022,-46.538132,0.000025,
2341,2833,1.76333505448853,4.10523753879765,-0.0180426045489526,0.006062,0.000052,0.001970,0.271972,0.050463,317.621029,24.752920,0.999630,0.991430,0.003703,0.392565,-0.000012,0.000031,0.000007,0.000032,-0.000013,81.105224,0.000032,
2326,2713,1.45886712110795,1.49339192991343,-0.0291736175442452,0.006121,0.000425,-0.001144,0.285470,0.045983,319.499597,24.502990,0.999096,0.986489,0.004571,0.344348,0.000001,0.000027,0.000005,0.000028,0.000000,80.052506,0.000033,
2341,2968,1.73904618757838,7.04028663697526,-0.00661449011374771,0.006167,0.000332,0.000253,0.283103,0.054400,315.525057,25.108869,0.999903,0.997753,0.002524,0.366482,-0.000008,0.000002,-0.000005,0.000005,-0.000010,-67.180456,0.000010,
2416,3163,3.334196484318,11.2771620103689,0.0328679584664542,0.006056,0.000182,0.005800,0.257654,0.064165,312.677378,25.818698,0.999734,0.993716,0.003185,0.464049,0.000009,0.000040,-0.000002,0.000040,0.000009,-85.508170,0.000052,
2236,2728,-0.501221267581808,1.81492076833453,-0.0215591274220515,0.006249,0.000253,0.002660,0.278984,0.063371,319.432569,24.441745,0.999277,0.989823,0.003947,0.442477,0.000004,0.000013,-0.000012,0.000022,-0.000004,-55.644210,0.000023,
2401,3118,3.01708916623717,10.299948117657,0.0319227420351353,0.006012,0.000398,0.003158,0.265513,0.066261,313.398612,25.686720,0.999849,0.995630,0.002852,0.398145,0.000008,0.000039,-0.000004,0.000039,0.000007,-83.173214,0.000050,
2221,2683,-0.819884285920249,0.833701262874712,-0.0235693887040043,0.006068,-0.000166,0.003026,0.269384,0.037576,320.172667,24.325684,0.999576,0.992067,0.003663,0.472744,0.000000,0.000021,-0.000007,0.000023,-0.000003,-73.291586,0.000025,
2086,2323,-3.69644032479388,-7.02417430247542,-0.00647350422281079,0.006114,0.000176,0.001953,0.275315,0.039353,326.646926,24.390261,0.999146,0.988260,0.004594,0.440080,-0.000001,0.000019,-0.000005,0.000021,-0.000002,-77.203950,0.000023,
2266,3118,0.0844274927383246,10.2887332510534,0.0286414702815705,0.006003,0.000327,0.002655,0.268051,0.060897,313.425767,25.102598,0.999694,0.993619,0.003339,0.436207,-0.000001,0.000003,-0.000008,0.000009,-0.000007,-51.433357,0.000009,
2161,2413,-2.07869711584708,-5.05715715792934,-0.00483342769285855,0.005707,-0.000214,0.003728,0.250744,0.056559,324.863381,24.201203,0.998879,0.985984,0.004837,0.433139,-0.000003,-0.000002,-0.000024,0.000022,-0.000026,-45.334197,0.000028,
2191,2608,-1.45927839874309,-0.801629210315745,-0.0169060919004096,0.005771,-0.000092,0.002961,0.256113,0.043430,321.514324,24.284800,0.998711,0.985958,0.004702,0.452192,-0.000005,0.000010,0.000004,0.000011,-0.000006,74.304802,0.000011,
2266,2908,0.120186448223325,5.73149320593414,-0.00944584004207627,0.006366,0.000846,-0.001620,0.298777,0.066554,316.566166,24.783506,0.999682,0.992607,0.003468,0.414236,-0.000005,0.000019,0.000010,0.000023,-0.000009,69.357931,0.000023,
2146,2548,-2.42746423697379,-2.11142044434811,-0.0160866825289077,0.006110,-0.000042,0.000961,0.278049,0.039739,322.670920,24.252206,0.999098,0.986264,0.004531,0.491260,-0.000002,0.000025,0.000003,0.000025,-0.000002,84.452189,0.000028,
2206,2848,-1.1740440446526,4.4235879680144,-0.0126409402996046,0.005951,-0.000029,0.005589,0.256336,0.061673,317.608279,24.570369,0.999354,0.990986,0.003750,0.440363,0.000004,0.000023,0.000008,0.000027,0.000001,69.528017,0.000031,
2161,2623,-2.11420780036071,-0.474176114170852,-0.025279718166928,0.006256,0.000073,0.001936,0.281925,0.046497,321.326378,24.390043,0.999563,0.991305,0.003873,0.390903,-0.000005,0.000011,0.000001,0.000011,-0.000005,86.393239,0.000011,
2176,2488,-1.76511494811141,-3.41854462986097,-0.015160314294576,0.005699,0.000392,-0.000351,0.263159,0.060083,323.525839,24.229709,0.999050,0.984671,0.005062,0.433061,-0.000005,0.000015,-0.000011,0.000020,-0.000010,-66.703486,0.000020,
2341,3193,1.6990358386618,11.9220493707654,0.029735513404944,0.006004,0.000271,0.002976,0.266387,0.055156,312.131876,25.598737,0.999644,0.993708,0.003397,0.412018,0.000011,0.000030,-0.000004,0.000031,0.000011,-79.093192,0.000043,
2281,3013,0.426854005468115,8.01270677154227,0.00100125077307212,0.005881,0.000054,0.005336,0.253102,0.069067,314.872046,24.976566,0.999293,0.989166,0.004001,0.442668,-0.000007,0.000001,-0.000004,0.000003,-0.000008,-68.184924,0.000009,
2311,2833,1.1116320259869,4.10307927754095,-0.00962470659482051,0.006149,0.000024,0.001262,0.278569,0.034821,317.712561,24.744313,0.999735,0.992385,0.003592,0.349214,-0.000008,0.000025,0.000011,0.000028,-0.000012,73.195832,0.000028,
2506,2293,5.46927190039389,-7.68138021904375,0.0119487118282109,0.005922,-0.000638,0.004052,0.255116,0.003300,326.874515,22.719524,0.999201,0.978932,0.005412,0.340362,0.000020,-0.000001,0.000006,0.000021,-0.000002,14.992327,0.000023,
2281,3223,0.391991548174399,12.5659774921475,0.0454641423314115,0.005918,0.000398,0.003761,0.260485,0.070926,311.816706,25.326158,0.999826,0.995089,0.002937,0.468394,0.000008,0.000032,0.000001,0.000032,0.000008,88.528372,0.000042,
2101,2353,-3.37473552706238,-6.36781912333313,-0.0109831481725564,0.006223,0.000188,0.000659,0.284052,0.037686,326.061737,24.366639,0.999017,0.984561,0.004950,0.411860,-0.000006,0.000008,-0.000011,0.000014,-0.000012,-61.907404,0.000015,
2206,2653,-1.14105229537484,0.18016437205889,-0.0243013303742146,0.006024,0.000120,0.003794,0.265059,0.039003,320.688133,24.332694,0.999340,0.986160,0.004677,0.437063,0.000001,0.000018,0.000001,0.000018,0.000001,85.560747,0.000021,
2326,3133,1.38404665387149,10.6192927646789,0.0197716140837088,0.006182,0.000200,0.002145,0.277461,0.041677,313.048577,25.363495,0.999182,0.991711,0.003714,0.429762,0.000004,0.000026,-0.000005,0.000027,0.000003,-77.339211,0.000033,
2386,3028,2.70653623999148,8.34536336911071,0.00828694439309174,0.006040,0.000037,0.004701,0.261087,0.051066,314.657594,25.337565,0.999591,0.990988,0.003802,0.418174,-0.000002,-0.000005,-0.000011,0.000008,-0.000014,-41.493720,0.000014,
2131,2293,-2.71199057276938,-7.68069258793087,0.0013602803202275,0.005669,-0.000329,0.003782,0.248882,0.037117,326.964239,24.209633,0.998865,0.984685,0.005040,0.432425,0.000011,0.000015,0.000003,0.000016,0.000010,59.964034,0.000026,
2191,2788,-1.49056576454211,3.11849961357566,-0.0266512911101131,0.005913,-0.000207,0.004469,0.258186,0.049538,318.513094,24.450914,0.998976,0.986802,0.004648,0.470068,-0.000002,0.000001,-0.000008,0.000008,-0.000008,-50.208848,0.000009,
2176,2713,-1.80336579656364,1.48630285113091,-0.0252113715708333,0.005874,0.000457,-0.001233,0.274343,0.057503,319.807426,24.432675,0.999284,0.989985,0.004006,0.422783,-0.000007,0.000008,-0.000007,0.000011,-0.000010,-67.724538,0.000012,
2416,3178,3.33132643583199,11.6029657398448,0.0283704555853319,0.006145,0.000552,0.001436,0.277931,0.066464,312.413777,25.862731,0.999635,0.992682,0.003390,0.468960,0.000012,0.000045,-0.000003,0.000046,0.000012,-84.757183,0.000061,
2251,2818,-0.190499033536739,3.77274914013213,-0.0134558826592865,0.006201,-0.000216,0.002840,0.276030,0.044609,318.003488,24.528786,0.999530,0.990453,0.004162,0.479489,0.000004,0.000021,0.000007,0.000023,0.000002,69.554946,0.000028,
2356,2833,2.08984451613159,4.10562843121187,-0.0179362856292187,0.006128,0.000314,0.000271,0.280995,0.058943,317.630519,24.725373,0.999712,0.991072,0.003817,0.446421,-0.000014,0.000030,0.000006,0.000031,-0.000015,82.025011,0.000031,
2446,3238,3.97093710022461,12.9081813524971,0.0218561731093132,0.006326,0.000328,0.002398,0.282484,0.057024,311.423132,26.246061,0.999681,0.993049,0.003382,0.417633,0.000011,0.000032,0.000005,0.000034,0.000010,76.767334,0.000045,
2221,2863,-0.850890194432314,4.7509607291516,-0.0173745394162097,0.006058,0.000040,0.004177,0.265596,0.053860,317.293782,24.621534,0.999365,0.991674,0.003609,0.420444,0.000002,0.000028,0.000006,0.000030,0.000001,77.293258,0.000034,
2296,3013,0.753348991645456,8.01328001531373,0.0029551305844393,0.006240,-0.000036,0.003350,0.276084,0.055213,314.893066,25.004148,0.999253,0.987398,0.004247,0.446065,-0.000009,0.000000,-0.000004,0.000002,-0.000010,-70.412694,0.000011,
2311,3058,1.07140537351333,8.99037811071441,0.0172636065211123,0.005727,0.000037,0.004127,0.249737,0.057281,314.237151,25.127843,0.999736,0.993389,0.003278,0.462743,-0.000005,0.000001,-0.000001,0.000001,-0.000005,-84.338251,0.000006,
2251,3013,-0.223925211901523,8.00969228884708,0.00897984720648992,0.006057,0.000122,0.004894,0.263095,0.060229,314.999455,24.864274,0.999358,0.990387,0.003877,0.456803,-0.000013,0.000002,-0.000001,0.000002,-0.000013,-85.798265,0.000014,
2101,2158,-3.34308316351704,-10.6356065673576,0.0214734078707579,0.005496,0.000172,0.004315,0.239686,0.041832,329.425378,24.414365,0.998958,0.982536,0.005328,0.320683,0.000001,-0.000023,0.000007,0.000003,-0.000025,15.485673,0.000027,
2341,2848,1.75964447151661,4.43159459842787,-0.0241197898147902,0.005748,0.000146,0.003211,0.253237,0.051987,317.307000,24.742256,0.999683,0.992020,0.003573,0.441068,-0.000013,0.000031,0.000003,0.000031,-0.000013,86.701097,0.000031,
2326,2728,1.4561383863316,1.81911351739728,-0.0270996935728931,0.006166,0.000042,0.000747,0.280882,0.038951,319.268855,24.469544,0.999392,0.988883,0.004154,0.405464,0.000002,0.000022,0.000007,0.000024,0.000000,72.013642,0.000028,
2491,2383,5.12215027446225,-5.71024197341308,0.00284897729773093,0.006117,-0.000430,0.007240,0.252262,0.044649,325.291479,23.110374,0.998606,0.981290,0.005477,0.418640,0.000035,0.000044,0.000006,0.000047,0.000032,62.330093,0.000079,
2161,2428,-2.08053547465347,-4.72917449147536,-0.00670037928114198,0.006395,-0.000046,0.002568,0.285965,0.048317,324.640539,24.242732,0.999140,0.986531,0.004660,0.395008,-0.000007,-0.000010,-0.000022,0.000014,-0.000031,-42.793022,0.000031,
2116,2473,-3.06780762083413,-3.74768664157827,-0.00927883466465573,0.005947,-0.000393,0.004615,0.259647,0.038096,324.046718,24.364235,0.999359,0.989099,0.004238,0.402336,-0.000004,0.000005,-0.000010,0.000012,-0.000010,-56.829763,0.000013,
2326,1993,1.59645271289416,-14.2595216483821,0.0294611321151024,0.006084,0.000103,0.002475,0.269884,0.046003,331.617830,22.806054,0.998005,0.972774,0.006567,0.296133,0.000024,-0.000015,-0.000030,0.000041,-0.000032,-28.801109,0.000043,
2326,3148,1.38163376928021,10.9445161240155,0.024451759323199,0.006233,0.000119,0.002276,0.279358,0.049220,312.844054,25.395809,0.999451,0.992970,0.003561,0.438226,0.000004,0.000027,-0.000003,0.000027,0.000003,-81.866355,0.000033,
2371,2938,2.39650084667931,6.38949270180017,-0.00461979181727656,0.005874,0.000094,0.005019,0.252447,0.057656,316.003895,25.052556,0.999212,0.989854,0.004043,0.420699,-0.000009,0.000009,-0.000008,0.000012,-0.000013,-68.257134,0.000014,
2416,3193,3.32883776603874,11.9282541843343,0.034764941322635,0.006246,0.000412,0.003336,0.275590,0.068559,312.218984,25.927771,0.999568,0.991777,0.003498,0.452560,0.000014,0.000045,-0.000004,0.000045,0.000013,-83.580609,0.000062,
2191,2398,-1.42194974370053,-5.38616089109655,0.00819916544128318,0.005874,0.000097,0.003707,0.258198,0.049364,325.123837,24.072165,0.999218,0.986255,0.004839,0.451278,-0.000002,0.000003,-0.000024,0.000025,-0.000023,-48.154288,0.000028,
2161,2638,-2.11714259787252,-0.147452738706868,-0.0248888558215867,0.005993,-0.000260,0.004930,0.260566,0.050691,321.065263,24.393577,0.999787,0.993369,0.003478,0.402224,-0.000005,0.000006,-0.000002,0.000006,-0.000005,-81.901761,0.000006,
2236,2743,-0.504237981878827,2.14112380085039,-0.0190538152259023,0.005966,-0.000358,0.006534,0.253199,0.044033,319.184232,24.470720,0.999151,0.987342,0.004453,0.415503,0.000001,0.000009,-0.000012,0.000017,-0.000008,-54.112767,0.000017,
2356,2848,2.08644924526459,4.43244114625233,-0.0251562567794394,0.006171,0.000262,0.000729,0.281337,0.050891,317.325788,24.757762,0.999628,0.991140,0.003768,0.444774,-0.000015,0.000030,0.000002,0.000030,-0.000015,87.889261,0.000030,
2146,2563,-2.42999880910508,-1.78395657289209,-0.0140037840950527,0.005786,0.000466,-0.000759,0.268573,0.047029,322.435807,24.311011,0.998965,0.986114,0.004600,0.448436,-0.000004,0.000018,-0.000003,0.000019,-0.000004,-83.042573,0.000019,
2191,2803,-1.49292210939245,3.44505019177505,-0.0232358454139785,0.005840,0.000013,0.003793,0.257050,0.059079,318.296383,24.506578,0.999058,0.987161,0.004519,0.438370,0.000003,0.000003,-0.000002,0.000005,0.000001,-41.410786,0.000006,
2341,2038,1.91468763936146,-13.2716355717596,0.0166558995156834,0.005852,-0.000403,0.002548,0.258834,-0.003076,330.774949,22.734081,0.998994,0.980184,0.005576,0.334112,0.000024,-0.000014,-0.000012,0.000028,-0.000017,-15.807234,0.000028,
2161,2263,-2.05384977508609,-8.33501761666632,-0.00510116758658796,0.005826,-0.000019,0.002985,0.258289,0.044583,327.287448,24.156084,0.998697,0.980383,0.005518,0.346714,0.000003,0.000012,-0.000001,0.000012,0.000003,-81.651171,0.000016,
2281,3238,0.388533821892675,12.892421391575,0.0288659412349261,0.006097,0.000529,-0.000614,0.283433,0.060504,311.454157,25.387266,0.999810,0.994055,0.003156,0.423277,0.000011,0.000028,0.000001,0.000028,0.000011,86.327500,0.000040,
2131,2308,-2.71383883394985,-7.35222027317683,0.000535981719337997,0.006145,0.000027,0.001622,0.277340,0.034191,326.743841,24.258702,0.999021,0.984892,0.005004,0.388123,0.000008,0.000008,-0.000005,0.000014,0.000003,-44.185146,0.000017,
2476,2248,4.82386076978385,-8.66901691817453,0.0179435554587712,0.005832,0.000044,-0.000809,0.269988,0.024700,327.582746,22.537623,0.999121,0.982386,0.005283,0.491807,0.000025,-0.000009,-0.000011,0.000028,-0.000013,-16.841571,0.000028,
2446,2023,4.2152979017986,-13.6045552268061,0.0295752336598412,0.006590,0.000293,-0.001335,0.306293,0.032873,331.279328,22.016386,0.999206,0.979279,0.005471,0.331681,-0.000003,-0.000055,-0.000006,-0.000002,-0.000056,-6.522222,0.000066,
2341,2983,1.73669069466115,7.36499555024691,-1.10168687683654E-05,0.006159,0.000167,0.000648,0.281285,0.046343,315.334072,25.084016,0.999790,0.995256,0.002981,0.419111,-0.000006,0.000000,-0.000008,0.000006,-0.000011,-55.240856,0.000011,
2101,2368,-3.37646863761372,-6.04213173010106,-0.000193784131056418,0.006154,-0.000296,0.000657,0.280776,0.022093,325.907338,24.307260,0.998886,0.983386,0.005200,0.458147,-0.000005,0.000018,-0.000009,0.000021,-0.000008,-71.088702,0.000021,
2191,2623,-1.4618322120684,-0.474687159279846,-0.016154895656598,0.005562,0.000207,0.000758,0.253511,0.037509,321.274851,24.316783,0.999246,0.987129,0.004459,0.429375,-0.000001,0.000013,0.000001,0.000013,-0.000001,86.580749,0.000014,
2266,2923,0.11725728489672,6.05608932169036,-0.00365300331804974,0.006082,-0.000047,0.003473,0.268502,0.042146,316.340588,24.743120,0.999712,0.993017,0.003551,0.455136,-0.000004,0.000018,0.000007,0.000020,-0.000007,73.257525,0.000020,
2506,2308,5.46623123553214,-7.35392592881851,0.0163672406948194,0.005610,-0.000778,0.003925,0.241265,-0.020910,326.655072,22.753602,0.999026,0.980761,0.005396,0.344845,0.000017,0.000008,0.000006,0.000021,0.000005,26.572328,0.000027,
2101,2173,-3.34522941436654,-10.3065413283782,0.0122063340342038,0.006135,-0.000095,0.001976,0.275743,0.029362,329.143291,24.388212,0.998930,0.983665,0.005177,0.338444,0.000000,-0.000002,0.000011,0.000011,-0.000012,43.128928,0.000013,
2311,3073,1.06927128012872,9.31661770420757,0.023617101414402,0.005958,0.000284,0.004914,0.257835,0.076288,314.052671,25.234875,0.999704,0.994550,0.003112,0.406106,-0.000004,0.000003,0.000000,0.000003,-0.000004,-88.398386,0.000004,
2296,3253,0.710259734535942,13.219381935138,0.0195563636291922,0.006153,0.000190,0.004662,0.268061,0.061994,311.095357,25.482674,0.999624,0.991072,0.003631,0.435758,0.000010,0.000026,-0.000002,0.000026,0.000010,-82.947532,0.000037,
2116,2488,-3.07016439128281,-3.42100485505846,-0.011888521156834,0.005928,-0.000181,0.001103,0.269236,0.022805,323.792637,24.306645,0.999243,0.988009,0.004397,0.449298,-0.000006,0.000010,-0.000012,0.000016,-0.000013,-61.783405,0.000017,
2311,2608,1.15248413915417,-0.797741989121327,-0.0162789720171759,0.006209,0.000123,0.003742,0.272529,0.062523,321.310210,24.166279,0.999583,0.991424,0.003708,0.468335,0.000013,-0.000002,0.000003,0.000014,-0.000002,9.610632,0.000015,
2146,2368,-2.39662866955512,-6.04084168195943,-0.00289547314008587,0.006572,0.000106,0.000059,0.301719,0.034180,325.712586,24.204027,0.999044,0.986879,0.004565,0.422858,-0.000003,0.000012,-0.000024,0.000029,-0.000021,-53.808087,0.000030,
2161,2443,-2.08314499283057,-4.40274389893585,-0.00219847543144169,0.006170,-0.000383,0.005735,0.265860,0.036176,324.416221,24.211073,0.999205,0.987269,0.004598,0.426057,-0.000010,-0.000002,-0.000022,0.000016,-0.000028,-50.130820,0.000028,
2221,2698,-0.822384138190035,1.15994726210276,-0.0218921690774323,0.006120,-0.000432,0.003926,0.268753,0.014291,319.942810,24.342499,0.999646,0.993715,0.003293,0.451769,0.000001,0.000015,-0.000006,0.000017,-0.000001,-70.301063,0.000019,
2221,2878,-0.852947747706224,5.07592269033677,-0.00914300713060356,0.006079,0.000096,0.004751,0.264744,0.049702,317.117957,24.600614,0.999358,0.992871,0.003446,0.455612,0.000001,0.000027,0.000007,0.000028,-0.000001,76.362951,0.000032,
2476,2263,4.82094532629827,-8.33943673942996,0.0168047165124676,0.006079,0.000120,-0.000867,0.281546,0.021544,327.341647,22.673111,0.999020,0.980634,0.005245,0.412194,0.000024,-0.000022,-0.000017,0.000030,-0.000027,-18.408849,0.000033,
2281,3253,0.384565556486127,13.2182697548185,0.016900174329578,0.006071,0.000205,0.003837,0.267293,0.062049,311.091470,25.413555,0.999739,0.993013,0.003366,0.424860,0.000011,0.000025,0.000001,0.000025,0.000010,86.581425,0.000036,
2341,2053,1.91293572167993,-12.9440533684148,0.0355024629255354,0.005631,-0.000558,0.004781,0.240868,0.023671,330.672605,22.803085,0.999120,0.981467,0.005298,0.331193,0.000021,-0.000011,-0.000012,0.000025,-0.000015,-17.673208,0.000025,
2266,3133,0.0818909521022597,10.612633384803,0.0361437161857339,0.005760,0.000108,0.004446,0.250817,0.047893,313.226719,25.045695,0.999656,0.995221,0.003091,0.504366,-0.000003,0.000011,-0.000004,0.000012,-0.000004,-75.041370,0.000013,
2356,2113,2.22821242468612,-11.6251451078783,0.0180037430703237,0.005776,-0.000367,0.004199,0.249538,0.027139,329.570413,22.917784,0.999426,0.981581,0.005188,0.291462,0.000005,0.000003,-0.000009,0.000013,-0.000004,-41.110888,0.000013,
2101,2383,-3.37942876387071,-5.71266273846616,-0.00694519516713399,0.006080,0.000177,0.002015,0.273590,0.038053,325.601287,24.396889,0.998802,0.983672,0.005065,0.387704,-0.000004,-0.000001,-0.000009,0.000007,-0.000011,-49.605280,0.000011,
2446,3253,3.96791907634224,13.2331845227529,0.0278396313257758,0.005955,0.000267,0.004117,0.259012,0.061602,311.203490,26.294246,0.999769,0.994344,0.003049,0.424641,0.000016,0.000029,0.000004,0.000030,0.000015,74.615732,0.000046,
2401,3133,3.01350564753605,10.6259613161494,0.0214863396775513,0.006148,0.000296,0.002722,0.273374,0.073202,313.073002,25.696276,0.999793,0.994790,0.003032,0.440274,0.000010,0.000038,-0.000006,0.000039,0.000009,-78.761930,0.000052,
2416,3208,3.32580977988419,12.2536372377296,0.0367909481608422,0.006080,0.000538,0.004281,0.264591,0.080255,311.978735,25.969632,0.999527,0.991136,0.003718,0.468750,0.000014,0.000041,-0.000003,0.000041,0.000013,-83.476928,0.000057,
2326,2008,1.59455024435052,-13.9304442857191,0.0336355388445782,0.006539,0.000394,0.001207,0.295188,0.044056,331.436735,22.859462,0.998294,0.973129,0.006561,0.278516,0.000018,-0.000030,-0.000024,0.000028,-0.000041,-22.758939,0.000042,
2386,3043,2.70357232373194,8.67136784796689,0.00268797149340116,0.006151,0.000276,0.001349,0.278440,0.066063,314.382507,25.343033,0.999696,0.992224,0.003578,0.470305,-0.000004,0.000008,-0.000010,0.000014,-0.000010,-60.110134,0.000015,
2266,2938,0.114240972771182,6.38158621674948,-0.00372948775077475,0.006081,-0.000226,0.007809,0.254076,0.047545,316.081120,24.717835,0.999524,0.991853,0.003665,0.510828,-0.000004,0.000026,0.000010,0.000029,-0.000007,73.887573,0.000030,
2251,3028,-0.22676830001668,8.33588676421792,0.00652368365103939,0.005896,0.000444,0.002461,0.263757,0.059828,314.734379,24.916928,0.999193,0.989359,0.004028,0.426448,-0.000012,-0.000004,-0.000001,-0.000003,-0.000012,-81.397898,0.000017,
2206,2668,-1.14402737449125,0.50720150458357,-0.0222727394877325,0.005273,0.000292,0.000689,0.240454,0.042166,320.436960,24.389589,0.999579,0.991509,0.003799,0.400413,0.000001,0.000014,-0.000003,0.000014,0.000001,-77.098590,0.000017,
2491,2398,5.11880770386071,-5.38150886635058,-0.00241621967126093,0.005950,-0.000372,0.002967,0.261022,0.022143,325.012904,23.196238,0.999338,0.987968,0.004542,0.370769,0.000047,0.000042,0.000003,0.000048,0.000040,28.276436,0.000089,
2281,3028,0.425111399445161,8.33842049777023,0.00520312564543701,0.006296,0.000519,0.001748,0.284405,0.076517,314.693349,25.022219,0.999141,0.988787,0.004049,0.431681,-0.000007,-0.000002,-0.000004,0.000000,-0.000009,-62.664758,0.000010,
2176,2503,-1.7674807835155,-3.0915787729023,-0.0163537227646771,0.005956,0.000080,0.000112,0.273436,0.035241,323.283848,24.227056,0.998958,0.983899,0.005154,0.424540,0.000003,0.000006,-0.000011,0.000015,-0.000007,-48.743107,0.000015,
2236,2968,-0.542133793313443,7.03219427249096,0.000959525697680874,0.006054,0.000340,0.003053,0.269133,0.067045,315.704046,24.772758,0.999480,0.992264,0.003621,0.449298,-0.000017,0.000015,0.000009,0.000017,-0.000020,74.758374,0.000022,
2206,2863,-1.17607546251746,4.7492801278221,-0.0103351831469354,0.005958,0.000530,-0.000070,0.274778,0.059765,317.401980,24.566099,0.999351,0.992062,0.003546,0.459230,0.000004,0.000029,0.000001,0.000029,0.000004,87.561067,0.000035,
2101,2188,-3.34818602493865,-9.97843193012834,0.0113617497219138,0.005793,-0.000397,0.005461,0.249850,0.032461,328.869627,24.354794,0.998796,0.983418,0.005290,0.379164,-0.000004,0.000019,0.000013,0.000025,-0.000010,66.365161,0.000025,
2446,3268,3.9633507317122,13.5593455750394,0.00585520506092507,0.006067,0.000279,0.002750,0.269292,0.059743,310.782426,26.304611,0.999735,0.993881,0.003146,0.463148,0.000024,0.000017,0.000004,0.000025,0.000016,24.452610,0.000042,
2326,2023,1.59145606421983,-13.6012107139049,0.0280329642079096,0.006867,-0.000170,0.004249,0.299600,0.021516,331.153651,22.842350,0.998705,0.977508,0.006085,0.311390,0.000015,-0.000016,-0.000013,0.000020,-0.000021,-19.936025,0.000023,
2446,2038,4.21198167295017,-13.2754605057676,0.0337327592650354,0.006151,0.000339,0.001234,0.276747,0.055906,331.042571,22.058246,0.999186,0.978974,0.005580,0.368624,-0.000002,-0.000049,-0.000007,-0.000001,-0.000050,-8.434092,0.000058,
2341,2068,1.90979877298288,-12.6157170826621,0.0318987702486879,0.005621,-0.000659,0.005575,0.237680,0.007391,330.398612,22.737775,0.998928,0.977444,0.005726,0.420281,0.000018,-0.000004,-0.000006,0.000019,-0.000005,-13.900014,0.000020,
2341,3208,1.69683692214378,12.2462318209726,0.0343094821010936,0.006238,0.000350,0.002351,0.279359,0.054218,311.937769,25.556466,0.999635,0.993542,0.003338,0.488761,0.000011,0.000032,-0.000002,0.000032,0.000011,-84.851710,0.000045,
2341,2863,1.75750764488344,4.75685183051613,-0.0120379798740373,0.005726,-0.000071,0.006075,0.242202,0.054991,317.152836,24.768478,0.999625,0.991685,0.003700,0.454173,-0.000013,0.000034,-0.000001,0.000034,-0.000013,-89.238354,0.000034,
2281,3268,0.381366665703425,13.5433546635177,0.00961966640647915,0.006094,0.000370,0.003127,0.270760,0.059021,310.787899,25.405114,0.999751,0.993233,0.003352,0.456657,0.000010,0.000030,-0.000001,0.000030,0.000010,-85.780462,0.000041,
2146,2383,-2.39910728746809,-5.71305599326936,-0.00212434139382367,0.006290,0.000665,-0.002904,0.297930,0.047101,325.473104,24.216231,0.998751,0.986159,0.004678,0.433427,-0.000004,0.000000,-0.000026,0.000024,-0.000028,-46.783448,0.000030,
2176,2728,-1.80618535046236,1.81204689146544,-0.0272866411825703,0.005946,0.000068,0.002063,0.267302,0.044292,319.540062,24.371452,0.999368,0.990075,0.004043,0.483527,-0.000007,0.000009,-0.000009,0.000013,-0.000011,-65.176863,0.000014,
2416,3223,3.3226096572308,12.5789632017315,0.0316017459385307,0.005984,0.000278,0.001012,0.272002,0.049368,311.696617,26.010973,0.999506,0.990712,0.003769,0.442919,0.000012,0.000034,0.000002,0.000034,0.000012,85.685627,0.000047,
2296,3028,0.751401335810367,8.33925614860948,0.00564408881797362,0.006620,0.000493,0.000291,0.304145,0.072168,314.698278,25.054564,0.999369,0.989351,0.003952,0.441851,-0.000009,-0.000003,-0.000003,-0.000002,-0.000010,-67.845841,0.000013,
2386,3058,2.7012830814662,8.99670961308442,0.0121491468485146,0.006146,0.000090,0.002977,0.272275,0.056253,314.210319,25.414845,0.999666,0.992507,0.003527,0.430974,-0.000002,0.000007,-0.000008,0.000011,-0.000007,-59.992324,0.000011,
2311,3088,1.06678084957221,9.64123591266065,0.0254673419021856,0.006104,0.000086,0.004884,0.264523,0.048796,313.830102,25.213467,0.999739,0.995355,0.002963,0.431036,-0.000003,0.000008,-0.000004,0.000009,-0.000005,-72.252509,0.000009,
2206,2683,-1.14588375764853,0.83377676499277,-0.0245314798247023,0.006102,0.000252,-0.000022,0.280863,0.046514,320.215055,24.371709,0.999685,0.992872,0.003580,0.439818,0.000000,0.000016,-0.000009,0.000020,-0.000004,-66.683137,0.000021,
2446,3283,3.95956044409806,13.8853364336712,-0.00312044207021245,0.006036,0.000377,0.003119,0.266543,0.058616,310.457398,26.376083,0.999762,0.993156,0.003249,0.441294,0.000036,-0.000009,0.000007,0.000037,-0.000010,9.228784,0.000038,
2101,2203,-3.35053581145473,-9.64993132475128,0.0100924999517815,0.005837,-0.000303,0.004994,0.253278,0.033746,328.621334,24.359684,0.998432,0.981348,0.005454,0.379591,0.000001,0.000023,0.000012,0.000028,-0.000004,66.958386,0.000031,
2326,2038,1.58723804918684,-13.2696996338141,0.0153550723652529,0.005864,0.000486,-0.002699,0.277841,0.030322,330.784294,22.928561,0.999213,0.983138,0.005158,0.272639,0.000011,0.000000,-0.000012,0.000019,-0.000008,-33.342003,0.000019,
2341,3223,1.69362742140433,12.5724389378297,0.0309586430415152,0.006147,0.000162,0.002711,0.273872,0.045952,311.657771,25.666196,0.999557,0.992796,0.003355,0.405843,0.000010,0.000035,0.000001,0.000035,0.000010,86.863981,0.000047,
2341,2083,1.90691439261667,-12.2836512922519,0.0250500682175243,0.005885,-0.000088,0.002993,0.258906,0.052667,330.119750,22.921235,0.999334,0.981695,0.005257,0.322351,0.000016,0.000013,-0.000004,0.000019,0.000010,-35.840492,0.000029,
2446,2053,4.20907482682029,-12.9465253884748,0.0313565886389711,0.006296,0.000412,-0.000564,0.290107,0.048236,330.794725,22.048072,0.999151,0.979147,0.005551,0.426577,0.000003,-0.000042,-0.000004,0.000003,-0.000042,-5.024281,0.000047,
2086,2338,-3.69815830442434,-6.69732664980411,0.002514553507865,0.005967,0.000188,-0.001036,0.277201,0.029383,326.482279,24.404399,0.998909,0.986355,0.004780,0.416612,-0.000004,0.000012,-0.000005,0.000014,-0.000005,-74.039980,0.000014,
2326,2893,1.42606395671997,5.40845113841459,-0.0121942075766697,0.005776,0.000071,0.001841,0.259475,0.055231,316.684603,24.812321,0.999264,0.990306,0.003971,0.456378,-0.000016,0.000015,0.000007,0.000016,-0.000017,78.013365,0.000019,
2356,2863,2.08362541360167,4.75830122073366,-0.0209840760658722,0.006200,0.000008,0.005003,0.267541,0.055180,317.102434,24.779915,0.999507,0.991058,0.003824,0.465628,-0.000014,0.000033,-0.000001,0.000033,-0.000014,-88.866672,0.000033,
2506,2323,5.46301607492218,-7.02506843473187,0.0128148812756308,0.005864,-0.000163,0.004549,0.250804,0.035901,326.391540,22.760455,0.998809,0.983751,0.005132,0.458327,0.000011,0.000020,0.000007,0.000024,0.000007,60.533624,0.000032,
2416,3238,3.31888359019187,12.905057608614,0.0238877995278131,0.005975,0.000348,0.002867,0.264904,0.067252,311.378055,26.064836,0.999474,0.991442,0.003651,0.453331,0.000011,0.000032,0.000003,0.000032,0.000010,81.047881,0.000045,
2221,2893,-0.85515078659289,5.40150138006452,-0.00329663209282671,0.005976,0.000026,0.003172,0.265059,0.044999,316.923008,24.622738,0.999596,0.992918,0.003527,0.447323,-0.000002,0.000021,0.000009,0.000025,-0.000005,70.461306,0.000026,
2266,2953,0.112297261534202,6.70829316952293,-0.00112559525803135,0.006390,0.000096,0.004195,0.280411,0.055591,315.884024,24.824011,0.999156,0.988112,0.004299,0.437960,-0.000008,0.000022,0.000012,0.000026,-0.000012,70.343468,0.000026,
2326,2743,1.45377502809062,2.14546515775444,-0.0228970494688951,0.006306,0.000252,0.001160,0.286013,0.061872,319.065036,24.485186,0.999586,0.990478,0.003900,0.447313,0.000001,0.000022,0.000007,0.000024,-0.000001,73.642855,0.000027,
2311,2848,1.10921150412872,4.42797517141535,-0.00880518285731569,0.006241,0.000331,-0.001253,0.291533,0.047016,317.488601,24.639013,0.999841,0.992976,0.003490,0.499019,-0.000011,0.000026,0.000008,0.000027,-0.000012,78.257130,0.000027,
2371,2953,2.39341897175392,6.71557073102418,-0.00695377409005005,0.005698,-0.000135,0.003095,0.251164,0.048469,315.738116,25.085354,0.999279,0.989747,0.004098,0.419386,-0.000006,0.000005,-0.000007,0.000008,-0.000009,-64.763220,0.000010,
2206,2698,-1.14939289096843,1.16031393048001,-0.0325348508945353,0.005994,-0.000136,0.003845,0.263514,0.027873,319.887731,24.331459,0.999431,0.991893,0.003696,0.478518,0.000002,0.000008,-0.000007,0.000013,-0.000003,-56.562978,0.000014,
2146,2578,-2.43304217965915,-1.45572073131156,-0.0240724647171078,0.005923,0.000515,-0.000072,0.272845,0.061639,322.112798,24.331726,0.999187,0.988767,0.004307,0.451506,-0.000009,0.000015,-0.000005,0.000016,-0.000010,-79.334378,0.000016,
2296,3268,0.707263972874486,13.5445584231932,0.0139884305386317,0.006120,0.000272,0.001770,0.276351,0.051920,310.810910,25.499182,0.999619,0.992554,0.003377,0.437688,0.000011,0.000028,-0.000003,0.000029,0.000010,-79.425110,0.000041,
2491,2413,5.11567161116629,-5.05349521636895,-0.0121078080614438,0.006093,0.000687,-0.004319,0.295928,0.025332,324.723833,23.154090,0.999461,0.988718,0.004380,0.476839,0.000042,0.000028,0.000007,0.000045,0.000025,23.111591,0.000071,
2191,2413,-1.4255265450396,-5.05649469100676,-0.00669950977152212,0.005606,0.000502,0.000054,0.257517,0.060759,324.755991,24.119213,0.999060,0.987188,0.004669,0.432007,-0.000003,-0.000003,-0.000022,0.000018,-0.000025,-45.207350,0.000026,
2251,2833,-0.193154407328887,4.099890883677,-0.0151395489373272,0.006321,0.000060,0.002631,0.282383,0.065133,317.751057,24.597805,0.999483,0.990983,0.003872,0.454174,0.000000,0.000024,0.000010,0.000027,-0.000003,69.748136,0.000030,
2086,2353,-3.70049076332655,-6.36866683497522,0.000174998226214029,0.006296,0.000296,0.001813,0.284187,0.061478,326.227531,24.435472,0.998537,0.981619,0.005365,0.418475,-0.000011,0.000007,-0.000006,0.000009,-0.000013,-72.889626,0.000013,
2356,2128,2.22565686153255,-11.2969586200255,0.0174823324983322,0.005948,-0.000222,0.002424,0.263736,0.020639,329.338974,22.886349,0.999302,0.982664,0.005124,0.358364,0.000002,-0.000004,-0.000009,0.000009,-0.000010,-36.256583,0.000011,
2206,2878,-1.17885401749201,5.07590543515192,-0.0150742102009076,0.006122,0.000258,0.000179,0.281463,0.046795,317.124678,24.611043,0.999568,0.993779,0.003295,0.417903,0.000005,0.000030,0.000002,0.000030,0.000005,85.921162,0.000038,
2506,2338,5.460397355597,-6.69529410027532,0.0138570614617493,0.006187,0.000225,0.003386,0.270280,0.054941,326.175823,22.939839,0.999316,0.986251,0.004958,0.360956,0.000018,0.000023,0.000017,0.000037,0.000003,48.829196,0.000045,
2326,3163,1.3790118795847,11.2698463972427,0.0288400019290407,0.006159,0.000116,0.003233,0.272656,0.048655,312.628408,25.447580,0.999687,0.994102,0.003299,0.419204,0.000004,0.000027,-0.000002,0.000027,0.000003,-85.745557,0.000033,
2161,2458,-2.08593041437602,-4.07502971651122,-0.00606989209472886,0.006083,-0.000179,0.005129,0.263819,0.060172,324.139407,24.187390,0.999230,0.988573,0.004376,0.485207,-0.000006,0.000004,-0.000020,0.000020,-0.000022,-52.003343,0.000024,
2221,2713,-0.824925813859817,1.48700361098378,-0.0198500838905602,0.006072,-0.000190,0.004330,0.265431,0.046446,319.712530,24.385680,0.999249,0.990343,0.003876,0.459783,0.000005,0.000020,-0.000006,0.000022,0.000003,-71.534841,0.000027,
2416,3253,3.31550756230155,13.2313531565202,0.016880081344425,0.006199,0.000668,0.003966,0.271385,0.089585,311.078784,26.141573,0.999250,0.990200,0.003901,0.445140,0.000011,0.000030,0.000000,0.000030,0.000011,-88.561023,0.000042,
2446,2068,4.20576088886654,-12.6167276107996,0.0297901920212098,0.006358,0.000087,0.002280,0.282276,0.041485,330.531801,22.130563,0.999017,0.977705,0.005834,0.392966,0.000006,-0.000015,0.000000,0.000006,-0.000015,-0.957981,0.000016,
2176,2518,-1.76969540778392,-2.76445246720446,-0.0155389777104347,0.006302,0.000125,0.001649,0.284604,0.043399,323.059111,24.229251,0.999047,0.986378,0.004744,0.443727,0.000002,0.000007,0.000000,0.000007,0.000002,-85.256981,0.000009,
2221,2908,-0.857391825037414,5.72753466535159,0.000109287819611836,0.006025,0.000087,0.001836,0.271650,0.045732,316.713617,24.667123,0.999544,0.991973,0.003881,0.422200,0.000001,0.000015,0.000007,0.000018,-0.000002,67.807531,0.000020,
2341,2998,1.7338497623656,7.69075245339567,0.00514741488251502,0.006076,0.000085,0.004931,0.262536,0.060012,315.113353,25.127447,0.999893,0.997257,0.002732,0.425247,-0.000007,0.000004,-0.000008,0.000008,-0.000011,-62.579416,0.000011,
2266,2968,0.109271202450934,7.03473448064853,-0.00570644892212613,0.006090,0.000476,-0.000039,0.280836,0.069738,315.601055,24.853959,0.999426,0.991220,0.003789,0.446984,-0.000012,0.000010,0.000010,0.000014,-0.000015,69.353467,0.000017,
2311,2623,1.15005219169706,-0.471482958570149,-0.0111892789536228,0.006113,-0.000095,0.003182,0.270003,0.052236,321.107033,24.178818,0.999459,0.989663,0.003946,0.478414,0.000009,0.000012,-0.000002,0.000013,0.000009,-66.992008,0.000022,
2146,2398,-2.4024904924811,-5.38615201316468,0.0035114615944849,0.005634,-0.000505,0.006948,0.237655,0.030140,325.218258,24.229170,0.998766,0.985617,0.004860,0.412796,-0.000004,-0.000004,-0.000028,0.000025,-0.000032,-45.263218,0.000034,
2266,3148,0.078896805478017,10.9390100950147,0.0317128430095295,0.005924,0.000120,0.006141,0.252787,0.061424,312.945557,25.120940,0.999300,0.991873,0.003761,0.466954,-0.000001,0.000016,-0.000004,0.000017,-0.000002,-78.307788,0.000019,
2251,3043,-0.228937648944139,8.66172065709263,0.0106089657003281,0.006094,0.000419,0.002154,0.273965,0.073468,314.533524,24.969663,0.999502,0.991508,0.003643,0.409768,-0.000011,0.000001,-0.000004,0.000002,-0.000012,-74.667571,0.000013,
2401,3148,3.01149680651187,10.9502536189169,0.0326637641160801,0.006203,0.000243,0.003091,0.274518,0.059836,312.922603,25.703938,0.999803,0.995108,0.002912,0.463431,0.000011,0.000034,-0.000006,0.000035,0.000009,-77.027914,0.000047,
2191,2818,-1.49549824361985,3.77061399994672,-0.0207578483860402,0.005594,-0.000046,0.002885,0.248508,0.039572,318.065046,24.497377,0.998760,0.985492,0.004693,0.442334,0.000008,0.000012,0.000004,0.000014,0.000006,60.230264,0.000021,
2236,2758,-0.506754455598575,2.46830100736553,-0.0233918622865303,0.006218,0.000185,0.004063,0.273048,0.061479,318.923600,24.502473,0.999311,0.988691,0.004145,0.422569,-0.000001,0.000014,-0.000008,0.000017,-0.000004,-67.477748,0.000017,
2191,2638,-1.4638532865447,-0.147926974689376,-0.017839836743633,0.006253,0.000401,0.001480,0.283121,0.052358,321.047115,24.295255,0.999533,0.988644,0.004195,0.480937,-0.000001,0.000015,-0.000001,0.000015,-0.000001,-86.306498,0.000017,
2101,2398,-3.38192082168026,-5.38627667376979,0.00101069284283994,0.005634,-0.000039,0.005072,0.244116,0.033166,325.396726,24.371942,0.998955,0.985584,0.004676,0.410575,-0.000002,-0.000009,-0.000013,0.000008,-0.000020,-37.696549,0.000020,
2341,3238,1.69015792959754,12.8982441565562,0.0269682355483383,0.005917,0.000375,0.004047,0.258796,0.069766,311.362760,25.707514,0.999507,0.991796,0.003469,0.423842,0.000010,0.000033,0.000003,0.000033,0.000009,83.706958,0.000045,
2506,2353,5.45759932018707,-6.36739889797424,0.0110072782304655,0.006278,0.000444,-0.002114,0.295781,0.048383,325.934771,22.939664,0.999363,0.985854,0.004984,0.417815,0.000033,0.000059,0.000020,0.000070,0.000023,61.512762,0.000096,
2116,2503,-3.07235625874845,-3.0930531075004,-0.019539502019029,0.006319,0.000530,-0.003736,0.301804,0.032947,323.518664,24.299367,0.999047,0.985991,0.004599,0.471375,-0.000001,0.000003,-0.000012,0.000013,-0.000011,-49.558239,0.000014,
2491,2428,5.11254537186048,-4.72532983781711,-0.00446828823351098,0.006083,0.000065,0.003580,0.265005,0.057817,324.512847,23.266548,0.999291,0.987492,0.004606,0.457100,0.000036,0.000038,0.000011,0.000047,0.000026,47.406751,0.000074,
2116,2188,-3.02158877261607,-9.97839646296146,0.0109691842611142,0.005579,-0.000621,0.005285,0.240265,0.011180,328.788985,24.310701,0.998808,0.982313,0.005282,0.325454,-0.000004,0.000015,0.000011,0.000021,-0.000009,64.946472,0.000021,
2446,2083,4.20227440123023,-12.2861332219848,0.0266037331851408,0.006496,-0.000275,0.006470,0.272919,0.054941,330.253294,22.253403,0.998865,0.976048,0.006172,0.339522,0.000008,-0.000003,0.000004,0.000010,-0.000004,17.976127,0.000010,
2356,2878,2.08135851291335,5.08384026498791,-0.011768686850246,0.006102,-0.000218,0.005434,0.261435,0.044894,316.929074,24.827748,0.999521,0.991932,0.003702,0.445828,-0.000015,0.000023,0.000001,0.000023,-0.000015,87.981789,0.000023,
2221,2728,-0.827525472122943,1.81335062847304,-0.0160868845750315,0.005873,-0.000149,0.005137,0.253730,0.052567,319.488651,24.407809,0.999371,0.990656,0.003741,0.463122,0.000002,0.000016,-0.000009,0.000020,-0.000003,-64.119747,0.000022,
2311,2863,1.10618593586109,4.75475895271595,-0.00656851851192641,0.006130,0.000010,0.002870,0.272280,0.052062,317.243270,24.729249,0.999681,0.992249,0.003627,0.445588,-0.000013,0.000032,0.000005,0.000032,-0.000013,83.888150,0.000032,
2176,2743,-1.8078925524264,2.13779846201776,-0.0110618245174123,0.006008,-0.000262,0.007032,0.254696,0.052714,319.419430,24.439700,0.999456,0.990685,0.004084,0.435675,-0.000006,0.000006,-0.000011,0.000012,-0.000013,-59.827947,0.000014,
2146,2593,-2.43552342145273,-1.12879774287351,-0.0269849656029351,0.005943,0.000681,-0.002425,0.280976,0.062684,321.853799,24.313687,0.999156,0.988915,0.004395,0.479133,-0.000012,0.000019,-0.000002,0.000019,-0.000012,-86.648264,0.000019,
2281,3283,0.378233274469281,13.8682359148701,0.00774565968930574,0.006019,0.000091,0.005566,0.259056,0.054504,310.514480,25.413515,0.999524,0.992735,0.003334,0.469981,0.000012,0.000033,-0.000004,0.000034,0.000011,-80.448079,0.000047,
2146,2413,-2.4056100050306,-5.05696244261108,-0.0131275534343445,0.005761,-0.000332,0.002285,0.257690,0.038130,324.857043,24.218936,0.998596,0.985799,0.005151,0.440992,-0.000003,-0.000007,-0.000025,0.000020,-0.000030,-42.921738,0.000031,
2326,3178,1.37620226842447,11.5956930778709,0.0219609284544049,0.006416,0.000506,-0.000206,0.296605,0.063548,312.348634,25.467921,0.999693,0.994193,0.003334,0.447308,0.000006,0.000028,-0.000002,0.000028,0.000006,-84.403101,0.000036,
2446,3298,3.95629575836741,14.2098293943858,-0.00641294576314522,0.006012,0.000252,0.002850,0.266410,0.054935,310.183354,26.347184,0.999779,0.993653,0.003185,0.517160,0.000049,-0.000032,0.000011,0.000050,-0.000033,7.478932,0.000051,
2236,2773,-0.509495016937823,2.79451616865735,-0.025267854292224,0.005977,0.000545,0.000273,0.274349,0.054391,318.665516,24.494737,0.999270,0.988354,0.004123,0.444495,-0.000001,0.000014,-0.000005,0.000016,-0.000002,-72.055048,0.000017,
2386,3073,2.69819447764545,9.32258635646086,0.00812198364445749,0.006278,0.000225,0.003043,0.278170,0.055684,313.936898,25.442819,0.999627,0.991977,0.003619,0.444949,0.000000,0.000011,-0.000007,0.000015,-0.000003,-64.255969,0.000016,
2341,3253,1.68649231199586,13.2235127372657,0.0156603181305854,0.006011,0.000023,0.004890,0.260071,0.052975,311.023180,25.703318,0.999525,0.992531,0.003376,0.446208,0.000008,0.000031,0.000003,0.000031,0.000008,82.725029,0.000041,
2101,2413,-3.38414970618755,-5.05824621000509,0.000730514587417019,0.005856,-0.000003,0.006086,0.251391,0.056621,325.159309,24.394736,0.999135,0.986417,0.004599,0.413999,-0.000001,-0.000012,-0.000011,0.000005,-0.000018,-30.803709,0.000019,
2371,2188,2.54205491193985,-9.98103576481284,0.0140543762128118,0.006210,0.000126,-0.000080,0.284715,0.031431,328.369464,22.990005,0.999224,0.982552,0.005113,0.354569,-0.000011,-0.000005,-0.000023,0.000015,-0.000031,-49.100811,0.000031,
2341,2878,1.7543692339602,5.08304988288504,-0.0215544750524259,0.005935,0.000092,0.003488,0.260919,0.058356,316.847417,24.725089,0.999625,0.991292,0.003766,0.537497,-0.000014,0.000025,0.000002,0.000025,-0.000014,86.441296,0.000025,
2296,3043,0.748935972540231,8.66420812641209,0.0159758167835662,0.006404,-0.000036,0.003803,0.282128,0.057737,314.517982,25.095961,0.999427,0.990167,0.003842,0.414775,-0.000008,0.000005,-0.000003,0.000006,-0.000009,-77.975631,0.000009,
2491,2443,5.10943769148555,-4.39723778598562,-0.00173910981089875,0.005796,-0.000152,0.003098,0.253634,0.018956,324.280845,23.401496,0.998948,0.983928,0.004923,0.343494,0.000034,0.000008,0.000016,0.000041,0.000001,25.491106,0.000048,
2131,2473,-2.74114116410217,-3.74637098596156,-0.0134845785833022,0.006419,0.000159,0.002268,0.288393,0.063749,323.975120,24.361348,0.999302,0.988006,0.004568,0.396011,-0.000005,0.000006,-0.000013,0.000014,-0.000013,-57.191703,0.000016,
2206,2713,-1.15156788503132,1.4863658637888,-0.0258802559239371,0.005945,-0.000281,0.003934,0.260961,0.033003,319.697333,24.347224,0.998701,0.986694,0.004666,0.484812,0.000005,0.000013,-0.000007,0.000017,0.000001,-58.380084,0.000020,
2131,2323,-2.71615163499871,-7.02417562686325,0.000995032569790055,0.006012,0.000472,-0.001450,0.280585,0.045592,326.509050,24.272458,0.999224,0.985762,0.004799,0.393622,0.000007,0.000012,-0.000014,0.000024,-0.000005,-49.804376,0.000026,
2161,2653,-2.11982368616914,0.179747871558888,-0.0332761593537612,0.006151,0.000244,0.001659,0.278018,0.052589,320.769421,24.374115,0.999713,0.992101,0.003627,0.434365,-0.000003,0.000013,0.000003,0.000013,-0.000003,80.594608,0.000014,
2281,3043,0.422198721971906,8.66401371553908,0.00912669976963798,0.005930,0.000311,0.003177,0.262764,0.075773,314.459480,25.066787,0.999395,0.991106,0.003734,0.413048,-0.000007,0.000005,-0.000005,0.000007,-0.000008,-71.350578,0.000009,
2416,3268,3.3114823890452,13.5565720934886,0.0082507867857089,0.005938,0.000290,0.005501,0.253630,0.082930,310.742251,26.143759,0.999572,0.991880,0.003589,0.482564,0.000011,0.000020,-0.000002,0.000021,0.000011,-80.377060,0.000032,
2281,3298,0.375201299484498,14.1942754134764,-0.00162148866877487,0.006191,0.000074,0.002457,0.277434,0.049840,310.207662,25.492602,0.999626,0.994372,0.003080,0.412343,0.000021,0.000026,-0.000014,0.000038,0.000009,-49.915893,0.000050,
2326,2758,1.45020872791919,2.47199119209154,-0.0238433875821897,0.005880,0.000028,0.004847,0.253695,0.064015,318.780751,24.501018,0.999614,0.991729,0.003762,0.468218,-0.000001,0.000025,0.000010,0.000029,-0.000004,70.549097,0.000031,
2446,2098,4.19847154183504,-11.9568985076061,0.0225125271787761,0.005820,-0.000378,0.003805,0.251868,0.029969,329.956356,22.286624,0.999391,0.979142,0.005706,0.336774,0.000008,-0.000013,-0.000010,0.000012,-0.000017,-22.820987,0.000017,
2371,2968,2.39041761119051,7.04246817975599,-0.00594038299061594,0.005582,-0.000002,0.004218,0.241949,0.067506,315.491743,25.193093,0.999538,0.989797,0.004130,0.371014,-0.000006,-0.000001,-0.000009,0.000006,-0.000013,-53.782285,0.000013,
2191,2653,-1.46655799917409,0.179642214060266,-0.0217528115304617,0.006318,0.000398,0.000708,0.288529,0.047585,320.776287,24.353794,0.999557,0.989772,0.004041,0.432887,0.000003,0.000020,0.000004,0.000020,0.000002,77.884580,0.000025,
2356,3268,2.00841647477077,13.5510870498458,0.00664586784427001,0.005842,0.000234,0.004872,0.252284,0.068839,310.691157,25.847318,0.999630,0.993015,0.003293,0.435690,0.000008,0.000026,0.000004,0.000027,0.000007,77.104006,0.000036,
2311,3103,1.0637743807544,9.9673969304699,0.0222423380071746,0.005863,0.000336,0.001434,0.265372,0.060795,313.558166,25.266685,0.999489,0.993180,0.003472,0.420938,-0.000002,0.000015,-0.000006,0.000017,-0.000004,-70.995202,0.000017,
2401,3163,3.0080358924311,11.2762377297091,0.0308907460870955,0.005974,0.000013,0.005150,0.256450,0.062502,312.643472,25.776348,0.999641,0.993321,0.003312,0.438071,0.000010,0.000036,-0.000004,0.000036,0.000010,-81.696952,0.000048,
2491,2458,5.1061021720693,-4.06954653104354,-0.000779207248172042,0.005863,-0.000561,0.007818,0.238503,0.037733,324.030191,23.430212,0.999095,0.985256,0.004733,0.394147,0.000043,-0.000001,0.000017,0.000049,-0.000007,19.101525,0.000053,
2161,2473,-2.08828006440708,-3.74754174449998,-0.00464928743303972,0.006073,-0.000254,0.004404,0.265552,0.040199,323.910558,24.240960,0.999206,0.986690,0.004766,0.423077,-0.000003,0.000011,-0.000012,0.000018,-0.000010,-60.944798,0.000018,
2176,2758,-1.81099474245321,2.46479895247235,-0.0198138576773772,0.006046,-0.000358,0.007223,0.255883,0.055730,319.103738,24.433238,0.999320,0.990007,0.004067,0.457885,-0.000003,0.000005,-0.000009,0.000011,-0.000009,-57.358570,0.000012,
2371,3103,2.36685114755731,9.97230884891916,0.0211346313712397,0.005826,-0.000031,0.004841,0.251069,0.055482,313.520316,25.509701,0.999423,0.990899,0.003835,0.404254,0.000008,0.000024,-0.000006,0.000025,0.000006,-72.061008,0.000033,
2311,2638,1.14713438492444,-0.144136745501143,-0.0125532658237262,0.006026,0.000093,0.002728,0.267612,0.053843,320.849499,24.228675,0.999347,0.988739,0.004037,0.462870,0.000005,0.000017,-0.000004,0.000018,0.000004,-73.152543,0.000024,
2341,2893,1.75240468998969,5.40969756886964,-0.0136500918766274,0.005930,0.000379,0.000055,0.272830,0.065572,316.680408,24.851334,0.999395,0.990997,0.003853,0.454628,-0.000018,0.000015,0.000001,0.000015,-0.000018,87.450186,0.000019,
2266,2983,0.106430129753715,7.3602062641453,-0.00279511626536078,0.005936,0.000140,0.002688,0.264652,0.066562,315.364599,24.868052,0.999655,0.992678,0.003586,0.454563,-0.000011,0.000008,0.000008,0.000011,-0.000014,69.696146,0.000015,
2116,2203,-3.0237492821285,-9.64968848469496,0.00749129911480395,0.005838,-0.000159,0.002575,0.260320,0.016170,328.538772,24.307995,0.998199,0.977955,0.005677,0.339087,0.000001,0.000020,0.000010,0.000024,-0.000003,67.242619,0.000026,
2356,2893,2.07880086583051,5.41053234078439,-0.00775742810122892,0.005724,0.000551,0.000787,0.260754,0.064319,316.716838,24.917198,0.999459,0.992048,0.003676,0.413992,-0.000018,0.000014,0.000000,0.000014,-0.000018,89.596482,0.000019,
2416,3283,3.30824029733911,13.8825717614378,-0.00101353432654605,0.006222,0.000229,0.003412,0.274346,0.067848,310.438459,26.227794,0.999721,0.991812,0.003575,0.429845,0.000014,-0.000001,0.000001,0.000014,-0.000002,4.081135,0.000015,
2296,3283,0.704253381586479,13.8700728603346,0.00880090168510606,0.006164,0.000542,0.000485,0.282930,0.072814,310.527500,25.522538,0.999556,0.992607,0.003304,0.463865,0.000013,0.000030,-0.000006,0.000032,0.000012,-73.226519,0.000045,
2176,2533,-1.77237011006911,-2.43720853031515,-0.0148636011321059,0.006119,0.000162,0.002002,0.275173,0.054999,322.812520,24.242317,0.998995,0.987433,0.004457,0.455507,-0.000003,0.000021,0.000003,0.000021,-0.000003,82.533914,0.000023,
2341,3013,1.73155698819278,8.01628108214208,0.00581933468464513,0.006251,0.000308,0.000945,0.284635,0.058020,314.896076,25.138686,0.999681,0.992890,0.003429,0.448072,-0.000006,-0.000001,-0.000010,0.000006,-0.000014,-52.251645,0.000014,
2221,2743,-0.830796150538898,2.14036760632204,-0.0233309229817564,0.005824,-0.000641,0.006586,0.246649,0.019506,319.177401,24.446921,0.999400,0.989674,0.003978,0.410162,-0.000003,0.000010,-0.000011,0.000016,-0.000009,-60.146581,0.000016,
2386,2023,2.90244042247562,-13.6024039625446,0.0261247218891754,0.006415,-0.000150,0.002007,0.286178,0.025677,331.142259,22.443616,0.998595,0.971599,0.006588,0.306545,0.000008,-0.000046,-0.000011,0.000010,-0.000048,-11.281922,0.000051,
2356,3028,2.05430608456887,8.34348771049197,0.00967091414770493,0.005811,0.000121,0.004529,0.251664,0.063791,314.648743,25.268782,0.999623,0.992013,0.003627,0.406041,-0.000001,-0.000002,-0.000011,0.000009,-0.000012,-44.722310,0.000013,
2326,2908,1.42365248588738,5.73450638620993,-0.00872152063709564,0.006003,-0.000129,0.003202,0.265151,0.048131,316.474667,24.869368,0.999154,0.990291,0.004028,0.426259,-0.000014,0.000012,0.000005,0.000013,-0.000015,79.725567,0.000016,
2221,2923,-0.859915845723723,6.05397720098655,-0.00453058202253942,0.006329,0.000294,0.000120,0.291287,0.055720,316.449735,24.686386,0.999539,0.992272,0.003659,0.431428,0.000000,0.000017,0.000005,0.000018,-0.000001,75.420836,0.000021,
2191,2833,-1.49744546491418,4.09669495335625,-0.0182781842937061,0.006055,0.000003,0.003082,0.269136,0.035081,317.862382,24.524644,0.999285,0.990119,0.003942,0.424951,0.000008,0.000018,0.000006,0.000021,0.000005,65.261174,0.000027,
2461,1993,4.5485904057021,-14.2641062137921,0.0311725179217888,0.005705,0.000014,0.000875,0.257417,0.018652,331.760050,21.839645,0.998898,0.968841,0.006481,0.275857,-0.000009,-0.000132,0.000026,-0.000004,-0.000137,11.395328,0.000160,
2476,2278,4.81695647245236,-8.00873645162154,0.00913984134433576,0.006065,0.000137,0.002243,0.269167,0.052589,327.021416,22.816300,0.999441,0.980656,0.005180,0.359179,0.000025,-0.000005,-0.000012,0.000030,-0.000009,-19.543917,0.000030,
2146,2608,-2.43792445142743,-0.800940345527721,-0.0289241540007197,0.006155,0.000564,-0.002236,0.290158,0.060732,321.603383,24.397724,0.999393,0.990527,0.004117,0.401944,-0.000010,0.000016,0.000000,0.000016,-0.000010,-89.305707,0.000017,
2326,2053,1.58479256985104,-12.942682621732,0.0231217110533066,0.006001,-0.000238,0.002723,0.265203,0.034015,330.595858,22.845405,0.999562,0.987448,0.004504,0.397240,0.000010,0.000003,-0.000012,0.000018,-0.000006,-36.871162,0.000019,
2506,2368,5.45433058358244,-6.03949892811546,0.00899105108487674,0.006453,0.000687,-0.000198,0.296544,0.087409,325.675549,22.907981,0.998912,0.979521,0.005742,0.551668,0.000037,0.000062,0.000029,0.000081,0.000018,56.738133,0.000106,
2251,3058,-0.230223748560018,8.98509887529787,0.0316271309648641,0.006042,0.000349,0.003028,0.268684,0.072917,314.459985,24.923782,0.999625,0.992892,0.003387,0.477519,-0.000009,-0.000004,-0.000005,-0.000001,-0.000012,-57.076668,0.000015,
2386,3088,2.69548924932068,9.64733212332553,0.0164141658792119,0.005972,-0.000137,0.004972,0.256954,0.034652,313.740081,25.469850,0.999400,0.990763,0.003854,0.438789,0.000001,0.000018,-0.000007,0.000020,-0.000001,-70.113863,0.000023,
2326,2773,1.44839527155977,2.79936677588738,-0.0204249314385265,0.006343,0.000302,0.001361,0.287068,0.057384,318.598081,24.642154,0.999696,0.994416,0.003380,0.354807,-0.000004,0.000020,0.000006,0.000021,-0.000005,76.440058,0.000022,
2206,2728,-1.15387216526307,1.81359519560023,-0.0253822246031632,0.006092,0.000085,0.002520,0.272402,0.047897,319.468854,24.415466,0.999210,0.989512,0.004063,0.448328,0.000001,0.000010,-0.000011,0.000018,-0.000007,-56.001606,0.000018,
2491,2473,5.10348950636286,-3.74116182939967,-0.0056523180064687,0.006204,0.000173,0.001377,0.279098,0.050412,323.786373,23.479385,0.999273,0.985380,0.004684,0.417884,0.000030,-0.000010,0.000010,0.000032,-0.000012,13.016795,0.000033,
2326,3193,1.37398046931953,11.9193868050125,0.0350559749673494,0.006252,-0.000010,0.002976,0.277793,0.036602,312.194599,25.453383,0.999738,0.994914,0.003099,0.467747,0.000006,0.000028,-0.000003,0.000028,0.000005,-82.091083,0.000036,
2101,2428,-3.38665228289995,-4.73056861276164,-0.00135529141573443,0.005972,-0.000279,0.007923,0.251331,0.055398,324.899813,24.397889,0.999405,0.987431,0.004405,0.412616,-0.000004,-0.000018,-0.000006,-0.000002,-0.000020,-20.342801,0.000025,
2446,2113,4.19638721065069,-11.6284381037003,0.0282934358924649,0.006151,-0.000014,0.002395,0.272436,0.031638,329.783303,22.335763,0.999574,0.978959,0.005583,0.344199,0.000003,-0.000009,-0.000016,0.000014,-0.000020,-34.670404,0.000021,
2236,2983,-0.544387465322941,7.35758738544869,0.00872888712586928,0.005908,0.000176,0.003145,0.262091,0.058358,315.517442,24.817305,0.999509,0.992666,0.003568,0.416575,-0.000017,0.000012,0.000008,0.000014,-0.000019,75.931606,0.000020,
2416,3298,3.30403036311464,14.2079467937251,-0.0184767140813733,0.006177,0.000322,0.001129,0.280601,0.051072,310.051623,26.216911,0.999751,0.992319,0.003441,0.469987,0.000025,-0.000023,0.000001,0.000025,-0.000023,1.419740,0.000028,
2461,2008,4.5460775188464,-13.9344555681549,0.0303388082035099,0.006234,0.000162,0.000070,0.284718,0.029905,331.538736,21.876519,0.999118,0.973284,0.006062,0.308173,-0.000004,-0.000096,0.000011,-0.000002,-0.000097,6.625838,0.000113,
2161,2488,-2.09139104149067,-3.41937463081482,-0.017047517200524,0.006071,0.000024,0.001349,0.274949,0.048670,323.573915,24.206760,0.999165,0.985850,0.004786,0.477380,-0.000006,0.000016,-0.000013,0.000023,-0.000012,-64.871609,0.000023,
2341,2098,1.9037580934027,-11.9544833002881,0.0203116203350078,0.006014,-0.000196,0.004611,0.259217,0.031581,329.839214,22.936281,0.999483,0.982983,0.005056,0.326318,0.000010,0.000002,-0.000013,0.000020,-0.000008,-36.319363,0.000020,
2506,2383,5.45061788854172,-5.71066636887988,0.0110758844631391,0.006159,0.000026,0.005329,0.261481,0.060145,325.414259,23.073010,0.998659,0.979913,0.005545,0.422008,0.000036,0.000044,0.000011,0.000052,0.000029,54.409508,0.000082,
2476,2293,4.81374077400261,-7.68276551025743,0.0135452386361976,0.005886,-0.000722,0.006521,0.244458,0.032023,326.791914,22.706059,0.999580,0.981570,0.005052,0.507697,0.000025,-0.000008,-0.000016,0.000032,-0.000014,-22.260838,0.000032,
2146,2428,-2.40732823794629,-4.72897299875848,-0.0101799425634681,0.006267,0.000134,0.001808,0.282555,0.053693,324.663785,24.283016,0.999028,0.986840,0.004772,0.401825,-0.000007,-0.000013,-0.000022,0.000012,-0.000032,-41.184213,0.000033,
2431,1993,3.89277733337246,-14.2630852210682,0.0324159010957032,0.006060,-0.000228,-0.000455,0.278563,0.000348,331.729808,22.096703,0.999296,0.977096,0.005733,0.213774,-0.000019,-0.000095,0.000002,-0.000019,-0.000095,1.633807,0.000123,
2326,2923,1.42145659532563,6.05985201598155,-0.00599321918031137,0.006355,0.000179,0.002694,0.283227,0.048108,316.271152,24.852477,0.998617,0.987977,0.004492,0.476909,-0.000011,0.000013,0.000001,0.000013,-0.000011,86.991517,0.000014,
2311,2878,1.10265788939875,5.08198592791717,-0.0136163563508376,0.005935,0.000119,0.003312,0.261917,0.068819,316.928906,24.784508,0.999571,0.990795,0.003837,0.439133,-0.000012,0.000025,0.000008,0.000026,-0.000014,78.881720,0.000026,
2401,3178,3.00505463285918,11.6016422206958,0.0263013897317705,0.006030,0.000301,0.001993,0.270627,0.063821,312.373233,25.783960,0.999586,0.993004,0.003405,0.476145,0.000013,0.000041,-0.000004,0.000041,0.000013,-82.339546,0.000056,
2386,2263,2.85307689304286,-8.3356037434697,-0.00780504289087958,0.006075,0.000070,0.003001,0.267595,0.049991,326.968221,23.123542,0.999031,0.983863,0.005115,0.391961,-0.000010,-0.000008,-0.000009,0.000001,-0.000018,-49.114792,0.000021,
2491,2488,5.10093921866052,-3.4139374395529,0.000869573696490988,0.006259,0.000156,0.002214,0.278450,0.061517,323.596727,23.533741,0.999486,0.985578,0.004527,0.434667,0.000023,-0.000017,0.000005,0.000024,-0.000017,6.450576,0.000024,
2461,2023,4.54296927780076,-13.6045161655837,0.0281569811772329,0.006447,-0.000276,0.001200,0.290033,0.020492,331.284042,21.950928,0.999248,0.978472,0.005590,0.282471,0.000000,-0.000063,0.000010,0.000002,-0.000064,9.185248,0.000073,
2506,2398,5.44636052087835,-5.38145305181366,-0.00234451677056313,0.006061,-0.000339,0.004121,0.261510,0.036222,325.058696,23.125849,0.998634,0.982025,0.005271,0.408436,0.000045,0.000036,0.000009,0.000050,0.000031,31.549550,0.000082,
2251,2848,-0.196375409984064,4.42644970942413,-0.0188586984103836,0.005930,0.000319,0.001189,0.269278,0.071745,317.462498,24.616611,0.999512,0.992262,0.003633,0.465284,0.000001,0.000025,0.000010,0.000029,-0.000003,70.332272,0.000032,
2266,3163,0.0767455478417425,11.2651206350289,0.0329572691206863,0.006207,0.000497,0.003520,0.274658,0.066911,312.731837,25.218166,0.999332,0.990632,0.003908,0.399800,0.000002,0.000019,-0.000003,0.000020,0.000001,-79.905583,0.000024,
2341,3268,1.68287193416994,13.5495536506854,0.00433564072136505,0.006167,0.000178,0.005907,0.263782,0.063896,310.685243,25.747959,0.999556,0.993046,0.003258,0.447775,0.000007,0.000030,0.000004,0.000030,0.000007,80.498465,0.000040,
2296,1993,0.940892184472993,-14.2591088700816,0.0306571019572743,0.006093,-0.000010,0.003692,0.266409,0.043921,331.641429,22.992979,0.999265,0.965621,0.007114,0.319554,-0.000012,-0.000019,-0.000048,0.000033,-0.000064,-42.865360,0.000064,
2356,2143,2.22316187097319,-10.9679267835841,0.0182407707902712,0.006237,-0.000321,0.002508,0.276610,0.038961,329.116182,22.926457,0.998938,0.979877,0.005493,0.378195,0.000000,-0.000011,-0.000011,0.000008,-0.000018,-31.993127,0.000018,
2476,2308,4.81092570717904,-7.35277752518262,0.0178768863636947,0.005718,-0.000654,0.005664,0.240059,0.042254,326.579798,22.936271,0.999149,0.977619,0.005807,0.346320,0.000023,-0.000007,-0.000015,0.000030,-0.000013,-22.966214,0.000030,
2371,2983,2.38856054771544,7.3673358687329,-0.000303231127077197,0.006036,0.000274,0.002691,0.268320,0.058846,315.320743,25.177109,0.999516,0.990098,0.004010,0.418685,-0.000003,-0.000002,-0.000011,0.000009,-0.000014,-46.923331,0.000014,
2281,3058,0.419744491161484,8.98939063989699,0.00806873418065379,0.006156,0.000552,0.001465,0.278982,0.073833,314.221801,25.063680,0.999446,0.993406,0.003472,0.441263,-0.000007,-0.000002,-0.000004,0.000000,-0.000009,-60.918179,0.000010,
2311,3118,1.06098293773354,10.2926211282642,0.0276756030094134,0.005771,0.000050,0.005769,0.246202,0.058596,313.339135,25.305962,0.999300,0.991807,0.003795,0.410637,0.000005,0.000017,-0.000005,0.000019,0.000003,-71.173133,0.000024,
2371,3118,2.36427582035849,10.2978642828396,0.0199460871364181,0.006325,-0.000026,0.006198,0.269228,0.060820,313.282847,25.531707,0.999629,0.991978,0.003632,0.427822,0.000010,0.000030,-0.000004,0.000031,0.000009,-80.294037,0.000042,
2296,3058,0.74589286897022,8.98956843417161,0.0114095390445073,0.006182,0.000338,0.000183,0.284298,0.055363,314.236916,25.068794,0.999554,0.992849,0.003478,0.468717,-0.000008,-0.000001,-0.000002,-0.000001,-0.000008,-76.947992,0.000010,
2131,2488,-2.74426330028607,-3.42028890540753,-0.013941113819385,0.005862,-0.000156,0.003994,0.257529,0.053786,323.698886,24.263984,0.999307,0.987419,0.004613,0.490563,-0.000007,0.000010,-0.000015,0.000019,-0.000016,-59.281146,0.000020,
2386,2038,2.89919289213993,-13.2722321643335,0.0212098308908821,0.006337,0.000402,0.000629,0.287775,0.037318,330.861095,22.492758,0.998863,0.975010,0.006175,0.315911,0.000005,-0.000043,-0.000016,0.000010,-0.000047,-16.741101,0.000050,
2236,2998,-0.54719339171475,7.68281745798205,0.00802149307020272,0.005870,0.000119,0.004093,0.257274,0.056569,315.262211,24.785642,0.999462,0.991401,0.003747,0.466930,-0.000017,0.000015,0.000005,0.000016,-0.000018,81.542718,0.000019,
2431,2008,3.8899647617496,-13.9345899434954,0.0345237861228043,0.005968,0.000083,-0.001410,0.278025,0.020044,331.505664,22.053003,0.999255,0.976366,0.005932,0.330863,-0.000010,-0.000077,-0.000008,-0.000009,-0.000078,-6.699972,0.000095,
2116,2218,-3.02601307241548,-9.32165836137111,0.0102957568932993,0.005891,-0.000572,0.004485,0.256975,0.029375,328.317544,24.306296,0.998459,0.980030,0.005511,0.359979,0.000000,0.000024,0.000006,0.000026,-0.000002,76.370117,0.000029,
2341,2908,1.75008736193921,5.73596522807959,-0.011543721392627,0.006415,0.000286,0.001893,0.288707,0.063201,316.469088,24.913670,0.999231,0.990341,0.004000,0.426137,-0.000017,0.000012,-0.000002,0.000012,-0.000017,-86.702557,0.000018,
2401,2098,3.21446101284693,-11.9560550619243,0.0214962358306821,0.005600,-0.000473,0.003933,0.241799,0.024650,329.866195,22.552454,0.998874,0.973689,0.006384,0.339443,-0.000002,-0.000004,-0.000015,0.000012,-0.000018,-43.224691,0.000018,
2371,2203,2.53944100422033,-9.65235816548589,0.0117723502173135,0.006633,0.000148,-0.000112,0.304203,0.040333,328.127871,22.996842,0.998946,0.979907,0.005503,0.400408,-0.000014,0.000006,-0.000020,0.000018,-0.000026,-57.972931,0.000027,
2251,3073,-0.233780537092219,9.31139826965322,0.0220582667304825,0.006141,0.000090,0.007022,0.260057,0.069557,314.125900,24.954512,0.999527,0.991828,0.003604,0.465700,-0.000009,-0.000003,-0.000006,0.000000,-0.000013,-59.857763,0.000014,
2341,2113,1.90161601947637,-11.6262868189879,0.0270914550834505,0.006100,-0.000152,0.003912,0.265645,0.033088,329.660671,22.971436,0.999469,0.983465,0.005015,0.332139,0.000006,0.000002,-0.000013,0.000017,-0.000008,-40.637173,0.000017,
2236,2788,-0.511523192175847,3.12074823349516,-0.0235454552620808,0.006322,0.000539,-0.001743,0.296772,0.041603,318.458452,24.526737,0.999390,0.989584,0.004065,0.420613,-0.000002,0.000012,-0.000004,0.000013,-0.000003,-75.994567,0.000014,
2326,3208,1.37134067566392,12.2449581697363,0.0386395665177588,0.006181,0.000431,0.003378,0.273351,0.063757,311.973969,25.504907,0.999648,0.993613,0.003259,0.476469,0.000005,0.000029,-0.000002,0.000030,0.000005,-85.885559,0.000038,
2161,2668,-2.1205103645323,0.504454959609419,-0.0120235044549304,0.006325,0.000704,-0.001433,0.295687,0.064729,320.721699,24.367600,0.999705,0.993521,0.003368,0.463048,-0.000003,0.000009,0.000001,0.000009,-0.000003,85.722841,0.000009,
2356,2908,2.0756952239978,5.73690348010543,-0.011896675743003,0.006055,0.000247,0.004296,0.263586,0.072000,316.440141,24.933965,0.999319,0.991103,0.003860,0.443646,-0.000017,0.000010,-0.000003,0.000010,-0.000018,-84.727099,0.000018,
2386,2053,2.89723319015013,-12.9435102517182,0.0310529450305808,0.006194,0.000923,-0.003168,0.295016,0.046643,330.708682,22.582791,0.999159,0.977680,0.005954,0.281726,0.000007,-0.000035,-0.000011,0.000009,-0.000037,-14.116679,0.000039,
2146,2623,-2.44065898972788,-0.47429542121769,-0.0282278491702641,0.006117,0.000245,0.001914,0.275757,0.052030,321.351975,24.404836,0.999626,0.991861,0.003858,0.394566,-0.000007,0.000013,-0.000003,0.000014,-0.000007,-81.940865,0.000014,
2296,3298,0.700202469646172,14.195811806447,-0.00488072567230802,0.006151,0.000178,0.003999,0.270319,0.058942,310.153735,25.560218,0.999706,0.994302,0.003077,0.440575,0.000021,0.000023,-0.000013,0.000034,0.000009,-47.068794,0.000046,
2311,2653,1.14413023843217,0.182685116974483,-0.0146283751216174,0.005905,-0.000221,0.002275,0.263514,0.028129,320.584649,24.256578,0.999448,0.989855,0.003941,0.442066,0.000002,0.000017,-0.000002,0.000017,0.000002,-80.968188,0.000021,
2476,2323,4.80743122492425,-7.02415639227451,0.00874429752650485,0.005963,-0.000293,0.004728,0.255009,0.045429,326.275700,22.919456,0.999068,0.979332,0.005537,0.425182,0.000014,0.000006,-0.000010,0.000021,-0.000001,-34.334171,0.000023,
2386,2278,2.85107988934177,-8.0083530225587,0.00892430558792512,0.005714,-0.000144,0.003761,0.248274,0.029342,326.846213,23.250590,0.999609,0.991697,0.003818,0.289150,-0.000011,0.000005,-0.000006,0.000007,-0.000013,-71.458252,0.000013,
2356,3283,2.0049723337088,13.8765258831803,-0.00295505240262628,0.005998,0.000142,0.004905,0.259323,0.064547,310.371235,25.866303,0.999608,0.992732,0.003343,0.449703,0.000009,0.000014,0.000004,0.000017,0.000007,60.209943,0.000024,
2326,2068,1.58185502471774,-12.6138116543834,0.0177629378044912,0.006142,-0.000212,0.001496,0.275938,0.005309,330.321032,22.822434,0.999341,0.982905,0.005131,0.429283,0.000008,0.000008,-0.000005,0.000013,0.000003,-45.371332,0.000017,
2386,3178,2.67939444682116,11.6005712035067,0.0295734998613852,0.006130,0.000370,0.003456,0.270105,0.068234,312.388445,25.752644,0.999527,0.992324,0.003495,0.442781,0.000009,0.000036,0.000000,0.000036,0.000009,-89.782615,0.000047,
2131,2503,-2.74688997603951,-3.09249431044493,-0.022741363502405,0.006215,0.000129,0.003608,0.274998,0.046740,323.400444,24.249531,0.999133,0.986345,0.004667,0.504967,-0.000001,0.000001,-0.000016,0.000016,-0.000016,-46.294614,0.000018,
2311,2893,1.09965296602703,5.40899160987708,-0.0187172746683473,0.005959,0.000189,0.001618,0.268819,0.056289,316.648226,24.868020,0.999489,0.991467,0.003748,0.374958,-0.000016,0.000015,0.000008,0.000017,-0.000018,75.593802,0.000020,
2371,3133,2.36177968342904,10.623417192609,0.0230015259573406,0.006364,0.000013,0.004854,0.275858,0.060005,313.069331,25.589814,0.999612,0.991967,0.003618,0.408737,0.000010,0.000032,-0.000005,0.000033,0.000009,-78.041678,0.000044,
2401,2113,3.21177295294761,-11.6268109601957,0.0251681511990682,0.005404,0.000043,0.002219,0.239291,0.033955,329.652175,22.642265,0.999010,0.975388,0.006017,0.307291,-0.000006,-0.000002,-0.000016,0.000012,-0.000020,-49.312355,0.000021,
2356,3043,2.05160264197059,8.66901944499157,0.00587102406126405,0.006221,0.000221,0.004166,0.271896,0.074042,314.391927,25.246731,0.999627,0.992111,0.003578,0.476744,-0.000001,0.000008,-0.000011,0.000015,-0.000009,-55.998247,0.000015,
2491,2503,5.09708783604354,-3.08596136694114,-0.00210804726896185,0.005940,-0.000187,0.004532,0.254820,0.035755,323.304527,23.611698,0.999486,0.986575,0.004511,0.390863,0.000022,-0.000020,-0.000002,0.000022,-0.000020,-2.546781,0.000024,
2161,2503,-2.09448381264992,-3.09135751759941,-0.025004389382957,0.006135,-0.000262,0.003379,0.271574,0.031908,323.261545,24.230885,0.998991,0.985232,0.004933,0.447955,0.000002,0.000005,-0.000014,0.000017,-0.000010,-48.243034,0.000017,
2341,3283,1.6797003986207,13.8747443530585,-0.00296713543400529,0.006348,0.000037,0.005399,0.273836,0.050328,310.387815,25.765713,0.999641,0.993681,0.003122,0.451734,0.000009,0.000021,0.000005,0.000022,0.000007,70.366804,0.000030,
2191,2848,-1.49985176499356,4.4220708488716,-0.0105747514342056,0.005830,-0.000323,0.005179,0.252127,0.033245,317.666030,24.527614,0.999340,0.990633,0.003795,0.434268,0.000005,0.000021,0.000007,0.000024,0.000003,70.582262,0.000029,
2236,3013,-0.549510970826002,8.00861469802556,0.00801740648597615,0.006175,0.000102,0.003628,0.272755,0.041234,315.032814,24.828528,0.999259,0.989495,0.004064,0.429081,-0.000014,0.000006,-0.000001,0.000006,-0.000014,-87.819363,0.000014,
2311,1993,1.26861603688822,-14.2595348576075,0.0319608478976647,0.005854,-0.000069,0.002298,0.260008,0.027597,331.635263,22.918560,0.999252,0.979613,0.005969,0.271345,0.000014,-0.000005,-0.000032,0.000038,-0.000029,-37.202238,0.000040,
2341,3028,1.72906897366016,8.34197519569843,0.0159747125728131,0.006123,0.000061,0.004965,0.264611,0.056780,314.715840,25.231415,0.999722,0.993997,0.003340,0.389643,-0.000005,-0.000003,-0.000009,0.000006,-0.000013,-48.044000,0.000013,
2506,2413,5.44420472567673,-5.05383660473505,0.000438048963872006,0.006377,0.000448,-0.000591,0.294555,0.035222,324.871896,23.170094,0.999123,0.983370,0.005106,0.425643,0.000040,0.000019,0.000010,0.000044,0.000015,22.138826,0.000062,
2386,3103,2.69287612822546,9.97245155364457,0.020365450328768,0.005870,-0.000274,0.003979,0.255869,0.042324,313.526651,25.478145,0.999064,0.989137,0.004119,0.480596,0.000006,0.000025,-0.000004,0.000026,0.000005,-78.801448,0.000034,
2476,2338,4.80435089508766,-6.69502959113073,0.00847070026424035,0.006009,-0.000239,0.005144,0.255548,0.030670,326.030610,23.060512,0.998756,0.980653,0.005576,0.328068,0.000016,0.000019,-0.000006,0.000023,0.000011,-52.065944,0.000035,
2131,2338,-2.71865516166156,-6.6965156498855,0.00264956906670477,0.006074,0.000153,0.002537,0.271459,0.050056,326.272004,24.274798,0.999411,0.986854,0.004539,0.403268,0.000006,0.000009,-0.000017,0.000024,-0.000009,-47.993004,0.000024,
2296,2008,0.93809222657864,-13.9300216690005,0.0309087954078109,0.005940,-0.000239,0.003084,0.261399,0.025022,331.397690,23.019308,0.999123,0.978909,0.005712,0.307968,-0.000018,-0.000048,-0.000043,0.000012,-0.000079,-35.300088,0.000085,
2236,2803,-0.514577720611033,3.44681184454335,-0.0246161340265303,0.006238,0.000080,0.001859,0.281107,0.038900,318.190036,24.516081,0.999497,0.989524,0.004104,0.449694,0.000001,0.000016,0.000003,0.000016,0.000000,80.308700,0.000019,
2431,2023,3.88667662714078,-13.6039570597658,0.0291140400129279,0.006211,-0.000172,-0.000141,0.284410,0.009344,331.224996,22.154886,0.999053,0.977048,0.005829,0.272087,-0.000010,-0.000052,-0.000008,-0.000008,-0.000053,-9.784764,0.000067,
2446,2128,4.19340345863991,-11.2986255526915,0.0233701097585026,0.006291,0.000730,-0.001117,0.292198,0.048334,329.519673,22.382183,0.999512,0.978501,0.005752,0.370040,0.000006,-0.000014,-0.000015,0.000014,-0.000022,-28.087060,0.000022,
2251,2863,-0.19915294732127,4.75185401187773,-0.0137486220363598,0.005808,-0.000286,0.006125,0.247261,0.051681,317.239376,24.626093,0.999589,0.992051,0.003574,0.458781,-0.000002,0.000030,0.000005,0.000030,-0.000003,81.830420,0.000034,
2176,2773,-1.81394126307826,2.79161730241196,-0.0270250731700798,0.006047,-0.000344,0.006093,0.259470,0.057275,318.803274,24.429249,0.999380,0.990498,0.004092,0.475737,-0.000004,0.000007,-0.000006,0.000010,-0.000007,-65.734791,0.000010,
2326,2938,1.41902460118866,6.38612357408435,-0.00314272755639422,0.006425,0.000403,0.001612,0.290267,0.049490,316.057068,24.924129,0.998897,0.988617,0.004350,0.440515,-0.000005,0.000017,0.000003,0.000017,-0.000006,82.875181,0.000018,
2386,2293,2.84828640659444,-7.68061210214007,0.00603436317123851,0.005857,0.000053,0.001523,0.262911,0.036926,326.594622,23.199803,0.999845,0.994611,0.003257,0.392978,-0.000009,0.000001,-0.000007,0.000004,-0.000013,-63.389175,0.000013,
2491,2518,5.09354327892234,-2.75824948429476,-0.00957226235533426,0.006075,-0.000071,0.004195,0.262393,0.042281,323.006098,23.597861,0.999531,0.986994,0.004333,0.471580,0.000019,-0.000006,-0.000009,0.000022,-0.000009,-17.820961,0.000022,
2266,3178,0.0739816442422629,11.5897056145603,0.0327677551991314,0.006165,0.000372,0.003483,0.272825,0.055844,312.483217,25.186560,0.999439,0.991913,0.003588,0.444463,0.000003,0.000020,-0.000004,0.000021,0.000003,-76.903010,0.000026,
2221,2758,-0.832971038413564,2.4674585636369,-0.0238262954061383,0.006137,0.000001,0.004330,0.268557,0.056449,318.950838,24.481643,0.999537,0.989913,0.003879,0.431369,-0.000004,0.000012,-0.000006,0.000014,-0.000006,-70.206315,0.000014,
2311,2008,1.26646877251836,-13.9306411149771,0.0324654851604578,0.006436,-0.000235,0.002706,0.285264,0.018994,331.423881,22.919831,0.999276,0.980676,0.005839,0.297263,0.000007,-0.000031,-0.000028,0.000022,-0.000045,-27.713259,0.000045,
2311,3133,1.05829542821877,10.6181358952817,0.025260815713807,0.005963,0.000144,0.004678,0.258821,0.049846,313.086005,25.333459,0.999419,0.992697,0.003602,0.405709,0.000005,0.000023,-0.000001,0.000024,0.000004,-85.817671,0.000030,
2296,3073,0.743667300393724,9.31513160325289,0.0253260939687152,0.005871,0.000215,0.002707,0.261417,0.059676,314.085187,25.176990,0.999605,0.994433,0.003320,0.393698,-0.000008,0.000000,-0.000001,0.000001,-0.000008,-82.523066,0.000009,
2206,2893,-1.18236252108793,5.40220021367413,-0.023859971412719,0.005956,-0.000253,0.002164,0.267394,0.026868,316.793014,24.608211,0.999772,0.994940,0.003175,0.417167,0.000003,0.000027,0.000006,0.000028,0.000002,76.895464,0.000034,
2266,2998,0.104298839762006,7.68512444146385,0.00631223894038158,0.006058,-0.000172,0.005605,0.260457,0.057111,315.192126,24.883057,0.999502,0.991247,0.003739,0.454822,-0.000010,0.000010,0.000006,0.000012,-0.000012,75.065974,0.000014,
2476,2353,4.80098969854855,-6.3674526914625,0.00943757350989927,0.005780,-0.000725,0.006992,0.237907,0.037459,325.778256,23.055466,0.998908,0.982760,0.005509,0.398327,0.000024,0.000042,-0.000003,0.000043,0.000024,-80.274751,0.000068,
2176,2548,-1.77521868592931,-2.1098862600505,-0.0185779553621614,0.006086,-0.000089,0.002708,0.271428,0.047564,322.535049,24.247323,0.999239,0.988148,0.004281,0.456402,-0.000004,0.000025,0.000005,0.000026,-0.000005,81.227099,0.000028,
2341,2923,1.74691479593386,6.06231850212024,-0.0127703756547248,0.006152,0.000182,0.001783,0.276977,0.064014,316.202167,24.961042,0.999020,0.989700,0.004121,0.415780,-0.000015,0.000013,-0.000005,0.000014,-0.000016,-80.371014,0.000017,
2326,2788,1.44546176968941,3.12443354342328,-0.0241150672214872,0.006551,0.000148,0.002410,0.292992,0.048571,318.329754,24.522305,0.999574,0.993819,0.003498,0.500482,-0.000004,0.000021,0.000008,0.000023,-0.000006,74.157481,0.000024,
2371,3148,2.35932811317261,10.9485154575863,0.0269660690702267,0.006366,0.000009,0.003379,0.281188,0.050107,312.862329,25.624072,0.999635,0.991185,0.003637,0.404509,0.000010,0.000028,-0.000005,0.000030,0.000009,-75.061634,0.000040,
2116,2233,-3.02809949498322,-8.99306736576964,0.0104524206032011,0.006137,-0.000407,0.003970,0.269864,0.035327,328.090183,24.340474,0.998772,0.981092,0.005381,0.337791,-0.000001,0.000034,0.000011,0.000037,-0.000004,73.744198,0.000041,
2506,2428,5.44165391228715,-4.72643397059711,0.00679853769133842,0.006481,0.000268,0.000359,0.295588,0.023106,324.682888,23.244306,0.998858,0.981102,0.005529,0.401559,0.000032,0.000031,0.000011,0.000043,0.000021,43.940276,0.000065,
2161,2683,-2.12379102661668,0.831635313312709,-0.0196049264380349,0.006222,0.000293,0.001057,0.283211,0.056435,320.402635,24.372655,0.999434,0.990782,0.003817,0.460408,-0.000005,0.000009,-0.000006,0.000011,-0.000007,-69.004020,0.000011,
2431,2038,3.88354369287762,-13.2752403419161,0.0343396434366241,0.005866,-0.000162,0.002771,0.257928,0.032276,331.000422,22.174245,0.999083,0.977607,0.005755,0.329177,-0.000007,-0.000047,-0.000009,-0.000006,-0.000049,-12.225615,0.000059,
2371,2998,2.38609425313566,7.69281176781649,0.00987380135870808,0.005697,0.000302,0.003282,0.250652,0.058686,315.143236,25.242869,0.999559,0.991601,0.003725,0.393103,-0.000001,0.000003,-0.000009,0.000011,-0.000009,-52.201058,0.000011,
2401,3253,2.98941539467028,13.2296429055789,0.0128031830466853,0.006303,0.000318,0.004631,0.273670,0.057397,311.031528,26.045156,0.999539,0.991828,0.003529,0.429269,0.000009,0.000029,0.000001,0.000029,0.000009,87.147424,0.000040,
2386,3193,2.67711857727403,11.9252751075857,0.0370185537262273,0.006320,0.000049,0.005356,0.271904,0.059009,312.207007,25.780734,0.999556,0.992582,0.003316,0.447406,0.000009,0.000036,0.000001,0.000036,0.000009,87.618770,0.000048,
2326,3223,1.36808711846034,12.5701422067155,0.0347945295947056,0.005971,0.000069,0.002635,0.266137,0.042320,311.688733,25.530049,0.999506,0.992968,0.003278,0.462729,0.000005,0.000033,0.000000,0.000033,0.000005,89.362214,0.000041,
2401,2128,3.21025642193836,-11.2979245279217,0.0282362648651429,0.006259,0.000212,-0.001655,0.292442,0.037139,329.489002,22.703671,0.999281,0.979906,0.005439,0.297301,-0.000006,-0.000008,-0.000015,0.000008,-0.000022,-42.740180,0.000023,
2221,2938,-0.862894894619831,6.3796635063498,-0.00408893593049697,0.006320,-0.000093,0.005494,0.273504,0.058075,316.191281,24.684526,0.999575,0.993578,0.003356,0.454165,-0.000001,0.000027,0.000006,0.000028,-0.000002,79.209891,0.000032,
2326,2083,1.57878956312659,-12.2811693043903,0.0103180621208594,0.006155,0.000511,-0.002214,0.289578,0.046221,330.029382,23.057114,0.999477,0.984197,0.005167,0.273638,0.000007,0.000024,-0.000002,0.000024,0.000007,-83.238719,0.000032,
2356,2158,2.22103960365479,-10.6388650859299,0.0227647485712623,0.006550,0.000060,0.001862,0.293420,0.038741,328.928564,23.033221,0.999273,0.982189,0.005263,0.312849,-0.000006,-0.000013,-0.000021,0.000011,-0.000030,-40.206927,0.000031,
2266,3193,0.0708632751722469,11.9152398941509,0.0330798526297258,0.005906,0.000152,0.005775,0.253259,0.061439,312.220445,25.232699,0.999531,0.991929,0.003496,0.428418,0.000004,0.000021,-0.000006,0.000023,0.000002,-73.404440,0.000028,
2206,2908,-1.18374431586517,5.72664269471545,-0.00760593902003848,0.006033,-0.000155,0.002050,0.271326,0.032658,316.688996,24.594812,0.999621,0.993112,0.003528,0.452225,0.000005,0.000020,0.000004,0.000021,0.000004,76.559067,0.000027,
2311,2023,1.26355557926589,-13.6017201249577,0.0310776070937777,0.006333,-0.000055,0.002324,0.281938,0.019063,331.168110,22.899149,0.999172,0.981932,0.005448,0.353864,0.000005,-0.000022,-0.000017,0.000013,-0.000031,-25.765295,0.000031,
2491,2533,5.09056989192718,-2.43020867516012,-0.0110310650892416,0.006234,0.000085,0.003282,0.273218,0.033881,322.760815,23.688677,0.999721,0.989679,0.003855,0.432300,0.000022,-0.000008,-0.000003,0.000022,-0.000008,-4.914989,0.000022,
2221,2773,-0.835298454500883,2.79336749543057,-0.0200398704039344,0.005962,0.000339,0.001600,0.269359,0.053792,318.739644,24.485389,0.999409,0.989876,0.004002,0.443868,-0.000002,0.000011,-0.000004,0.000012,-0.000003,-74.593419,0.000012,
2146,2638,-2.44333110467609,-0.148388373232486,-0.0269119893860648,0.006004,-0.000093,0.004618,0.262260,0.051455,321.106877,24.345983,0.999737,0.992375,0.003594,0.461109,-0.000005,0.000008,-0.000004,0.000009,-0.000006,-76.113974,0.000009,
2506,2443,5.43774490524037,-4.39832976078173,0.00495780148440872,0.006013,-0.000069,0.002331,0.266387,0.018694,324.394715,23.302554,0.999002,0.982137,0.005295,0.401648,0.000031,0.000001,0.000016,0.000039,-0.000006,23.599141,0.000042,
2236,2818,-0.516828388138745,3.77211291322878,-0.0143617426115838,0.006017,-0.000100,0.003522,0.265493,0.035683,318.016457,24.526558,0.999540,0.990424,0.003971,0.457044,0.000002,0.000021,0.000008,0.000024,-0.000001,69.647465,0.000027,
2431,2053,3.88031415235011,-12.9455114365285,0.0296763359859256,0.006039,-0.000597,0.003270,0.263868,0.018731,330.725807,22.216684,0.998968,0.976873,0.005872,0.326810,-0.000003,-0.000038,-0.000005,-0.000002,-0.000039,-8.587908,0.000046,
2371,2218,2.53680200074289,-9.32378808486225,0.0152698697671667,0.006589,0.000139,-0.000065,0.302072,0.036303,327.912679,23.072519,0.998604,0.975253,0.006178,0.364171,-0.000014,0.000002,-0.000019,0.000014,-0.000026,-56.522464,0.000026,
2401,2338,3.16698370151491,-6.69616899145905,0.0106480006061247,0.005758,-0.000025,0.004448,0.247744,0.056673,325.904299,23.263831,0.998958,0.980858,0.005148,0.429032,-0.000012,0.000005,0.000002,0.000005,-0.000013,85.025657,0.000013,
2341,3043,1.72593445908651,8.66706729821784,0.0104074556571163,0.006190,0.000069,0.004376,0.269806,0.053738,314.429537,25.169942,0.999675,0.993224,0.003391,0.484027,-0.000004,0.000005,-0.000012,0.000013,-0.000012,-56.230883,0.000015,
2356,3298,2.00201497114791,14.2024062691029,-0.00756610600905105,0.006172,0.000189,0.003825,0.271251,0.070021,310.097661,25.948091,0.999729,0.992811,0.003413,0.410692,0.000015,0.000000,0.000000,0.000015,0.000000,0.344705,0.000017,
2341,2128,1.89819566647209,-11.2966142024568,0.0183743882642489,0.005912,0.000139,0.000809,0.267952,0.011979,329.348663,23.000868,0.999561,0.987102,0.004572,0.321434,0.000003,-0.000006,-0.000012,0.000011,-0.000014,-34.221166,0.000015,
2461,2038,4.53969751474859,-13.2752400901531,0.0288501014757117,0.006278,-0.000100,0.002700,0.276780,0.039466,331.034734,21.974655,0.999305,0.979865,0.005543,0.335825,0.000004,-0.000053,0.000008,0.000005,-0.000054,7.937266,0.000060,
2401,3193,3.00223363520631,11.9267029539784,0.033041673388766,0.005874,-0.000194,0.005442,0.250758,0.050476,312.164016,25.845455,0.999544,0.992370,0.003467,0.445423,0.000014,0.000040,-0.000003,0.000041,0.000014,-82.576247,0.000057,
2236,3028,-0.551830349788418,8.33427608517314,0.0110488146850685,0.006131,0.000244,0.001301,0.278403,0.048696,314.818831,24.860418,0.999426,0.991114,0.003730,0.424991,-0.000012,-0.000001,-0.000001,-0.000001,-0.000012,-85.409006,0.000015,
2281,3073,0.416730341060166,9.31568537277133,0.00270053351795241,0.006111,0.000504,-0.000676,0.284067,0.061314,313.936469,25.132217,0.999470,0.992886,0.003618,0.386857,-0.000007,-0.000001,-0.000003,0.000000,-0.000008,-69.995283,0.000010,
2386,2068,2.89309566207384,-12.6147164861307,0.0244678323736593,0.005887,0.000116,0.002253,0.261309,0.042738,330.378950,22.514764,0.999270,0.978570,0.005707,0.392853,0.000007,-0.000018,-0.000004,0.000007,-0.000018,-9.151390,0.000019,
2386,3208,2.67368145862282,12.2505387568487,0.0338420951921989,0.006016,-0.000032,0.005123,0.258718,0.050310,311.921217,25.801308,0.999537,0.992582,0.003451,0.460109,0.000008,0.000034,0.000003,0.000035,0.000007,84.062529,0.000045,
2116,2248,-3.03096357286659,-8.6649209642262,0.00623013702221442,0.005799,-0.000027,0.002145,0.259910,0.032671,327.803967,24.303100,0.998933,0.983078,0.005167,0.378486,-0.000005,0.000034,0.000011,0.000037,-0.000008,75.660822,0.000039,
2341,3298,1.67657131197949,14.2001140397833,-0.005488342550791,0.006173,0.000153,0.004431,0.269258,0.058806,310.115530,25.808391,0.999702,0.992933,0.003284,0.452599,0.000012,0.000009,0.000002,0.000013,0.000008,24.289930,0.000021,
2386,3118,2.6903035253872,10.2989288691069,0.0209242935854377,0.006150,0.000095,0.003908,0.269198,0.055972,313.298439,25.587953,0.999551,0.992478,0.003509,0.426808,0.000008,0.000033,-0.000002,0.000033,0.000008,-85.113651,0.000043,
2371,3163,2.35649221428496,11.2735761692724,0.0294915703606762,0.006193,0.000139,0.003162,0.274072,0.056115,312.630681,25.633726,0.999526,0.991753,0.003671,0.440799,0.000009,0.000029,-0.000003,0.000029,0.000009,-81.405851,0.000040,
2326,3238,1.36432905624402,12.8969330869396,0.0255924866576152,0.005748,0.000393,0.003003,0.254821,0.072220,311.353342,25.626292,0.999457,0.992357,0.003418,0.429429,0.000005,0.000031,0.000001,0.000031,0.000005,87.301471,0.000039,
2176,2788,-1.81617141851617,3.1183624722621,-0.0267874153587968,0.006004,0.000305,0.001185,0.272964,0.073338,318.574638,24.467180,0.999318,0.989477,0.004238,0.466150,-0.000007,0.000003,-0.000007,0.000006,-0.000010,-63.048793,0.000010,
2311,2908,1.09751995579414,5.73386875192691,-0.00779193217601915,0.005746,0.000085,0.001189,0.260421,0.037772,316.487177,24.881949,0.999503,0.992541,0.003650,0.374130,-0.000014,0.000012,0.000006,0.000014,-0.000015,77.189943,0.000017,
2461,2053,4.5368336548122,-12.9464794504092,0.0328677521322334,0.006005,-0.000031,0.001321,0.269540,0.029981,330.819362,22.022295,0.999286,0.980598,0.005442,0.336263,0.000010,-0.000047,0.000009,0.000012,-0.000048,9.001351,0.000050,
2221,2953,-0.865348760062989,6.70536879786941,-0.000774738399741182,0.006223,-0.000242,0.004973,0.270713,0.059043,315.971682,24.709918,0.999483,0.992123,0.003626,0.447881,-0.000004,0.000025,0.000006,0.000027,-0.000005,78.615741,0.000028,
2266,3013,0.101776470830711,8.01009128560761,0.0103100201034181,0.005962,-0.000298,0.005821,0.255296,0.043701,314.975912,24.875093,0.999406,0.990864,0.003755,0.474159,-0.000008,0.000002,0.000001,0.000002,-0.000008,84.489865,0.000008,
2266,3208,0.0682175975788084,12.2408605247376,0.031726657153456,0.006083,0.000007,0.005894,0.261052,0.062043,311.970949,25.285835,0.999726,0.994591,0.003070,0.399888,0.000004,0.000024,-0.000006,0.000026,0.000002,-74.378424,0.000032,
2206,2923,-1.18612143444317,6.05347233084487,-0.00703432016638317,0.006271,0.000077,0.002835,0.279891,0.040381,316.457422,24.689320,0.999375,0.990514,0.003909,0.381648,0.000003,0.000021,0.000003,0.000022,0.000003,79.594944,0.000027,
2191,2863,-1.50245293551689,4.74876377937575,-0.0160534633914153,0.005973,-0.000002,0.002267,0.268022,0.047204,317.391693,24.541510,0.999389,0.991528,0.003606,0.448828,0.000006,0.000027,0.000000,0.000027,0.000006,89.003664,0.000035,
2131,2353,-2.72140324678655,-6.36855950579349,0.00149297848821561,0.005968,-0.000188,0.004815,0.259674,0.041926,326.008798,24.294160,0.999272,0.985922,0.004675,0.383228,-0.000001,0.000007,-0.000019,0.000022,-0.000016,-50.384632,0.000023,
2251,3088,-0.236752346925936,9.63727376878539,0.0155357121814177,0.006105,0.000012,0.004016,0.268240,0.048853,313.834267,24.988129,0.999609,0.990778,0.003672,0.433783,-0.000008,-0.000001,-0.000006,0.000002,-0.000012,-59.742777,0.000013,
2386,2083,2.89049783434013,-12.2851712818938,0.025299569150377,0.006245,-0.000018,0.003860,0.271929,0.061989,330.154512,22.580026,0.999173,0.976057,0.005791,0.393376,0.000006,0.000002,0.000000,0.000006,0.000002,-4.991322,0.000009,
2401,3268,2.98487708617501,13.5558116646627,-0.00291363958069724,0.006009,0.000130,0.005507,0.256932,0.054387,310.636122,26.092468,0.999663,0.992052,0.003553,0.422832,0.000009,0.000021,0.000000,0.000021,0.000009,88.964165,0.000030,
2176,2563,-1.77789431920189,-1.78245807233579,-0.0185467861576853,0.005968,-0.000110,0.003308,0.264114,0.040066,322.285029,24.300314,0.999212,0.987432,0.004341,0.409058,-0.000005,0.000017,0.000000,0.000017,-0.000005,88.812663,0.000018,
2281,3088,0.414738666365359,9.63972134661024,0.0155262396190778,0.005946,0.000278,-0.000185,0.274720,0.049999,313.789931,25.111753,0.999605,0.992468,0.003752,0.422852,-0.000006,0.000003,-0.000005,0.000005,-0.000008,-66.281146,0.000008,
2311,2668,1.14107307709205,0.5110388424023,-0.0193759969435519,0.005818,0.000184,0.000220,0.266689,0.044774,320.303692,24.365494,0.999759,0.992502,0.003586,0.382572,0.000002,0.000020,-0.000003,0.000020,0.000002,-82.143508,0.000025,
2341,2938,1.74467119512143,6.38728738605974,-0.00588848194973934,0.006318,0.000057,0.003300,0.279305,0.060698,316.017724,24.946635,0.998959,0.989234,0.004150,0.462990,-0.000009,0.000017,-0.000003,0.000017,-0.000009,-83.808155,0.000017,
2506,2458,5.43431160364099,-4.06934877630793,-0.00379924645039864,0.006394,0.000106,0.001790,0.286080,0.047318,324.097226,23.348899,0.999155,0.985888,0.004706,0.446928,0.000044,-0.000010,0.000015,0.000048,-0.000014,14.700429,0.000049,
2356,2923,2.07279475343077,6.06305157139542,-0.0117919301445113,0.005831,0.000301,0.002181,0.260767,0.062348,316.193379,24.982584,0.999274,0.991247,0.003842,0.423770,-0.000015,0.000011,-0.000006,0.000012,-0.000017,-77.265621,0.000017,
2326,3253,1.36073402866521,13.2219350061512,0.0160837132355596,0.005860,0.000005,0.005386,0.251563,0.049076,311.024518,25.613742,0.999397,0.992617,0.003439,0.451754,0.000003,0.000030,0.000001,0.000030,0.000003,88.290001,0.000036,
2356,2173,2.21745108007645,-10.3115812342796,0.0222683424402135,0.005931,-0.000174,0.003296,0.259976,0.022673,328.649940,22.945186,0.999286,0.981936,0.005308,0.426409,-0.000010,-0.000009,-0.000020,0.000011,-0.000030,-45.561072,0.000030,
2446,2143,4.18950187349899,-10.9684071066624,0.0106193181161984,0.006354,0.000547,-0.002246,0.299239,0.038503,329.178074,22.414235,0.999296,0.978348,0.005818,0.383783,0.000007,-0.000007,-0.000020,0.000021,-0.000021,-35.271571,0.000025,
2296,3088,0.740817326291364,9.64008514536127,0.0226818793579469,0.006050,0.000197,0.003797,0.265954,0.054855,313.822614,25.134983,0.999575,0.993522,0.003462,0.460005,-0.000007,0.000004,-0.000004,0.000006,-0.000009,-71.621276,0.000009,
2326,2098,1.57640849051773,-11.9550973062612,0.0148042808980904,0.006249,0.000564,-0.001330,0.290892,0.035597,329.828008,22.881108,0.999433,0.982876,0.005207,0.476343,0.000003,0.000013,-0.000010,0.000020,-0.000003,-58.633725,0.000021,
2356,3058,2.04904538387281,8.99443263685773,0.0114118017302189,0.006153,-0.000110,0.004995,0.265687,0.054831,314.186956,25.308444,0.999635,0.993331,0.003340,0.433584,-0.000001,0.000004,-0.000009,0.000010,-0.000008,-52.967086,0.000011,
2476,2368,4.79730044257338,-6.03698116223277,-0.00148881694258307,0.005712,0.000227,0.002691,0.251512,0.056609,325.456518,23.192493,0.999563,0.985827,0.005019,0.339466,0.000028,0.000046,0.000010,0.000050,0.000023,66.357323,0.000075,
2311,2038,1.26021582314249,-13.2704200606585,0.0240358591105405,0.005633,0.001159,-0.006196,0.279334,0.040980,330.864738,23.015759,0.999592,0.987412,0.004466,0.295347,0.000003,-0.000006,-0.000017,0.000016,-0.000020,-37.546702,0.000021,
2386,3223,2.67057856297697,12.5769167681403,0.0255101650952838,0.006133,0.000386,0.000810,0.279822,0.058178,311.625790,25.882832,0.999623,0.993176,0.003279,0.428590,0.000005,0.000032,0.000008,0.000034,0.000003,75.370565,0.000041,
2401,2143,3.20686645261789,-10.969484879574,0.0235171686928766,0.006309,0.000357,0.000305,0.287766,0.059081,329.203353,22.627098,0.999228,0.978992,0.005428,0.444423,-0.000009,-0.000010,-0.000020,0.000011,-0.000029,-44.304028,0.000030,
2506,2473,5.430566401932,-3.74091021341539,-0.00680237676186835,0.006179,-0.000262,0.003626,0.268997,0.048440,323.811129,23.432380,0.999411,0.984980,0.004599,0.427040,0.000030,-0.000026,0.000007,0.000030,-0.000027,7.316211,0.000033,
2161,2698,-2.12679845449729,1.15844778087987,-0.0207917642478037,0.006015,0.000208,0.004325,0.263704,0.071014,320.129788,24.379024,0.999299,0.988087,0.004142,0.479181,-0.000005,0.000001,-0.000008,0.000006,-0.000010,-56.265689,0.000010,
2236,3043,-0.554291260040085,8.65997923910936,0.0155841261542378,0.006060,0.000199,0.002058,0.272692,0.054573,314.605992,24.911274,0.999624,0.991718,0.003583,0.400117,-0.000010,0.000000,-0.000002,0.000001,-0.000010,-78.053275,0.000011,
2221,2788,-0.837055380611542,3.11913780757521,-0.0140529443874584,0.006274,0.000447,-0.000134,0.289350,0.046691,318.565957,24.501713,0.999414,0.990989,0.003961,0.439278,-0.000003,0.000007,-0.000003,0.000008,-0.000004,-74.802446,0.000008,
2416,2173,3.52679621178141,-10.3103683151592,0.00428707621995272,0.005872,-0.000367,-0.000302,0.269708,-0.009379,328.560127,22.640585,0.998921,0.980025,0.005280,0.379772,-0.000008,-0.000003,-0.000033,0.000028,-0.000039,-47.431386,0.000040,
2266,3028,0.099462340702015,8.33658375734975,0.010021366558874,0.006094,0.000276,0.001948,0.274413,0.054597,314.747132,24.958373,0.999327,0.990269,0.003851,0.426580,-0.000008,-0.000003,0.000001,-0.000003,-0.000008,79.124491,0.000011,
2176,2578,-1.78034283656997,-1.45615313607004,-0.0199875008391928,0.006061,-0.000166,0.002287,0.271576,0.034248,322.037977,24.240561,0.999225,0.988583,0.004190,0.476415,-0.000007,0.000015,0.000001,0.000015,-0.000007,86.844409,0.000015,
2146,2653,-2.44546970217824,0.177883279914752,-0.0254894427765748,0.006081,0.000027,0.002213,0.273146,0.046629,320.886703,24.330027,0.999757,0.991433,0.003636,0.480783,-0.000002,0.000017,0.000001,0.000017,-0.000003,86.458702,0.000018,
2341,2143,1.89387863161515,-10.9660421456689,0.00359526704295376,0.005812,-0.000269,0.004450,0.250600,0.045476,328.965855,22.999459,0.999318,0.984227,0.005011,0.396874,0.000001,-0.000013,-0.000013,0.000009,-0.000021,-31.492446,0.000021,
2371,3013,2.38360235061659,8.01882247450733,0.0075588474774122,0.006058,0.000644,0.000697,0.276646,0.079245,314.904452,25.256054,0.999583,0.991195,0.003760,0.440943,0.000000,-0.000002,-0.000011,0.000010,-0.000012,-41.779303,0.000013,
2236,2833,-0.519484460205437,4.09939820496054,-0.0169491379128885,0.006082,0.000033,0.001994,0.273582,0.064540,317.758138,24.593449,0.999525,0.991087,0.003747,0.439884,-0.000001,0.000025,0.000012,0.000030,-0.000006,69.064681,0.000031,
2386,2308,2.84489335974562,-7.35196035943124,-0.00442979374366814,0.006123,-0.000005,0.000837,0.277584,0.034852,326.279553,23.171923,0.999796,0.994270,0.003367,0.464583,-0.000010,-0.000007,-0.000004,-0.000005,-0.000012,-54.883973,0.000018,
2446,2158,4.18667368147905,-10.6406159580562,0.0198391422628674,0.006250,-0.000280,0.003517,0.272777,0.016129,328.986676,22.478946,0.999304,0.979421,0.005530,0.351165,0.000015,-0.000008,-0.000032,0.000038,-0.000030,-35.021152,0.000040,
2326,3268,1.35746348638958,13.5483099569022,0.00857389658295915,0.005941,0.000285,0.005004,0.256795,0.071960,310.719882,25.698002,0.999546,0.993369,0.003213,0.423363,0.000002,0.000030,0.000001,0.000030,0.000002,88.343475,0.000036,
2416,2413,3.47963887082352,-5.05426187381414,0.0026742653542442,0.006430,-0.000126,0.004559,0.278061,0.055042,324.671351,23.503365,0.999632,0.987820,0.004458,0.379791,0.000008,0.000014,0.000010,0.000021,0.000001,53.615805,0.000025,
2326,2803,1.44238003397305,3.45130406899772,-0.0218062914599955,0.006037,0.000181,0.001694,0.271894,0.057376,318.083390,24.601736,0.999381,0.993275,0.003676,0.463942,-0.000001,0.000019,0.000011,0.000024,-0.000006,66.364737,0.000025,
2386,3133,2.6879922701151,10.6242736736589,0.0281712508007104,0.006182,0.000232,0.004060,0.270229,0.070455,313.114419,25.637468,0.999662,0.993169,0.003431,0.433866,0.000009,0.000034,-0.000004,0.000035,0.000009,-81.899562,0.000046,
2266,3223,0.0651807450272663,12.565815964915,0.0295827675555529,0.005873,0.000227,0.005294,0.253448,0.068522,311.699669,25.271291,0.999809,0.995603,0.002980,0.445300,0.000006,0.000035,-0.000005,0.000036,0.000005,-80.814514,0.000044,
2371,3178,2.35340986382115,11.5990581329697,0.0272078670529368,0.006252,0.000096,0.004271,0.272868,0.055390,312.364406,25.663942,0.999526,0.992256,0.003509,0.449610,0.000011,0.000033,-0.000002,0.000034,0.000011,-84.487025,0.000046,
2251,2878,-0.201361394803385,5.07810430228452,-0.0122612817336858,0.006118,-0.000343,0.005482,0.263558,0.027190,317.023772,24.694673,0.999663,0.990626,0.003701,0.388513,-0.000005,0.000027,0.000007,0.000028,-0.000006,78.655465,0.000030,
2311,2923,1.09502263872222,6.05952569874702,-0.0119048661135253,0.006249,0.000351,0.000171,0.287139,0.044562,316.234966,24.837895,0.999157,0.990632,0.003947,0.456931,-0.000010,0.000012,0.000002,0.000012,-0.000010,84.236137,0.000013,
2326,2953,1.41616782175949,6.71299525993235,-0.00245079924286529,0.006416,0.000625,0.002911,0.285492,0.072793,315.812633,25.017933,0.999012,0.988290,0.004535,0.404014,-0.000005,0.000013,0.000004,0.000013,-0.000006,78.767327,0.000013,
2386,3238,2.66651059045338,12.9024159901165,0.0159137952124411,0.005906,0.000050,0.003149,0.260876,0.054427,311.280091,25.892826,0.999650,0.993098,0.003249,0.456615,0.000002,0.000029,0.000009,0.000032,-0.000001,72.839032,0.000036,
2476,2383,4.7941266739568,-5.70904695309928,-0.00723637792094678,0.006133,-0.000071,0.003393,0.268074,0.063851,325.182163,23.165553,0.999555,0.985016,0.005069,0.432205,0.000030,0.000029,0.000000,0.000030,0.000029,-1.327532,0.000059,
2356,3073,2.04684999156271,9.31976267092494,0.0158651248665365,0.006416,-0.000112,0.004356,0.280069,0.053295,313.993351,25.341042,0.999549,0.993339,0.003384,0.437383,0.000001,0.000008,-0.000008,0.000013,-0.000004,-56.184873,0.000013,
2356,2188,2.21470869756913,-9.98143828431471,0.0220240222267307,0.006123,-0.000360,0.004186,0.265616,0.015248,328.410848,23.117453,0.999244,0.983394,0.005089,0.288269,-0.000010,-0.000005,-0.000020,0.000013,-0.000028,-48.659203,0.000028,
2371,2233,2.53270948462178,-8.99513837642123,0.0145425864541266,0.005685,-0.000547,0.003332,0.248388,0.016288,327.610758,23.132801,0.998813,0.979678,0.005778,0.327716,-0.000015,0.000004,-0.000009,0.000008,-0.000019,-67.222430,0.000019,
2506,2488,5.42756910018158,-3.41346276928545,-0.00479471031718504,0.006181,-0.000199,0.004341,0.266415,0.048988,323.581800,23.476661,0.999514,0.985430,0.004581,0.445591,0.000021,-0.000033,-0.000002,0.000021,-0.000033,-2.325666,0.000033,
2221,2968,-0.867856570253362,7.03138293398906,-4.55405996717673E-05,0.006128,0.000203,0.002671,0.273909,0.067648,315.736193,24.741948,0.999416,0.990143,0.003918,0.442928,-0.000006,0.000017,0.000007,0.000019,-0.000008,74.484014,0.000019,
2281,3103,0.41199128101773,9.96550108669998,0.0128729685924327,0.006212,0.000274,0.001001,0.283017,0.048709,313.530542,25.146885,0.999615,0.993067,0.003528,0.413026,-0.000005,0.000007,-0.000005,0.000008,-0.000007,-69.775167,0.000009,
2206,2938,-1.18895373298199,6.37862688401906,-0.00149683000637424,0.005816,0.000048,0.005205,0.251435,0.048637,316.231139,24.668524,0.999478,0.992211,0.003615,0.426998,0.000002,0.000031,0.000005,0.000032,0.000001,80.167870,0.000037,
2431,2248,3.83999454847474,-8.66693949623188,0.0147629773796893,0.005734,-0.000158,0.004145,0.247206,0.033778,327.436121,22.875969,0.999149,0.980510,0.005419,0.369942,-0.000003,-0.000001,-0.000018,0.000015,-0.000020,-46.981930,0.000021,
2491,2548,5.0870659453246,-2.1029123061393,-0.0109118029722595,0.005922,-0.000473,0.004670,0.253387,0.017088,322.498301,23.738722,0.999722,0.988982,0.004056,0.425158,0.000019,-0.000028,-0.000001,0.000019,-0.000028,-1.759508,0.000029,
2461,2068,4.53458773422171,-12.6178768489562,0.0379207197173059,0.006338,0.000341,0.000876,0.286593,0.039719,330.636854,22.052582,0.999264,0.980764,0.005438,0.373299,0.000014,-0.000016,0.000011,0.000018,-0.000019,18.090772,0.000021,
2311,3148,1.05543528866103,10.9438603573683,0.0232144772639344,0.005909,0.000389,0.002944,0.262452,0.071466,312.826616,25.356498,0.999490,0.992479,0.003692,0.435411,0.000006,0.000024,0.000000,0.000024,0.000006,89.176765,0.000032,
2386,3148,2.68560957491384,10.9490137384873,0.0339366005504189,0.006177,0.000144,0.003181,0.273073,0.052628,312.920214,25.657377,0.999635,0.992729,0.003432,0.438217,0.000009,0.000029,-0.000003,0.000030,0.000008,-80.954053,0.000040,
2416,2188,3.52551437560642,-9.98170050831594,0.0210630383537591,0.006087,0.000347,-0.001678,0.284872,0.014881,328.472440,22.827677,0.999315,0.983347,0.004981,0.266790,-0.000008,0.000008,-0.000031,0.000032,-0.000032,-52.038121,0.000037,
2371,3193,2.35101501743904,11.9240354735211,0.0344897757399849,0.006230,-0.000014,0.005054,0.269023,0.049315,312.175822,25.713141,0.999537,0.992389,0.003492,0.434300,0.000012,0.000034,-0.000001,0.000034,0.000012,-87.460959,0.000047,
2476,2398,4.79159793395302,-5.38151284511647,-0.000192991427752531,0.006104,-0.000433,0.003689,0.265489,0.043003,324.995400,23.258299,0.999552,0.986375,0.004765,0.376702,0.000039,0.000032,-0.000003,0.000040,0.000031,-19.250605,0.000071,
2221,2803,-0.840682035175739,3.44617090458065,-0.0228383966270371,0.006137,-0.000010,0.003533,0.271181,0.046195,318.230247,24.517779,0.999390,0.989400,0.004118,0.441752,0.000001,0.000011,0.000003,0.000011,0.000000,73.608855,0.000013,
2401,3208,2.99973707856666,12.2518239980269,0.0360157864711255,0.005981,0.000059,0.004369,0.259679,0.056113,311.951850,25.874537,0.999466,0.992116,0.003648,0.466069,0.000014,0.000037,-0.000002,0.000037,0.000014,-84.414894,0.000053,
2356,1993,2.25206800048193,-14.2614209605993,0.0303115576516007,0.005844,-0.000360,0.001943,0.260339,0.013655,331.616552,22.541953,0.998746,0.969542,0.006973,0.315227,0.000039,-0.000029,-0.000001,0.000040,-0.000029,-1.153311,0.000041,
2176,2803,-1.81812133063504,3.44393652962343,-0.0202353851403245,0.005956,0.000729,-0.001594,0.279503,0.077655,318.392283,24.462144,0.999455,0.989893,0.004198,0.487806,-0.000002,0.000003,-0.000001,0.000003,-0.000003,-78.446528,0.000004,
2311,2938,1.09246091687148,6.38577858690954,-0.0120960537760197,0.006421,0.000553,-0.000551,0.297628,0.053827,315.998902,24.878707,0.998999,0.988967,0.004221,0.457148,-0.000005,0.000017,0.000004,0.000018,-0.000006,80.048528,0.000018,
2401,3283,2.98157499709312,13.8809752965542,-0.0115691416951904,0.006212,-0.000017,0.004150,0.271158,0.040398,310.331377,26.102138,0.999690,0.991634,0.003651,0.443432,0.000012,0.000000,0.000002,0.000012,0.000000,11.707588,0.000014,
2356,3088,2.04380710374478,9.64551302357718,0.019687337619871,0.005958,0.000070,0.004709,0.257807,0.055468,313.757509,25.408170,0.999539,0.992512,0.003527,0.410190,0.000004,0.000014,-0.000010,0.000020,-0.000001,-58.412780,0.000022,
2371,1993,2.58043226469253,-14.2624352164565,0.0376593436880626,0.005909,-0.000438,0.004685,0.253463,0.035017,331.677605,22.445807,0.998957,0.969044,0.006826,0.326053,0.000015,-0.000036,0.000001,0.000015,-0.000036,1.548220,0.000036,
2371,3028,2.3804543079105,8.3446522628863,0.00824522200770161,0.005964,0.000322,0.003675,0.261600,0.070529,314.649883,25.306272,0.999502,0.990640,0.003902,0.422118,0.000001,-0.000002,-0.000012,0.000011,-0.000013,-41.474253,0.000014,
2356,2938,2.0700569171887,6.38888122912336,-0.00829347646748602,0.005990,-0.000090,0.006301,0.253354,0.044858,315.970518,25.037876,0.999185,0.990125,0.003993,0.389173,-0.000009,0.000015,-0.000005,0.000016,-0.000010,-79.633232,0.000016,
2341,2158,1.89108138229738,-10.6390827359264,0.00663963687367186,0.005476,0.000005,0.003219,0.239573,0.058236,328.739215,22.886521,0.999428,0.985207,0.004895,0.561904,-0.000008,-0.000013,-0.000022,0.000011,-0.000033,-42.007799,0.000033,
2311,2053,1.25784749069222,-12.9423931721291,0.0285448787229257,0.006089,0.000620,-0.000491,0.280644,0.048155,330.662731,22.984005,0.999442,0.985096,0.004799,0.369697,0.000003,-0.000004,-0.000016,0.000015,-0.000017,-39.112002,0.000019,
2191,2878,-1.50474607032142,5.07580852036479,-0.0118258968856253,0.006056,0.000085,0.003614,0.267704,0.066135,317.181877,24.659037,0.999791,0.995241,0.003012,0.364348,0.000009,0.000029,0.000000,0.000029,0.000009,89.574381,0.000040,
2461,2083,4.5307434969341,-12.2878228088169,0.0341717231637517,0.006167,-0.000147,0.004720,0.264207,0.044003,330.340906,22.128697,0.999304,0.979548,0.005574,0.359295,0.000017,-0.000005,0.000014,0.000024,-0.000012,25.844318,0.000024,
2326,2818,1.43983598862503,3.77702843756703,-0.012945353687428,0.005884,-0.000101,0.005236,0.252551,0.055491,317.894054,24.640413,0.999514,0.991564,0.003743,0.457639,-0.000006,0.000021,0.000011,0.000025,-0.000010,71.052594,0.000025,
2341,3058,1.72289033198497,8.99272192681906,0.0064205280619376,0.006166,0.000125,0.002933,0.273782,0.053587,314.154842,25.172482,0.999677,0.994288,0.003123,0.517202,-0.000005,0.000000,-0.000009,0.000007,-0.000013,-52.586216,0.000013,
2311,2683,1.13883752103808,0.836924689174687,-0.0157464264191844,0.006204,0.000273,0.002043,0.278327,0.072429,320.102177,24.311140,0.999714,0.991661,0.003733,0.497376,0.000002,0.000023,-0.000001,0.000023,0.000002,-87.354000,0.000028,
2386,2323,2.84114014272348,-7.02293773270972,-0.00879904533690024,0.005832,-0.000130,0.003658,0.254107,0.046581,325.976620,23.231326,0.999691,0.992438,0.003835,0.462366,-0.000015,-0.000006,0.000001,-0.000006,-0.000015,86.684352,0.000022,
2296,3103,0.738190275974965,9.96592729682603,0.0236151395798174,0.005946,0.000340,0.001566,0.268816,0.055002,313.587734,25.196695,0.999353,0.991830,0.003814,0.427494,-0.000007,0.000009,-0.000006,0.000011,-0.000009,-70.927310,0.000012,
2446,2323,4.15232681566706,-7.02371225345697,0.00311809565300791,0.006094,0.000469,0.000378,0.277889,0.064121,326.183413,23.010824,0.999313,0.980852,0.005183,0.468718,0.000001,0.000008,-0.000013,0.000018,-0.000009,-52.629283,0.000018,
2446,2173,4.18425790880839,-10.3116489054906,0.0252295890989558,0.006381,-0.000463,0.003187,0.279920,0.008746,328.796370,22.599365,0.999483,0.984341,0.004884,0.278114,0.000012,0.000001,-0.000037,0.000043,-0.000031,-40.656901,0.000045,
2161,2713,-2.12950484362218,1.48551995974706,-0.0231451736599979,0.005859,-0.000036,0.002614,0.261683,0.053050,319.864589,24.436871,0.999397,0.989825,0.004034,0.413587,-0.000001,0.000007,-0.000008,0.000012,-0.000006,-58.767135,0.000012,
2326,2113,1.57401946669248,-11.6266345064126,0.0239914895976767,0.006262,-0.000426,0.002840,0.276807,0.003561,329.648956,23.000500,0.999404,0.982194,0.005246,0.362014,0.000001,0.000013,-0.000009,0.000017,-0.000003,-61.792303,0.000018,
2371,2008,2.57702270069649,-13.9305423711273,0.0252961839282193,0.006313,-0.000366,0.004373,0.273134,0.040937,331.352141,22.560066,0.998699,0.974631,0.006209,0.262960,0.000016,-0.000045,-0.000005,0.000016,-0.000046,-4.968695,0.000047,
2311,3163,1.05353072687834,11.2683700533315,0.0308539631752183,0.006259,0.000140,0.003523,0.276517,0.062480,312.659421,25.360304,0.999634,0.993357,0.003446,0.453427,0.000007,0.000025,0.000001,0.000025,0.000007,88.046801,0.000033,
2386,3253,2.6630814524124,13.2285999938287,0.00657858390434285,0.006113,0.000398,0.003130,0.270609,0.066342,310.964744,25.956851,0.999716,0.992636,0.003247,0.446502,-0.000001,0.000029,0.000007,0.000030,-0.000003,77.100564,0.000034,
2446,2563,4.10286232964809,-1.77516923182687,-0.0141242099259671,0.006251,0.000230,0.002096,0.279068,0.062490,322.146306,23.924190,0.999623,0.989320,0.004211,0.412299,0.000023,0.000002,-0.000004,0.000024,0.000001,-11.310777,0.000028,
2401,2158,3.20418029283472,-10.6405654512191,0.0237087210276741,0.006646,-0.000040,0.001752,0.297868,0.017000,328.973202,22.716645,0.999270,0.979670,0.005326,0.361104,-0.000009,-0.000011,-0.000029,0.000019,-0.000039,-43.660310,0.000039,
2491,2563,5.08339516518216,-1.77479762374808,-0.0147848831629176,0.005756,-0.000323,0.005804,0.241585,0.047173,322.209791,23.786594,0.999574,0.989634,0.004217,0.467525,0.000019,0.000003,0.000001,0.000019,0.000003,4.195821,0.000024,
2476,2413,4.78916874099811,-5.05434865224291,0.00417157315956729,0.006178,0.000103,0.001468,0.277515,0.057285,324.800932,23.260535,0.999494,0.987734,0.004575,0.446833,0.000034,0.000023,0.000001,0.000034,0.000023,4.982752,0.000058,
2116,2263,-3.03381119737546,-8.33656949316954,0.000534424674128786,0.005691,-0.000156,0.002050,0.255218,0.012593,327.510643,24.292562,0.998959,0.983710,0.005133,0.374874,-0.000001,0.000036,0.000009,0.000038,-0.000003,76.461881,0.000042,
2371,3043,2.37773914832789,8.670058144808,0.0101165187156766,0.005986,0.000272,0.003797,0.262232,0.075513,314.420975,25.315448,0.999627,0.992140,0.003584,0.458406,0.000000,0.000009,-0.000012,0.000017,-0.000008,-55.964531,0.000017,
2461,2638,4.41409171605327,-0.137357546164566,-0.0228979068244257,0.006218,0.000305,0.001565,0.279571,0.057438,320.884260,24.172199,0.999637,0.989534,0.003953,0.412861,0.000012,0.000019,-0.000013,0.000028,0.000002,-52.254541,0.000034,
2461,2098,4.52671248438518,-11.9574169601424,0.0283227982271228,0.005648,-0.000326,0.004481,0.241324,0.032046,330.026808,22.236157,0.999631,0.980833,0.005324,0.297987,0.000017,-0.000016,-0.000002,0.000018,-0.000016,-3.183849,0.000020,
2416,2428,3.47603337215533,-4.72583667908877,-0.00729795668058841,0.006134,-0.000069,-0.000928,0.284572,0.015162,324.351611,23.544031,0.999467,0.987012,0.004594,0.348765,0.000007,0.000017,0.000006,0.000020,0.000005,64.582549,0.000026,
2371,2248,2.52952652824787,-8.66461522094519,-0.00118610005898745,0.006392,0.000314,0.000746,0.290284,0.054311,327.278462,23.157435,0.999129,0.983774,0.005402,0.385120,-0.000012,-0.000012,-0.000008,-0.000004,-0.000020,-45.338697,0.000025,
2401,2353,3.16338308620061,-6.36715811283865,0.00372119587007091,0.005669,-0.000378,0.004883,0.241971,0.025608,325.597795,23.349776,0.998800,0.981586,0.005184,0.359655,-0.000006,0.000015,0.000007,0.000017,-0.000008,73.171229,0.000017,
2371,3208,2.34772914988911,12.2490928710507,0.0317498148475011,0.006088,-0.000064,0.005729,0.260078,0.052153,311.898010,25.705652,0.999505,0.992452,0.003562,0.484433,0.000011,0.000033,0.000001,0.000033,0.000011,88.102770,0.000045,
2461,2158,4.51458197047522,-10.6393148944979,0.0164817920540941,0.006527,0.000577,0.003003,0.287575,0.069273,329.005009,22.444578,0.999075,0.975761,0.005835,0.356678,0.000026,-0.000011,-0.000029,0.000042,-0.000027,-28.834800,0.000043,
2431,2263,3.83620645544107,-8.33689815519565,0.00488500974853423,0.006025,-0.000547,0.007746,0.247130,0.027071,327.110592,22.967993,0.999145,0.980095,0.005490,0.324161,-0.000006,-0.000007,-0.000024,0.000018,-0.000030,-44.257765,0.000031,
2386,2098,2.88656124089217,-11.9553612739609,0.016531469994618,0.005839,-0.000156,0.003188,0.255742,0.037013,329.823544,22.613999,0.999020,0.974587,0.006028,0.381378,0.000003,-0.000004,-0.000012,0.000011,-0.000013,-37.135324,0.000014,
2131,2518,-2.74878930496185,-2.76625116172253,-0.00950531240061991,0.006093,-0.000454,0.006846,0.259533,0.022674,323.253146,24.314407,0.999192,0.986759,0.004556,0.422245,-0.000002,0.000006,-0.000003,0.000007,-0.000003,-72.209664,0.000007,
2221,2983,-0.870158105274239,7.35709558145871,0.00105030305962828,0.006261,0.000347,0.001019,0.285371,0.061714,315.512157,24.767272,0.999460,0.991582,0.003702,0.429754,-0.000008,0.000014,0.000005,0.000016,-0.000009,77.014696,0.000016,
2206,2953,-1.19196923457237,6.70473289710425,-0.00822646168541041,0.005868,0.000163,0.005224,0.253905,0.071249,315.932644,24.638658,0.999501,0.992223,0.003605,0.495742,0.000002,0.000028,0.000006,0.000029,0.000000,76.994402,0.000034,
2431,2068,3.87677687081809,-12.6154369782427,0.0279425211138005,0.005809,-0.000346,0.005537,0.245105,0.052895,330.450265,22.281694,0.998787,0.974863,0.006177,0.349521,-0.000001,-0.000016,-0.000002,-0.000001,-0.000016,-8.130743,0.000019,
2446,2188,4.18064676128943,-9.9827829991634,0.0253265373023055,0.005835,-0.000214,0.004024,0.251969,0.049276,328.526670,22.611596,0.999599,0.986308,0.004675,0.361590,0.000010,0.000013,-0.000033,0.000044,-0.000021,-46.109311,0.000044,
2386,3268,2.65962267342375,13.5538598479823,0.00472708281506584,0.005749,0.000223,0.003705,0.251736,0.063044,310.683965,25.997106,0.999693,0.992519,0.003392,0.444639,-0.000004,0.000023,0.000006,0.000025,-0.000006,78.225532,0.000026,
2386,3163,2.68222591607534,11.2747734762197,0.0304445719428941,0.006006,0.000219,0.003645,0.263598,0.059939,312.635412,25.693828,0.999442,0.991455,0.003748,0.451273,0.000007,0.000031,-0.000001,0.000031,0.000007,-87.831074,0.000040,
2356,2008,2.24915304048607,-13.9304167205585,0.0232768313086353,0.006179,0.000253,0.000272,0.281772,0.038921,331.337455,22.616765,0.998531,0.976355,0.006342,0.308458,0.000036,-0.000043,-0.000004,0.000036,-0.000043,-2.781419,0.000046,
2326,2968,1.41306250254772,7.039377766062,-0.00393925566811504,0.006185,0.000258,0.002384,0.276582,0.050681,315.546246,25.101098,0.999686,0.995160,0.003029,0.332364,-0.000010,0.000004,0.000000,0.000004,-0.000010,-89.970290,0.000010,
2326,2833,1.43650948588131,4.10563854721582,-0.026707963945455,0.006194,0.000122,0.002519,0.276269,0.049914,317.557306,24.780523,0.999845,0.993372,0.003433,0.346523,-0.000010,0.000026,0.000010,0.000028,-0.000012,75.331689,0.000028,
2251,3103,-0.238746482488292,9.96231498876205,0.0223240158496196,0.006132,0.000091,0.001551,0.277654,0.050442,313.655370,25.011098,0.999637,0.991995,0.003562,0.434917,-0.000009,0.000002,-0.000007,0.000005,-0.000012,-64.446696,0.000012,
2506,2503,5.42427998674986,-3.08499339774369,-0.00813060641758057,0.006263,-0.000186,0.004004,0.271484,0.029638,323.315052,23.590613,0.999380,0.985824,0.004802,0.374648,0.000018,-0.000032,-0.000010,0.000020,-0.000034,-10.841845,0.000034,
2401,3223,2.99650600069853,12.5773828803361,0.0297044648662563,0.006006,-0.000018,0.002207,0.268586,0.033782,311.661695,25.922265,0.999530,0.992107,0.003528,0.440324,0.000011,0.000033,0.000003,0.000033,0.000011,83.225479,0.000046,
2446,2338,4.14994359390769,-6.69609972876678,0.0149332176819144,0.006209,-0.000407,0.005926,0.262172,0.045988,326.023534,23.135804,0.999165,0.981324,0.005187,0.379449,0.000004,0.000016,-0.000007,0.000019,0.000001,-65.050591,0.000023,
2311,2953,1.08998808165812,6.71164849585278,-0.00581289837725762,0.006314,0.000521,0.000268,0.289944,0.059633,315.798921,24.937209,0.999258,0.990832,0.003867,0.436039,-0.000006,0.000014,0.000007,0.000016,-0.000008,73.136383,0.000016,
2251,2893,-0.203535691632574,5.40397680568576,-0.00976649120684669,0.006185,0.000129,0.002006,0.278282,0.056308,316.814835,24.686453,0.999677,0.991655,0.003589,0.448919,-0.000007,0.000021,0.000011,0.000025,-0.000011,71.712228,0.000025,
2236,2848,-0.522657020708319,4.42593530148792,-0.0253800642621513,0.006101,0.000088,0.001315,0.276683,0.058771,317.446548,24.587242,0.999447,0.991278,0.003706,0.461501,-0.000002,0.000027,0.000012,0.000032,-0.000006,69.644643,0.000034,
2431,2488,3.79066067268765,-3.41521199020256,-0.00812223527276501,0.005819,-0.000366,0.003307,0.254447,0.007525,323.364324,23.633039,0.999168,0.983676,0.004821,0.415211,0.000010,-0.000006,-0.000008,0.000013,-0.000009,-21.701209,0.000013,
2371,2023,2.57455799742199,-13.6021357926861,0.0290562793450704,0.006072,0.000209,0.000072,0.277555,0.036099,331.146893,22.556727,0.998755,0.974942,0.006270,0.305874,0.000014,-0.000034,-0.000004,0.000014,-0.000034,-4.906236,0.000035,
2326,3283,1.35412656147901,13.873425308891,-0.0020721050431689,0.006091,0.000127,0.003311,0.269503,0.056569,310.397175,25.691919,0.999683,0.994507,0.002931,0.447186,0.000002,0.000025,0.000000,0.000025,0.000002,88.982269,0.000030,
2311,2698,1.13557820551414,1.16324021378053,-0.0152005460678311,0.005766,-0.000033,0.003372,0.253553,0.063687,319.838438,24.311571,0.999734,0.992254,0.003672,0.520530,0.000000,0.000022,0.000002,0.000022,0.000000,85.868242,0.000026,
2386,2338,2.83939588080743,-6.69531687004352,0.00344168724524252,0.005842,0.000419,0.001459,0.262691,0.071706,325.844522,23.318115,0.999180,0.985291,0.004733,0.445568,-0.000013,0.000002,0.000002,0.000002,-0.000013,80.714762,0.000014,
2116,2278,-3.03519198962359,-8.00849894191853,0.00784153837508939,0.006266,-0.000002,0.002782,0.279513,0.036544,327.353834,24.349705,0.998963,0.984033,0.005050,0.347243,0.000003,0.000032,0.000005,0.000033,0.000002,80.645052,0.000039,
2461,2173,4.51128808793245,-10.3107314107777,0.0161994088279016,0.006587,-0.000094,0.006539,0.276781,0.044095,328.749824,22.488056,0.999003,0.978390,0.005585,0.345267,0.000021,-0.000001,-0.000037,0.000049,-0.000029,-36.413797,0.000049,
2386,3283,2.65699243865158,13.8784561023105,0.00500028782965956,0.005990,-0.000012,0.003583,0.263183,0.045514,310.451668,26.005714,0.999678,0.991774,0.003537,0.460312,-0.000004,0.000005,0.000007,0.000009,-0.000008,60.622419,0.000010,
2311,2068,1.25509483992446,-12.612821351456,0.0192119206978418,0.006643,0.000594,-0.002277,0.312098,0.019012,330.375348,22.980679,0.999397,0.982532,0.005124,0.379682,0.000002,0.000002,-0.000007,0.000009,-0.000005,-44.048537,0.000009,
2446,2203,4.17701691693272,-9.6535793149966,0.0183328525918682,0.005732,0.000130,0.003421,0.249666,0.066637,328.223575,22.608816,0.999596,0.985178,0.004823,0.436885,0.000009,0.000016,-0.000031,0.000043,-0.000019,-48.205079,0.000043,
2401,2173,3.20038298923223,-10.3109911434662,0.0158509113399532,0.006237,0.000029,-0.000253,0.286433,0.014998,328.654022,22.746013,0.999225,0.981382,0.005224,0.378437,-0.000010,-0.000006,-0.000028,0.000021,-0.000036,-47.286434,0.000036,
2356,2023,2.24660416471501,-13.602131135865,0.023544117736833,0.006300,0.000538,-0.001387,0.293282,0.028265,331.110474,22.568704,0.998724,0.975365,0.006447,0.388259,0.000031,-0.000029,0.000003,0.000031,-0.000029,2.546615,0.000035,
2416,2203,3.52197516190273,-9.65406212413806,0.0169955342929597,0.005988,0.000005,0.000508,0.272256,0.018989,328.184322,22.725799,0.999377,0.982290,0.005199,0.423459,-0.000010,0.000015,-0.000028,0.000033,-0.000028,-56.684667,0.000036,
2161,2728,-2.13192681335525,1.81171739057388,-0.0258364247532086,0.006060,0.000273,0.001748,0.273709,0.054151,319.610832,24.397554,0.999508,0.989721,0.004077,0.464462,-0.000004,0.000009,-0.000010,0.000014,-0.000009,-61.331753,0.000014,
2371,3058,2.37485889163204,8.99594017080383,0.00972698359657898,0.006122,-0.000257,0.005183,0.263336,0.051633,314.173449,25.386432,0.999684,0.993585,0.003277,0.403494,0.000001,0.000007,-0.000009,0.000013,-0.000006,-54.203398,0.000013,
2461,2653,4.41110280894149,0.189503112743765,-0.0190080579841947,0.006058,0.000126,0.003060,0.266558,0.043997,320.659760,24.244019,0.999603,0.989565,0.003958,0.382325,0.000005,0.000024,-0.000015,0.000032,-0.000003,-60.408429,0.000035,
2266,3238,0.0629209596904658,12.8905994178098,0.0258531084302831,0.006269,0.000439,0.000732,0.286824,0.048887,311.456168,25.261913,0.999797,0.994851,0.003066,0.459306,0.000007,0.000031,-0.000004,0.000032,0.000007,-80.507478,0.000041,
2236,3058,-0.556310304937352,8.98450925649913,0.0226318396746592,0.006126,0.000174,0.001071,0.278957,0.047637,314.426679,24.886555,0.999670,0.992916,0.003334,0.438049,-0.000008,-0.000005,-0.000005,-0.000002,-0.000012,-52.234748,0.000014,
2386,2113,2.88357984253393,-11.6263755252549,0.0188298317714839,0.005644,-0.000306,0.004127,0.243404,0.032868,329.588516,22.678954,0.998802,0.970307,0.006325,0.358569,-0.000001,-0.000003,-0.000012,0.000010,-0.000014,-43.492915,0.000015,
2386,3298,2.65291178880413,14.204861764567,-0.0119089417084979,0.006252,0.000195,0.004975,0.270312,0.049668,310.069829,26.071233,0.999705,0.992837,0.003484,0.440805,0.000004,-0.000015,0.000004,0.000005,-0.000016,12.782160,0.000016,
2131,2533,-2.75136640786152,-2.4384049216664,-0.0140671181521839,0.005971,0.000119,0.002624,0.266812,0.045616,322.979429,24.323233,0.999150,0.986107,0.004606,0.443403,-0.000006,0.000019,0.000003,0.000020,-0.000006,84.151076,0.000020,
2491,2578,5.08119682801919,-1.44747334640873,-0.0086374578842765,0.006114,-0.000172,0.005691,0.258538,0.061810,322.034132,23.870057,0.998855,0.982969,0.005141,0.458328,0.000014,0.000000,0.000001,0.000014,0.000000,5.724729,0.000016,
2461,2398,4.46403123259129,-5.38228666625979,0.00169185621689394,0.005881,-0.000364,0.004438,0.252639,0.047699,324.962588,23.262770,0.999590,0.986387,0.004764,0.423585,0.000034,0.000028,-0.000004,0.000036,0.000026,-28.330015,0.000063,
2326,2848,1.43394313007684,4.42992675163534,-0.0186589557411594,0.005839,0.000123,0.002956,0.258419,0.044713,317.363281,24.692234,0.999763,0.992684,0.003533,0.463580,-0.000012,0.000026,0.000006,0.000027,-0.000013,81.248004,0.000027,
2506,2518,5.42034274607233,-2.75749933987426,-0.0109304864901105,0.005768,-0.000368,0.005111,0.244448,0.039082,323.020860,23.596596,0.999440,0.987112,0.004628,0.440370,0.000013,-0.000006,-0.000019,0.000025,-0.000018,-32.067700,0.000026,
2371,3223,2.34476120949327,12.5751313412946,0.0293480609827839,0.006106,0.000153,0.004685,0.264828,0.070931,311.636060,25.778837,0.999610,0.993166,0.003307,0.469704,0.000008,0.000032,0.000005,0.000033,0.000007,78.142489,0.000042,
2476,2473,4.77523474778431,-3.74040427558727,-0.020128282856831,0.006501,0.000025,0.001332,0.292915,0.042376,323.638987,23.484756,0.999479,0.989890,0.004178,0.440558,0.000030,-0.000003,0.000001,0.000030,-0.000003,1.469693,0.000033,
2341,3073,1.72017711957912,9.3193448771294,0.00734502207120613,0.006106,0.000137,0.001519,0.275991,0.052326,313.918901,25.301467,0.999642,0.994219,0.003133,0.422613,-0.000003,0.000003,-0.000009,0.000009,-0.000009,-54.235850,0.000010,
2446,2353,4.14692760582065,-6.36807432460857,0.0096846900332821,0.006126,0.000134,-0.000127,0.281138,0.016876,325.756152,23.146072,0.999372,0.982677,0.005192,0.394008,0.000010,0.000030,-0.000005,0.000031,0.000008,-76.133272,0.000042,
2506,2623,5.39851160081313,-0.466208407952948,-0.00992999736320144,0.005576,-0.000171,0.004718,0.237424,0.047416,321.314662,23.908849,0.999856,0.994484,0.003339,0.570337,-0.000001,-0.000005,-0.000021,0.000018,-0.000024,-42.265992,0.000025,
2221,2998,-0.872941826101528,7.68266435286011,0.00234201622350838,0.006053,0.000488,0.001578,0.274072,0.065519,315.266990,24.775026,0.999505,0.991611,0.003692,0.444167,-0.000008,0.000018,0.000002,0.000018,-0.000009,84.781326,0.000018,
2341,2173,1.88827520002577,-10.3097092379665,0.0132101840668497,0.005437,-0.000475,0.009177,0.216965,0.063247,328.528908,23.044024,0.999173,0.983075,0.005137,0.448748,-0.000013,-0.000009,-0.000021,0.000010,-0.000032,-47.678645,0.000033,
2461,2668,4.40804183005067,0.515953411545681,-0.0221017764350222,0.006197,0.000139,0.002120,0.276468,0.043568,320.400003,24.211092,0.999496,0.987453,0.004230,0.470025,0.000003,0.000017,-0.000014,0.000026,-0.000006,-58.249565,0.000027,
2251,3118,-0.241444218664711,10.288083587011,0.0233337886436971,0.005968,0.000434,0.000423,0.273964,0.074426,313.414507,25.045921,0.999617,0.991283,0.003719,0.446324,-0.000006,0.000003,-0.000008,0.000008,-0.000011,-59.749592,0.000011,
2491,2593,5.07851901916849,-1.11973298110335,-0.0130049157709209,0.006361,0.000126,-0.000559,0.293926,0.036311,321.789105,23.944592,0.999831,0.994335,0.003491,0.417939,0.000015,-0.000014,0.000002,0.000016,-0.000014,4.508277,0.000017,
2401,1993,3.23687063861718,-14.2639599065172,0.0397316996023278,0.005818,-0.000054,0.000377,0.264576,0.028385,331.733033,22.204666,0.998558,0.969166,0.006732,0.347113,-0.000012,-0.000066,-0.000006,-0.000011,-0.000067,-6.395096,0.000085,
2476,2428,4.78556768556252,-4.72645210929089,0.00447536904454182,0.005933,-0.000301,0.005321,0.251542,0.055641,324.534146,23.312028,0.999278,0.987486,0.004623,0.451796,0.000030,0.000035,0.000003,0.000036,0.000029,65.160166,0.000065,
2236,3073,-0.559857185860483,9.31087025973946,0.0138927370142596,0.006047,0.000210,0.003739,0.266756,0.068909,314.095835,24.904101,0.999649,0.992404,0.003429,0.462179,-0.000008,-0.000004,-0.000005,-0.000001,-0.000012,-57.057206,0.000014,
2476,2713,4.72533514494543,1.49721077020978,-0.0200567947053969,0.005853,-0.000138,0.005889,0.246257,0.051549,319.688844,24.341290,0.999605,0.989735,0.004158,0.512054,0.000014,0.000040,-0.000004,0.000041,0.000014,-81.944467,0.000057,
2296,3118,0.735331448605212,10.2912737607335,0.0255810632447151,0.005913,0.000089,0.004450,0.257474,0.058918,313.347451,25.219257,0.999533,0.993277,0.003486,0.437562,-0.000001,0.000010,-0.000005,0.000012,-0.000003,-68.658298,0.000013,
2476,2488,4.77296151961909,-3.41349889793665,-0.0147014810123665,0.006363,0.000524,-0.004237,0.307962,0.032867,323.456232,23.521278,0.999524,0.987158,0.004365,0.452370,0.000025,-0.000006,-0.000002,0.000025,-0.000006,-4.250743,0.000026,
2371,3238,2.34176790082325,12.9008172039068,0.0274501820306909,0.006079,0.000473,0.003887,0.266559,0.086649,311.375418,25.829522,0.999733,0.994157,0.003053,0.474470,0.000005,0.000028,0.000007,0.000030,0.000004,74.696686,0.000037,
2506,2638,5.39546629029312,-0.13785444608957,-0.00991954816129237,0.005835,-0.000343,0.006945,0.240604,0.036134,321.073187,24.077910,0.999704,0.992176,0.003790,0.451753,-0.000010,0.000017,-0.000022,0.000029,-0.000022,-60.393184,0.000031,
2401,3298,2.97815789491654,14.2062134197467,-0.0193439064790937,0.006303,0.000205,0.003722,0.277022,0.047106,310.025398,26.107671,0.999701,0.992832,0.003498,0.488410,0.000023,-0.000021,0.000002,0.000023,-0.000021,2.566802,0.000025,
2431,2503,3.78821509156132,-3.0885149035383,-0.00119125024360756,0.005905,-0.000467,0.004809,0.252824,0.008916,323.177485,23.656470,0.999357,0.987064,0.004420,0.444349,0.000009,-0.000011,-0.000014,0.000016,-0.000018,-27.046881,0.000020,
2446,2218,4.17397668318961,-9.32402370602917,0.0082722251542009,0.006229,0.000232,-0.000197,0.285925,0.037758,327.933536,22.658632,0.999380,0.984140,0.005061,0.413051,0.000005,0.000009,-0.000030,0.000037,-0.000023,-46.885701,0.000037,
2311,3178,1.05074292152775,11.5938851471885,0.0304435945977275,0.006236,0.000290,0.002855,0.277854,0.073184,312.411435,25.392283,0.999704,0.993646,0.003367,0.463163,0.000009,0.000026,0.000000,0.000026,0.000009,-88.833399,0.000036,
2446,2578,4.09869504826395,-1.4464838215877,-0.0288697261280504,0.006346,-0.000071,0.002700,0.281095,0.062975,321.780846,23.963923,0.999667,0.991907,0.003868,0.426538,0.000022,0.000007,-0.000004,0.000023,0.000006,-15.227697,0.000031,
2416,2218,3.51870679296871,-9.32363132514344,0.0111096750039223,0.006166,0.000124,0.000680,0.279869,0.046659,327.899659,22.842385,0.999379,0.983802,0.005115,0.385257,-0.000008,0.000010,-0.000026,0.000028,-0.000027,-54.241663,0.000032,
2371,2038,2.57143650381045,-13.2727860237516,0.0223816447916079,0.006308,0.000265,-0.000158,0.289251,0.025617,330.861834,22.532856,0.999001,0.978172,0.005836,0.364167,0.000010,-0.000030,-0.000010,0.000013,-0.000032,-13.835469,0.000032,
2461,2188,4.50699276631001,-9.98014650362106,-0.00254067914255529,0.006388,0.000252,0.000575,0.290235,0.042208,328.364263,22.501896,0.999600,0.987949,0.004635,0.387354,0.000023,0.000011,-0.000036,0.000054,-0.000020,-40.094996,0.000054,
2431,2278,3.83332399405953,-8.00907983307135,9.45590905416793E-05,0.006037,0.000132,0.002073,0.268887,0.028082,326.850279,22.906977,0.999238,0.977788,0.005751,0.438069,-0.000006,0.000007,-0.000019,0.000021,-0.000020,-54.883619,0.000023,
2491,2608,5.07553280643038,-0.793407704040995,-0.00511929882480899,0.006025,0.000063,0.002259,0.267738,0.051207,321.585065,23.959669,0.999838,0.994104,0.003556,0.477138,0.000021,-0.000008,-0.000001,0.000021,-0.000008,-1.413789,0.000021,
2461,2113,4.52351622618216,-11.6279687536654,0.0185286718917155,0.006273,-0.000460,0.004200,0.270942,0.034161,329.732911,22.205225,0.999548,0.978198,0.005633,0.388625,0.000012,-0.000014,-0.000010,0.000015,-0.000017,-18.325940,0.000019,
2311,2968,1.08788912014432,7.03709705157691,0.0075821312244102,0.006107,-0.000034,0.001815,0.274928,0.043328,315.651316,25.031448,0.999911,0.997424,0.002509,0.356720,-0.000010,0.000005,0.000004,0.000006,-0.000011,75.816192,0.000011,
2266,3253,0.0597951059059945,13.2161653237671,0.025576266725011,0.006182,0.000142,0.004867,0.269134,0.065521,311.189916,25.312207,0.999770,0.993692,0.003325,0.449831,0.000006,0.000026,-0.000005,0.000027,0.000005,-77.218622,0.000034,
2356,2953,2.06714374482209,6.71480662153037,-0.011292329811738,0.005887,-0.000018,0.002817,0.260976,0.048536,315.708129,25.039164,0.999293,0.990166,0.003938,0.429927,-0.000006,0.000011,-0.000003,0.000012,-0.000007,-80.704484,0.000012,
2491,2788,5.03670580781367,3.13429165024979,-0.0274116152360762,0.005987,0.000319,0.001722,0.268437,0.057163,318.464409,24.763642,0.999331,0.987784,0.004230,0.390599,0.000014,0.000028,-0.000019,0.000042,0.000001,-55.294105,0.000048,
2326,3298,1.35110013249217,14.1981168826836,-0.00180536582956847,0.005882,0.000186,0.003663,0.258726,0.061719,310.142458,25.690005,0.999719,0.994624,0.002973,0.487194,0.000004,0.000016,-0.000002,0.000016,0.000004,-81.100029,0.000021,
2401,2368,3.16053882950894,-6.03953659440509,0.00243071982032461,0.005973,-0.000709,0.006498,0.249973,0.023133,325.352485,23.340647,0.998759,0.981291,0.005192,0.413760,-0.000004,0.000019,0.000016,0.000027,-0.000012,62.633034,0.000027,
2506,2533,5.41745199436278,-2.42889518628957,-0.0125591213256371,0.006005,-0.000007,0.003631,0.261234,0.044317,322.779739,23.724155,0.999557,0.988681,0.004291,0.380379,0.000017,-0.000010,-0.000014,0.000023,-0.000015,-22.937285,0.000023,
2401,3238,2.99325908885376,12.9034220156516,0.0245779437721012,0.006146,0.000218,0.002881,0.272762,0.052900,311.376171,25.984299,0.999527,0.992424,0.003416,0.441647,0.000010,0.000030,0.000004,0.000031,0.000009,79.268510,0.000042,
2401,2008,3.23389530409219,-13.9326707423996,0.028777017863149,0.006388,0.000529,-0.002786,0.302381,0.026212,331.437656,22.288087,0.998266,0.967488,0.006882,0.311024,-0.000004,-0.000064,-0.000014,-0.000001,-0.000068,-12.500257,0.000079,
2461,2683,4.40446296170106,0.844015428457723,-0.0270088108873665,0.006007,0.000211,0.001554,0.269978,0.044759,320.107722,24.314772,0.999530,0.988260,0.004185,0.422410,0.000003,0.000024,-0.000007,0.000026,0.000001,-71.786955,0.000031,
2416,2443,3.47271855845702,-4.39841624960423,-0.00530914631508494,0.005911,-0.000021,0.002900,0.260395,0.044586,324.100856,23.541763,0.999489,0.987451,0.004507,0.429876,0.000008,-0.000002,0.000004,0.000009,-0.000003,18.058574,0.000009,
2371,3073,2.37248884768951,9.32126863931618,0.0142672439267244,0.006177,0.000075,0.003960,0.270317,0.050349,313.973142,25.419545,0.999568,0.992393,0.003543,0.409169,0.000002,0.000010,-0.000008,0.000015,-0.000003,-58.189157,0.000016,
2461,2413,4.46183740606332,-5.05499324685938,0.00585824143797709,0.006365,-0.000110,0.004384,0.275129,0.056957,324.776946,23.279668,0.999518,0.986881,0.004705,0.471909,0.000031,0.000020,0.000000,0.000031,0.000020,0.369807,0.000052,
2446,2368,4.14373667896753,-6.03930669824664,0.00492052957179112,0.006288,-0.000032,-0.000688,0.290608,0.012220,325.482683,23.210377,0.999448,0.985402,0.004888,0.379153,0.000012,0.000031,0.000007,0.000034,0.000009,71.238792,0.000045,
2356,2203,2.21087518843153,-9.65178535741401,0.00912125222168925,0.006160,-0.000271,0.004724,0.265468,0.041648,328.060865,23.084143,0.999229,0.983055,0.005098,0.390275,-0.000014,0.000008,-0.000021,0.000021,-0.000027,-58.944563,0.000029,
2341,3088,1.71684846140896,9.64461262682491,0.00638821261156863,0.005907,-0.000210,0.004523,0.256212,0.045118,313.645869,25.303534,0.999607,0.994228,0.003139,0.448880,0.000000,0.000009,-0.000012,0.000017,-0.000008,-55.487524,0.000017,
2491,2803,5.03370906300865,3.4605583405746,-0.0247021630046333,0.006119,0.000123,0.005080,0.261568,0.062431,318.235550,24.796316,0.999236,0.986969,0.004547,0.421862,0.000020,0.000030,-0.000019,0.000045,0.000005,-52.389828,0.000055,
2386,2353,2.83641529588619,-6.36834826936459,0.0039781144928952,0.005857,-0.000171,0.003381,0.256289,0.037767,325.600615,23.293287,0.998904,0.982284,0.005197,0.481467,-0.000007,0.000010,0.000008,0.000012,-0.000010,69.125495,0.000013,
2476,2728,4.72278260009326,1.8248678826811,-0.0174923602164654,0.006117,-0.000449,0.005524,0.259594,0.025503,319.478897,24.509703,0.999579,0.991151,0.003709,0.374418,0.000015,0.000034,-0.000001,0.000034,0.000015,-88.420477,0.000050,
2506,2548,5.41570235999755,-2.10256275403977,0.00156190891368624,0.006061,-0.000260,0.002392,0.268490,0.022013,322.661708,23.815599,0.999784,0.990641,0.003913,0.328220,0.000014,-0.000036,-0.000012,0.000017,-0.000039,-13.163417,0.000039,
2431,2293,3.83054163291845,-7.68107952143226,0.00679508234310333,0.005786,-0.000384,0.003213,0.252991,0.013413,326.647706,22.999739,0.999174,0.980300,0.005432,0.382726,-0.000004,0.000006,-0.000020,0.000021,-0.000019,-51.726681,0.000024,
2461,2203,4.50336908671568,-9.65134752140789,-0.00661302641299244,0.006157,0.000081,0.000832,0.278668,0.025153,328.076448,22.529262,0.999134,0.982186,0.005314,0.399964,0.000023,0.000011,-0.000037,0.000054,-0.000020,-40.084680,0.000055,
2236,2863,-0.524730606754705,4.75177412693613,-0.0154825582213221,0.006203,0.000083,0.004622,0.270657,0.053451,317.279071,24.657520,0.999407,0.990928,0.003673,0.406626,-0.000003,0.000032,0.000006,0.000033,-0.000004,79.979595,0.000036,
2431,2083,3.87307387000471,-12.2846123051532,0.0213639677907622,0.005906,-0.000612,0.008951,0.236948,0.055826,330.144775,22.398683,0.998947,0.977169,0.006081,0.288964,0.000000,-0.000001,0.000001,0.000001,-0.000001,34.306024,0.000001,
2356,2038,2.24375776264362,-13.27249846441,0.022840447055728,0.006233,0.000454,-0.002809,0.295223,0.020354,330.865043,22.635310,0.998929,0.978628,0.005811,0.356198,0.000025,-0.000020,-0.000001,0.000025,-0.000020,-1.314232,0.000026,
2221,3013,-0.875270488428132,8.00785579909167,0.0107829540132229,0.005992,0.000358,0.004861,0.260698,0.068702,315.079589,24.800481,0.999469,0.991596,0.003663,0.439903,-0.000005,0.000011,-0.000003,0.000011,-0.000006,-80.183505,0.000011,
2326,2863,1.43124258683675,4.75583346051683,-0.0130946026745846,0.005638,-0.000130,0.004604,0.243419,0.036967,317.150463,24.740110,0.999683,0.992367,0.003636,0.441979,-0.000013,0.000032,0.000003,0.000032,-0.000013,86.186726,0.000032,
2416,1993,3.56566150674813,-14.2651604839432,0.0469684768073648,0.006087,-0.000578,0.002093,0.270409,-0.001678,331.819356,22.141932,0.999007,0.975939,0.006103,0.272624,-0.000026,-0.000081,-0.000003,-0.000026,-0.000081,-3.079401,0.000112,
2326,2128,1.57147935187767,-11.2976130679984,0.0273322823375111,0.005960,0.000000,-0.000930,0.276103,0.008287,329.434256,23.075033,0.999378,0.984353,0.005011,0.329509,0.000000,0.000002,-0.000009,0.000010,-0.000008,-48.089590,0.000010,
2356,3103,2.04057731066953,9.97147041575603,0.0185157948973256,0.005701,0.000072,0.005093,0.244672,0.057004,313.488816,25.467090,0.999591,0.991812,0.003697,0.390565,0.000011,0.000021,-0.000008,0.000026,0.000006,-60.694342,0.000034,
2311,2983,1.08549174253787,7.3620742154144,0.00993492761432435,0.006253,0.000145,0.001127,0.284049,0.037867,315.435642,24.998156,0.999744,0.995030,0.002979,0.416026,-0.000007,0.000002,0.000002,0.000002,-0.000008,78.497392,0.000008,
2371,3253,2.33842841555887,13.2261093165211,0.0200029382105527,0.006135,0.000369,0.003071,0.271954,0.065472,311.072243,25.853785,0.999701,0.993268,0.003217,0.468589,0.000002,0.000027,0.000006,0.000029,0.000001,77.991428,0.000034,
2386,2128,2.88102196270622,-11.2972420116066,0.0173712105337245,0.006119,-0.000180,0.004490,0.263941,0.047501,329.354962,22.702961,0.999094,0.976878,0.005704,0.395661,-0.000001,-0.000010,-0.000011,0.000007,-0.000018,-35.105179,0.000018,
2311,2083,1.25171542205615,-12.2819741951043,0.0203065282973398,0.006288,0.000204,0.002345,0.279976,0.067723,330.109750,23.137793,0.999390,0.983198,0.005167,0.306983,0.000003,0.000018,-0.000002,0.000019,0.000002,-81.983104,0.000023,
2476,2503,4.77009313626665,-3.08641922068212,-0.00838412085778373,0.006376,0.000141,-0.000031,0.292433,0.035227,323.250027,23.574221,0.999590,0.988217,0.004239,0.459371,0.000026,-0.000012,-0.000010,0.000029,-0.000014,-14.339997,0.000029,
2401,2023,3.23018181501751,-13.6035469253277,0.0283581982430974,0.006166,-0.000198,0.003986,0.267518,0.024876,331.157944,22.299679,0.998556,0.971654,0.006488,0.347560,-0.000004,-0.000047,-0.000013,-0.000001,-0.000051,-15.182903,0.000059,
2296,3133,0.732745609045573,10.6167392227809,0.0246392020270605,0.006225,0.000156,0.005405,0.268601,0.053324,313.105193,25.248011,0.999702,0.994793,0.003206,0.432092,-0.000002,0.000016,-0.000001,0.000016,-0.000002,-85.952371,0.000018,
2476,2443,4.7820464818028,-4.39728930767914,-0.00430050897773526,0.006043,-0.000154,0.003347,0.264140,0.022451,324.229760,23.430908,0.999079,0.986342,0.004791,0.357966,0.000028,0.000006,0.000005,0.000029,0.000005,12.585773,0.000037,
2431,2518,3.78596151455065,-2.76143591231486,0.00187853327742005,0.006206,-0.000343,0.002717,0.274451,0.033040,322.981373,23.661189,0.999148,0.985836,0.004624,0.514645,0.000011,-0.000006,-0.000015,0.000020,-0.000015,-30.216268,0.000021,
2476,2743,4.71933287109838,2.15216828126333,-0.0241584478441155,0.006155,-0.000022,0.004125,0.266941,0.056103,319.185651,24.519419,0.999709,0.992273,0.003575,0.452333,0.000011,0.000037,-0.000003,0.000037,0.000011,-84.257763,0.000050,
2131,2548,-2.75390174401557,-2.11163625240649,-0.0123062469341448,0.005788,0.000042,0.003134,0.256818,0.041173,322.741670,24.322157,0.998981,0.983652,0.004876,0.446372,-0.000006,0.000023,0.000003,0.000023,-0.000007,83.767586,0.000024,
2446,2593,4.09570018969915,-1.12010316305506,-0.0267106602507283,0.006121,0.000075,0.002109,0.273017,0.052570,321.547440,23.956260,0.999717,0.992729,0.003741,0.476678,0.000025,-0.000007,-0.000004,0.000025,-0.000008,-6.256964,0.000026,
2341,1993,1.92401882392589,-14.2609178055964,0.0309988424085645,0.005838,-0.000738,0.004531,0.251035,0.019763,331.610435,22.656098,0.998563,0.977868,0.006183,0.313472,0.000047,-0.000023,-0.000017,0.000051,-0.000027,-13.203082,0.000051,
2326,2983,1.41038617859955,7.36394622506291,4.83627757716931E-05,0.006011,0.000042,0.002484,0.268148,0.042583,315.326875,25.045093,0.999919,0.997171,0.002547,0.414048,-0.000007,0.000002,-0.000002,0.000002,-0.000007,-76.735433,0.000008,
2461,2218,4.50117574855526,-9.32363918342602,0.00369929505365008,0.006340,-0.000018,0.003193,0.278138,0.058986,327.919558,22.561424,0.999372,0.985798,0.005101,0.458545,0.000015,0.000005,-0.000037,0.000047,-0.000027,-40.893313,0.000047,
2356,2968,2.06459927623346,7.04140680479365,-0.00956208446257278,0.005895,0.000244,0.000678,0.269083,0.069474,315.485248,25.122625,0.999544,0.991640,0.003678,0.405766,-0.000007,0.000003,-0.000006,0.000005,-0.000010,-64.760590,0.000010,
2251,2908,-0.205103397604081,5.72995734848113,0.0022459882854946,0.006123,0.000729,-0.002262,0.289665,0.074556,316.681957,24.771339,0.999770,0.993287,0.003294,0.405155,-0.000006,0.000016,0.000010,0.000020,-0.000010,69.664377,0.000020,
2341,3103,1.71506194681304,9.9695285096906,0.021056808797141,0.005821,0.000015,0.004420,0.252710,0.052485,313.519905,25.360757,0.999581,0.993200,0.003416,0.434568,0.000006,0.000017,-0.000012,0.000025,-0.000002,-57.262601,0.000027,
2326,2143,1.56791328304861,-10.9674332615016,0.0187029937733314,0.006179,-0.000314,0.003732,0.270011,0.036925,329.114046,23.107831,0.999345,0.984723,0.005086,0.363204,-0.000002,-0.000007,-0.000009,0.000005,-0.000014,-36.265479,0.000014,
2476,2518,4.76670921761179,-2.75880711591514,-0.00607701129342786,0.006034,-0.000222,0.002071,0.268693,0.030814,323.001828,23.650631,0.999388,0.985272,0.004523,0.436338,0.000026,-0.000005,-0.000015,0.000032,-0.000011,-21.960097,0.000033,
2401,2038,3.22719983438163,-13.2740511042466,0.0278446096391463,0.006060,0.000336,0.002961,0.266611,0.053438,330.911024,22.319677,0.998696,0.972591,0.006322,0.405240,-0.000005,-0.000044,-0.000016,0.000001,-0.000050,-19.929499,0.000057,
2386,2143,2.87759192787594,-10.9679030485589,0.014147847624713,0.005779,-0.000124,0.003763,0.250986,0.059569,329.073045,22.735060,0.999010,0.975207,0.005809,0.422230,-0.000004,-0.000013,-0.000015,0.000008,-0.000024,-37.141640,0.000025,
2416,2008,3.56271685465965,-13.9368344050693,0.0481720357453241,0.006013,-0.000194,0.002487,0.265739,0.025016,331.583701,22.064374,0.998970,0.973764,0.006276,0.428382,-0.000017,-0.000070,-0.000011,-0.000014,-0.000073,-11.564980,0.000093,
2311,2713,1.13267805689098,1.49069690950379,-0.0194464966573946,0.005757,0.000168,0.000789,0.262000,0.042974,319.567312,24.394286,0.999522,0.990423,0.003938,0.449798,0.000002,0.000026,0.000003,0.000026,0.000001,83.222987,0.000031,
2251,3133,-0.244210791222034,10.612817410733,0.0307109811155897,0.005872,-0.000042,0.007584,0.245886,0.069673,313.203154,25.057001,0.999396,0.991834,0.003716,0.452558,-0.000008,0.000012,-0.000004,0.000013,-0.000009,-79.679137,0.000013,
2476,2458,4.77925513845211,-4.06976646751841,-0.00227998499246951,0.006153,-0.000191,0.003502,0.268620,0.033695,324.007771,23.461538,0.999133,0.986554,0.004737,0.396617,0.000038,0.000003,0.000005,0.000039,0.000003,7.782411,0.000046,
2506,2653,5.39144055258631,0.19123855848656,-0.0228817537700365,0.005785,-0.000342,0.004108,0.249326,0.031269,320.728436,24.204380,0.999593,0.987816,0.004440,0.382398,-0.000008,0.000031,-0.000017,0.000037,-0.000015,-69.108194,0.000038,
2431,2533,3.78255270050796,-2.43283762284028,0.00130320049294141,0.005879,-0.000557,0.003347,0.257053,0.014052,322.715105,23.820298,0.999373,0.988232,0.004315,0.387509,0.000015,-0.000013,-0.000014,0.000020,-0.000019,-22.306470,0.000023,
2461,2428,4.45797265866988,-4.726795611771,0.00033059654117551,0.006264,-0.000495,0.007719,0.257853,0.050268,324.470212,23.308525,0.999289,0.985511,0.004841,0.492357,0.000027,0.000031,-0.000001,0.000031,0.000027,-81.386431,0.000058,
2446,2233,4.17124122334642,-8.99588124057274,0.0162817020026864,0.005826,0.000371,-0.000426,0.268398,0.019954,327.740435,22.761719,0.999026,0.980158,0.005492,0.346599,0.000001,0.000015,-0.000019,0.000028,-0.000012,-54.785222,0.000028,
2446,2383,4.14045535247616,-5.71024706207313,0.00265835834505879,0.006174,0.000269,-0.001018,0.286768,0.042231,325.216298,23.296656,0.999750,0.988365,0.004502,0.376936,0.000016,0.000016,-0.000001,0.000018,0.000015,-48.843799,0.000032,
2506,2863,5.34814830862058,4.76750000586348,-0.0262201686535946,0.006193,-0.000040,0.003824,0.269667,0.053146,317.294412,25.020242,0.999759,0.992459,0.003472,0.445751,0.000020,0.000038,-0.000001,0.000038,0.000020,-85.803417,0.000059,
2341,2188,1.88650074526621,-9.98059414816525,0.0139802024477262,0.006141,-0.000670,0.005578,0.261682,0.005487,328.338117,23.183663,0.999236,0.986030,0.004838,0.290297,-0.000016,-0.000005,-0.000019,0.000009,-0.000031,-53.057139,0.000032,
2356,3118,2.03863557123478,10.2960543374705,0.0237672583373865,0.006096,0.000173,0.003677,0.267859,0.055903,313.310841,25.445902,0.999576,0.992090,0.003652,0.448463,0.000013,0.000026,-0.000007,0.000029,0.000010,-66.092616,0.000041,
2236,3088,-0.562145360219343,9.63655394214911,0.0162790211427364,0.006090,0.000206,0.001474,0.276049,0.049560,313.879912,24.975546,0.999581,0.992201,0.003475,0.391456,-0.000009,-0.000003,-0.000006,0.000000,-0.000013,-57.128116,0.000014,
2401,2383,3.15780415751248,-5.7104181002849,-0.00264174945874629,0.006150,-0.000064,0.001275,0.277276,0.024527,325.094121,23.433403,0.999233,0.984812,0.004830,0.369624,0.000002,0.000010,0.000010,0.000017,-0.000004,56.332192,0.000017,
2491,2818,5.03101295170209,3.78634253852481,-0.0222102163261866,0.006180,-0.000045,0.003821,0.269164,0.058454,318.019599,24.796157,0.999296,0.988153,0.004475,0.476979,0.000022,0.000027,-0.000012,0.000036,0.000012,-50.626829,0.000050,
2461,2233,4.49771341997304,-8.9953002997357,0.0147767673078647,0.005449,-0.000612,0.008583,0.216952,0.044117,327.708048,22.711880,0.999115,0.981846,0.005389,0.349624,0.000011,0.000010,-0.000025,0.000035,-0.000015,-44.444998,0.000036,
2341,2008,1.92110768622269,-13.9307962136169,0.0306394831230818,0.005711,-0.000072,0.003953,0.247519,0.049368,331.362218,22.721850,0.998450,0.975756,0.006468,0.317895,0.000038,-0.000039,-0.000018,0.000042,-0.000043,-12.391811,0.000049,
2431,2098,3.87014147481566,-11.9555055865542,0.0228609451758643,0.005673,-0.000374,0.006985,0.233608,0.051909,329.911999,22.460529,0.999494,0.980727,0.005744,0.276317,-0.000003,-0.000010,-0.000014,0.000008,-0.000021,-38.642276,0.000021,
2506,2563,5.41267788833481,-1.77631760843536,-0.000345994590531973,0.006273,-0.000045,0.002121,0.279400,0.046651,322.413360,23.713793,0.999794,0.991206,0.003864,0.516745,0.000013,0.000002,-0.000012,0.000020,-0.000006,-32.217839,0.000021,
2461,2128,4.52102061463973,-11.298752972758,0.0196894500498956,0.006468,-0.000100,0.001146,0.291487,0.045820,329.520892,22.268799,0.999581,0.976149,0.005820,0.394083,0.000015,-0.000019,-0.000010,0.000018,-0.000022,-15.379721,0.000023,
2416,2233,3.5157706005594,-8.99531194662462,0.0135195545832971,0.006031,0.000142,0.001268,0.271581,0.047238,327.669171,22.884902,0.999353,0.985064,0.005021,0.393376,-0.000008,0.000015,-0.000014,0.000022,-0.000015,-63.986909,0.000022,
2461,2698,4.40206021762468,1.17117247867106,-0.0209053710019589,0.006157,0.000424,0.001898,0.275737,0.082648,319.919876,24.393844,0.999674,0.988317,0.004290,0.436014,0.000001,0.000029,-0.000008,0.000031,-0.000001,-74.545078,0.000036,
2371,2053,2.56917319514894,-12.9427513359909,0.0255354395502536,0.006705,0.000295,0.000297,0.305821,0.033966,330.662610,22.668659,0.999146,0.979465,0.005577,0.280952,0.000010,-0.000026,-0.000008,0.000012,-0.000028,-12.300546,0.000028,
2461,2443,4.45568633849286,-4.39832504628629,0.000345010231797005,0.006512,0.000116,0.001685,0.292164,0.035528,324.261147,23.427818,0.999035,0.985183,0.004894,0.414239,0.000025,0.000004,0.000000,0.000025,0.000004,1.167974,0.000031,
2311,2998,1.08288399152609,7.68754665422476,0.0140341665604069,0.006274,0.000050,0.003278,0.277737,0.055741,315.218694,25.002839,0.999897,0.996446,0.002833,0.460776,-0.000009,0.000005,0.000000,0.000005,-0.000009,-88.492773,0.000009,
2236,2878,-0.52649227923057,5.07642515102424,-0.00433649451127849,0.006174,0.000003,0.002952,0.274668,0.030170,317.132659,24.648545,0.999534,0.991578,0.003607,0.412848,-0.000006,0.000030,0.000007,0.000031,-0.000008,78.731557,0.000033,
2476,2533,4.76338472705422,-2.43014554664563,-0.0118729005894238,0.006140,0.000162,0.000720,0.278844,0.030585,322.719375,23.751070,0.999662,0.988462,0.004008,0.393370,0.000030,-0.000007,-0.000012,0.000033,-0.000010,-16.096894,0.000034,
2371,3088,2.36967054471836,9.6463678903335,0.0205057351191726,0.005910,0.000053,0.006043,0.250561,0.043756,313.760373,25.451068,0.999410,0.990669,0.003891,0.411168,0.000003,0.000016,-0.000009,0.000020,-0.000002,-63.516316,0.000022,
2491,2833,5.0278373614222,4.11276748641865,-0.0232772162399897,0.005973,0.000003,0.001499,0.268588,0.044187,317.765325,24.842466,0.999375,0.988400,0.004272,0.475020,0.000030,0.000030,-0.000006,0.000036,0.000025,-45.759696,0.000061,
2506,2668,5.38919560937779,0.51721589327542,-0.01743125864283,0.006174,-0.000169,0.004090,0.267354,0.039217,320.548280,24.191283,0.999521,0.986341,0.004590,0.464880,-0.000007,0.000019,-0.000014,0.000026,-0.000013,-66.585777,0.000026,
2401,2398,3.15496420279116,-5.38275945931922,-0.00192068252732724,0.006119,-0.000024,0.000618,0.278265,0.030898,324.858291,23.448772,0.999319,0.985962,0.004736,0.407759,0.000009,0.000019,0.000011,0.000026,0.000002,57.380059,0.000031,
2446,2608,4.09381225778469,-0.793664417368724,-0.0102800394345195,0.006390,-0.000565,0.008189,0.262508,0.062565,321.430466,24.060535,0.999432,0.988761,0.004203,0.434995,0.000026,-0.000003,-0.000004,0.000026,-0.000003,-7.231298,0.000029,
2236,3103,-0.564946049698911,9.96101028308618,0.0163414230049739,0.006020,0.000011,0.002560,0.269246,0.045425,313.628941,24.907880,0.999597,0.992627,0.003440,0.475139,-0.000010,0.000000,-0.000005,0.000002,-0.000012,-67.826679,0.000013,
2461,2713,4.39878056818318,1.49781501343394,-0.0195486165160901,0.006139,0.000163,0.006119,0.258903,0.080391,319.670133,24.431115,0.999654,0.990577,0.003930,0.451318,0.000003,0.000043,-0.000007,0.000044,0.000002,-81.026365,0.000052,
2371,3268,2.33462345865562,13.5518032109564,0.0110338487597801,0.005849,0.000295,0.002303,0.261508,0.056948,310.740091,25.898954,0.999714,0.993613,0.003232,0.454371,-0.000001,0.000024,0.000005,0.000025,-0.000002,79.916321,0.000027,
2371,2263,2.52668733170896,-8.33644291884418,0.00241132973116009,0.006069,0.000171,-0.000125,0.278550,0.036951,327.054501,23.227002,0.999316,0.986701,0.004735,0.341375,-0.000014,-0.000010,-0.000012,0.000000,-0.000024,-49.587375,0.000028,
2431,2308,3.82826786808701,-7.35218184983513,0.0132210028835402,0.005973,-0.000093,0.003187,0.261782,0.045145,326.466820,23.129583,0.999234,0.982777,0.005036,0.336560,-0.000008,0.000002,-0.000018,0.000016,-0.000021,-52.808126,0.000022,
2461,2143,4.51739816346575,-10.9686175274276,0.0122633168825246,0.006440,0.000322,0.000424,0.293093,0.047740,329.218014,22.339148,0.999128,0.976247,0.005854,0.383378,0.000018,-0.000009,-0.000016,0.000026,-0.000017,-25.301767,0.000026,
2416,2458,3.46963873311995,-4.06953670032535,-0.0138912181562887,0.006260,0.000552,0.000300,0.286185,0.064726,323.811276,23.588769,0.999405,0.986658,0.004649,0.452258,0.000012,0.000001,0.000005,0.000014,-0.000002,21.703601,0.000015,
2131,2563,-2.75659934038368,-1.78272661294613,-0.0223876516993187,0.006173,0.000241,0.002837,0.275535,0.056947,322.432741,24.397391,0.999206,0.987532,0.004456,0.393865,-0.000009,0.000018,-0.000003,0.000018,-0.000009,-83.908816,0.000018,
2401,2188,3.19761232127874,-9.9819621659394,0.0189445343314105,0.006082,0.000224,-0.001038,0.282257,0.025101,328.433212,22.835219,0.999249,0.983307,0.005090,0.347385,-0.000009,0.000003,-0.000027,0.000025,-0.000031,-51.361392,0.000033,
2356,2983,2.0624019013127,7.36672074491718,-0.00316019666161083,0.006188,0.000311,0.002460,0.276281,0.063749,315.301245,25.150156,0.999443,0.988842,0.004121,0.410693,-0.000005,0.000001,-0.000009,0.000008,-0.000011,-54.670646,0.000011,
2506,2878,5.34643746593803,5.09238338086436,-0.0112119155743926,0.006139,0.000164,0.001898,0.274717,0.049963,317.180751,25.045097,0.999727,0.992925,0.003419,0.478371,0.000017,0.000026,-0.000004,0.000027,0.000015,-68.576311,0.000043,
2386,2368,2.83306303902337,-6.03905874526102,-0.00290435052477278,0.006110,-0.000463,0.005454,0.260356,0.035066,325.303996,23.382626,0.998899,0.982965,0.005093,0.434802,-0.000004,0.000014,0.000016,0.000023,-0.000013,60.173024,0.000023,
2416,2023,3.55860517548541,-13.6034543990249,0.0359241561342856,0.006024,-0.000316,0.004468,0.259052,0.018323,331.231803,22.334413,0.998668,0.974940,0.006159,0.203667,-0.000016,-0.000050,-0.000011,-0.000013,-0.000054,-16.408039,0.000070,
2356,2053,2.24181356569602,-12.9445668088582,0.0380715844500514,0.006168,0.000299,0.000103,0.281960,0.036869,330.737256,22.705804,0.998997,0.980792,0.005386,0.343705,0.000022,-0.000020,-0.000001,0.000022,-0.000020,-1.174006,0.000025,
2476,2758,4.71697140188456,2.47722958615078,-0.0182445352484706,0.006124,-0.000002,0.001490,0.275517,0.037557,319.000086,24.477109,0.999570,0.990070,0.003921,0.532848,0.000017,0.000036,-0.000006,0.000038,0.000015,-73.160955,0.000055,
2461,2248,4.49580232548115,-8.66703310909218,0.0144277023028394,0.006018,0.000123,0.001580,0.269592,0.051783,327.515472,22.719223,0.998930,0.979492,0.005451,0.406609,0.000016,-0.000007,-0.000021,0.000029,-0.000019,-30.584943,0.000029,
2311,3193,1.04842344512001,11.9188608909602,0.0335210085510766,0.006445,0.000240,0.002509,0.288625,0.062339,312.202382,25.420321,0.999712,0.993640,0.003287,0.455516,0.000009,0.000026,-0.000002,0.000026,0.000009,-84.441253,0.000037,
2491,2623,5.07178281384693,-0.466563037080164,-0.00885706392676866,0.005839,-0.000285,0.004290,0.251294,0.056187,321.293476,23.936844,0.999842,0.994169,0.003432,0.564771,0.000020,-0.000002,-0.000007,0.000022,-0.000004,-17.029022,0.000024,
2341,2023,1.91891529982402,-13.6025604557695,0.0312048046041014,0.006260,-0.000064,0.003885,0.272947,0.031435,331.151734,22.679124,0.998718,0.977203,0.006144,0.382792,0.000031,-0.000027,-0.000010,0.000032,-0.000029,-9.395453,0.000035,
2356,2218,2.20870878284752,-9.32327088490392,0.0120795469798622,0.006270,0.000351,0.000477,0.285656,0.045521,327.863551,23.141154,0.998798,0.979342,0.005660,0.378199,-0.000016,0.000003,-0.000023,0.000018,-0.000031,-56.743520,0.000031,
2416,2248,3.51305564973951,-8.66696705137739,0.0164207699752978,0.006004,0.000350,0.000939,0.271659,0.068484,327.450957,22.918990,0.999233,0.983112,0.005177,0.430708,-0.000004,-0.000002,-0.000014,0.000011,-0.000017,-46.765127,0.000017,
2221,3028,-0.877980828035323,8.33322616322198,0.00669405105355736,0.006056,0.000006,0.002825,0.270113,0.052626,314.810177,24.781400,0.999626,0.993884,0.003244,0.461003,-0.000003,0.000005,-0.000004,0.000007,-0.000005,-68.098260,0.000007,
2251,3148,-0.246639528200387,10.9378845629663,0.0303504195262008,0.005865,0.000002,0.003518,0.258870,0.046736,312.967922,25.072722,0.998665,0.988296,0.004394,0.436085,-0.000007,0.000019,-0.000004,0.000019,-0.000007,-82.190344,0.000020,
2506,2893,5.343737966553,5.41967072605268,-0.0073879880782215,0.006034,0.000521,-0.000285,0.278552,0.073908,316.970828,25.185135,0.999610,0.990385,0.003953,0.422936,0.000021,0.000021,-0.000004,0.000026,0.000017,-43.857460,0.000043,
2341,3118,1.71325483369015,10.2946659982941,0.0299098246457561,0.006166,0.000127,0.004403,0.268687,0.055244,313.364590,25.408726,0.999562,0.993033,0.003508,0.424902,0.000009,0.000022,-0.000011,0.000028,0.000003,-60.260336,0.000034,
2356,3133,2.03601014888106,10.6219747127785,0.0253220764701609,0.006203,0.000299,0.003658,0.272977,0.064404,313.083044,25.518901,0.999522,0.991537,0.003771,0.421781,0.000013,0.000029,-0.000007,0.000032,0.000010,-69.495697,0.000044,
2371,2068,2.56539700531412,-12.6144737037082,0.0244353270280726,0.006024,0.000034,0.002317,0.267446,0.035470,330.374014,22.609201,0.999426,0.981215,0.005133,0.386560,0.000009,-0.000012,-0.000001,0.000009,-0.000012,-3.709607,0.000013,
2506,2683,5.38497986761667,0.845879705717905,-0.0297514932228751,0.006114,-0.000359,0.004043,0.264699,0.027872,320.197530,24.301786,0.999674,0.990467,0.003842,0.404737,-0.000004,0.000025,-0.000004,0.000026,-0.000005,-82.624143,0.000027,
2491,2638,5.06773620757238,-0.136877337079326,-0.0218857838516442,0.006167,-0.000390,0.006498,0.257861,0.056043,320.945817,24.106655,0.999517,0.989057,0.004118,0.454537,0.000014,0.000013,-0.000013,0.000027,0.000000,-43.817060,0.000031,
2356,2068,2.23870666236121,-12.6155498006353,0.0395949265282525,0.006003,0.000009,0.003060,0.263971,0.041071,330.490472,22.739002,0.999200,0.980402,0.005331,0.357003,0.000019,-0.000009,0.000004,0.000019,-0.000009,7.577838,0.000019,
2431,2548,3.78009259612303,-2.10519232367006,0.0061750371842777,0.006110,-0.000319,0.004710,0.262760,0.029167,322.517653,23.911037,0.999682,0.990610,0.003850,0.362655,0.000014,-0.000018,-0.000011,0.000017,-0.000021,-17.170781,0.000022,
2476,2773,4.7129519451978,2.80612780009223,-0.0260392032793106,0.005890,-0.000118,0.002373,0.261424,0.042170,318.675021,24.660971,0.999250,0.986775,0.004347,0.410304,0.000018,0.000032,-0.000012,0.000039,0.000011,-60.040536,0.000052,
2401,2413,3.15220157666517,-5.05520780958187,0.00379733678465755,0.006226,-0.000245,0.005700,0.264702,0.048082,324.649414,23.495922,0.999420,0.986349,0.004652,0.424878,0.000007,0.000013,0.000011,0.000022,-0.000002,52.669171,0.000025,
2356,2998,2.05968678702567,7.69238577156569,0.0044072493958538,0.006016,0.000133,0.006047,0.255707,0.072870,315.098885,25.206417,0.999635,0.992251,0.003566,0.401460,-0.000004,0.000006,-0.000008,0.000011,-0.000009,-61.049528,0.000011,
2251,2923,-0.208382659369022,6.05547762823361,-0.00376587148798535,0.006202,0.000185,0.001325,0.281379,0.057096,316.379291,24.723866,0.999703,0.993359,0.003386,0.458121,-0.000006,0.000015,0.000007,0.000017,-0.000008,73.821200,0.000017,
2386,2383,2.83020593887801,-5.71088319069852,-0.0030078322809004,0.005990,-0.000380,0.003355,0.262418,0.015875,325.062349,23.457787,0.999176,0.984086,0.005025,0.385421,0.000003,0.000008,0.000009,0.000015,-0.000004,52.827796,0.000016,
2401,2203,3.19476725451786,-9.6540869287216,0.0195593629950395,0.006189,0.000041,0.000053,0.283163,0.016853,328.197513,22.816260,0.999153,0.981699,0.005331,0.406212,-0.000011,0.000011,-0.000024,0.000026,-0.000026,-57.662548,0.000030,
2131,2578,-2.75965779854258,-1.45485841136232,-0.0285153055119736,0.006082,0.000037,0.004763,0.265599,0.063838,322.128629,24.426839,0.999550,0.992422,0.003903,0.378167,-0.000014,0.000013,-0.000005,0.000014,-0.000015,-78.931736,0.000016,
2311,2728,1.1299493758148,1.81693967148274,-0.0171134504470274,0.005838,-0.000218,0.003741,0.255568,0.041299,319.336640,24.404530,0.999501,0.989843,0.004004,0.470108,0.000003,0.000020,0.000005,0.000022,0.000001,74.296734,0.000026,
2311,3013,1.07910394600631,8.01480743756344,0.00248556481892592,0.006181,-0.000020,0.003861,0.271478,0.055373,314.870078,25.089130,0.999567,0.990974,0.003677,0.405577,-0.000008,-0.000001,-0.000002,0.000000,-0.000008,-73.608161,0.000010,
2506,2908,5.33980416533785,5.74644541850142,-0.0152012122312044,0.006029,0.000423,0.001697,0.270589,0.053316,316.652091,25.242621,0.999622,0.989186,0.004018,0.405466,0.000022,-0.000005,-0.000007,0.000024,-0.000007,-12.793849,0.000024,
2356,2233,2.2051846160753,-8.99458476276234,0.0100611914102728,0.005892,0.000057,0.002486,0.261204,0.036658,327.580130,23.180217,0.998317,0.976102,0.006077,0.371885,-0.000018,0.000001,-0.000014,0.000009,-0.000026,-61.895038,0.000026,
2506,2578,5.4082040433872,-1.44598528819289,-0.0152054803586452,0.006150,0.000145,0.001707,0.275444,0.055876,322.039835,23.894559,0.999574,0.987681,0.004524,0.407783,0.000006,-0.000004,-0.000013,0.000015,-0.000013,-35.160120,0.000017,
2446,2248,4.16810287004393,-8.66661133411679,0.0128647169942724,0.005976,0.000287,-0.000451,0.275376,0.015946,327.476144,22.840883,0.999018,0.979801,0.005512,0.318195,0.000007,-0.000003,-0.000018,0.000020,-0.000016,-37.542380,0.000021,
2431,2113,3.8678895788509,-11.6281887644497,0.0289231750322188,0.005849,-0.000308,0.006409,0.243834,0.045392,329.731599,22.416414,0.999438,0.979470,0.005759,0.366617,-0.000009,-0.000005,-0.000019,0.000012,-0.000026,-47.781822,0.000026,
2326,2158,1.56489151708874,-10.6389759450483,0.0178348367222725,0.006055,0.000083,0.004603,0.261533,0.062627,328.856682,23.075711,0.999216,0.983631,0.005142,0.458539,-0.000010,-0.000007,-0.000016,0.000008,-0.000025,-47.462943,0.000026,
2446,2398,4.13637163732859,-5.38184300678986,-0.00529564402262395,0.005899,0.000331,0.000906,0.267103,0.051775,324.887010,23.294335,0.999688,0.987592,0.004615,0.443173,0.000024,0.000022,0.000000,0.000024,0.000022,-3.927900,0.000046,
2461,2263,4.49245197118917,-8.33745345968,0.00980634596692198,0.006137,-0.000027,0.002125,0.272957,0.044322,327.237254,22.823646,0.999077,0.979753,0.005456,0.351783,0.000018,-0.000015,-0.000027,0.000033,-0.000031,-29.384973,0.000037,
2326,2998,1.40793086895342,7.68936367293233,0.00470138893933836,0.006019,0.000147,0.002692,0.267868,0.053447,315.120612,25.056360,0.999794,0.994968,0.003017,0.447466,-0.000008,0.000005,-0.000003,0.000005,-0.000009,-77.587644,0.000009,
2491,2848,5.02515811649444,4.44057421249892,-0.0238291263722772,0.006032,0.000458,-0.003122,0.289263,0.048208,317.535772,25.005954,0.999595,0.991354,0.003754,0.374355,0.000023,0.000042,-0.000011,0.000047,0.000018,-65.928459,0.000067,
2446,2623,4.09066024090271,-0.466343581023658,-0.0100336016272422,0.005938,-0.000079,0.004775,0.254710,0.062625,321.180690,24.120210,0.999577,0.989234,0.003991,0.428246,0.000024,0.000009,-0.000009,0.000028,0.000005,-26.082088,0.000036,
2431,2323,3.82507771337492,-7.02461988743584,0.0103627675767939,0.006009,-0.000047,0.003508,0.262289,0.054909,326.201128,23.071426,0.999188,0.982296,0.005040,0.456625,-0.000014,0.000005,-0.000012,0.000011,-0.000019,-64.172836,0.000019,
2341,2203,1.8837833147218,-9.65184598706673,0.0109947270307202,0.006208,0.000001,0.002392,0.276095,0.032967,328.085568,23.170702,0.999158,0.983491,0.005165,0.370041,-0.000020,0.000007,-0.000020,0.000017,-0.000030,-62.097033,0.000030,
2311,3208,1.04564273663629,12.2444483583181,0.0406435815136206,0.006039,0.000633,0.004130,0.264542,0.081308,311.991826,25.501922,0.999712,0.993027,0.003320,0.423299,0.000008,0.000028,-0.000001,0.000028,0.000008,-87.528715,0.000038,
2461,2728,4.39614417241519,1.82453200982658,-0.0153509018145428,0.006219,-0.000149,0.006550,0.260798,0.040001,319.462960,24.540440,0.999624,0.992137,0.003598,0.355861,0.000006,0.000036,-0.000002,0.000036,0.000006,-85.645670,0.000045,
2506,2923,5.33562518230638,6.07390507317119,-0.026318285500281,0.006184,0.000010,0.005092,0.264433,0.051101,316.306960,25.326658,0.999536,0.987200,0.004123,0.380201,0.000018,-0.000012,-0.000017,0.000025,-0.000020,-24.127611,0.000026,
2476,2788,4.71023621582633,3.13311989378102,-0.0239991738659455,0.006058,0.000215,0.002408,0.269178,0.060879,318.454898,24.737190,0.999271,0.985812,0.004420,0.409566,0.000018,0.000032,-0.000015,0.000041,0.000009,-57.681111,0.000053,
2371,3283,2.33156713410605,13.8769456931897,0.00637843670256188,0.006033,0.000180,0.002280,0.270065,0.050936,310.463276,25.919063,0.999693,0.993172,0.003298,0.467936,0.000000,0.000009,0.000004,0.000011,-0.000001,68.858560,0.000012,
2416,2038,3.55435494043217,-13.2745453265826,0.0279931407608274,0.005419,-0.000365,0.005336,0.228234,0.032218,330.893730,22.232064,0.998825,0.975254,0.006060,0.371893,-0.000014,-0.000045,-0.000013,-0.000009,-0.000050,-19.651763,0.000064,
2401,2053,3.22367348103885,-12.9430314421421,0.022298274230252,0.006064,-0.000465,0.004837,0.259711,0.038975,330.615629,22.471117,0.999007,0.976368,0.006058,0.288651,-0.000002,-0.000034,-0.000011,0.000002,-0.000038,-17.432569,0.000042,
2416,2263,3.50990734063495,-8.33842379979795,0.0171926871338997,0.005940,-0.000037,0.003357,0.259763,0.037382,327.203098,23.006684,0.999225,0.983038,0.005104,0.361929,-0.000006,-0.000007,-0.000018,0.000011,-0.000024,-44.307556,0.000024,
2446,2413,4.13387480828292,-5.0537725484274,0.000900215378123903,0.005947,0.000651,0.001471,0.267344,0.076106,324.695518,23.387064,0.999699,0.987891,0.004638,0.428253,0.000021,0.000015,0.000003,0.000022,0.000013,24.973590,0.000036,
2491,2863,5.02221443821799,4.76604310915239,-0.0221211533524297,0.006107,0.000176,-0.002023,0.288426,0.047560,317.304713,24.980190,0.999639,0.991005,0.003717,0.457976,0.000023,0.000036,-0.000013,0.000044,0.000016,-58.442232,0.000062,
2446,2263,4.16521420260322,-8.3381324847787,0.0172002866993353,0.005998,-0.000201,0.002653,0.264645,0.024994,327.258849,22.919427,0.998969,0.979043,0.005684,0.303079,0.000005,-0.000010,-0.000024,0.000023,-0.000028,-36.040414,0.000029,
2251,3163,-0.248759827163191,11.2637904275406,0.0362745213791982,0.006024,0.000352,0.003715,0.265753,0.066103,312.778441,25.165181,0.999206,0.990571,0.003887,0.385107,-0.000004,0.000022,-0.000004,0.000022,-0.000005,-82.363286,0.000024,
2431,2128,3.86543599845552,-11.299659289505,0.0359926431263489,0.005543,0.000236,0.003259,0.241688,0.053970,329.546380,22.483375,0.999598,0.980546,0.005786,0.360981,-0.000007,-0.000011,-0.000019,0.000010,-0.000028,-42.120723,0.000028,
2296,3148,0.729682504868379,10.942213800667,0.0286952367254116,0.005596,0.000208,0.005060,0.240899,0.067084,312.865778,25.292787,0.999598,0.993453,0.003494,0.430006,-0.000001,0.000017,-0.000001,0.000017,-0.000001,-88.169440,0.000020,
2431,2338,3.82168267268936,-6.69569289235814,0.0076053423674125,0.005990,-0.000552,0.005584,0.253590,0.033849,325.926375,23.175514,0.999089,0.983138,0.004850,0.383319,-0.000009,0.000014,-0.000007,0.000016,-0.000011,-74.047006,0.000016,
2506,2593,5.40450269821514,-1.11689852583688,-0.0259444012252743,0.006296,0.000135,-0.000439,0.290434,0.034903,321.720394,24.033689,0.999832,0.994071,0.003559,0.309812,0.000008,-0.000013,-0.000014,0.000015,-0.000021,-26.733787,0.000021,
2341,2218,1.88096204521146,-9.32351534877579,0.0106994962717977,0.005941,0.000248,-0.001164,0.276295,0.033185,327.841400,23.180524,0.999043,0.982957,0.005287,0.399785,-0.000021,0.000001,-0.000023,0.000015,-0.000035,-57.691748,0.000035,
2476,2548,4.76023961961765,-2.10316472624388,-0.0112599775501963,0.006050,0.000134,0.001368,0.272285,0.041932,322.474362,23.748282,0.999658,0.988006,0.004141,0.465238,0.000027,-0.000020,-0.000010,0.000029,-0.000022,-11.311806,0.000030,
2431,2563,3.77642047276698,-1.77739707549017,0.0013753865309809,0.006034,-0.000385,0.007580,0.248683,0.041682,322.219599,23.937233,0.999534,0.989714,0.004035,0.400241,0.000015,0.000001,-0.000009,0.000019,-0.000003,-25.544816,0.000020,
2416,2053,3.55236289286042,-12.9453988157121,0.0319486571000311,0.005831,-0.000326,0.002447,0.257635,0.019637,330.714470,22.316767,0.998852,0.975877,0.006004,0.325366,-0.000009,-0.000035,-0.000008,-0.000007,-0.000038,-15.835801,0.000048,
2386,2158,2.87508215969095,-10.638586804367,0.0154082710217267,0.006015,-0.000133,0.003103,0.264178,0.034172,328.854608,22.856064,0.999295,0.979784,0.005423,0.321595,-0.000006,-0.000013,-0.000024,0.000015,-0.000033,-40.689870,0.000034,
2401,2428,3.14914392657235,-4.72687571462338,-0.00407544107417834,0.006185,0.000175,-0.000959,0.287096,0.029923,324.363054,23.525818,0.999399,0.986241,0.004632,0.424083,0.000009,0.000015,0.000008,0.000020,0.000003,55.402461,0.000025,
2311,2743,1.12792607734074,2.14360895013864,-0.0124006786861628,0.006245,0.000136,0.003978,0.273627,0.063636,319.149874,24.453009,0.999544,0.990644,0.003903,0.476357,0.000001,0.000019,0.000005,0.000021,0.000000,75.420100,0.000024,
2491,2878,5.01965201388656,5.09045642752763,-0.0101865285456029,0.005971,-0.000316,0.002285,0.265382,0.024272,317.137531,24.959019,0.999502,0.992488,0.003590,0.514098,0.000021,0.000026,-0.000013,0.000037,0.000010,-50.670362,0.000050,
2401,2218,3.19164071264039,-9.32347411568405,0.0173067323847818,0.006173,0.000270,0.000022,0.282698,0.038700,327.934935,22.992754,0.999259,0.982431,0.005411,0.299991,-0.000009,0.000006,-0.000022,0.000022,-0.000024,-54.528366,0.000027,
2356,3013,2.05675812987605,8.01799142147684,0.00208737370792278,0.005864,0.000339,0.002805,0.260204,0.062032,314.838957,25.213872,0.999643,0.991305,0.003687,0.421329,-0.000003,0.000000,-0.000011,0.000009,-0.000012,-48.681937,0.000013,
2356,2083,2.23464423410882,-12.2838154234212,0.0237583232502061,0.006138,-0.000043,0.004755,0.264203,0.064226,330.116298,22.815089,0.999447,0.982157,0.005078,0.347170,0.000016,0.000010,0.000005,0.000019,0.000007,29.267424,0.000026,
2446,2428,4.12970696794769,-4.72523920765661,-0.00765006168370519,0.005881,-0.000399,0.006263,0.246078,0.047099,324.359578,23.440731,0.999188,0.985696,0.004875,0.399818,0.000018,0.000023,0.000000,0.000023,0.000018,85.747437,0.000041,
2446,2638,4.08744070160032,-0.138130480176585,-0.0164328851757318,0.006095,0.000413,0.002945,0.268922,0.061470,320.896959,24.211435,0.999614,0.990159,0.003922,0.388852,0.000015,0.000021,-0.000013,0.000031,0.000005,-51.005208,0.000039,
2401,2068,3.21971526788144,-12.6142765951104,0.0149009529988575,0.005789,-0.000820,0.007147,0.238701,0.032334,330.291826,22.393981,0.999322,0.979326,0.005951,0.408567,-0.000001,-0.000015,-0.000005,0.000001,-0.000017,-18.000600,0.000019,
2311,3028,1.07682417228716,8.33972097727442,0.012313924900468,0.005962,0.000123,0.004136,0.260522,0.061838,314.696575,25.099878,0.999653,0.991052,0.003671,0.432751,-0.000006,-0.000003,-0.000001,-0.000003,-0.000007,-77.201753,0.000010,
2356,2248,2.2026080210491,-8.66573894475227,0.0059601031374541,0.006484,-0.000001,0.002703,0.287563,0.043890,327.329977,23.201740,0.998988,0.981907,0.005354,0.398700,-0.000014,-0.000016,-0.000015,-0.000001,-0.000030,-43.004391,0.000035,
2356,3148,2.03337120438701,10.9468942063461,0.0306295631834246,0.006163,-0.000049,0.005659,0.263974,0.059090,312.873047,25.539921,0.999526,0.992107,0.003684,0.433019,0.000012,0.000027,-0.000007,0.000029,0.000009,-69.676237,0.000041,
2371,2278,2.52459652943429,-8.00902531956708,0.0168317462877212,0.005627,0.000311,-0.001278,0.262473,0.028301,326.916438,23.333045,0.999774,0.994087,0.003530,0.269372,-0.000014,0.000002,-0.000009,0.000006,-0.000018,-65.695223,0.000018,
2416,2473,3.46714648562848,-3.74342077343393,-0.00489492328506458,0.005869,0.000519,-0.001171,0.273603,0.043961,323.631262,23.591647,0.999213,0.986115,0.004724,0.477474,0.000009,-0.000006,0.000004,0.000010,-0.000007,12.646986,0.000010,
2386,2398,2.82776457398458,-5.38374189863587,0.00274862602140047,0.005821,0.000088,0.001309,0.262195,0.025252,324.867513,23.470787,0.999314,0.985879,0.004773,0.426396,0.000009,0.000016,0.000009,0.000023,0.000003,55.592199,0.000028,
2416,2068,3.5488680665581,-12.6157559169169,0.0281704681911492,0.005676,-0.000206,0.003532,0.246658,0.030975,330.430146,22.342210,0.998901,0.976776,0.006091,0.362597,-0.000007,-0.000015,-0.000003,-0.000006,-0.000016,-20.668807,0.000023,
2416,2278,3.50638344307496,-8.00975465710123,0.00997615714135236,0.005874,-0.000293,0.002476,0.259875,0.013495,326.900654,23.022881,0.999293,0.983767,0.004940,0.371746,-0.000008,0.000006,-0.000013,0.000013,-0.000015,-58.821991,0.000017,
2506,2608,5.40140727916853,-0.790951424049815,-0.0199718355420941,0.006008,0.000217,0.002105,0.267459,0.050913,321.503749,23.997537,0.999840,0.993907,0.003599,0.423659,0.000009,-0.000007,-0.000018,0.000021,-0.000019,-32.615809,0.000023,
2296,3163,0.727738039917117,11.2672387597775,0.0393653327309949,0.005722,0.000191,0.006407,0.242247,0.088041,312.710845,25.331809,0.999653,0.993200,0.003427,0.440523,0.000002,0.000018,0.000000,0.000018,0.000002,-88.377680,0.000022,
2371,3298,2.32808640086489,14.2028971288232,-0.0028853352821443,0.006252,0.000318,0.003519,0.275805,0.063482,310.144396,25.974965,0.999682,0.993257,0.003359,0.464010,0.000007,-0.000007,-0.000001,0.000007,-0.000007,-4.808491,0.000008,
2446,2443,4.12795942882659,-4.39934386568491,0.00541307207117825,0.006117,-0.000583,0.006960,0.254222,0.019808,324.234445,23.459206,0.998417,0.982848,0.005241,0.407009,0.000018,-0.000001,0.000000,0.000018,-0.000001,0.060511,0.000020,
2251,3178,-0.251059157215192,11.588058841707,0.041258195679859,0.006128,0.000224,0.004716,0.267197,0.062831,312.576524,25.126774,0.999371,0.992081,0.003528,0.442275,-0.000002,0.000022,-0.000004,0.000023,-0.000003,-80.431846,0.000025,
2446,2653,4.08419164806541,0.188893264109623,-0.018449864718491,0.005981,0.000357,0.002584,0.265016,0.050772,320.632225,24.245345,0.999660,0.991029,0.003809,0.396843,0.000009,0.000024,-0.000014,0.000032,0.000000,-59.029183,0.000037,
2461,2458,4.45274274779886,-4.06997300479372,0.00174256834782227,0.006300,0.000769,-0.000558,0.291168,0.073127,324.027959,23.501869,0.999356,0.986032,0.004702,0.433629,0.000033,0.000001,0.000001,0.000033,0.000001,1.827114,0.000038,
2401,2083,3.21831239951825,-12.2853172921389,0.0252775848766191,0.006073,-0.000048,0.001974,0.270659,0.040035,330.168271,22.523234,0.999003,0.976527,0.006089,0.334959,0.000001,0.000003,-0.000003,0.000005,-0.000001,-58.728652,0.000005,
2386,2173,2.87175984596361,-10.3102936328988,0.0103531272290525,0.005890,0.000105,0.002066,0.262310,0.044871,328.568952,22.785849,0.999459,0.982525,0.005199,0.448820,-0.000009,-0.000007,-0.000024,0.000017,-0.000032,-45.882561,0.000032,
2491,2653,5.06492940979889,0.190812628117463,-0.0235362136079402,0.006228,0.000085,0.002310,0.276929,0.056515,320.706646,24.194392,0.999514,0.987897,0.004308,0.426814,0.000014,0.000021,-0.000015,0.000033,0.000002,-51.116893,0.000039,
2476,2803,4.70707691675365,3.45964379213934,-0.0217166897284073,0.006057,-0.000167,0.005971,0.255418,0.049323,318.215549,24.806704,0.999273,0.985246,0.004629,0.385007,0.000020,0.000030,-0.000013,0.000040,0.000011,-55.327043,0.000053,
2506,2698,5.3827176846857,1.17233675205399,-0.0242241156507816,0.006183,0.000052,0.000504,0.281752,0.019922,320.016701,24.358216,0.999672,0.991456,0.003649,0.401826,-0.000003,0.000026,-0.000004,0.000026,-0.000003,-82.954077,0.000028,
2506,2938,5.33398086170972,6.39885687583592,-0.0116108626263554,0.006302,-0.000047,0.004099,0.273718,0.052823,316.194699,25.363611,0.999646,0.990453,0.003757,0.405298,0.000015,-0.000021,-0.000020,0.000023,-0.000030,-23.666376,0.000031,
2416,2488,3.46365140367721,-3.41562635584851,-0.0120569710032896,0.006057,-0.000328,0.000795,0.274736,0.003521,323.329490,23.623795,0.999322,0.987060,0.004498,0.454035,0.000011,-0.000002,0.000003,0.000012,-0.000003,10.371058,0.000013,
2461,2743,4.39243947508181,2.1516829159369,-0.0261832961696769,0.006308,-0.000034,0.005045,0.270614,0.042812,319.137639,24.530719,0.999636,0.991312,0.003717,0.423305,0.000006,0.000038,-0.000003,0.000039,0.000005,-84.445174,0.000048,
2356,2263,2.19944966503951,-8.33763947754729,0.00741303031168172,0.005931,0.000207,0.001230,0.267524,0.044119,327.079898,23.224578,0.999327,0.985081,0.004894,0.417544,-0.000016,-0.000017,-0.000019,0.000002,-0.000035,-44.815194,0.000039,
2401,2443,3.14643378174088,-4.39954441037972,0.00368969234148153,0.006128,-0.000078,0.003446,0.268492,0.051333,324.166113,23.577003,0.999410,0.987338,0.004576,0.441099,0.000010,0.000000,0.000005,0.000012,-0.000002,23.817843,0.000013,
2431,2143,3.861274247588,-10.9690556007906,0.0207425819423293,0.005831,-0.000452,0.006032,0.244402,0.027003,329.179636,22.539868,0.999402,0.979828,0.005581,0.330865,-0.000006,-0.000007,-0.000023,0.000016,-0.000030,-44.054177,0.000030,
2446,2278,4.16224410596614,-8.00869906255372,0.013179405183223,0.006174,0.000370,0.000318,0.281663,0.043339,326.999226,22.995892,0.999225,0.979324,0.005570,0.299370,0.000007,0.000005,-0.000020,0.000026,-0.000014,-43.648158,0.000026,
2356,3163,2.03079197230901,11.2719027079173,0.0345714526262668,0.006081,0.000168,0.004984,0.262650,0.063742,312.659120,25.554120,0.999501,0.992117,0.003789,0.461322,0.000012,0.000028,-0.000004,0.000029,0.000011,-75.233064,0.000041,
2371,2083,2.56247102065294,-12.2840881497213,0.0205497963156631,0.006258,0.000439,0.002189,0.278756,0.073183,330.110642,22.680545,0.999319,0.979432,0.005404,0.397390,0.000007,0.000006,0.000002,0.000009,0.000005,37.828722,0.000014,
2431,2578,3.77333146551634,-1.44893513132802,-0.00544772469839927,0.006257,-0.000337,0.004853,0.269043,0.039674,321.938786,24.026762,0.999744,0.993560,0.003526,0.359479,0.000015,0.000008,-0.000008,0.000021,0.000002,-34.395904,0.000025,
2401,2233,3.1881801794597,-8.99531084663895,0.0156409087564384,0.005894,-0.000172,0.001661,0.263828,0.021682,327.660193,22.995958,0.999255,0.983728,0.005263,0.327692,-0.000009,0.000011,-0.000010,0.000016,-0.000013,-66.885316,0.000017,
2311,3223,1.0427698112663,12.5690458135056,0.0375390580340422,0.005986,0.000451,0.001490,0.271053,0.064793,311.726813,25.471869,0.999620,0.993341,0.003226,0.467861,0.000008,0.000033,0.000000,0.000033,0.000008,-89.669349,0.000043,
2506,2953,5.33180958541953,6.72391455496408,-0.00221268526928498,0.006322,-0.000267,0.002844,0.279379,0.036204,316.034328,25.393732,0.999622,0.990707,0.003832,0.418953,0.000018,-0.000015,-0.000015,0.000024,-0.000021,-20.947668,0.000026,
2296,3178,0.724940837078528,11.5925747306806,0.0337417958682522,0.005967,0.000203,0.004607,0.259605,0.071104,312.435510,25.343073,0.999643,0.993207,0.003394,0.441209,0.000005,0.000018,-0.000001,0.000018,0.000004,-84.519044,0.000024,
2491,2893,5.01583896342082,5.41935825897365,-0.0225381746764697,0.006167,-0.000026,0.000941,0.279653,0.023528,316.802038,25.154658,0.998894,0.987119,0.004376,0.376305,0.000023,0.000021,-0.000012,0.000034,0.000011,-42.532958,0.000047,
2416,2083,3.54658820340754,-12.2860605303712,0.030980697039297,0.006324,-0.000471,0.005966,0.267345,0.029273,330.232145,22.463928,0.998644,0.977037,0.006232,0.289813,-0.000005,0.000002,-0.000001,0.000002,-0.000005,-83.354660,0.000005,
2386,2188,2.86944730460126,-9.98099562965151,0.0121483006247445,0.006266,-0.000335,0.001148,0.282665,0.018777,328.361961,22.922232,0.999165,0.981788,0.005256,0.331949,-0.000009,0.000000,-0.000024,0.000020,-0.000029,-50.059048,0.000029,
2461,2758,4.3892676069895,2.47874216693088,-0.0303019697395257,0.006273,0.000145,0.002283,0.279526,0.042743,318.867465,24.574464,0.999603,0.989671,0.003960,0.434289,0.000013,0.000041,-0.000005,0.000042,0.000012,-80.129865,0.000057,
2371,2293,2.52193145269424,-7.68158313627558,0.0185738931491528,0.005756,0.000053,-0.000366,0.265064,0.045937,326.691465,23.290762,0.999772,0.994324,0.003439,0.372797,-0.000013,-0.000002,-0.000009,0.000003,-0.000018,-60.788216,0.000019,
2476,2563,4.75629516027463,-1.77402052085166,-0.0199610603708038,0.005878,0.000438,0.001184,0.265286,0.077729,322.149865,23.842307,0.998953,0.983779,0.004933,0.464843,0.000027,0.000007,-0.000005,0.000028,0.000006,-12.897657,0.000037,
2386,1993,2.90845456570768,-14.2631611288324,0.0380325135646444,0.005549,0.000048,0.000083,0.253441,0.034962,331.692017,22.317691,0.998765,0.962744,0.007136,0.347467,0.000005,-0.000052,-0.000005,0.000006,-0.000052,-4.963090,0.000057,
2446,2668,4.08196032654724,0.515686881260009,-0.0170420159885794,0.006484,0.000491,0.000756,0.295022,0.069823,320.429945,24.261627,0.999493,0.989202,0.004108,0.452490,0.000007,0.000018,-0.000013,0.000026,-0.000001,-56.530499,0.000030,
2446,2293,4.15889056845272,-7.68172387669546,0.00931606963911236,0.006072,0.000111,-0.000391,0.279536,0.018888,326.723134,22.897668,0.999303,0.980621,0.005404,0.427759,0.000010,0.000005,-0.000021,0.000029,-0.000014,-40.999413,0.000029,
2356,3178,2.02803535722618,11.5973520908183,0.0340009299761732,0.006138,0.000179,0.003882,0.269202,0.061757,312.415016,25.592144,0.999558,0.992687,0.003612,0.458974,0.000015,0.000031,-0.000004,0.000032,0.000014,-77.199237,0.000047,
2371,2098,2.55914277656844,-11.9544730076305,0.0145087934063213,0.006201,0.000273,0.001374,0.279031,0.046603,329.818938,22.728291,0.999230,0.978297,0.005613,0.367557,0.000003,-0.000001,-0.000008,0.000010,-0.000008,-38.139193,0.000010,
2506,2968,5.32854334347234,7.0506586852398,-0.00294887392715282,0.006076,0.000318,0.001217,0.274687,0.055699,315.777589,25.475987,0.999569,0.989963,0.004061,0.416779,0.000017,-0.000008,-0.000009,0.000020,-0.000011,-18.471197,0.000020,
2431,2593,3.77036090062914,-1.12352513270962,-0.000297105836409628,0.005805,-0.000039,0.004542,0.249576,0.044146,321.719425,23.939288,0.999597,0.991484,0.003859,0.502319,0.000018,-0.000007,-0.000008,0.000021,-0.000009,-16.832047,0.000021,
2326,3013,1.40553672059382,8.01517213848548,0.00669668014387526,0.006334,-0.000004,0.003467,0.279662,0.048351,314.904004,25.105177,0.999467,0.989000,0.003958,0.427282,-0.000008,-0.000001,-0.000005,0.000002,-0.000010,-63.136595,0.000011,
2491,2908,5.0130046502044,5.74615732486301,-0.0154042396944192,0.005839,0.000451,0.001314,0.263431,0.057855,316.599849,25.267936,0.999148,0.986508,0.004490,0.355929,0.000019,0.000000,-0.000012,0.000025,-0.000006,-26.072689,0.000026,
2401,2248,3.18497758489004,-8.66660674065662,0.00793696703908608,0.006159,0.000501,0.000954,0.278820,0.073103,327.368480,22.923592,0.999205,0.983835,0.005164,0.499861,-0.000007,-0.000006,-0.000010,0.000004,-0.000017,-46.857402,0.000018,
2461,2278,4.48983585909822,-8.00899815300331,0.0125100764286117,0.006097,0.000464,-0.000713,0.281979,0.047118,327.026097,22.894943,0.999389,0.979843,0.005442,0.339576,0.000020,0.000001,-0.000023,0.000036,-0.000014,-33.797418,0.000036,
2461,2773,4.3857898502292,2.80557997876028,-0.0318813444277453,0.005788,0.000068,0.000299,0.264735,0.037513,318.594807,24.628027,0.999409,0.987904,0.004246,0.430095,0.000014,0.000035,-0.000009,0.000038,0.000011,-70.405734,0.000052,
2506,2713,5.37988709309345,1.49961686999347,-0.0217604341633546,0.006245,-0.000131,0.000417,0.284904,0.027032,319.795750,24.454263,0.999631,0.990871,0.003783,0.374341,-0.000005,0.000036,-0.000003,0.000036,-0.000005,-86.372010,0.000039,
2386,2413,2.82539251976231,-5.0559935780292,0.00329422802758472,0.006145,0.000327,-0.000619,0.284073,0.024357,324.651074,23.504255,0.999329,0.985372,0.004781,0.436914,0.000007,0.000010,0.000011,0.000020,-0.000002,48.950601,0.000022,
2356,2098,2.23096509469377,-11.9541685840192,0.0170311485810544,0.005897,-0.000344,0.005857,0.249276,0.029022,329.803774,22.866496,0.999396,0.981254,0.005234,0.302764,0.000010,0.000001,-0.000007,0.000014,-0.000003,-29.131704,0.000015,
2251,2938,-0.211293982765039,6.38081801425711,-0.00471978077683843,0.006116,0.000209,0.002529,0.273448,0.049415,316.119164,24.690788,0.999667,0.994107,0.003212,0.506336,-0.000006,0.000026,0.000008,0.000028,-0.000008,76.300333,0.000028,
2311,2758,1.12469485940435,2.47056439240471,-0.0178611109958524,0.006017,0.000282,0.001682,0.271041,0.059456,318.857502,24.477919,0.999632,0.991905,0.003773,0.479791,-0.000001,0.000024,0.000008,0.000026,-0.000004,72.998847,0.000029,
2491,2668,5.06216990811825,0.516750068454755,-0.0181006404582718,0.006259,-0.000120,0.004375,0.270332,0.037554,320.501848,24.204429,0.999421,0.986840,0.004431,0.456936,0.000012,0.000010,-0.000014,0.000025,-0.000003,-43.053813,0.000028,
2476,2818,4.70415353600106,3.78539147928005,-0.0171642417708426,0.005896,-0.000337,0.007119,0.243687,0.061334,317.997424,24.802613,0.999365,0.987147,0.004494,0.457677,0.000019,0.000024,-0.000009,0.000030,0.000012,-52.029303,0.000044,
2461,2473,4.44884024006188,-3.74163937981133,-0.00574979813359278,0.006127,0.000424,0.000381,0.279609,0.057813,323.710268,23.549964,0.999478,0.987431,0.004468,0.426291,0.000026,-0.000005,-0.000001,0.000026,-0.000005,-2.371539,0.000027,
2431,2353,3.81855130354972,-6.36692818082716,0.00132364136806018,0.005967,-0.000122,0.000924,0.269910,0.018559,325.647322,23.229923,0.999030,0.982803,0.005049,0.365667,-0.000003,0.000025,-0.000005,0.000026,-0.000004,-80.773609,0.000028,
2311,3238,1.03907530607622,12.8955642370865,0.0264926258250853,0.005862,0.000660,0.000909,0.267445,0.072883,311.383983,25.553872,0.999418,0.992046,0.003485,0.424886,0.000008,0.000030,0.000000,0.000030,0.000008,88.967138,0.000040,
2371,2308,2.51842263788847,-7.3532621663135,0.0108432683489355,0.006005,-0.000317,0.003420,0.262944,0.026756,326.382643,23.276007,0.999849,0.995810,0.002990,0.411624,-0.000013,-0.000010,-0.000005,-0.000007,-0.000017,-52.751180,0.000024,
2356,2278,2.19516185870551,-8.00743701225368,-0.0094263784428108,0.005540,0.000579,-0.001904,0.260777,0.049016,326.689864,23.254901,0.999446,0.988783,0.004375,0.433833,-0.000017,-0.000007,-0.000016,0.000005,-0.000029,-53.315049,0.000031,
2341,2233,1.87791311778534,-8.99509623362774,0.0138799422214788,0.005617,0.000322,0.000987,0.254072,0.032387,327.603545,23.240694,0.998772,0.979511,0.005611,0.377706,-0.000024,-0.000003,-0.000018,0.000007,-0.000034,-60.120499,0.000036,
2446,2683,4.07829674684957,0.843365891861197,-0.0206724493270372,0.006190,0.000440,0.001609,0.278358,0.064862,320.138413,24.346322,0.999336,0.987775,0.004251,0.415449,0.000008,0.000025,-0.000007,0.000027,0.000006,-69.956386,0.000035,
2446,2308,4.15527542104941,-7.3508075971438,0.00298567281527085,0.005992,0.000148,-0.000469,0.276240,0.039512,326.422952,23.096012,0.999231,0.980381,0.005333,0.304533,0.000008,0.000003,-0.000020,0.000025,-0.000015,-41.723683,0.000025,
2476,2578,4.7532175189665,-1.44684810590982,-0.0157596196153804,0.005955,-0.000236,0.006551,0.248211,0.065707,321.924083,23.921872,0.998624,0.984846,0.004946,0.430851,0.000024,0.000005,-0.000001,0.000024,0.000004,-3.892709,0.000031,
2386,2008,2.90564755156423,-13.9321748446692,0.0299675285756393,0.006267,-0.000149,-0.000068,0.286770,0.016330,331.416398,22.422763,0.998654,0.972478,0.006274,0.270935,0.000009,-0.000059,-0.000013,0.000011,-0.000061,-10.402716,0.000065,
2431,2158,3.85919222649703,-10.6426255229813,0.0300041821091099,0.005571,-0.000435,0.001202,0.250324,0.001000,329.021817,22.483340,0.999360,0.979235,0.005584,0.413873,-0.000001,-0.000009,-0.000034,0.000029,-0.000039,-41.622350,0.000040,
2416,2293,3.503222161638,-7.68121744640268,0.00876340522484043,0.005867,-0.000542,0.003797,0.254656,0.013296,326.642662,23.069866,0.998922,0.980014,0.005537,0.374733,-0.000005,0.000003,-0.000013,0.000012,-0.000015,-53.316917,0.000016,
2446,2458,4.12466809934732,-4.07031405904812,-0.000588843185028054,0.005833,0.000478,0.000984,0.263897,0.054990,323.949996,23.528521,0.999190,0.985778,0.004749,0.426912,0.000024,-0.000002,0.000001,0.000024,-0.000002,2.936429,0.000027,
2506,2983,5.32504587181812,7.3765889902269,-0.00418516797009261,0.005874,0.000079,0.002330,0.261010,0.052650,315.508103,25.506692,0.999359,0.988600,0.004201,0.443497,0.000013,-0.000006,-0.000012,0.000019,-0.000012,-26.371608,0.000019,
2461,2293,4.48633751124537,-7.68237528553048,0.0150865754617939,0.005868,-0.000462,0.004838,0.250333,0.037482,326.774073,22.814703,0.999337,0.979827,0.005402,0.466803,0.000021,0.000001,-0.000026,0.000039,-0.000017,-34.398504,0.000039,
2476,2833,4.70213966751531,4.11175524232641,-0.0139651226017463,0.006278,0.000328,0.002504,0.279026,0.065439,317.814812,24.856462,0.999524,0.988250,0.004054,0.464569,0.000023,0.000024,-0.000005,0.000029,0.000018,-47.877153,0.000048,
2311,2773,1.12252500712108,2.79675793043154,-0.0119240723695384,0.006018,0.000299,-0.000345,0.278044,0.051610,318.670142,24.530793,0.999579,0.992497,0.003682,0.451074,-0.000002,0.000018,0.000005,0.000019,-0.000003,77.515704,0.000020,
2461,2488,4.44627962226136,-3.41452751066515,-0.00467514747890618,0.006442,0.000352,-0.000375,0.296868,0.038523,323.493432,23.574218,0.999527,0.985951,0.004608,0.438066,0.000023,-0.000006,-0.000004,0.000024,-0.000007,-7.846030,0.000024,
2251,2953,-0.21363414938714,6.70810715902553,-0.0019626322947488,0.006239,0.000416,0.002251,0.280095,0.057082,315.903433,24.851858,0.999455,0.992117,0.003628,0.375481,-0.000010,0.000022,0.000010,0.000025,-0.000013,73.747090,0.000025,
2356,3193,2.024487791434,11.9233365400189,0.0311340543569827,0.005785,0.000125,0.005395,0.247613,0.066136,312.123145,25.663744,0.999560,0.992266,0.003580,0.429151,0.000015,0.000031,-0.000003,0.000031,0.000015,-78.451546,0.000047,
2311,3253,1.03557504696822,13.2209945503819,0.0192489667309701,0.005893,0.000307,0.003613,0.259543,0.070196,311.069212,25.572781,0.999496,0.992260,0.003444,0.433980,0.000006,0.000028,-0.000001,0.000028,0.000006,-88.689267,0.000036,
2431,2608,3.76643437914815,-0.794517080954485,-0.0147862710376785,0.006133,-0.000359,0.005754,0.260071,0.043325,321.364299,24.022502,0.999390,0.988169,0.004332,0.469415,0.000018,-0.000003,-0.000005,0.000019,-0.000005,-13.383323,0.000020,
2431,2368,3.81604213865819,-6.03913957470069,0.00455211360781504,0.006068,0.000013,-0.000350,0.279309,0.014800,325.440859,23.281698,0.999081,0.983486,0.004954,0.361711,0.000001,0.000027,0.000007,0.000029,-0.000001,75.963326,0.000032,
2401,2458,3.1431074505676,-4.07125218758922,-0.00501955362670969,0.006432,-0.000001,0.003683,0.281647,0.051616,323.863284,23.588094,0.999480,0.986685,0.004693,0.477286,0.000013,0.000004,0.000008,0.000017,0.000000,30.316749,0.000019,
2476,2593,4.75062332003926,-1.11928983127605,-0.018603801370034,0.006197,0.000397,0.001097,0.280230,0.057148,321.688431,23.976333,0.998622,0.983888,0.004883,0.425180,0.000026,-0.000012,0.000001,0.000026,-0.000012,1.242200,0.000026,
2386,2428,2.82252822070591,-4.72757561198953,0.00255389095565306,0.006236,0.000290,-0.000611,0.288272,0.033768,324.405751,23.581610,0.999428,0.988306,0.004457,0.414070,0.000009,0.000010,0.000008,0.000017,0.000002,47.457549,0.000021,
2506,2728,5.37706496629798,1.82602092591633,-0.0177277986373383,0.006205,-0.000022,0.000690,0.282108,0.046595,319.582265,24.474157,0.999503,0.989587,0.003984,0.435198,-0.000006,0.000033,-0.000002,0.000033,-0.000006,-87.450922,0.000036,
2371,2323,2.51513916620047,-7.02548031816256,0.0131706531822147,0.005776,-0.000725,0.008210,0.235311,0.016930,326.132066,23.308546,0.999606,0.992026,0.003802,0.412556,-0.000016,-0.000009,0.000000,-0.000009,-0.000016,-89.212357,0.000025,
2356,2293,2.19231464368142,-7.67844307501475,-0.0117891671914663,0.005494,-0.000074,-0.004851,0.268801,0.054067,326.435450,23.327488,0.999618,0.992789,0.003980,0.407333,-0.000017,-0.000011,-0.000018,0.000005,-0.000032,-49.733062,0.000035,
2416,2503,3.46012777509673,-3.08657051631329,-0.0187731035258594,0.006204,-0.000157,0.003017,0.273470,0.026386,323.027966,23.718267,0.999557,0.990048,0.004060,0.431434,0.000009,-0.000006,-0.000004,0.000010,-0.000007,-15.467303,0.000010,
2416,2098,3.54235284656356,-11.9572955484407,0.0268503225377685,0.005511,-0.000857,0.007775,0.223432,0.028142,329.912250,22.429522,0.999024,0.977275,0.006070,0.374521,-0.000007,-0.000006,-0.000014,0.000008,-0.000021,-45.453970,0.000021,
2431,2173,3.85641679865573,-10.3122444956766,0.0266899801490581,0.006177,-0.000362,0.002727,0.272500,0.011057,328.773464,22.622230,0.999370,0.982841,0.005026,0.337801,-0.000003,-0.000002,-0.000035,0.000033,-0.000038,-45.744003,0.000041,
2446,2698,4.07413478649817,1.1711316274563,-0.0311324736939582,0.005986,0.000305,0.002837,0.264380,0.065188,319.792378,24.383006,0.999622,0.990108,0.003960,0.431869,0.000006,0.000030,-0.000008,0.000033,0.000004,-73.348334,0.000040,
2461,2308,4.48259522017708,-7.35158586447292,0.00499261226212866,0.005776,-0.000275,0.002017,0.256819,0.043316,326.452466,22.978356,0.999074,0.977273,0.005708,0.366052,0.000019,0.000001,-0.000025,0.000037,-0.000016,-34.741921,0.000037,
2461,2788,4.38380712215315,3.13152831373512,-0.0212450541492331,0.005904,0.000419,-0.000242,0.272269,0.050790,318.446910,24.680578,0.999302,0.986643,0.004365,0.444998,0.000013,0.000035,-0.000011,0.000040,0.000008,-68.235536,0.000051,
2401,2263,3.18132339953037,-8.33650594199341,0.0034805224454999,0.006214,-0.000464,0.006210,0.262003,0.047172,327.071411,23.095713,0.999312,0.986241,0.004688,0.349610,-0.000009,-0.000007,-0.000013,0.000005,-0.000021,-46.702429,0.000022,
2491,2683,5.05836120938349,0.844778406772882,-0.0264742638542543,0.006136,-0.000144,0.003164,0.269344,0.028875,320.186108,24.286302,0.999637,0.990436,0.003853,0.425948,0.000013,0.000016,-0.000007,0.000021,0.000008,-52.076476,0.000030,
2416,2308,3.50114421478196,-7.35308600413885,0.0119697739969524,0.006144,0.000284,-0.000345,0.282795,0.041369,326.454827,23.100760,0.999267,0.984857,0.004763,0.421690,-0.000008,-0.000003,-0.000010,0.000005,-0.000016,-51.325509,0.000016,
2476,2848,4.69850457864626,4.43911356636904,-0.0261239929072872,0.006512,0.000244,0.000150,0.298628,0.034821,317.487558,24.925781,0.999400,0.987699,0.004154,0.420929,0.000016,0.000033,-0.000011,0.000038,0.000011,-64.344053,0.000052,
2506,2998,5.32207999277278,7.70267209711842,-0.000770247969342108,0.005761,-0.000029,0.002869,0.253687,0.044768,315.283807,25.592100,0.999503,0.990285,0.003834,0.410431,0.000013,-0.000004,-0.000006,0.000015,-0.000006,-18.555844,0.000015,
2491,2923,5.00888829553064,6.0732286972332,-0.0255853270437001,0.005915,0.000272,0.004432,0.254970,0.074634,316.260395,25.303776,0.999544,0.986967,0.004172,0.395564,0.000016,-0.000007,-0.000019,0.000027,-0.000018,-29.098818,0.000027,
2341,3133,1.71018579247567,10.6202941625295,0.0255089460682143,0.006308,0.000048,0.005009,0.273056,0.042054,313.086489,25.439242,0.999428,0.992467,0.003633,0.416777,0.000008,0.000028,-0.000009,0.000031,0.000005,-69.396147,0.000039,
2461,2503,4.44303903873829,-3.08703772476624,-0.00179546803451558,0.006193,0.000149,0.002038,0.276348,0.046896,323.253368,23.626721,0.999478,0.986863,0.004396,0.449431,0.000023,-0.000013,-0.000011,0.000026,-0.000016,-15.103048,0.000026,
2326,3028,1.40258250428526,8.34074454353669,0.0120447488952209,0.005905,-0.000004,0.005156,0.254060,0.046158,314.678082,25.155524,0.999629,0.991637,0.003623,0.408178,-0.000006,-0.000003,-0.000004,0.000000,-0.000009,-56.538112,0.000010,
2446,2473,4.12162009703791,-3.74222288636832,0.00257282983517371,0.005636,0.000484,0.002245,0.250206,0.062442,323.719020,23.629851,0.999549,0.987849,0.004383,0.386498,0.000019,-0.000008,-0.000001,0.000019,-0.000008,-2.775018,0.000019,
2386,2203,2.86654190795391,-9.6517103259155,0.00659698467052294,0.006807,-0.000512,0.002606,0.302152,0.000248,328.092964,22.978091,0.998729,0.978768,0.005623,0.303618,-0.000011,0.000009,-0.000021,0.000022,-0.000024,-57.802806,0.000026,
2491,2938,5.0065961447201,6.39917930027333,-0.0178811460488078,0.006104,0.000166,0.005103,0.261071,0.069110,316.085853,25.390423,0.999570,0.989887,0.003755,0.361624,0.000012,-0.000018,-0.000018,0.000021,-0.000026,-25.319007,0.000028,
2506,3013,5.31952506843369,8.02877493345189,0.000588934717370648,0.006040,0.000238,0.001149,0.273313,0.057442,315.069131,25.648548,0.999476,0.990807,0.003727,0.427257,0.000008,0.000003,-0.000002,0.000008,0.000002,-22.119328,0.000011,
2491,2698,5.05506964887439,1.173071078299,-0.030877529348686,0.005983,0.000348,-0.000586,0.276958,0.041807,319.911818,24.409067,0.999709,0.990241,0.003867,0.375530,0.000012,0.000019,-0.000008,0.000024,0.000007,-55.913979,0.000033,
2416,2518,3.4577760277204,-2.76002036783019,-0.0121157900911726,0.006217,-0.000072,0.002472,0.276136,0.038603,322.843114,23.719878,0.999393,0.988250,0.004350,0.490889,0.000008,-0.000003,-0.000007,0.000012,-0.000006,-27.125373,0.000012,
2431,2188,3.85381406896195,-9.9832037054944,0.0332619336895732,0.005960,-0.000097,0.001922,0.265641,0.028746,328.578757,22.741139,0.999715,0.987764,0.004357,0.289011,-0.000004,0.000010,-0.000032,0.000036,-0.000030,-51.307818,0.000038,
2446,2713,4.07072029443242,1.49839233882169,-0.0355246958906719,0.005773,0.000542,0.000920,0.261883,0.065425,319.508680,24.428533,0.999713,0.992118,0.003672,0.439160,0.000007,0.000043,-0.000007,0.000044,0.000005,-78.988262,0.000055,
2461,2323,4.47973104767055,-7.02387082451092,0.0025186353370259,0.006099,0.000007,0.001512,0.273645,0.040040,326.206207,22.951841,0.999085,0.979021,0.005488,0.445700,0.000011,0.000009,-0.000019,0.000029,-0.000009,-43.554990,0.000030,
2461,2803,4.3799219475706,3.45971739204658,-0.0282908054993527,0.005947,0.000160,0.003561,0.259847,0.062185,318.129985,24.808304,0.999367,0.987306,0.004333,0.383117,0.000012,0.000032,-0.000010,0.000036,0.000008,-67.804393,0.000047,
2371,2338,2.51227719152245,-6.69581638387069,0.00201923546330818,0.006033,0.000080,0.000280,0.275554,0.030863,325.836117,23.361417,0.999165,0.985582,0.004754,0.416584,-0.000014,-0.000001,0.000000,-0.000001,-0.000014,88.443293,0.000017,
2356,2308,2.19051640181393,-7.35219811402214,0.00361571745196443,0.005826,0.000267,0.001605,0.261495,0.035624,326.314888,23.354942,0.999399,0.991051,0.003975,0.401554,-0.000018,-0.000019,-0.000011,-0.000007,-0.000030,-43.158366,0.000039,
2416,2323,3.49815893462728,-7.02398429790188,0.0113819998106237,0.006202,0.000574,0.000196,0.283635,0.083824,326.207434,23.173246,0.999116,0.982415,0.005091,0.441425,-0.000013,-0.000001,-0.000005,0.000001,-0.000015,-68.921356,0.000017,
2461,2518,4.44018937246126,-2.76034382933513,0.00737477974575995,0.006072,-0.000551,0.007556,0.249766,0.040177,323.060087,23.682450,0.999239,0.984591,0.004565,0.442519,0.000025,-0.000007,-0.000013,0.000029,-0.000012,-19.666771,0.000030,
2326,3043,1.40005536080734,8.66617638258677,0.0168730469376897,0.005824,0.000088,0.005295,0.250000,0.061455,314.469247,25.175302,0.999675,0.992498,0.003523,0.437239,-0.000005,0.000006,-0.000006,0.000008,-0.000008,-65.969850,0.000009,
2491,2953,5.00423692907317,6.72406841157766,-0.0132020209702546,0.006242,-0.000137,0.002988,0.275348,0.033895,315.894816,25.390945,0.999410,0.989537,0.003949,0.384057,0.000017,-0.000015,-0.000012,0.000021,-0.000019,-18.643699,0.000023,
2386,2218,2.86372362504211,-9.3236137423095,0.0143692805035016,0.006141,-0.000193,0.001014,0.277510,0.015581,327.890881,23.036231,0.998948,0.980008,0.005667,0.306663,-0.000009,0.000005,-0.000018,0.000018,-0.000022,-55.617443,0.000023,
2491,2713,5.05165898393662,1.4989805613724,-0.0294331090224773,0.005949,-0.000199,0.004468,0.255827,0.033594,319.658821,24.386634,0.999650,0.989821,0.004147,0.448668,0.000009,0.000032,-0.000006,0.000033,0.000007,-75.540401,0.000043,
2386,2443,2.81879601840381,-4.39920449948939,-0.00541232425820226,0.006424,-0.000250,0.004441,0.278582,0.029099,324.086368,23.606280,0.999271,0.988974,0.004471,0.429687,0.000011,0.000000,0.000006,0.000013,-0.000002,23.886979,0.000014,
2476,2608,4.74687047057368,-0.792132222547302,-0.020585238104843,0.005781,-0.000021,0.002498,0.255689,0.043060,321.403425,24.012300,0.999023,0.984667,0.004625,0.432444,0.000030,-0.000005,0.000000,0.000030,-0.000005,-0.433030,0.000032,
2461,2338,4.4768431449455,-6.69507249823255,0.00543738943554217,0.006215,-0.000127,0.003994,0.269584,0.040677,325.983215,23.079173,0.998886,0.978628,0.005523,0.375196,0.000014,0.000019,-0.000013,0.000029,0.000003,-50.115289,0.000036,
2431,2383,3.81265151813597,-5.71032796922768,-0.000443177310557985,0.006127,-0.000089,0.000450,0.279076,0.031154,325.155573,23.332445,0.999556,0.986872,0.004594,0.379421,0.000006,0.000014,-0.000001,0.000014,0.000006,-85.953223,0.000020,
2416,2533,3.45486479418305,-2.43201040222431,-0.0118420724099337,0.006408,-0.000719,0.004565,0.276962,0.007491,322.602571,23.845489,0.999335,0.988639,0.004393,0.382776,0.000010,-0.000010,-0.000007,0.000012,-0.000012,-17.361201,0.000014,
2371,2113,2.55612361944377,-11.6257823362303,0.015727311588023,0.005944,0.000032,0.001322,0.267405,0.028402,329.575926,22.768589,0.999185,0.978070,0.005592,0.353293,-0.000001,0.000000,-0.000009,0.000009,-0.000010,-46.652513,0.000011,
2461,2818,4.37750779611333,3.78517849347217,-0.023087797497567,0.006022,0.000121,0.002339,0.267939,0.069848,317.937364,24.787395,0.999310,0.986958,0.004485,0.465937,0.000008,0.000025,-0.000009,0.000028,0.000005,-66.617997,0.000036,
2311,2788,1.12003614027245,3.12225314165067,-0.00685101388421572,0.006183,0.000073,0.003263,0.273213,0.046703,318.464018,24.513527,0.999635,0.994286,0.003432,0.495618,0.000000,0.000018,0.000006,0.000020,-0.000002,73.260790,0.000022,
2431,2623,3.76312994100873,-0.466761549017399,-0.0193091534545715,0.006027,-0.000303,0.003965,0.261837,0.037328,321.084147,24.087616,0.999467,0.989275,0.004099,0.448917,0.000015,0.000010,-0.000009,0.000022,0.000003,-36.449812,0.000027,
2311,3268,1.03275084391974,13.5464785719421,0.0119397085842934,0.006198,0.000438,0.000865,0.283033,0.062694,310.785159,25.605733,0.999547,0.993304,0.003223,0.424474,0.000005,0.000028,-0.000002,0.000028,0.000005,-85.310748,0.000036,
2446,2728,4.06817274191805,1.82352655195024,-0.0283075539409197,0.005806,-0.000186,0.003070,0.255057,0.028019,319.318821,24.414658,0.999666,0.991950,0.003642,0.467759,0.000007,0.000035,-0.000004,0.000036,0.000007,-82.181711,0.000046,
2446,2488,4.11917031176855,-3.4162092784717,0.0037310580867711,0.006057,0.000059,0.001903,0.270600,0.024399,323.506733,23.572182,0.999450,0.986543,0.004497,0.459244,0.000018,-0.000006,-0.000004,0.000019,-0.000007,-9.633904,0.000019,
2476,2863,4.69564726279645,4.7647637419967,-0.017104182136336,0.006251,-0.000100,0.003753,0.272860,0.040837,317.292569,24.964272,0.999309,0.986229,0.004311,0.444877,0.000015,0.000028,-0.000011,0.000035,0.000009,-59.707714,0.000046,
2341,3148,1.70779938625327,10.9456288497613,0.0313526832794651,0.006338,0.000015,0.005430,0.273028,0.048258,312.889712,25.490038,0.999444,0.993589,0.003538,0.407702,0.000007,0.000028,-0.000007,0.000030,0.000005,-73.436194,0.000038,
2506,3028,5.31697175596178,8.35436411121438,0.00459623521106778,0.006222,0.000514,0.000958,0.282562,0.063064,314.866453,25.686209,0.999604,0.992211,0.003570,0.455384,0.000007,0.000006,-0.000003,0.000009,0.000004,-43.910017,0.000014,
2416,2113,3.54094293596716,-11.6283579188368,0.0305064488361495,0.006142,0.000343,0.000168,0.280533,0.039235,329.757913,22.488917,0.999085,0.977649,0.005922,0.376759,-0.000011,-0.000002,-0.000018,0.000012,-0.000025,-52.074839,0.000025,
2506,2743,5.37236689444758,2.15493991608525,-0.0280847000616404,0.005900,-0.000109,0.005422,0.249824,0.066105,319.217537,24.614846,0.999703,0.990379,0.003813,0.375563,-0.000012,0.000035,-0.000004,0.000035,-0.000012,-84.879551,0.000036,
2461,2533,4.43692281283692,-2.43131147685342,-0.00330920629841103,0.006216,0.000036,0.001432,0.279640,0.027616,322.756564,23.784353,0.999494,0.988264,0.004146,0.383709,0.000028,-0.000011,-0.000012,0.000031,-0.000015,-15.841866,0.000031,
2506,3043,5.31342880012714,8.68093797212907,0.00717904511270717,0.005926,0.000013,0.005277,0.252040,0.054756,314.611435,25.822903,0.999735,0.992621,0.003677,0.370380,0.000004,0.000014,-0.000001,0.000014,0.000003,-82.769784,0.000019,
2476,2878,4.69158665876089,5.09198140509139,-0.0215148307239588,0.005966,-0.000429,0.008024,0.243422,0.036468,316.980719,25.062029,0.998701,0.986281,0.004686,0.399187,0.000012,0.000019,-0.000011,0.000027,0.000004,-53.401913,0.000034,
2431,2398,3.80929886021528,-5.38251510191306,-0.000489119306621433,0.006011,-0.000003,0.003664,0.261962,0.052916,324.894993,23.339461,0.999715,0.987727,0.004556,0.445702,0.000013,0.000021,0.000002,0.000022,0.000013,79.856824,0.000035,
2431,2638,3.7597769364049,-0.139329286395153,-0.0210887438744294,0.005683,0.000063,0.002627,0.251127,0.029188,320.814476,24.153742,0.999583,0.990839,0.003936,0.425303,0.000008,0.000021,-0.000011,0.000028,0.000002,-59.976729,0.000033,
2446,2743,4.06622183158754,2.14990859592691,-0.0176680039051575,0.006085,-0.000175,0.004297,0.263300,0.025036,319.171757,24.511746,0.999609,0.991167,0.003736,0.419944,0.000007,0.000037,-0.000004,0.000038,0.000007,-82.087100,0.000048,
2371,2128,2.55332825150751,-11.2974108855901,0.0175539287736228,0.005979,-0.000107,0.002788,0.263745,0.036059,329.345903,22.765673,0.999284,0.982094,0.005244,0.407900,-0.000003,-0.000007,-0.000009,0.000004,-0.000015,-37.798601,0.000015,
2356,3208,2.02213545077181,12.2480427926066,0.0340925690884433,0.005988,0.000160,0.004484,0.260185,0.057427,311.914863,25.668318,0.999570,0.992785,0.003453,0.453451,0.000015,0.000031,-0.000002,0.000031,0.000015,-84.565812,0.000047,
2341,3163,1.70506188785088,11.2714236178225,0.0320009078255339,0.006149,0.000659,0.002389,0.275290,0.081141,312.651271,25.528534,0.999569,0.993479,0.003549,0.437566,0.000007,0.000028,-0.000004,0.000029,0.000007,-78.598785,0.000038,
2401,2473,3.14018859501008,-3.7434387254189,-0.00203391518414264,0.005945,0.000336,0.000500,0.270959,0.039671,323.634202,23.681530,0.999375,0.987642,0.004532,0.418667,0.000012,-0.000004,0.000007,0.000014,-0.000006,20.558021,0.000014,
2506,3058,5.31084041611719,9.00516901089465,0.0141276841929994,0.005935,-0.000304,0.006430,0.247851,0.046838,314.420544,25.775115,0.999718,0.992619,0.003784,0.470572,0.000000,0.000028,-0.000003,0.000028,0.000000,-84.699656,0.000032,
2476,2893,4.68891754005006,5.41871382185836,-0.0215045181345772,0.006102,-0.000097,0.005106,0.260917,0.037980,316.753039,25.146104,0.998716,0.986579,0.004624,0.372841,0.000012,0.000013,-0.000010,0.000023,0.000003,-46.613487,0.000028,
2461,2548,4.43362488408756,-2.10275330690763,-0.00606558788331313,0.005918,0.000416,-0.001741,0.278095,0.036641,322.487706,23.897951,0.999749,0.992160,0.003621,0.334644,0.000024,-0.000020,-0.000010,0.000026,-0.000022,-12.055465,0.000028,
2446,2758,4.0623422929487,2.477698866262,-0.0300099359040473,0.006040,0.000100,0.002159,0.269361,0.029080,318.829670,24.552939,0.999552,0.989615,0.004012,0.435462,0.000014,0.000041,-0.000005,0.000042,0.000013,-80.612366,0.000058,
2401,2278,3.17680054940454,-8.00600355305833,-0.0113899575167693,0.005727,-0.000517,0.005240,0.243196,0.021957,326.685452,23.204340,0.999786,0.994228,0.003369,0.264427,-0.000011,0.000005,-0.000009,0.000009,-0.000015,-65.276094,0.000015,
2431,2203,3.85030762514076,-9.65520467417167,0.0258201415089729,0.006025,-0.000104,0.001950,0.268558,0.017918,328.277998,22.651043,0.999554,0.985164,0.004802,0.421122,-0.000005,0.000015,-0.000029,0.000036,-0.000025,-54.544115,0.000037,
2431,2653,3.7573811394951,0.186872127062337,-0.0146867447670616,0.005776,-0.000370,0.003060,0.253708,0.029617,320.626917,24.171696,0.999547,0.990371,0.004028,0.458177,0.000003,0.000023,-0.000011,0.000028,-0.000002,-66.058201,0.000031,
2461,2353,4.47228132764483,-6.36669724915471,0.000790482079082722,0.005446,-0.001002,0.008504,0.217100,0.017913,325.648961,23.122118,0.999189,0.982786,0.005282,0.365909,0.000020,0.000037,-0.000009,0.000041,0.000016,-66.377314,0.000058,
2416,2548,3.45147932929986,-2.10410583878032,-0.0168730553027103,0.006363,-0.000395,0.004446,0.275503,0.023555,322.315265,23.872047,0.999384,0.988659,0.004298,0.421414,0.000008,-0.000013,-0.000006,0.000009,-0.000014,-14.019532,0.000015,
2431,2413,3.80605920936323,-5.05500410848259,0.00160699323163271,0.005831,-0.000316,0.006813,0.242014,0.062855,324.649542,23.355988,0.999598,0.987493,0.004608,0.490763,0.000010,0.000014,0.000004,0.000017,0.000008,56.876337,0.000025,
2371,2353,2.50962520832521,-6.36906999797157,0.00913038663986754,0.005893,-0.000350,0.002942,0.259562,0.029211,325.637313,23.348193,0.999082,0.985383,0.004832,0.471176,-0.000009,0.000005,0.000006,0.000008,-0.000011,70.191533,0.000011,
2386,2458,2.81590752437085,-4.07039068841075,-0.00981505550390693,0.006780,-0.000158,0.004437,0.294987,0.031402,323.822404,23.703580,0.999317,0.987750,0.004574,0.379379,0.000012,0.000007,0.000009,0.000019,0.000000,36.797482,0.000022,
2461,2833,4.37379806394685,4.11340410093813,-0.0314291558385662,0.005958,0.000336,0.001453,0.268417,0.063875,317.622418,24.935999,0.999568,0.990194,0.003857,0.365878,0.000011,0.000024,-0.000007,0.000027,0.000008,-66.421024,0.000037,
2416,2128,3.53647726380256,-11.2971161319743,0.0180773479902427,0.005956,-0.000234,0.004104,0.257433,0.049379,329.388394,22.590955,0.999329,0.979821,0.005571,0.336177,-0.000008,-0.000008,-0.000018,0.000010,-0.000026,-45.297979,0.000026,
2416,2338,3.49467229892734,-6.69525558180605,0.00740415375696557,0.005986,0.000289,0.000182,0.273726,0.050136,325.921527,23.259579,0.998936,0.982081,0.005072,0.371179,-0.000009,0.000008,-0.000001,0.000008,-0.000009,-86.734888,0.000010,
2491,2728,5.04878806280845,1.82675509170716,-0.0298168983009646,0.006120,-0.000055,0.003593,0.267107,0.040437,319.421916,24.510111,0.999583,0.991726,0.003648,0.391359,0.000006,0.000028,-0.000006,0.000030,0.000005,-76.560875,0.000037,
2446,2503,4.11585655909652,-3.0882551112263,0.00377746413988689,0.006074,-0.000401,0.005919,0.256318,0.040383,323.249074,23.633159,0.999556,0.988695,0.004174,0.467830,0.000018,-0.000012,-0.000010,0.000021,-0.000015,-17.035410,0.000022,
2386,2233,2.86053928082563,-8.99628079370103,0.0284071528267305,0.005351,-0.001122,0.008721,0.213406,0.022154,327.701736,23.102344,0.999202,0.983581,0.005458,0.292654,-0.000010,0.000008,-0.000008,0.000011,-0.000013,-68.287670,0.000014,
2326,3058,1.39699984686233,8.99186187844458,0.010715334827637,0.005862,0.000043,0.002989,0.259745,0.064705,314.182170,25.162518,0.999706,0.993799,0.003203,0.486991,-0.000005,0.000001,-0.000005,0.000004,-0.000008,-60.541218,0.000008,
2506,2758,5.36897009532875,2.48062513263952,-0.0297149794645293,0.005858,-0.000510,0.006827,0.242271,0.043935,318.952359,24.574609,0.999728,0.991117,0.003669,0.455007,-0.000005,0.000025,-0.000010,0.000029,-0.000008,-72.563160,0.000030,
2476,2623,4.74416096532077,-0.464356255707287,-0.0222388999388272,0.006049,0.000089,-0.000107,0.277973,0.036019,321.167649,24.105584,0.999625,0.990802,0.003769,0.389469,0.000030,0.000005,-0.000007,0.000031,0.000004,-14.086749,0.000039,
2491,2968,5.00165215847714,7.04979748547287,-0.00872571334326722,0.005940,0.000363,-0.001888,0.280470,0.053375,315.692113,25.416322,0.999211,0.988080,0.004332,0.436320,0.000019,-0.000011,-0.000008,0.000021,-0.000012,-13.939253,0.000021,
2356,3223,2.01887089374718,12.5740737103205,0.0302097943153967,0.005812,0.000426,0.003606,0.255346,0.073729,311.630970,25.734471,0.999580,0.992879,0.003334,0.441130,0.000013,0.000033,0.000003,0.000033,0.000013,82.448197,0.000047,
2341,3178,1.70214859015486,11.5969501302607,0.0271124709861397,0.006307,0.000702,0.000648,0.288689,0.082134,312.377827,25.545061,0.999643,0.994109,0.003570,0.457532,0.000011,0.000030,-0.000004,0.000031,0.000010,-79.707270,0.000043,
2371,2143,2.55029626898606,-10.968230654704,0.0201636712873778,0.005761,-0.000510,0.004706,0.246864,0.045323,329.108626,22.848554,0.999168,0.979729,0.005476,0.378409,-0.000005,-0.000013,-0.000013,0.000004,-0.000023,-35.979756,0.000024,
2431,2668,3.75341975932037,0.516732147567453,-0.031085816057157,0.005892,0.000042,0.000144,0.269998,0.040826,320.260728,24.329092,0.999478,0.990552,0.004143,0.362752,0.000002,0.000019,-0.000010,0.000023,-0.000002,-64.952869,0.000026,
2461,2563,4.42918194465058,-1.77449949921376,-0.021388341615193,0.006126,0.000194,0.002601,0.271280,0.051475,322.108786,23.872464,0.999478,0.989320,0.004190,0.430813,0.000023,0.000004,-0.000006,0.000024,0.000002,-15.248658,0.000029,
2416,2143,3.53337424871679,-10.9686351697561,0.0149052000027154,0.005967,-0.000255,0.003062,0.261793,0.035671,329.124711,22.571224,0.999354,0.981184,0.005138,0.392998,-0.000008,-0.000007,-0.000022,0.000015,-0.000030,-45.479409,0.000030,
2446,2518,4.11236876174132,-2.75980998985206,-0.00454511123638213,0.006041,-0.000087,0.003101,0.265435,0.047209,322.944792,23.677686,0.999317,0.986741,0.004439,0.483617,0.000020,-0.000006,-0.000011,0.000024,-0.000011,-20.246520,0.000025,
2416,2353,3.49103464020457,-6.36710840571225,0.0047135995777694,0.005566,0.000135,0.000856,0.251999,0.052100,325.634548,23.275335,0.998579,0.981911,0.005200,0.407112,-0.000003,0.000019,0.000003,0.000020,-0.000003,82.172238,0.000021,
2416,2563,3.44837744976885,-1.7765290192317,-0.0169410434612018,0.006181,-0.000092,0.004048,0.268808,0.051087,322.064118,23.906264,0.999088,0.985367,0.004551,0.463552,0.000009,0.000002,-0.000005,0.000011,-0.000001,-27.155595,0.000012,
2491,2983,4.99825308246765,7.37655713512924,-0.00737445878263543,0.005792,0.000201,0.001554,0.260386,0.052656,315.437462,25.539112,0.999160,0.988387,0.004197,0.371174,0.000017,-0.000009,-0.000010,0.000020,-0.000013,-18.615821,0.000020,
2386,2248,2.85664351991444,-8.66553847839888,0.00908337633404699,0.005772,-0.000354,0.007483,0.237463,0.062208,327.321557,23.107381,0.999142,0.983764,0.005285,0.374261,-0.000008,-0.000009,-0.000007,-0.000002,-0.000016,-44.236662,0.000019,
2461,2368,4.47028814527898,-6.03856695061832,0.00872036551464817,0.005646,-0.000436,0.006257,0.234939,0.039823,325.489733,23.225441,0.999589,0.987078,0.004903,0.340732,0.000022,0.000040,0.000005,0.000041,0.000021,74.460336,0.000063,
2491,2743,5.04542264472338,2.15375665506424,-0.0322741993862792,0.006101,-0.000028,0.004344,0.263440,0.055245,319.152976,24.542712,0.999680,0.991535,0.003687,0.432745,0.000000,0.000033,-0.000007,0.000034,-0.000002,-78.056048,0.000039,
2431,2683,3.75082533422701,0.842801173073426,-0.023915665901086,0.006036,-0.000158,0.004461,0.260609,0.044187,320.067484,24.347384,0.999480,0.989381,0.004169,0.398263,0.000004,0.000025,-0.000005,0.000026,0.000002,-76.498523,0.000032,
2356,3238,2.01564150266753,12.8990919700474,0.0280704048859661,0.005638,0.000225,0.004061,0.245689,0.065217,311.357420,25.746148,0.999615,0.992875,0.003298,0.458430,0.000012,0.000030,0.000004,0.000031,0.000011,77.585021,0.000043,
2371,2158,2.54818228564983,-10.6390907478083,0.0201657148081154,0.006237,-0.000105,0.001193,0.281260,0.030796,328.901051,22.928476,0.999441,0.981736,0.005358,0.327610,-0.000008,-0.000014,-0.000022,0.000011,-0.000034,-41.139293,0.000034,
2476,2908,4.6864980265885,5.74440679838679,-0.0164485073725018,0.006191,-0.000144,0.003704,0.270391,0.047616,316.559953,25.166957,0.998788,0.984309,0.004875,0.417936,0.000007,-0.000003,-0.000011,0.000014,-0.000010,-32.576728,0.000014,
2461,2578,4.42500309863597,-1.44686375070169,-0.0294934259279103,0.005957,-0.000190,0.006390,0.249188,0.069221,321.774961,23.857334,0.999585,0.992021,0.003994,0.519342,0.000020,0.000006,-0.000004,0.000021,0.000005,-15.756755,0.000027,
2416,2158,3.53026116486498,-10.6398776149295,0.0131757021771932,0.005712,-0.000152,0.000203,0.260596,-0.000742,328.867302,22.620645,0.999226,0.980028,0.005332,0.357829,-0.000006,-0.000009,-0.000033,0.000025,-0.000040,-43.593939,0.000040,
2446,2533,4.10975297758052,-2.43046290699176,-0.00634158954500208,0.006392,0.000230,0.000732,0.290500,0.041012,322.710384,23.882241,0.999325,0.987844,0.004392,0.326258,0.000024,-0.000013,-0.000010,0.000026,-0.000015,-14.176618,0.000026,
2326,3073,1.39444832105296,9.31861436476759,0.0130188606366346,0.005935,0.000456,0.002891,0.263649,0.083116,313.959327,25.292122,0.999735,0.995022,0.002888,0.409316,-0.000003,0.000004,-0.000004,0.000006,-0.000005,-63.909955,0.000006,
2416,2368,3.48865095324303,-6.04015016741717,0.0098387332884613,0.005866,-0.000182,0.002745,0.258736,0.046720,325.441692,23.270731,0.999024,0.983649,0.004928,0.455910,-0.000001,0.000022,0.000014,0.000028,-0.000007,64.656128,0.000029,
2416,2578,3.44534006838358,-1.44835759334452,-0.0191019470464084,0.006261,-0.000592,0.003889,0.272861,0.028243,321.806124,24.031837,0.999425,0.989443,0.004091,0.363332,0.000009,0.000009,-0.000006,0.000015,0.000004,-45.837938,0.000020,
2476,2638,4.74108731524009,-0.137678405999132,-0.02142997754612,0.006166,-0.000002,0.002382,0.273858,0.046252,320.926375,24.106590,0.999664,0.990522,0.003760,0.456239,0.000022,0.000019,-0.000011,0.000031,0.000009,-40.695728,0.000042,
2431,2428,3.80289594601995,-4.72541932051413,-0.00531305170414953,0.005752,-0.000031,0.001096,0.259584,0.024215,324.365627,23.530593,0.999346,0.986535,0.004781,0.329143,0.000009,0.000019,0.000000,0.000019,0.000009,88.933768,0.000028,
2401,2293,3.17392000763734,-7.67868002660171,-0.0101989350876011,0.005764,-0.000495,0.006508,0.240322,0.033338,326.450406,23.154268,0.999587,0.990769,0.003888,0.373580,-0.000009,0.000001,-0.000009,0.000006,-0.000014,-58.469129,0.000014,
2491,2758,5.04266526252533,2.47932513828328,-0.0271618494059567,0.005968,-0.000222,0.004130,0.258050,0.036440,318.946406,24.541740,0.999583,0.988905,0.003992,0.473670,0.000009,0.000028,-0.000012,0.000034,0.000003,-64.124695,0.000041,
2431,2218,3.84834629373497,-9.32658036210466,0.0289308069036451,0.006733,0.000200,0.001261,0.303649,0.042947,328.096574,22.698106,0.999527,0.985425,0.004828,0.451433,-0.000006,0.000010,-0.000028,0.000031,-0.000027,-52.924837,0.000034,
2401,2488,3.13699557313631,-3.41582891387984,-0.000863749255245239,0.005897,-0.000401,0.004450,0.254232,0.039165,323.383927,23.732769,0.999351,0.988402,0.004385,0.413812,0.000012,0.000000,0.000007,0.000016,-0.000003,24.838242,0.000017,
2461,2593,4.42341830298692,-1.12027523085564,-0.0180681009524051,0.006203,0.000182,0.003338,0.272086,0.056808,321.649774,23.951063,0.999242,0.988388,0.004342,0.468100,0.000021,-0.000010,-0.000003,0.000021,-0.000010,-5.180115,0.000021,
2356,3253,2.01294031024483,13.2239667381611,0.0279844312600517,0.005889,0.000013,0.005213,0.253063,0.051713,311.118123,25.765000,0.999642,0.992667,0.003337,0.463357,0.000010,0.000028,0.000004,0.000028,0.000009,77.932832,0.000039,
2506,2773,5.36653473516825,2.80743825414399,-0.0295273721534386,0.006064,0.000103,0.001607,0.272171,0.037207,318.739194,24.641434,0.999684,0.991408,0.003716,0.442621,0.000003,0.000026,-0.000012,0.000031,-0.000002,-67.000598,0.000035,
2371,2368,2.50632407653664,-6.0391216655141,0.00197293745787874,0.006216,0.000105,0.005451,0.265689,0.063014,325.340008,23.458143,0.998756,0.984200,0.004959,0.438275,-0.000005,0.000011,0.000012,0.000018,-0.000011,61.797828,0.000018,
2461,2383,4.46699155073608,-5.70991496216499,0.00143471640018333,0.005904,-0.000381,0.005295,0.250464,0.055414,325.201166,23.240213,0.999621,0.986712,0.004810,0.397975,0.000025,0.000024,-0.000003,0.000028,0.000021,-39.848935,0.000049,
2446,2548,4.10604234854678,-2.10283959643445,-0.0120014717340382,0.006197,0.000229,0.001380,0.279201,0.050535,322.408067,23.883944,0.999595,0.989983,0.004018,0.387370,0.000023,-0.000020,-0.000008,0.000024,-0.000021,-10.333061,0.000026,
2491,2773,5.03966991669333,2.80717722429914,-0.0268008133987792,0.005877,0.000300,0.002386,0.260813,0.060405,318.706813,24.674572,0.999219,0.986870,0.004357,0.424097,0.000013,0.000025,-0.000016,0.000036,0.000003,-55.592709,0.000043,
2416,2383,3.48693354970626,-5.71144846446477,0.0154623171184198,0.006499,0.000200,0.000842,0.294872,0.043155,325.281414,23.432915,0.999679,0.987909,0.004366,0.339145,0.000004,0.000011,0.000007,0.000015,0.000000,57.845742,0.000018,
2401,2308,3.17145981034045,-7.3508791536654,-0.0131752241392178,0.006195,0.000140,0.003293,0.271992,0.058477,326.214888,23.097333,0.999797,0.994223,0.003389,0.503335,-0.000010,-0.000006,-0.000006,-0.000001,-0.000014,-53.351633,0.000017,
2461,2608,4.42047428795965,-0.793811043083139,-0.0106596995366317,0.005920,-0.000593,0.006282,0.247742,0.045721,321.443719,24.000840,0.999043,0.984912,0.004748,0.462007,0.000023,-0.000005,-0.000003,0.000023,-0.000005,-6.619915,0.000024,
2371,2173,2.54480980732421,-10.3120033564476,0.0189967013670866,0.005845,-0.000163,0.001761,0.261341,0.023584,328.630386,22.806812,0.999353,0.982187,0.005244,0.485966,-0.000011,-0.000009,-0.000023,0.000013,-0.000033,-46.696767,0.000034,
2401,2503,3.13346731127775,-3.08652778616478,-0.0130541110714262,0.006128,-0.000102,0.002736,0.271154,0.040526,323.055036,23.820505,0.999510,0.989246,0.004194,0.374297,0.000009,-0.000005,0.000000,0.000009,-0.000005,0.397660,0.000009,
2416,2593,3.44193430755346,-1.12094214546702,-0.0233928129941319,0.005888,0.000235,0.000730,0.267642,0.042264,321.521213,24.037864,0.999535,0.991478,0.003836,0.420279,0.000012,-0.000007,-0.000006,0.000014,-0.000009,-17.312813,0.000014,
2476,2653,4.73807817266182,0.189352412650884,-0.0205114862294522,0.006082,0.000001,0.001766,0.272352,0.031696,320.688482,24.170240,0.999619,0.990245,0.003839,0.434935,0.000019,0.000024,-0.000012,0.000034,0.000009,-50.576771,0.000045,
2326,3088,1.39239636272551,9.64225773260461,0.0190787428063572,0.006262,0.000012,0.003392,0.276740,0.047339,313.778881,25.216829,0.999662,0.994583,0.003077,0.482088,-0.000002,0.000009,-0.000008,0.000013,-0.000006,-62.705531,0.000013,
2431,2233,3.84381382557594,-8.9958691781701,0.0197348151198184,0.005896,0.000330,0.000766,0.267250,0.037888,327.740178,22.844035,0.999264,0.982789,0.005190,0.353401,-0.000007,0.000016,-0.000017,0.000025,-0.000016,-62.221413,0.000025,
2506,2788,5.3639218423408,3.13436055601429,-0.0268325623133023,0.006312,0.000234,0.001444,0.284293,0.053635,318.528907,24.719094,0.999576,0.990634,0.003917,0.442552,0.000002,0.000029,-0.000014,0.000035,-0.000004,-66.963491,0.000039,
2431,2443,3.79973252876009,-4.3979541604552,-0.00548108599542729,0.005889,-0.000300,0.004974,0.251488,0.028184,324.113065,23.537638,0.999172,0.985804,0.004800,0.377455,0.000009,-0.000003,-0.000002,0.000010,-0.000003,-7.573945,0.000010,
2461,2623,4.41704088510381,-0.464467856479814,-0.022624388553993,0.006194,0.000218,0.002485,0.274971,0.062665,321.125951,24.125316,0.999470,0.988621,0.004115,0.409993,0.000022,0.000007,-0.000009,0.000026,0.000003,-24.552619,0.000031,
2401,2323,3.16954362910633,-7.02341479130818,0.00678103491395632,0.005777,0.000130,0.005314,0.245568,0.078657,326.112069,23.247588,0.999391,0.987484,0.004366,0.420069,-0.000015,-0.000004,-0.000002,-0.000004,-0.000015,-80.776629,0.000021,
2371,2383,2.50318676694698,-5.71110319051398,0.00311354158668564,0.005897,-0.000249,0.005958,0.249156,0.048130,325.090216,23.526160,0.999162,0.984919,0.004882,0.397926,0.000002,0.000007,0.000005,0.000010,-0.000001,57.839734,0.000011,
2476,2668,4.73476478917648,0.515470978632763,-0.0214678851052668,0.006170,-0.000538,0.005044,0.263727,0.017700,320.428192,24.138474,0.999456,0.987749,0.004211,0.509982,0.000016,0.000015,-0.000011,0.000026,0.000005,-44.791700,0.000033,
2416,2398,3.48319553518632,-5.38358904811158,0.00578678181881287,0.006587,0.000050,0.002165,0.294022,0.053678,324.957049,23.361996,0.999586,0.987354,0.004529,0.470470,0.000011,0.000020,0.000009,0.000025,0.000006,58.472020,0.000033,
2401,2518,3.13082173500326,-2.76038435395422,-0.012468730859382,0.006266,0.000185,0.001753,0.281224,0.065271,322.827190,23.717036,0.999531,0.988477,0.004322,0.549225,0.000007,-0.000003,-0.000003,0.000008,-0.000004,-14.216176,0.000008,
2506,2803,5.36017242791733,3.46136721318802,-0.0278479002707286,0.006054,-0.000017,0.005003,0.258602,0.048459,318.249649,24.801835,0.999132,0.986737,0.004813,0.415741,0.000008,0.000031,-0.000015,0.000039,0.000001,-63.726625,0.000045,
2416,2608,3.43894386439387,-0.793630226478989,-0.0242557951036133,0.005977,0.000026,0.001500,0.268898,0.051445,321.271361,24.073962,0.999423,0.989568,0.004090,0.441800,0.000012,-0.000004,-0.000002,0.000012,-0.000004,-7.160139,0.000013,
2326,3103,1.3899606101396,9.96799103101,0.0236872705819451,0.006279,0.000217,0.003326,0.277807,0.053299,313.572918,25.286503,0.999566,0.993727,0.003319,0.451826,0.000001,0.000016,-0.000009,0.000020,-0.000003,-64.494709,0.000022,
2431,2458,3.79668204283378,-4.06965999058805,-0.00979533227842921,0.005866,0.000635,0.001351,0.264238,0.071396,323.846137,23.547800,0.999437,0.986381,0.004670,0.462181,0.000013,-0.000003,-0.000001,0.000013,-0.000003,-3.405391,0.000014,
2476,2683,4.73128013244881,0.84399358431444,-0.0257084491074124,0.006030,-0.000380,0.004212,0.260572,0.026599,320.144496,24.282341,0.999615,0.989495,0.003971,0.432112,0.000016,0.000021,-0.000004,0.000024,0.000014,-60.034215,0.000038,
2506,2818,5.35764555022338,3.78839081152727,-0.025958229126843,0.006361,0.000276,0.003728,0.277818,0.067594,318.039519,24.888336,0.999295,0.988582,0.004366,0.409263,0.000013,0.000026,-0.000004,0.000027,0.000012,-74.038252,0.000040,
2401,2533,3.12816404191805,-2.4314115353496,-0.0125148903751438,0.006360,0.000571,-0.000540,0.293972,0.055581,322.595343,23.906482,0.999446,0.989150,0.004355,0.396614,0.000010,-0.000010,-0.000001,0.000010,-0.000010,-4.113497,0.000012,
2431,2473,3.79393070867,-3.74229580841235,-0.00530675056296559,0.005665,0.000491,0.000583,0.257811,0.054889,323.634020,23.619134,0.999342,0.986005,0.004650,0.425302,0.000010,-0.000009,-0.000004,0.000011,-0.000010,-11.345230,0.000012,
2476,2698,4.72850473393037,1.17152780047284,-0.0228667378234491,0.006001,0.000129,0.003367,0.262746,0.062068,319.925598,24.371898,0.999678,0.989160,0.004109,0.435105,0.000016,0.000026,-0.000005,0.000028,0.000013,-67.012671,0.000042,
2506,2833,5.35487372653266,4.11364939134114,-0.0187171471231977,0.005927,0.000021,0.002027,0.264346,0.037317,317.842452,24.906444,0.999493,0.989825,0.004082,0.421742,0.000023,0.000034,0.000005,0.000036,0.000021,67.621354,0.000057,
2506,2848,5.35185997707761,4.44110032267711,-0.019919682617342,0.005937,0.000132,-0.000142,0.273284,0.044735,317.595827,25.028796,0.999670,0.991925,0.003607,0.367546,0.000018,0.000049,0.000001,0.000049,0.000017,88.225379,0.000069,
