Image X[Pixel],Image Y[Pixel],X[mm],Y[mm],Z[mm],Horizontal Displacement U[mm],Vertical Displacement V[mm],Out-Of-Plane: W[mm],Horizontal: u[Pixel],Vertical: v[Pixel],Horizontal: q[Pixel],Vertical: r[Pixel],Correlation Value 2D,Correlation Value Persp,Sigma,Epipolar Distance,Strain-global frame: Exx,Strain-global frame: Eyy,Strain-global frame: Exy,Maximum Principal Strain: EI,Minimum Principal Strain: EII,Shear Angle Gamma,Von Mises Equivalent Strain,
2011,1993,-5.29279780385247,-14.3048493345103,0.00785100626694657,-0.008135,-0.052614,-0.022564,-0.328054,-2.483311,331.928236,22.382936,0.998425,0.981236,0.005596,0.412705,0.001140,0.000911,0.000155,0.001219,0.000833,26.763974,0.002063,
2026,2068,-4.97523012162408,-12.6609827431376,0.0182409643550727,-0.006605,-0.052613,-0.010746,-0.289728,-2.435435,330.758516,22.295775,0.999507,0.991653,0.003969,0.410486,0.000938,0.000793,0.000149,0.001032,0.000699,32.046203,0.001742,
2041,2143,-4.65808845487412,-11.0157815364733,0.0106768806681998,-0.004673,-0.051467,-0.008521,-0.206888,-2.363367,329.485273,22.245488,0.998186,0.981445,0.005863,0.415983,0.000744,0.000692,0.000140,0.000860,0.000575,39.722287,0.001445,
2071,2293,-4.02621509444273,-7.72974148584395,-0.014755454090789,-0.002206,-0.049123,-0.013214,-0.079527,-2.248485,326.821959,22.096802,0.999734,0.993298,0.003870,0.506598,0.000467,0.000398,0.000076,0.000516,0.000348,32.774720,0.000870,
2056,2218,-4.34163834748054,-9.37116591622923,0.00102237223256907,-0.003182,-0.050039,-0.009533,-0.135202,-2.272216,328.185252,22.243397,0.998389,0.981078,0.005486,0.412604,0.000595,0.000554,0.000116,0.000692,0.000456,40.007411,0.001156,
2086,2368,-3.71051304010777,-6.09114323533671,-0.0109823774840265,-0.001144,-0.049742,-0.005348,-0.053404,-2.251383,325.594430,22.050503,0.998232,0.981284,0.005520,0.493061,0.000342,0.000223,0.000035,0.000351,0.000214,15.156753,0.000571,
2116,2518,-3.08077326822794,-2.81471357711011,-0.0202262807699185,0.000660,-0.049503,0.000955,0.010830,-2.234590,323.017148,22.089099,0.999114,0.987014,0.004546,0.418521,0.000168,0.000080,0.000006,0.000169,0.000080,3.930286,0.000254,
2101,2443,-3.39518225511716,-4.45234847437281,-0.00990495229450516,-0.000200,-0.049126,-0.000771,-0.023249,-2.198712,324.349844,22.067484,0.999260,0.988171,0.004451,0.492017,0.000234,0.000091,0.000008,0.000235,0.000091,3.331204,0.000336,
2011,2008,-5.29570735597002,-13.9743663504185,0.000940447868458705,-0.008044,-0.053569,-0.015156,-0.344197,-2.489671,331.614420,22.438043,0.998168,0.982940,0.005542,0.343337,0.001113,0.000885,0.000161,0.001196,0.000802,27.309502,0.002011,
2026,2083,-4.97776214091889,-12.3307562908431,0.0121797344712036,-0.006603,-0.051989,-0.011001,-0.288782,-2.428051,330.468221,22.352629,0.999005,0.987119,0.004737,0.354799,0.000900,0.000793,0.000151,0.001007,0.000686,35.264191,0.001703,
2011,2023,-5.29679183661645,-13.6461956948958,0.000979051965259714,-0.007081,-0.053000,-0.016566,-0.296064,-2.477784,331.422951,22.349212,0.998220,0.982437,0.005559,0.435431,0.001064,0.000755,0.000137,0.001116,0.000703,20.731114,0.001835,
2041,2158,-4.66166745991852,-10.6840711929977,-0.00412481354527472,-0.004744,-0.051737,-0.002414,-0.227189,-2.342143,329.100100,22.360695,0.999189,0.986496,0.004892,0.318165,0.000716,0.000633,0.000122,0.000803,0.000546,35.501659,0.001357,
2266,3268,0.0546533534802371,13.4914105276158,0.025894943934361,0.004371,-0.049674,0.013647,0.137320,-2.214515,310.852577,23.018337,0.999631,0.992899,0.003426,0.483234,-0.000006,0.000003,-0.000006,0.000006,-0.000010,-62.618451,0.000010,
2461,2848,4.36730024345366,4.38838252414189,-0.028258900991375,0.002676,-0.050528,0.007007,0.075157,-2.253423,317.248749,22.587093,0.999773,0.993015,0.003334,0.443053,0.000033,0.000001,0.000009,0.000036,-0.000001,14.421059,0.000041,
2386,2473,2.80766106258148,-3.79367093329988,-0.010222827607663,0.001246,-0.050861,0.001747,0.030352,-2.263849,323.348618,21.365686,0.999270,0.989069,0.004508,0.460574,0.000242,0.000133,0.000017,0.000244,0.000131,8.546610,0.000381,
2326,2173,1.55548335039005,-10.36132196888,-0.00164931447056915,-0.000244,-0.053018,-0.010660,0.004948,-2.440153,328.234989,20.738958,0.998653,0.979095,0.005553,0.325594,0.000672,0.000698,-0.000024,0.000712,0.000658,-59.629070,0.001370,
2296,2023,0.928270409505092,-13.6581112374337,0.0113190776756937,-0.001128,-0.056010,-0.015706,-0.019962,-2.598606,330.755247,20.218446,0.998655,0.980020,0.005867,0.515706,0.000972,0.000994,-0.000053,0.001038,0.000929,-50.886083,0.001967,
2476,2923,4.67992840184919,6.02069794508134,-0.0149907608356443,0.002685,-0.050520,0.005326,0.081526,-2.274673,316.175298,22.947954,0.999205,0.985827,0.004583,0.361644,0.000005,-0.000016,0.000015,0.000013,-0.000024,28.049615,0.000024,
2131,2593,-2.76680392634037,-1.17908653527708,-0.0206462168433745,0.000921,-0.049455,0.005804,0.008170,-2.168958,321.732338,22.041945,0.999333,0.989946,0.004292,0.535638,0.000115,0.000068,0.000006,0.000116,0.000067,7.634306,0.000185,
2221,3043,-0.88338686720753,8.60951674706789,0.0154931618671412,0.003268,-0.049713,0.011400,0.095718,-2.200531,314.501812,22.564314,0.999683,0.993633,0.003273,0.439708,0.000008,-0.000007,-0.000008,0.000012,-0.000011,-23.591415,0.000013,
2491,2998,4.99317274657922,7.65059565564819,0.00954096346913502,0.003094,-0.050535,0.010339,0.080748,-2.262557,315.192218,23.227082,0.999390,0.988414,0.004082,0.416555,0.000004,-0.000012,0.000036,0.000033,-0.000040,38.570517,0.000043,
2431,2698,3.74398629438889,1.11966450438027,-0.0204211887281645,0.001993,-0.050670,0.005715,0.049313,-2.268352,319.678294,22.133472,0.999755,0.991969,0.003685,0.342074,0.000093,0.000084,-0.000001,0.000093,0.000084,-6.556812,0.000177,
2401,2548,3.12040409924554,-2.15565105184216,-0.0129399654688882,0.001658,-0.050631,0.000817,0.052440,-2.272712,322.144727,21.534290,0.999407,0.989557,0.004486,0.480306,0.000175,0.000076,-0.000003,0.000175,0.000076,-1.568360,0.000257,
2206,2968,-1.19612511035595,6.98103469885025,0.00649692613455954,0.003396,-0.049113,0.006696,0.117336,-2.184603,315.711853,22.452452,0.999340,0.990910,0.003848,0.439321,0.000013,-0.000006,0.000000,0.000013,-0.000006,-1.142239,0.000013,
2176,2818,-1.82538402422974,3.72187854319383,-0.026109224633899,0.002159,-0.049337,0.006137,0.062770,-2.221461,317.919933,22.287442,0.999377,0.990428,0.003958,0.373297,0.000027,0.000039,-0.000004,0.000040,0.000026,-72.805363,0.000067,
2416,2623,3.43139986491928,-0.5177839048431,-0.0216191727213868,0.001355,-0.050873,0.003851,0.027160,-2.272026,320.845541,21.751900,0.999256,0.987909,0.004296,0.481493,0.000124,0.000046,0.000000,0.000124,0.000046,-0.255703,0.000176,
2236,3118,-0.569553441782482,10.2375542323883,0.024003927566298,0.003990,-0.049376,0.009010,0.136257,-2.202390,313.351852,22.715134,0.999577,0.992351,0.003602,0.436558,0.000003,0.000000,-0.000011,0.000013,-0.000010,-41.629298,0.000014,
2371,2398,2.4948185382573,-5.43416432508106,-0.00842537991155723,0.000542,-0.050835,-0.003616,0.017356,-2.298216,324.557267,21.130722,0.999352,0.987901,0.004629,0.484226,0.000318,0.000228,0.000002,0.000318,0.000228,1.520535,0.000548,
2446,2773,4.05561630631759,2.75356626439083,-0.0276550726750884,0.002285,-0.050424,0.004186,0.068152,-2.259129,318.441037,22.232627,0.999490,0.988345,0.004312,0.511774,0.000064,0.000043,0.000011,0.000069,0.000038,24.225967,0.000108,
2161,2743,-2.13858074727352,2.08862560189648,-0.0262677130436941,0.002084,-0.049547,0.003865,0.066648,-2.224422,319.194370,22.129938,0.999354,0.988855,0.004246,0.462087,0.000041,0.000034,-0.000013,0.000050,0.000024,-36.958048,0.000076,
2056,2233,-4.34442871140462,-9.04251165953552,-0.00486133958548862,-0.003154,-0.050374,-0.006366,-0.142929,-2.276561,327.887549,22.229982,0.999077,0.986874,0.004832,0.419051,0.000571,0.000519,0.000104,0.000652,0.000438,38.027877,0.001097,
2146,2668,-2.45202656670117,0.454610557977034,-0.0189550944706411,0.001527,-0.049080,0.001691,0.048159,-2.189978,320.510716,22.042264,0.999593,0.991601,0.003697,0.538888,0.000080,0.000048,-0.000011,0.000083,0.000045,-17.684935,0.000130,
2341,2248,1.86796990161681,-8.71800864697809,-0.00439111629759736,-0.000396,-0.052690,-0.002630,-0.029624,-2.369525,326.964059,20.793407,0.998901,0.981811,0.005291,0.457935,0.000535,0.000481,-0.000012,0.000537,0.000479,-11.966713,0.001016,
2191,2893,-1.51041887925782,5.35143191363932,-0.0078840872841397,0.002785,-0.049299,0.005159,0.094334,-2.207420,316.835210,22.337150,0.999771,0.994833,0.003199,0.424276,0.000018,0.000015,0.000007,0.000024,0.000009,38.540197,0.000034,
2251,3193,-0.255804124280811,11.8637216051658,0.0464740274920814,0.004186,-0.049750,0.011486,0.136497,-2.218421,312.281509,22.884334,0.999536,0.992328,0.003472,0.421395,-0.000001,0.000007,-0.000002,0.000008,-0.000002,-74.952269,0.000008,
2356,2323,2.18203045768345,-7.07650534452134,-0.00799771206999367,0.000526,-0.052097,-0.005420,0.022504,-2.353320,325.775533,20.861830,0.999616,0.993867,0.003829,0.541594,0.000406,0.000309,-0.000007,0.000406,0.000308,-3.837840,0.000717,
2086,2383,-3.71309405529465,-5.76197999167386,-0.0151594812800795,-0.001094,-0.049489,-0.004921,-0.052250,-2.237319,325.318260,22.138433,0.998148,0.980420,0.005606,0.419884,0.000326,0.000191,0.000029,0.000332,0.000185,11.635716,0.000524,
2026,2098,-4.97862376419992,-12.0005016444894,0.00702679640437509,-0.005412,-0.050562,-0.018379,-0.213565,-2.378659,330.258952,22.386132,0.998848,0.981638,0.005392,0.363758,0.000862,0.000755,0.000157,0.000975,0.000643,35.614595,0.001629,
2041,2173,-4.66333394885224,-10.3571547850081,0.000664664692578754,-0.004766,-0.051226,-0.006985,-0.215439,-2.336803,328.911435,22.269546,0.999248,0.987827,0.004575,0.409361,0.000691,0.000602,0.000115,0.000770,0.000523,34.416152,0.001301,
2071,2308,-4.02877385622427,-7.40001775425446,-0.0250906617986288,-0.001714,-0.048668,-0.011536,-0.061570,-2.234360,326.511677,22.147474,0.999756,0.992745,0.004025,0.469113,0.000435,0.000344,0.000060,0.000465,0.000314,26.457869,0.000784,
2011,2038,-5.29877973064582,-13.3154504187089,-0.00650292205665437,-0.006611,-0.051830,-0.018831,-0.268089,-2.446769,331.147737,22.396881,0.997956,0.980351,0.005724,0.410507,0.001021,0.000694,0.000129,0.001066,0.000649,19.136358,0.001732,
2311,2098,1.24180052044017,-12.0084848048801,0.0046863976344298,-0.000779,-0.054678,-0.011779,-0.016539,-2.500977,329.483338,20.499815,0.998990,0.981567,0.005659,0.408121,0.000823,0.000885,-0.000038,0.000903,0.000805,-64.678430,0.001709,
2101,2458,-3.39782999685532,-4.12462126180318,-0.0161977732817036,-0.000185,-0.049162,-0.002498,-0.017527,-2.200869,324.060962,22.047145,0.999327,0.988339,0.004348,0.513121,0.000217,0.000079,0.000003,0.000217,0.000079,1.303550,0.000306,
2116,2533,-3.08343058920893,-2.48747503398757,-0.0252489921914503,0.000478,-0.049016,-0.002952,0.014183,-2.211707,322.736055,22.037927,0.998860,0.985430,0.004925,0.497400,0.000151,0.000079,0.000009,0.000152,0.000078,6.704875,0.000234,
2266,3283,0.0512390386164938,13.8166482289535,0.0152414393082836,0.004314,-0.049814,0.011797,0.140776,-2.226515,310.520694,23.017245,0.999544,0.992346,0.003440,0.496532,-0.000010,0.000011,-0.000006,0.000013,-0.000012,-74.262474,0.000014,
2491,3013,4.99001724346752,7.97728461334907,0.00343370015201572,0.003309,-0.050492,0.007766,0.100495,-2.272025,314.914992,23.308085,0.999605,0.992727,0.003465,0.384088,0.000007,-0.000014,0.000032,0.000030,-0.000037,36.121387,0.000039,
2431,2713,3.74192878843267,1.44491980756415,-0.0141526388878788,0.002195,-0.050248,0.003295,0.067715,-2.248481,319.505568,22.059832,0.999692,0.991687,0.003736,0.485748,0.000082,0.000082,0.000001,0.000083,0.000081,42.534152,0.000164,
2416,2638,3.42875499126376,-0.189926113069788,-0.0207774524482147,0.001396,-0.050510,0.001391,0.038181,-2.278573,320.619324,21.876841,0.999338,0.988555,0.004263,0.398243,0.000113,0.000057,-0.000003,0.000113,0.000056,-3.093586,0.000173,
2446,2788,4.05291220744109,3.08051492691664,-0.0267414575284306,0.002304,-0.050039,0.001731,0.078360,-2.259051,318.214148,22.313848,0.999465,0.988644,0.004161,0.482740,0.000061,0.000033,0.000009,0.000063,0.000031,16.238145,0.000096,
2296,2038,0.926000784808025,-13.326504847306,0.0180930566734219,-0.001176,-0.054982,-0.015796,-0.021489,-2.554647,330.567212,20.496233,0.998891,0.983655,0.005281,0.315345,0.000936,0.000960,-0.000050,0.001000,0.000896,-51.869740,0.001897,
2011,2053,-5.30127604794235,-12.9866073189252,0.000872742369097068,-0.006885,-0.052822,-0.010312,-0.304011,-2.429800,330.932787,22.457806,0.999239,0.990373,0.004159,0.357593,0.000985,0.000727,0.000124,0.001034,0.000677,21.928207,0.001724,
2401,2563,3.11660673213379,-1.82729292916343,-0.0202654528264361,0.001318,-0.050213,0.000233,0.039160,-2.242174,321.826121,21.572083,0.999263,0.987454,0.004515,0.519817,0.000157,0.000075,0.000004,0.000157,0.000075,2.844780,0.000237,
2056,2248,-4.34646620235305,-8.71471001215784,-0.00505446421800571,-0.003055,-0.050087,-0.008536,-0.132226,-2.284172,327.655674,22.206295,0.998952,0.985205,0.004963,0.431979,0.000544,0.000507,0.000097,0.000625,0.000426,39.576087,0.001057,
2206,2983,-1.1993565952316,7.30714564673842,0.00524951728294809,0.003019,-0.049199,0.009059,0.092431,-2.180824,315.431781,22.487466,0.999445,0.991312,0.003695,0.423994,0.000014,-0.000007,-0.000002,0.000014,-0.000007,-5.455124,0.000014,
2221,3058,-0.884876007775713,8.93392663994569,0.0250951329785494,0.003678,-0.049661,0.010564,0.117294,-2.202697,314.359186,22.539528,0.999744,0.994333,0.003042,0.480483,0.000013,-0.000009,-0.000006,0.000014,-0.000011,-14.889748,0.000015,
2026,2113,-4.98115969564637,-11.6716255960225,0.00123321853385505,-0.005052,-0.051325,-0.012375,-0.213756,-2.381687,329.970294,22.345783,0.998305,0.978354,0.005987,0.394685,0.000830,0.000727,0.000153,0.000940,0.000617,35.727812,0.001568,
2191,2908,-1.51271591572279,5.6756774087753,-0.00203378227621442,0.002780,-0.049459,0.007010,0.088231,-2.208041,316.634538,22.235332,0.999751,0.994598,0.003295,0.539437,0.000019,0.000005,0.000007,0.000022,0.000002,22.711481,0.000026,
2161,2758,-2.14092120128319,2.41489793407038,-0.0205585500969505,0.002063,-0.049389,0.006792,0.056817,-2.201376,318.988509,22.150878,0.999067,0.986071,0.004487,0.474305,0.000041,0.000032,-0.000014,0.000052,0.000022,-36.289517,0.000075,
2071,2323,-4.0302273132255,-7.07434812103344,-0.00628540494568597,-0.001530,-0.049622,-0.003277,-0.076935,-2.236001,326.411963,22.138904,0.999122,0.987363,0.004689,0.474240,0.000410,0.000290,0.000053,0.000430,0.000270,20.570523,0.000706,
2326,2188,1.55380834703947,-10.0342424176718,0.00574859575766595,-0.000056,-0.052282,-0.015159,0.029286,-2.434304,328.079680,20.699152,0.998951,0.981843,0.005337,0.407871,0.000638,0.000668,-0.000021,0.000679,0.000627,-62.796849,0.001306,
2356,2338,2.17945789119733,-6.74575865856369,-0.0148557005502994,0.000895,-0.051082,-0.011063,0.059644,-2.338914,325.511629,21.055953,0.999250,0.988262,0.004630,0.402964,0.000388,0.000293,-0.000007,0.000388,0.000292,-4.099563,0.000683,
2476,2938,4.67717177550684,6.34615130807779,-0.00723585813506133,0.002599,-0.050648,0.008586,0.065153,-2.264078,315.978871,22.971659,0.999393,0.988756,0.004096,0.404612,0.000004,-0.000014,0.000019,0.000016,-0.000025,32.654472,0.000026,
2341,2263,1.86593956045551,-8.38993465364015,0.000477488960314076,0.000036,-0.052413,-0.002233,-0.011128,-2.369591,326.780958,20.848589,0.999009,0.982603,0.005187,0.441490,0.000503,0.000433,-0.000018,0.000507,0.000428,-13.816810,0.000937,
2311,2113,1.2393476740487,-11.6807996878341,0.0105890147906962,-0.000931,-0.054582,-0.011690,-0.023779,-2.521964,329.284304,20.501160,0.999010,0.981488,0.005514,0.420790,0.000789,0.000868,-0.000033,0.000880,0.000777,-69.862096,0.001658,
2146,2683,-2.45513200226216,0.782025624818417,-0.0245790267520078,0.001589,-0.049885,0.006462,0.036297,-2.220897,320.208610,22.106934,0.999345,0.990428,0.003881,0.451698,0.000073,0.000047,-0.000012,0.000077,0.000043,-21.583443,0.000122,
2251,3208,-0.258559922527052,12.188608878868,0.0466802273678013,0.003983,-0.049860,0.009753,0.132796,-2.227025,312.034064,22.886306,0.999748,0.995068,0.003085,0.432870,-0.000004,0.000008,-0.000001,0.000008,-0.000004,-85.657217,0.000008,
2386,2488,2.80477742131381,-3.46591818601395,-0.0135102985324238,0.001343,-0.050701,-0.000409,0.042625,-2.265233,323.090212,21.389634,0.999344,0.988696,0.004377,0.479862,0.000224,0.000119,0.000010,0.000225,0.000118,5.189052,0.000349,
2266,3298,0.0490694552314608,14.142418647659,0.0210872476555437,0.004380,-0.049599,0.010913,0.146796,-2.230807,310.329170,23.151468,0.999569,0.992853,0.003461,0.381721,-0.000008,0.000024,-0.000008,0.000026,-0.000010,-77.219727,0.000026,
2176,2833,-1.82789710962729,4.04832875345804,-0.0350812559429983,0.002623,-0.049008,0.003644,0.092017,-2.205027,317.630098,22.240810,0.999610,0.994163,0.003393,0.448812,0.000029,0.000033,0.000003,0.000035,0.000027,61.230389,0.000062,
2131,2608,-2.76853489041683,-0.852106857379482,-0.0221098955491357,0.001291,-0.048940,-0.000828,0.045150,-2.198408,321.514207,22.075439,0.999433,0.989654,0.004293,0.479092,0.000110,0.000057,0.000002,0.000110,0.000057,2.657529,0.000169,
2041,2188,-4.66536418881686,-10.0276697294932,-0.00261145336520485,-0.004527,-0.050092,-0.009516,-0.197087,-2.302442,328.660989,22.303373,0.999154,0.986119,0.004795,0.405224,0.000658,0.000599,0.000115,0.000748,0.000510,37.761210,0.001265,
2011,2068,-5.30272778365931,-12.6587915373434,0.00615041306156172,-0.006717,-0.051947,-0.013831,-0.286573,-2.426816,330.754051,22.420107,0.999276,0.990738,0.004109,0.389542,0.000950,0.000784,0.000131,0.001022,0.000711,28.841084,0.001743,
2086,2398,-3.71512171918028,-5.43494168087133,-0.0110352822646291,-0.000934,-0.049433,-0.003102,-0.050154,-2.235248,325.112990,22.129024,0.998663,0.983732,0.005071,0.431828,0.000301,0.000159,0.000025,0.000306,0.000155,9.781213,0.000469,
2461,2863,4.3646993794058,4.71437163463985,-0.0221215433845146,0.002535,-0.050477,0.006328,0.071303,-2.244090,317.051464,22.631445,0.999484,0.990994,0.003719,0.462067,0.000029,0.000003,0.000007,0.000031,0.000001,13.886098,0.000037,
2236,3133,-0.572215046241897,10.5629342977207,0.0251373252332883,0.004231,-0.049650,0.013522,0.132614,-2.205658,313.112379,22.744993,0.999604,0.992599,0.003679,0.423368,-0.000001,0.000002,-0.000011,0.000012,-0.000011,-49.453797,0.000013,
2446,2803,4.04982077973684,3.40785363272779,-0.0260349757394351,0.002396,-0.050281,0.004634,0.071724,-2.241631,317.968282,22.416405,0.999638,0.990002,0.003859,0.449695,0.000054,0.000017,0.000008,0.000056,0.000015,11.274297,0.000075,
2101,2473,-3.40038461464791,-3.79707437385727,-0.0157574530871898,-0.000181,-0.049490,0.000825,-0.027176,-2.216210,323.812756,22.091304,0.999223,0.988543,0.004395,0.456041,0.000202,0.000082,0.000008,0.000203,0.000082,3.795002,0.000293,
2491,3028,4.98695213263878,8.3032271379558,0.00510818026128845,0.003480,-0.050485,0.011424,0.094375,-2.250464,314.677139,23.346020,0.999731,0.993869,0.003287,0.425894,0.000010,-0.000006,0.000029,0.000032,-0.000028,37.112403,0.000035,
2116,2548,-3.086548797622,-2.16041207521959,-0.0262352640552876,0.000193,-0.049428,0.002640,-0.015582,-2.199874,322.455590,22.023085,0.999066,0.987418,0.004583,0.528408,0.000143,0.000067,0.000010,0.000144,0.000066,7.746854,0.000215,
2056,2263,-4.34859759977549,-8.38563370349983,-0.00796671139761429,-0.002578,-0.049912,-0.005899,-0.117685,-2.259820,327.404175,22.244614,0.998998,0.984556,0.005196,0.414914,0.000516,0.000469,0.000102,0.000596,0.000388,38.529577,0.000992,
2431,2728,3.73893307189912,1.77127935147999,-0.0171969440755788,0.002447,-0.050364,0.003688,0.077806,-2.255360,319.246232,22.043176,0.999686,0.992000,0.003662,0.545995,0.000069,0.000072,0.000009,0.000079,0.000062,50.090766,0.000141,
2416,2653,3.42609086567217,0.13738389527655,-0.0184088053002824,0.001801,-0.050290,0.005280,0.042686,-2.227924,320.399254,21.911737,0.999426,0.988757,0.004296,0.462424,0.000104,0.000063,-0.000001,0.000104,0.000062,-0.961915,0.000168,
2026,2128,-4.9838292791867,-11.3422014484415,-0.00198884002634259,-0.005315,-0.050986,-0.011983,-0.226818,-2.365489,329.689625,22.370233,0.998289,0.978248,0.006143,0.380094,0.000782,0.000711,0.000152,0.000903,0.000591,38.418380,0.001505,
2401,2578,3.11369351029814,-1.49986747151038,-0.0174337075524136,0.001341,-0.050772,0.003199,0.029247,-2.255378,321.596169,21.662564,0.999274,0.986573,0.004586,0.462547,0.000146,0.000077,0.000005,0.000146,0.000076,4.080539,0.000226,
2371,2413,2.49269390027432,-5.10553505085303,-0.00911879367970414,0.001191,-0.050685,-0.005551,0.054018,-2.310983,324.344932,21.244717,0.999526,0.988682,0.004435,0.400184,0.000296,0.000219,0.000009,0.000297,0.000218,6.820223,0.000517,
2296,2053,0.923027861715717,-12.9975594581232,0.0170444363370166,-0.001106,-0.055326,-0.012351,-0.030040,-2.536540,330.308805,20.474631,0.998702,0.982665,0.005407,0.388431,0.000904,0.000946,-0.000045,0.000975,0.000876,-57.426421,0.001851,
2206,2998,-1.20182056814467,7.63243657489203,0.00352919513159122,0.003305,-0.049563,0.009458,0.104170,-2.208225,315.184794,22.479100,0.999416,0.991018,0.003816,0.420802,0.000011,-0.000003,-0.000003,0.000012,-0.000004,-12.271905,0.000012,
2041,2203,-4.66716693830774,-9.69813654195782,-0.00956718160381342,-0.003853,-0.049419,-0.012404,-0.157955,-2.281736,328.400671,22.322385,0.998799,0.982591,0.005260,0.402079,0.000624,0.000575,0.000114,0.000717,0.000482,38.956114,0.001207,
2071,2338,-4.03188701810152,-6.74722668054874,-0.0034999619601308,-0.001367,-0.049365,-0.008109,-0.055628,-2.249220,326.215119,22.119198,0.998620,0.984977,0.005004,0.479426,0.000384,0.000252,0.000047,0.000399,0.000237,17.766268,0.000643,
2476,2953,4.6746346823487,6.67169612872054,-0.000664304445763264,0.002711,-0.050723,0.010406,0.063359,-2.265415,315.787097,23.010502,0.999348,0.988743,0.004135,0.420434,0.000008,-0.000016,0.000023,0.000022,-0.000030,31.468862,0.000031,
2221,3073,-0.887549222354554,9.25979693885042,0.0254251858333987,0.003531,-0.049563,0.009334,0.114454,-2.212814,314.113963,22.600287,0.999625,0.993287,0.003283,0.427354,0.000011,-0.000003,-0.000004,0.000012,-0.000004,-16.550009,0.000012,
2341,2278,1.86306294520324,-8.06151850151143,-0.00463943377530995,0.000171,-0.052568,-0.004665,0.003441,-2.378020,326.510733,20.846802,0.999011,0.982279,0.005217,0.473766,0.000478,0.000406,-0.000013,0.000480,0.000404,-9.946587,0.000885,
2356,2353,2.17678922707131,-6.42036836098797,-0.00881884666910082,0.000811,-0.051056,-0.008024,0.045106,-2.327777,325.306053,20.895657,0.999379,0.987866,0.004764,0.614754,0.000366,0.000281,0.000004,0.000366,0.000281,2.915998,0.000649,
2326,2203,1.55073361833127,-9.70492857824105,0.00257589702266614,-0.000028,-0.052461,-0.014067,0.026761,-2.437818,327.808532,20.766394,0.998985,0.981441,0.005557,0.374375,0.000604,0.000627,-0.000016,0.000635,0.000596,-63.292257,0.001232,
2086,2413,-3.71689017338841,-5.1079855343046,-0.00952818029378477,-0.000524,-0.049388,-0.004075,-0.028530,-2.246684,324.905454,22.105033,0.998756,0.985314,0.004778,0.444885,0.000287,0.000118,0.000019,0.000289,0.000116,6.307246,0.000417,
2281,1993,0.605612137294621,-14.3148694343556,0.014978805619478,-0.001669,-0.056283,-0.014794,-0.048172,-2.598763,331.253829,20.441147,0.998652,0.968783,0.007176,0.332204,0.001016,0.000960,-0.000100,0.001092,0.000884,-37.189220,0.001980,
2146,2698,-2.45772512998697,1.10946783580693,-0.029956180570025,0.001776,-0.049229,0.005679,0.047493,-2.188802,319.931097,22.118616,0.999384,0.989918,0.003990,0.480425,0.000068,0.000038,-0.000011,0.000071,0.000034,-18.553316,0.000107,
2251,3223,-0.260684762373909,12.5132588196536,0.0587487793735022,0.003932,-0.049629,0.013184,0.119340,-2.194693,311.875961,22.897275,0.999697,0.994438,0.003221,0.476485,-0.000007,0.000011,-0.000005,0.000012,-0.000008,-76.194020,0.000012,
2011,2083,-5.30545356285245,-12.3290210180571,0.00216970234771452,-0.006880,-0.052099,-0.010968,-0.301869,-2.408400,330.465057,22.447963,0.998483,0.981782,0.005466,0.371757,0.000907,0.000786,0.000139,0.000998,0.000695,33.179600,0.001702,
2176,2848,-1.82952524654225,4.37329340205365,-0.021047308313257,0.002816,-0.049514,0.007067,0.090135,-2.209730,317.501875,22.256461,0.999340,0.991635,0.003694,0.440357,0.000024,0.000029,0.000007,0.000033,0.000020,53.891980,0.000054,
2311,2128,1.23672914206385,-11.349285654859,0.00753248589251143,-0.000904,-0.053352,-0.016245,-0.006592,-2.467413,329.032908,20.683979,0.999009,0.983525,0.005255,0.327869,0.000758,0.000842,-0.000030,0.000852,0.000748,-72.052909,0.001602,
2191,2923,-1.51513729735242,6.00306584078717,-0.00268556718873469,0.002991,-0.049246,0.007149,0.097589,-2.195464,316.393285,22.366336,0.999342,0.991039,0.003869,0.435015,0.000017,0.000000,0.000008,0.000020,-0.000003,21.886530,0.000022,
2161,2773,-2.14371296089332,2.74203527364706,-0.0277897676726298,0.002159,-0.049308,0.005186,0.066161,-2.210049,318.693565,22.185193,0.999407,0.989879,0.004008,0.441579,0.000040,0.000038,-0.000011,0.000049,0.000028,-41.740253,0.000079,
2491,3043,4.98363942375664,8.62979067014312,0.00537126399808585,0.003350,-0.050558,0.012995,0.082405,-2.239752,314.421254,23.446653,0.999728,0.992987,0.003546,0.393831,0.000004,0.000000,0.000039,0.000042,-0.000037,43.495694,0.000046,
2446,2818,4.04769144981318,3.73309327358052,-0.0212086352329379,0.002862,-0.050099,0.004613,0.093239,-2.237031,317.786136,22.374323,0.999517,0.989764,0.004021,0.548430,0.000044,0.000002,0.000008,0.000046,0.000000,10.775004,0.000053,
2131,2623,-2.77098929273013,-0.525189270806592,-0.0187210535498252,0.001266,-0.048822,0.002367,0.034480,-2.173380,321.288671,22.095371,0.999456,0.989754,0.004163,0.490484,0.000103,0.000050,-0.000003,0.000103,0.000050,-2.953827,0.000156,
2461,2878,4.36135209944118,5.04185591349668,-0.0316993810383792,0.002530,-0.049771,0.000607,0.092995,-2.215281,316.747388,22.681939,0.999352,0.991444,0.003776,0.494943,0.000021,0.000015,0.000012,0.000031,0.000005,38.530864,0.000039,
2026,2143,-4.98506533365543,-11.014355917002,0.00103515741142246,-0.004506,-0.050503,-0.011252,-0.191572,-2.332254,329.509314,22.306508,0.998067,0.978331,0.006004,0.469751,0.000752,0.000700,0.000151,0.000879,0.000573,40.131935,0.001463,
2476,2968,4.67252257761426,6.99853385678762,0.000423765232312689,0.003015,-0.050016,0.003900,0.102434,-2.240210,315.589516,23.107077,0.999517,0.990147,0.003934,0.405130,0.000005,-0.000009,0.000031,0.000030,-0.000034,38.417815,0.000037,
2386,2503,2.80223624481949,-3.1378957402606,-0.00959685565277368,0.001404,-0.050391,-0.000239,0.044898,-2.256539,322.881505,21.499034,0.999535,0.989833,0.004093,0.423495,0.000204,0.000110,0.000004,0.000204,0.000110,2.455544,0.000319,
2056,2278,-4.35115935927736,-8.05654334905955,-0.00689787190191282,-0.002762,-0.049892,-0.003098,-0.133992,-2.261704,327.155001,22.356317,0.999593,0.991398,0.004158,0.298221,0.000491,0.000422,0.000097,0.000559,0.000354,35.153025,0.000921,
2296,2068,0.920597769976141,-12.6682742320955,0.015321084554671,-0.000910,-0.054801,-0.015203,-0.011237,-2.546395,330.071979,20.509936,0.998947,0.982378,0.005334,0.376711,0.000873,0.000931,-0.000035,0.000948,0.000856,-64.778261,0.001805,
2071,2353,-4.03494489010817,-6.4181977618802,-0.00733033792266724,-0.001634,-0.049457,-0.004214,-0.079036,-2.226738,325.917676,22.178436,0.998297,0.982232,0.005388,0.441513,0.000362,0.000232,0.000049,0.000378,0.000215,18.447806,0.000601,
2011,2098,-5.30711054064712,-11.9986495993081,-0.00308380673322972,-0.006189,-0.051178,-0.013031,-0.264384,-2.350217,330.217389,22.482800,0.998179,0.978959,0.005909,0.386254,0.000868,0.000742,0.000145,0.000963,0.000647,33.302658,0.001620,
2116,2563,-3.08794032410928,-1.83295464411835,-0.0243788024072273,0.001034,-0.049234,0.001735,0.025787,-2.217574,322.269422,22.103431,0.999076,0.987465,0.004669,0.434682,0.000133,0.000070,0.000001,0.000133,0.000070,0.769023,0.000206,
2371,2428,2.48918843756776,-4.77878745937409,-0.012336976541576,0.000959,-0.050707,-0.003389,0.035713,-2.278741,324.057295,21.122929,0.999685,0.992221,0.004065,0.596934,0.000283,0.000190,0.000012,0.000285,0.000189,7.394249,0.000477,
2281,2008,0.603176725007405,-13.9856009598287,0.0125733680791313,-0.001444,-0.055812,-0.017411,-0.029040,-2.579880,331.011987,20.415890,0.998818,0.982210,0.005652,0.407874,0.000989,0.000990,-0.000064,0.001054,0.000925,-45.284430,0.001981,
2431,2743,3.73571849297085,2.09893694553124,-0.0180126272908865,0.002407,-0.050719,0.005273,0.069977,-2.269426,318.986823,22.175783,0.999563,0.990239,0.003908,0.449352,0.000064,0.000070,0.000013,0.000080,0.000053,51.209492,0.000134,
2416,2668,3.42350666775856,0.464563883702681,-0.017945819062902,0.002020,-0.050552,0.003906,0.057632,-2.261775,320.174133,22.007533,0.999387,0.988418,0.004411,0.380812,0.000094,0.000059,0.000000,0.000094,0.000059,-0.565553,0.000154,
2401,2593,3.11090013158817,-1.17327789006972,-0.0139264559982735,0.001440,-0.051002,0.006391,0.022139,-2.261271,321.374984,21.679238,0.999372,0.988564,0.004324,0.486026,0.000137,0.000072,0.000009,0.000138,0.000071,8.034444,0.000212,
2041,2218,-4.66940246049712,-9.37058704838629,-0.00993469163381633,-0.003805,-0.049679,-0.011818,-0.157479,-2.298245,328.157585,22.272361,0.998030,0.976267,0.005964,0.430498,0.000593,0.000551,0.000112,0.000687,0.000458,39.698279,0.001152,
2491,3058,4.98152592627095,8.95410326376955,0.015607953971994,0.003284,-0.050776,0.011118,0.086446,-2.264895,314.266246,23.444393,0.999659,0.991537,0.003871,0.428977,0.000007,-0.000011,0.000041,0.000040,-0.000044,38.931224,0.000049,
2101,2488,-3.40236748447587,-3.47033861570083,-0.0180270841884749,0.000186,-0.049230,-0.001744,-0.002740,-2.223046,323.576258,22.032669,0.999061,0.988712,0.004362,0.510323,0.000187,0.000082,0.000006,0.000187,0.000082,3.202592,0.000276,
2221,3088,-0.890023668209874,9.58578698068704,0.0193747687296195,0.003902,-0.049303,0.006271,0.141485,-2.206642,313.844969,22.619141,0.999417,0.993308,0.003332,0.432681,0.000012,-0.000007,-0.000008,0.000015,-0.000010,-19.866938,0.000015,
2461,2893,4.35897818583902,5.36813056746449,-0.0217235619510348,0.002779,-0.050303,0.005681,0.085024,-2.241278,316.577961,22.823839,0.999008,0.989276,0.004223,0.380649,0.000019,0.000011,0.000016,0.000031,-0.000001,37.843051,0.000035,
2341,2293,1.86041521187362,-7.7310562535872,-0.0105366042428727,0.000363,-0.051025,-0.010195,0.032051,-2.327440,326.246607,20.971145,0.998949,0.984513,0.004974,0.438960,0.000453,0.000376,-0.000006,0.000453,0.000375,-4.348322,0.000830,
2026,2158,-4.9876724098365,-10.6843737057925,0.00262961694232899,-0.004690,-0.051206,-0.006046,-0.214502,-2.330943,329.258253,22.459199,0.999071,0.985761,0.004909,0.311413,0.000720,0.000629,0.000128,0.000811,0.000538,35.176108,0.001358,
2236,3148,-0.57428123403751,10.8876638443041,0.0313859877671803,0.004116,-0.049322,0.009724,0.139727,-2.204261,312.926635,22.745054,0.999288,0.991091,0.003861,0.444764,-0.000004,0.000005,-0.000011,0.000013,-0.000012,-55.434780,0.000014,
2086,2428,-3.71916132453433,-4.78007193814636,-0.0119915205361849,-0.000270,-0.049397,-0.003615,-0.018165,-2.241419,324.653091,22.119332,0.999070,0.986830,0.004549,0.436563,0.000265,0.000091,0.000023,0.000268,0.000088,7.465421,0.000372,
2161,2788,-2.14573443217148,3.06790261737516,-0.0207055579876965,0.002220,-0.049223,0.005894,0.066792,-2.205949,318.509730,22.206678,0.999551,0.990170,0.004028,0.434169,0.000038,0.000039,-0.000006,0.000045,0.000032,-47.970179,0.000077,
2206,3013,-1.20368492406205,7.95764073102663,0.00944645092670271,0.003599,-0.049448,0.008941,0.119338,-2.215429,315.004867,22.498169,0.999346,0.990881,0.003827,0.410393,0.000010,-0.000002,-0.000006,0.000012,-0.000004,-21.745954,0.000012,
2251,3238,-0.263692985405417,12.8374436809684,0.0526139039270674,0.004038,-0.050063,0.012951,0.124762,-2.232555,311.584902,22.834422,0.999784,0.995606,0.002938,0.523449,-0.000010,-0.000002,-0.000004,0.000000,-0.000011,-67.657486,0.000013,
2326,2218,1.54769289391517,-9.37688111431477,0.0051502953164686,-0.000067,-0.052874,-0.008478,0.005572,-2.408285,327.566882,20.750554,0.998543,0.978988,0.005849,0.456782,0.000576,0.000588,-0.000013,0.000596,0.000568,-56.784534,0.001164,
2056,2293,-4.35266694563686,-7.73046986468918,-0.00432483788739546,-0.002442,-0.049501,-0.007464,-0.106935,-2.248440,326.962853,22.197472,0.999820,0.994177,0.003609,0.466985,0.000476,0.000400,0.000092,0.000537,0.000339,33.793117,0.000884,
2011,2113,-5.30831569547871,-11.6711533057601,0.00386000145425669,-0.005739,-0.050830,-0.014422,-0.239848,-2.355833,330.059416,22.458050,0.998199,0.979925,0.005885,0.396036,0.000834,0.000710,0.000143,0.000928,0.000616,33.282496,0.001554,
2476,2983,4.66875257127901,7.32526971793488,-0.00493252368039521,0.002892,-0.050232,0.005717,0.089814,-2.235175,315.286236,23.174515,0.999426,0.989395,0.004071,0.398732,0.000005,-0.000002,0.000031,0.000033,-0.000030,41.672398,0.000036,
2446,2833,4.04508522826778,4.06179406214934,-0.0158235411066698,0.002809,-0.049716,0.004405,0.091796,-2.212346,317.583679,22.638586,0.999682,0.991917,0.003646,0.360815,0.000038,0.000003,0.000008,0.000040,0.000001,12.366063,0.000047,
2296,2083,0.916787722204926,-12.3376886386174,0.0102520318486654,-0.001413,-0.054836,-0.012382,-0.043819,-2.520264,329.755129,20.596942,0.999188,0.983366,0.005160,0.349525,0.000842,0.000905,-0.000032,0.000919,0.000829,-67.524467,0.001748,
2356,2368,2.17340141528783,-6.09002306839952,-0.00887328548037658,0.000634,-0.050993,-0.003424,0.020897,-2.293953,325.037308,21.111201,0.999021,0.984305,0.005024,0.473882,0.000342,0.000267,0.000004,0.000342,0.000267,2.996343,0.000610,
2176,2863,-1.83179058406977,4.69824717102808,-0.0102825174870418,0.002375,-0.049616,0.007269,0.069135,-2.221512,317.327308,22.256371,0.998890,0.988581,0.004101,0.440408,0.000024,0.000025,0.000006,0.000030,0.000018,49.149825,0.000049,
2146,2713,-2.46016432593008,1.43597077126588,-0.0277958637111624,0.001755,-0.049465,0.006933,0.042634,-2.200601,319.700969,22.154316,0.999473,0.991294,0.003952,0.441038,0.000064,0.000034,-0.000011,0.000068,0.000031,-17.968040,0.000101,
2071,2368,-4.0368117788524,-6.08990257862633,-0.0133303645810088,-0.001114,-0.048862,-0.008883,-0.041656,-2.211510,325.663024,22.162176,0.997636,0.979780,0.005782,0.471762,0.000344,0.000215,0.000041,0.000356,0.000203,16.325009,0.000566,
2041,2233,-4.67087920842796,-9.04193216522062,-0.00729146488788501,-0.003054,-0.050006,-0.009320,-0.130034,-2.295931,327.965476,22.340632,0.998874,0.982014,0.005380,0.359000,0.000570,0.000518,0.000096,0.000643,0.000444,37.474880,0.001093,
2131,2638,-2.77215797793631,-0.200405607169749,-0.00121494615103757,0.001417,-0.049297,0.002762,0.040063,-2.202535,321.198066,22.097092,0.999678,0.992853,0.003511,0.465231,0.000093,0.000043,-0.000002,0.000093,0.000043,-1.820953,0.000138,
2491,3073,4.97867176849808,9.27943523264725,0.0136065244336692,0.003595,-0.050826,0.010292,0.103935,-2.265086,314.021465,23.435020,0.999601,0.991125,0.003925,0.496321,0.000008,-0.000008,0.000039,0.000040,-0.000039,39.193460,0.000046,
2191,2938,-1.51730600679594,6.32780429002894,0.00695763492251444,0.002897,-0.049793,0.009524,0.085678,-2.199645,316.218095,22.347427,0.999327,0.992342,0.003715,0.463521,0.000016,-0.000004,0.000002,0.000016,-0.000005,6.199095,0.000017,
2251,3253,-0.267128314761599,13.1645954360324,0.0402082363902423,0.004240,-0.049704,0.013657,0.131907,-2.211067,311.241168,22.955573,0.999666,0.993854,0.003259,0.445603,-0.000014,-0.000002,0.000001,-0.000002,-0.000014,85.470581,0.000017,
2386,2518,2.79943382704712,-2.81075130774437,-0.0139388224873187,0.001494,-0.049959,-0.004510,0.064508,-2.269720,322.621855,21.479605,0.999446,0.988253,0.004423,0.474215,0.000188,0.000100,0.000002,0.000188,0.000100,1.084908,0.000293,
2161,2803,-2.14775393010234,3.39416590127806,-0.017894536520032,0.002344,-0.048791,0.003234,0.080880,-2.180625,318.303299,22.213912,0.999600,0.991326,0.003800,0.462170,0.000033,0.000031,-0.000006,0.000038,0.000026,-39.549470,0.000065,
2011,2128,-5.31087093834119,-11.3410403007687,-0.0016221385035351,-0.005646,-0.050836,-0.011778,-0.242781,-2.347003,329.769843,22.527627,0.997942,0.978758,0.006182,0.326666,0.000789,0.000699,0.000143,0.000894,0.000594,36.268290,0.001498,
2311,2143,1.2349354871795,-11.0204834056533,0.00806009963747556,-0.000012,-0.053048,-0.016471,0.035158,-2.464449,328.837375,20.715120,0.999179,0.984161,0.005208,0.334601,0.000725,0.000774,-0.000025,0.000784,0.000715,-67.463635,0.001500,
2281,2023,0.59990367317538,-13.6557250480266,0.00828182335880001,-0.001702,-0.055408,-0.017119,-0.041653,-2.568475,330.722417,20.438147,0.998633,0.981184,0.005797,0.428617,0.000952,0.000980,-0.000042,0.001010,0.000922,-54.322074,0.001932,
2101,2503,-3.40466949645711,-3.14199666115204,-0.0229384245237156,0.000361,-0.048918,-0.005125,0.015314,-2.205602,323.310412,22.078058,0.999161,0.988936,0.004236,0.484824,0.000179,0.000076,0.000008,0.000180,0.000076,4.665416,0.000263,
2461,2908,4.3567334838175,5.69309874859747,-0.0118071131425381,0.002738,-0.050496,0.005726,0.082974,-2.238094,316.414438,22.818725,0.998886,0.987563,0.004517,0.442719,0.000014,-0.000012,0.000019,0.000025,-0.000022,27.842346,0.000027,
2341,2308,1.85888363103669,-7.4035960833553,0.000737340710827539,0.001015,-0.051295,-0.007086,0.051037,-2.305347,326.117209,21.026958,0.998308,0.981238,0.005332,0.443672,0.000427,0.000340,0.000002,0.000427,0.000340,1.149793,0.000768,
2116,2578,-3.09009660654834,-1.50626982237959,-0.0197715611140552,0.001036,-0.049151,0.002464,0.023765,-2.210618,322.063127,22.117111,0.999317,0.989550,0.004294,0.431929,0.000120,0.000068,0.000002,0.000120,0.000068,1.851770,0.000190,
2026,2173,-4.98907682172834,-10.3573008661702,0.00606160884842666,-0.004216,-0.051231,-0.007767,-0.188094,-2.339129,329.072944,22.380541,0.999223,0.987756,0.004529,0.374625,0.000703,0.000600,0.000124,0.000785,0.000517,33.728076,0.001311,
2401,2608,3.10834875838017,-0.845358051507183,-0.0153422944526369,0.001530,-0.050421,0.001438,0.044473,-2.251717,321.141365,21.764326,0.999367,0.989242,0.004183,0.456787,0.000124,0.000064,0.000007,0.000125,0.000063,6.795753,0.000191,
2446,2848,4.04269283826492,4.38558010034229,-0.00623618466295284,0.002760,-0.050261,0.006111,0.082941,-2.239915,317.411675,22.538005,0.999602,0.991297,0.003660,0.485836,0.000032,0.000000,0.000006,0.000033,-0.000001,9.623352,0.000037,
2326,2233,1.54394438478023,-9.0474322606851,0.0011207644345177,-0.000619,-0.052610,-0.006975,-0.024754,-2.390875,327.260476,20.811525,0.997949,0.975028,0.006403,0.450483,0.000539,0.000538,-0.000012,0.000551,0.000527,-43.362563,0.001077,
2476,2998,4.66628431194605,7.64976813857445,0.0047796770895161,0.003144,-0.050797,0.011566,0.078881,-2.252607,315.111994,23.165324,0.999363,0.989584,0.003976,0.446415,0.000003,-0.000002,0.000036,0.000037,-0.000035,42.947556,0.000042,
2431,2758,3.73271389457764,2.42581426851335,-0.0170785712616635,0.002308,-0.050551,0.005373,0.065157,-2.256941,318.745238,22.228592,0.999488,0.988600,0.004125,0.459082,0.000065,0.000063,0.000016,0.000080,0.000048,42.553083,0.000129,
2086,2443,-3.72217932717538,-4.45145989450552,-0.0204846838291814,-0.000491,-0.049160,-0.004955,-0.024426,-2.229193,324.333631,22.139549,0.999339,0.987966,0.004421,0.429335,0.000240,0.000081,0.000018,0.000242,0.000079,6.297070,0.000334,
2206,3028,-1.206300903431,8.28318207374447,0.0125783068007195,0.003477,-0.049365,0.010457,0.109009,-2.193417,314.775842,22.504000,0.999566,0.992868,0.003527,0.442606,0.000010,-0.000002,-0.000007,0.000013,-0.000005,-25.188386,0.000013,
2491,3088,4.97621295057443,9.6058984211292,0.0191161586461703,0.003654,-0.050338,0.009219,0.111030,-2.238655,313.828390,23.555454,0.999477,0.990836,0.003803,0.460207,0.000016,0.000002,0.000037,0.000047,-0.000029,39.732667,0.000048,
2371,2443,2.48621136692691,-4.45029087994776,-0.00424050138559551,0.000548,-0.050975,0.000744,0.002103,-2.272826,323.847625,21.299019,0.999102,0.986771,0.004776,0.469121,0.000272,0.000166,0.000020,0.000276,0.000162,10.327948,0.000443,
2056,2308,-4.35426725779091,-7.40230487005964,-0.00386309020427689,-0.001733,-0.049316,-0.006362,-0.077438,-2.235129,326.754438,22.213195,0.999604,0.990474,0.004210,0.460993,0.000444,0.000342,0.000077,0.000485,0.000301,28.248158,0.000794,
2416,2683,3.42082537135699,0.790782673068982,-0.01554858875636,0.002102,-0.050495,0.004063,0.060807,-2.270250,319.953666,22.010248,0.999398,0.986266,0.004701,0.417815,0.000088,0.000066,0.000004,0.000088,0.000065,9.219840,0.000154,
2221,3103,-0.892130346910353,9.91026212238166,0.027858118808183,0.003890,-0.049369,0.007050,0.138344,-2.224406,313.668168,22.618637,0.999471,0.992296,0.003602,0.433259,0.000008,-0.000001,-0.000010,0.000014,-0.000007,-33.036871,0.000014,
2281,2038,0.5964684020452,-13.3237423381765,-0.00293311896916748,-0.001614,-0.054849,-0.017027,-0.037742,-2.546128,330.390700,20.569795,0.998736,0.984107,0.005352,0.351171,0.000918,0.000945,-0.000038,0.000972,0.000892,-54.735545,0.001864,
2071,2383,-4.03911308487519,-5.76202551314936,-0.00835492634956836,-0.001076,-0.048935,-0.003414,-0.055525,-2.190626,325.448532,22.213803,0.998403,0.983330,0.005284,0.439284,0.000328,0.000180,0.000035,0.000336,0.000172,12.629825,0.000516,
2296,2098,0.913819163672802,-12.0083768279251,0.00760877786728997,-0.001260,-0.055047,-0.009532,-0.046486,-2.516733,329.488960,20.622961,0.998888,0.980468,0.005594,0.360232,0.000808,0.000868,-0.000030,0.000880,0.000795,-67.176700,0.001676,
2026,2188,-4.99167739592147,-10.0278498448089,0.000138804199934839,-0.004451,-0.050079,-0.010839,-0.190143,-2.308665,328.780407,22.386678,0.999231,0.986670,0.004706,0.392156,0.000675,0.000603,0.000124,0.000769,0.000510,36.985968,0.001287,
2146,2728,-2.46207191868214,1.76130647482569,-0.0193158387744461,0.001710,-0.049366,0.006167,0.042904,-2.195984,319.529015,22.121529,0.999445,0.989782,0.004126,0.486298,0.000056,0.000034,-0.000012,0.000061,0.000029,-22.999039,0.000092,
2251,3268,-0.270636570330513,13.4904062241859,0.0246366091641335,0.004417,-0.049528,0.011906,0.145888,-2.211955,310.878421,22.963384,0.999490,0.992240,0.003569,0.458914,-0.000015,0.000002,-0.000004,0.000003,-0.000016,-77.107766,0.000017,
2011,2143,-5.31281789320926,-11.0124173386336,-0.00623173926317122,-0.005134,-0.050486,-0.011287,-0.220548,-2.306961,329.513053,22.445783,0.997973,0.978775,0.005973,0.439395,0.000762,0.000694,0.000148,0.000880,0.000576,38.565101,0.001467,
2236,3163,-0.577016740643952,11.2127233073351,0.0306157003752787,0.003928,-0.049186,0.007310,0.139007,-2.197446,312.674096,22.730983,0.999378,0.990927,0.003816,0.485593,-0.000002,0.000009,-0.000008,0.000013,-0.000006,-61.454422,0.000013,
2041,2248,-4.67292698116319,-8.71457841037137,-0.00717975928722581,-0.002853,-0.049886,-0.008859,-0.122107,-2.278997,327.733538,22.254634,0.999035,0.984682,0.004930,0.456721,0.000544,0.000507,0.000087,0.000614,0.000436,39.001678,0.001056,
2176,2878,-1.83375867393682,5.02434886721804,-0.0034646181932203,0.002541,-0.049479,0.008032,0.074511,-2.202109,317.145294,22.304431,0.999474,0.992816,0.003483,0.423574,0.000022,0.000026,0.000006,0.000030,0.000018,54.787050,0.000049,
2101,2518,-3.40737555751765,-2.81430897098937,-0.0252855578248727,0.000386,-0.049138,-0.001978,0.007152,-2.224300,323.040195,22.128291,0.999588,0.992184,0.003701,0.418444,0.000166,0.000074,0.000015,0.000169,0.000071,8.792412,0.000247,
2461,2923,4.35339584879616,6.02002118945563,-0.0151456090615625,0.002713,-0.050323,0.005877,0.081264,-2.246310,316.139329,22.913270,0.999305,0.989191,0.004208,0.394004,0.000013,-0.000016,0.000015,0.000019,-0.000022,22.691677,0.000024,
2356,2383,2.17005629247312,-5.76041325434794,-0.0130483755555133,0.000447,-0.051042,-0.003572,0.012839,-2.300176,324.750935,21.264740,0.999207,0.981880,0.005182,0.354896,0.000326,0.000240,-0.000003,0.000326,0.000240,-1.701839,0.000568,
2116,2593,-3.09207338656359,-1.18113119003304,-0.0118622959154777,0.001124,-0.049688,0.005078,0.019904,-2.209231,321.883209,22.027352,0.999465,0.990936,0.004063,0.526962,0.000111,0.000066,0.000007,0.000112,0.000065,8.845016,0.000179,
2401,2623,3.10539500537073,-0.518139715832312,-0.0152327686221838,0.001595,-0.050417,0.002777,0.042599,-2.243567,320.896523,21.804452,0.999246,0.987826,0.004327,0.471007,0.000113,0.000048,0.000003,0.000113,0.000048,2.419636,0.000165,
2161,2818,-2.15037001949907,3.72074169371884,-0.0127862481578518,0.002026,-0.049109,0.005081,0.060434,-2.200338,318.081611,22.316350,0.999679,0.993231,0.003439,0.349959,0.000034,0.000039,-0.000005,0.000042,0.000032,-60.498879,0.000074,
2446,2863,4.03988002009957,4.71126196412973,-0.00182582995864777,0.002619,-0.050541,0.006547,0.074719,-2.252277,317.195892,22.561257,0.999720,0.993049,0.003378,0.501917,0.000027,0.000002,0.000004,0.000028,0.000002,8.263639,0.000033,
2311,2158,1.23201348028183,-10.6934096169507,0.0120012401882832,-0.000041,-0.053974,-0.010451,0.012968,-2.467430,328.607129,20.636434,0.999170,0.985485,0.005188,0.445244,0.000686,0.000726,-0.000019,0.000733,0.000679,-68.569544,0.001412,
2086,2458,-3.72419129593883,-4.12466196946641,-0.0184375002170896,-0.000044,-0.049366,-0.001023,-0.015269,-2.207282,324.117826,22.088068,0.999311,0.988730,0.004388,0.503074,0.000224,0.000069,0.000011,0.000225,0.000068,4.131326,0.000307,
2476,3013,4.66344685517062,7.97597706704928,0.00578200400525475,0.003146,-0.050649,0.010081,0.084660,-2.261808,314.880578,23.249766,0.999537,0.991673,0.003597,0.408470,0.000004,-0.000003,0.000034,0.000035,-0.000034,41.982665,0.000040,
2386,2533,2.79596361031426,-2.48210117808448,-0.019236345350123,0.001590,-0.049876,-0.001308,0.057519,-2.234252,322.326504,21.546624,0.999431,0.989062,0.004400,0.487312,0.000179,0.000094,0.000000,0.000179,0.000094,0.103644,0.000277,
2131,2653,-2.77512265604384,0.127292847458719,-0.0132461994147093,0.001539,-0.049085,0.000519,0.052475,-2.200696,320.866765,22.089758,0.999606,0.991253,0.003757,0.480811,0.000085,0.000045,-0.000004,0.000085,0.000044,-5.583839,0.000132,
2326,2248,1.54128982213655,-8.71772225219401,-0.00423316607788138,-0.000347,-0.051802,-0.010396,-0.000256,-2.382116,326.997674,20.896987,0.998565,0.979821,0.005610,0.410609,0.000513,0.000478,-0.000012,0.000517,0.000475,-17.700375,0.000991,
2026,2203,-4.99443996294982,-9.69824111057761,-0.0121414435647011,-0.004215,-0.049898,-0.009818,-0.182067,-2.291222,328.445174,22.359778,0.999004,0.985212,0.005039,0.429772,0.000639,0.000576,0.000122,0.000733,0.000482,37.757418,0.001224,
2416,2698,3.41712697903823,1.1178778111119,-0.0228658870842651,0.001989,-0.050471,0.004722,0.053203,-2.272642,319.640744,22.012200,0.999545,0.989742,0.004083,0.461760,0.000081,0.000082,0.000006,0.000087,0.000076,47.695698,0.000163,
2431,2773,3.72984419159978,2.75292223419625,-0.0169548843455232,0.002378,-0.050167,0.005078,0.069649,-2.230369,318.505938,22.286507,0.999489,0.988905,0.004160,0.477806,0.000063,0.000042,0.000015,0.000070,0.000035,27.458416,0.000107,
2341,2323,1.85495901505918,-7.07444938757763,-0.00873803181775656,0.000469,-0.051113,-0.009100,0.033109,-2.322989,325.777628,21.074604,0.998923,0.985871,0.004890,0.417195,0.000399,0.000310,0.000002,0.000399,0.000309,1.286498,0.000711,
2251,3283,-0.273799199099205,13.8155162603713,0.0171083007462016,0.004445,-0.049615,0.011266,0.149210,-2.221931,310.572669,22.965338,0.999491,0.991964,0.003580,0.468752,-0.000022,0.000007,-0.000005,0.000008,-0.000023,-80.746394,0.000023,
2491,3103,4.97350594080195,9.9316066343535,0.0225504931656815,0.003702,-0.050159,0.008925,0.114415,-2.239547,313.614662,23.623763,0.999390,0.989869,0.003846,0.448718,0.000019,-0.000002,0.000035,0.000045,-0.000028,36.833094,0.000045,
2296,2113,0.910700912234365,-11.6791070674162,0.00186155066506899,-0.001286,-0.054405,-0.010082,-0.045556,-2.499028,329.200508,20.602983,0.998888,0.979099,0.005685,0.431200,0.000775,0.000851,-0.000026,0.000859,0.000767,-72.770893,0.001627,
2206,3043,-1.2085211337642,8.60830424483832,0.0217987726309161,0.003190,-0.049346,0.009958,0.097385,-2.199259,314.596677,22.542625,0.999797,0.995022,0.003096,0.413834,0.000009,-0.000006,-0.000009,0.000013,-0.000010,-24.815748,0.000013,
2011,2158,-5.3152640357039,-10.6836395283853,-0.00300106543232914,-0.005290,-0.051404,-0.006042,-0.242172,-2.332155,329.277631,22.532721,0.998119,0.979422,0.005990,0.318077,0.000721,0.000618,0.000124,0.000805,0.000535,33.781769,0.001349,
2191,2953,-1.51998982246001,6.65342016034275,0.0108427495978276,0.002694,-0.049715,0.012045,0.068428,-2.197900,315.988975,22.365923,0.999262,0.991626,0.003794,0.460596,0.000019,-0.000009,0.000000,0.000019,-0.000009,-0.085336,0.000019,
2056,2323,-4.35566979015887,-7.07481788122697,0.00294971212576911,-0.001431,-0.048860,-0.008713,-0.056805,-2.217283,326.590101,22.230460,0.999089,0.983921,0.005001,0.458059,0.000420,0.000282,0.000070,0.000449,0.000253,22.740705,0.000711,
2221,3118,-0.894431081991986,10.2359764347762,0.0361273870273635,0.003792,-0.049198,0.009095,0.127428,-2.195125,313.480873,22.686808,0.999576,0.991778,0.003711,0.412186,0.000004,0.000005,-0.000012,0.000016,-0.000008,-46.023369,0.000016,
2371,2458,2.48333415728157,-4.1218668316365,-0.0122653893134839,0.000960,-0.050857,-0.001861,0.030247,-2.327832,323.565778,21.383053,0.998891,0.985254,0.004977,0.372433,0.000259,0.000150,0.000023,0.000263,0.000145,11.264762,0.000414,
2041,2263,-4.67508636303113,-8.38663336789524,-0.00297404788449285,-0.002945,-0.049773,-0.007390,-0.130359,-2.269532,327.519051,22.276912,0.999105,0.986350,0.004779,0.438606,0.000515,0.000471,0.000091,0.000587,0.000399,38.124721,0.000992,
2071,2398,-4.04125753759708,-5.43475727986482,-0.0111346200557705,-0.000739,-0.049073,-0.003384,-0.040193,-2.209689,325.199169,22.179639,0.998796,0.984947,0.005077,0.452893,0.000302,0.000144,0.000031,0.000308,0.000138,10.864635,0.000457,
2026,2218,-4.99576320535423,-9.3703083227735,-0.0122147610566685,-0.003472,-0.049578,-0.012082,-0.141689,-2.318950,328.244070,22.358611,0.998477,0.981176,0.005568,0.395587,0.000610,0.000553,0.000117,0.000702,0.000460,38.139992,0.001171,
2461,2938,4.3505709753845,6.34574472084437,-0.010965837177821,0.002596,-0.050479,0.006258,0.074359,-2.264319,315.922509,22.965026,0.999482,0.990598,0.004031,0.377986,0.000014,-0.000013,0.000017,0.000023,-0.000022,25.543155,0.000026,
2116,2608,-3.0944591642412,-0.853112743512035,-0.022656111864876,0.001363,-0.049049,-0.002469,0.053444,-2.215137,321.583444,22.051521,0.999235,0.988087,0.004482,0.501390,0.000106,0.000055,0.000003,0.000106,0.000055,3.606545,0.000164,
2446,2878,4.03586922918592,5.03939845412272,-0.0152317139253455,0.002522,-0.050192,0.004278,0.078876,-2.240101,316.842047,22.658746,0.999459,0.991689,0.003686,0.468686,0.000020,0.000012,0.000009,0.000026,0.000006,33.705697,0.000034,
2086,2473,-3.72655849926277,-3.79669060291099,-0.022489371759093,0.000181,-0.049341,-0.001184,-0.004452,-2.225109,323.852510,22.131921,0.999245,0.988967,0.004434,0.441631,0.000210,0.000073,0.000017,0.000212,0.000071,6.773800,0.000294,
2281,2053,0.59374429750417,-12.9954822636241,0.000664596038916443,-0.001526,-0.055134,-0.011567,-0.052039,-2.516522,330.165407,20.527414,0.998636,0.982021,0.005493,0.454284,0.000889,0.000931,-0.000033,0.000949,0.000871,-61.519174,0.001820,
2476,3028,4.66080249216222,8.30182384065064,0.0109042838042797,0.003178,-0.050491,0.010773,0.083621,-2.243059,314.676794,23.304248,0.999710,0.992625,0.003448,0.428460,0.000005,0.000002,0.000030,0.000034,-0.000026,43.378128,0.000035,
2146,2743,-2.46405047210441,2.08726693575434,-0.0151425197035451,0.001949,-0.049441,0.006395,0.053196,-2.197564,319.330811,22.121219,0.999445,0.989958,0.004147,0.493027,0.000048,0.000028,-0.000014,0.000055,0.000021,-26.877806,0.000079,
2176,2893,-1.8353175730892,5.34901243249606,0.00734801952700082,0.002629,-0.049218,0.005644,0.085993,-2.210964,317.003490,22.280816,0.999760,0.995261,0.003168,0.450241,0.000023,0.000016,0.000007,0.000028,0.000012,32.219212,0.000040,
2161,2833,-2.15191058675216,4.04527351006484,-0.00499811308247899,0.002680,-0.049206,0.008177,0.081013,-2.191871,317.923944,22.226705,0.999600,0.993527,0.003432,0.457762,0.000035,0.000032,0.000002,0.000036,0.000031,22.841328,0.000067,
2356,2398,2.16804810135737,-5.43391727517539,-0.00561198037496524,0.000726,-0.050899,-0.003145,0.024192,-2.282983,324.582034,21.226537,0.999456,0.986743,0.004660,0.450474,0.000306,0.000229,0.000000,0.000306,0.000229,0.018279,0.000538,
2236,3178,-0.578921431444442,11.5371741697771,0.0413818428369268,0.004047,-0.049448,0.009003,0.138838,-2.212463,312.518955,22.755032,0.999411,0.991264,0.003682,0.466399,-0.000003,0.000009,-0.000008,0.000013,-0.000007,-63.317741,0.000013,
2011,2173,-5.31678728236751,-10.356100044792,-0.00136167852957669,-0.004931,-0.050788,-0.009048,-0.217438,-2.320236,329.075522,22.457672,0.998597,0.985646,0.005288,0.395606,0.000703,0.000589,0.000122,0.000781,0.000512,32.463700,0.001302,
2251,3298,-0.275739660518788,14.1404823973292,0.0208227519497086,0.004770,-0.049511,0.008930,0.171885,-2.227416,310.380341,23.014638,0.999363,0.990819,0.003735,0.435818,-0.000026,0.000018,-0.000009,0.000020,-0.000028,-78.546892,0.000029,
2491,3118,4.97051818237804,10.2570073678071,0.0250611330721426,0.003711,-0.050461,0.010580,0.108342,-2.248617,313.383835,23.669661,0.999475,0.991288,0.003630,0.451376,0.000023,0.000008,0.000027,0.000044,-0.000013,37.123971,0.000045,
2071,2413,-4.04339651899246,-5.10799100771316,-0.00946115858522489,-0.000622,-0.049244,-0.002519,-0.037352,-2.238043,324.974543,22.156490,0.998673,0.984801,0.004947,0.445970,0.000288,0.000104,0.000026,0.000292,0.000100,7.808929,0.000408,
2311,2173,1.22843301563185,-10.3634408964964,0.00697238403932943,-0.000554,-0.053538,-0.011232,-0.007688,-2.441218,328.302219,20.702446,0.999056,0.981886,0.005348,0.440760,0.000657,0.000696,-0.000016,0.000701,0.000651,-70.508957,0.001353,
2401,2638,3.10190397586996,-0.190577673434099,-0.0186571345759603,0.001320,-0.050334,0.003057,0.028980,-2.252244,320.610260,21.867757,0.999196,0.986981,0.004396,0.445032,0.000102,0.000056,0.000000,0.000102,0.000056,0.186983,0.000160,
2026,2233,-4.99769248552379,-9.04113507545686,-0.0107372231212821,-0.003056,-0.049875,-0.008351,-0.132901,-2.281585,328.023371,22.427153,0.999232,0.984893,0.004958,0.357100,0.000589,0.000517,0.000101,0.000661,0.000446,35.199612,0.001114,
2431,2788,3.72691866513756,3.07976162359313,-0.0155402245183041,0.002347,-0.050461,0.005485,0.066566,-2.259595,318.270172,22.389984,0.999484,0.989853,0.004047,0.394913,0.000059,0.000034,0.000013,0.000065,0.000028,22.405188,0.000095,
2386,2548,2.79351914417214,-2.15601260528054,-0.0106312180686814,0.001486,-0.050578,0.000283,0.046717,-2.280568,322.144843,21.589426,0.999348,0.988530,0.004493,0.441976,0.000170,0.000080,0.000004,0.000170,0.000080,2.799261,0.000255,
2371,2473,2.48098930236769,-3.79458362300299,-0.0071166845625612,0.001144,-0.050507,-0.000994,0.035761,-2.280144,323.371006,21.387650,0.999246,0.987524,0.004555,0.457885,0.000241,0.000136,0.000021,0.000245,0.000132,10.934574,0.000383,
2416,2713,3.41496714808116,1.44431730367604,-0.0173571153288776,0.001988,-0.050155,0.000424,0.069095,-2.247564,319.458542,22.036005,0.999666,0.990814,0.003841,0.511058,0.000070,0.000080,0.000007,0.000083,0.000067,62.792451,0.000150,
2056,2338,-4.3589233631024,-6.74623588938632,-0.00680514316474046,-0.001747,-0.049187,-0.007724,-0.074221,-2.235448,326.250080,22.224963,0.998867,0.984573,0.004966,0.442253,0.000393,0.000242,0.000063,0.000416,0.000220,19.856532,0.000646,
2041,2278,-4.67702330708023,-8.05815001353846,0.000719941908926103,-0.002663,-0.049765,-0.004062,-0.126697,-2.253670,327.311772,22.341306,0.999735,0.992379,0.004096,0.384649,0.000494,0.000425,0.000085,0.000551,0.000368,33.977062,0.000925,
2131,2668,-2.77592863047636,0.450752643120623,0.00849618250958883,0.001727,-0.048872,0.000246,0.061989,-2.186868,320.815665,21.968831,0.999632,0.991639,0.003737,0.621378,0.000075,0.000049,-0.000007,0.000076,0.000047,-14.732430,0.000125,
2296,2128,0.908724425208352,-11.3496310760206,0.0024316356728491,-0.001092,-0.053311,-0.016868,-0.013420,-2.479936,328.995407,20.674827,0.998892,0.980930,0.005470,0.411474,0.000747,0.000826,-0.000024,0.000832,0.000740,-74.391627,0.001574,
2326,2263,1.53928830819655,-8.38950751552839,-0.00171180600472098,0.000245,-0.051531,-0.010268,0.026558,-2.370244,326.803293,20.928945,0.998905,0.981962,0.005189,0.427017,0.000483,0.000432,-0.000019,0.000489,0.000426,-18.233007,0.000915,
2101,2533,-3.41024242624307,-2.48663870727675,-0.0315107944697957,0.000406,-0.048860,-0.000241,0.003094,-2.194009,322.741513,22.098613,0.999395,0.990756,0.004053,0.480612,0.000149,0.000075,0.000017,0.000153,0.000071,12.422834,0.000229,
2341,2338,1.85305620576393,-6.74683559505436,-0.00200948705997916,0.000800,-0.050631,-0.009841,0.051005,-2.314484,325.609182,21.121791,0.999143,0.986617,0.004895,0.416779,0.000381,0.000296,-0.000001,0.000381,0.000296,-0.986631,0.000679,
2191,2968,-1.52188277280143,6.97892455124697,0.00959842666702571,0.003238,-0.049742,0.008760,0.103717,-2.217918,315.769504,22.363835,0.999120,0.990439,0.004026,0.456662,0.000020,-0.000007,0.000000,0.000020,-0.000007,0.575568,0.000020,
2461,2953,4.34812818440468,6.67116177172864,-0.00270663781515168,0.002798,-0.050688,0.009968,0.069623,-2.255071,315.741948,22.993449,0.999508,0.990544,0.003955,0.412545,0.000016,-0.000017,0.000022,0.000027,-0.000028,26.420344,0.000032,
2221,3133,-0.897240241428573,10.5601867553661,0.0368391584343044,0.003811,-0.049341,0.012546,0.117182,-2.187805,313.231852,22.594652,0.999572,0.992684,0.003598,0.529332,0.000000,0.000007,-0.000012,0.000016,-0.000009,-53.743016,0.000017,
2266,1993,0.276810345236782,-14.3139121131238,0.00526379760020745,-0.002404,-0.055693,-0.019132,-0.067646,-2.593249,331.173078,20.478931,0.998372,0.964500,0.007691,0.407044,0.001009,0.000943,-0.000081,0.001064,0.000889,-33.942129,0.001955,
2011,2188,-5.32041191759421,-10.0231856917258,-0.0275342842740542,-0.005008,-0.049563,-0.012141,-0.212261,-2.274404,328.620721,22.551339,0.999456,0.991669,0.004316,0.339427,0.000676,0.000602,0.000121,0.000766,0.000513,36.488168,0.001287,
2086,2488,-3.72891531379418,-3.47039597369638,-0.0189551221355373,0.000012,-0.049471,-0.000096,-0.015406,-2.221236,323.629215,22.075627,0.999199,0.989639,0.004270,0.502042,0.000193,0.000074,0.000014,0.000195,0.000072,6.835601,0.000276,
2446,2893,4.03182215152693,5.36635488981793,-0.0238251217418792,0.002507,-0.050766,0.008310,0.062957,-2.253296,316.508965,22.714273,0.999291,0.991351,0.003910,0.451834,0.000017,0.000009,0.000013,0.000026,0.000000,36.441451,0.000030,
2431,2803,3.72452718937905,3.40633947178407,-0.00949663531434908,0.002462,-0.050604,0.005734,0.070906,-2.250937,318.080389,22.471379,0.999483,0.989723,0.004082,0.371956,0.000053,0.000018,0.000011,0.000056,0.000015,16.679437,0.000075,
2356,2413,2.16527039706355,-5.1052811859703,-0.0102082579340959,0.001098,-0.050691,-0.003719,0.043325,-2.304398,324.319761,21.312396,0.999695,0.989569,0.004264,0.383808,0.000285,0.000222,0.000005,0.000285,0.000222,4.539750,0.000508,
2026,2248,-5.00006121997634,-8.71427274860319,-0.00910747446778259,-0.003314,-0.049672,-0.008127,-0.145330,-2.278732,327.784138,22.325907,0.999306,0.986342,0.004684,0.453871,0.000563,0.000508,0.000092,0.000632,0.000439,36.692334,0.001078,
2236,3193,-0.581642325550188,11.862406220088,0.0408845010759364,0.004216,-0.049605,0.011640,0.137992,-2.215354,312.268382,22.775243,0.999365,0.991250,0.003708,0.463092,-0.000005,0.000007,-0.000007,0.000011,-0.000008,-65.523758,0.000011,
2476,3043,4.65772300518952,8.62799097272852,0.00996805310950322,0.003255,-0.050517,0.011153,0.085735,-2.234726,314.425242,23.362220,0.999713,0.992403,0.003550,0.434796,0.000002,0.000008,0.000038,0.000043,-0.000033,47.396223,0.000045,
2146,2758,-2.466572562086,2.41454707711667,-0.0183734248932979,0.001991,-0.049087,0.004372,0.061355,-2.192466,319.068014,22.180835,0.999427,0.990164,0.003931,0.446405,0.000048,0.000026,-0.000016,0.000057,0.000017,-27.769454,0.000077,
2206,3058,-1.21105591475382,8.93345143205185,0.0226849331566541,0.003248,-0.049502,0.010616,0.097916,-2.200353,314.359888,22.527380,0.999750,0.994371,0.003158,0.443812,0.000013,-0.000008,-0.000008,0.000016,-0.000010,-18.279237,0.000016,
2281,2068,0.592139429293031,-12.6666862007026,0.00996354862735416,-0.001082,-0.055260,-0.010977,-0.033682,-2.534313,330.019804,20.649246,0.998672,0.981908,0.005426,0.345084,0.000859,0.000913,-0.000023,0.000922,0.000851,-69.692856,0.001773,
2371,2488,2.47790328766376,-3.46719828022144,-0.00558146705799345,0.000885,-0.050590,0.000056,0.020152,-2.257483,323.124997,21.397769,0.999303,0.987559,0.004464,0.512980,0.000224,0.000121,0.000014,0.000225,0.000120,7.637171,0.000350,
2056,2353,-4.36145584834285,-6.41753210192835,-0.0145147147211446,-0.001350,-0.048977,-0.004820,-0.064095,-2.212355,325.954040,22.215800,0.998584,0.982820,0.005296,0.471192,0.000371,0.000225,0.000065,0.000396,0.000200,20.875020,0.000606,
2311,2188,1.22672539572996,-10.0350434506852,0.0132286579819265,-0.000274,-0.052744,-0.015079,0.018515,-2.430673,328.138610,20.765420,0.999039,0.981213,0.005289,0.422824,0.000624,0.000667,-0.000013,0.000670,0.000620,-74.452365,0.001291,
2386,2563,2.79005700362289,-1.82777121760816,-0.0146750499659447,0.001381,-0.050789,0.002057,0.035457,-2.273376,321.855839,21.668388,0.999412,0.989245,0.004235,0.414571,0.000152,0.000079,0.000010,0.000153,0.000077,8.000311,0.000234,
2491,3133,4.96743010383967,10.5825197614693,0.0249813616646293,0.003780,-0.050793,0.011557,0.107656,-2.258073,313.136562,23.713888,0.999549,0.991464,0.003496,0.455609,0.000035,0.000001,0.000018,0.000043,-0.000007,23.794640,0.000046,
2461,2968,4.3458874332035,6.99697588749953,-0.000823647715549214,0.003133,-0.050397,0.006455,0.098352,-2.251688,315.541313,23.023076,0.999513,0.990004,0.004026,0.440158,0.000011,-0.000010,0.000029,0.000032,-0.000031,34.773695,0.000036,
2266,2008,0.275003285936432,-13.9847979151211,0.0126282375578626,-0.002208,-0.055340,-0.020712,-0.053346,-2.580347,331.007461,20.557128,0.998793,0.982639,0.005571,0.370531,0.000974,0.000977,-0.000045,0.001020,0.000931,-46.167622,0.001951,
2161,2848,-2.15483254089875,4.37062582237504,-0.0085176201174022,0.002468,-0.049407,0.007599,0.072972,-2.197195,317.643067,22.144985,0.999606,0.993634,0.003364,0.544333,0.000029,0.000029,0.000004,0.000033,0.000025,45.788577,0.000058,
2116,2623,-3.09771337076763,-0.524856254200905,-0.0281786654502412,0.001276,-0.048973,0.003553,0.031636,-2.181557,321.271996,22.109496,0.999099,0.985101,0.004900,0.481387,0.000098,0.000047,-0.000002,0.000098,0.000047,-2.254433,0.000149,
2071,2428,-4.04555762667813,-4.78004258562882,-0.00718712397429044,-0.000581,-0.049171,-0.002070,-0.036775,-2.230782,324.751778,22.216329,0.998929,0.986293,0.004556,0.391488,0.000266,0.000080,0.000030,0.000271,0.000075,8.968414,0.000364,
2041,2293,-4.67889124280421,-7.7316048588214,0.00504907378410735,-0.002523,-0.049818,-0.003401,-0.122120,-2.253299,327.111679,22.255220,0.999799,0.993227,0.003894,0.465422,0.000480,0.000401,0.000081,0.000531,0.000350,32.139067,0.000887,
2416,2728,3.41154569170783,1.77180619136679,-0.0230304035931113,0.002076,-0.050084,0.001736,0.068351,-2.240560,319.165779,22.088217,0.999613,0.990601,0.003892,0.513741,0.000058,0.000070,0.000014,0.000080,0.000049,56.087638,0.000130,
2326,2278,1.53581902420218,-8.06007061651616,-0.00939567942884878,0.000132,-0.051590,-0.010372,0.021703,-2.382814,326.491841,20.998656,0.998955,0.982467,0.005162,0.381689,0.000460,0.000406,-0.000016,0.000464,0.000402,-15.268052,0.000867,
2176,2908,-1.83900937517268,5.6753663525004,-0.00164846295575671,0.002250,-0.049665,0.007932,0.061304,-2.220014,316.659450,22.273088,0.999459,0.992082,0.003708,0.460654,0.000024,0.000006,0.000006,0.000026,0.000004,17.084963,0.000033,
2131,2683,-2.77962715543677,0.779716351253327,-0.00637252192586857,0.001650,-0.049396,0.003149,0.049560,-2.210422,320.435295,22.089736,0.999489,0.991057,0.003784,0.483237,0.000067,0.000047,-0.000008,0.000070,0.000044,-18.513741,0.000115,
2011,2203,-5.32090197704222,-9.6968624313887,-0.0175598503064975,-0.003946,-0.049152,-0.012397,-0.162730,-2.238750,328.512572,22.440843,0.999468,0.991796,0.004251,0.475818,0.000637,0.000571,0.000116,0.000725,0.000483,37.009644,0.001216,
2341,2353,1.85019597754963,-6.41863091732031,-0.00213630646663887,0.000860,-0.050383,-0.008473,0.049101,-2.304098,325.363536,21.158336,0.999073,0.985092,0.004945,0.429123,0.000358,0.000285,0.000008,0.000358,0.000284,6.117626,0.000644,
2101,2548,-3.4131479402327,-2.16057019275974,-0.0344913772213999,0.000303,-0.049404,0.003453,-0.012618,-2.200800,322.459112,21.993674,0.999566,0.993425,0.003729,0.581190,0.000142,0.000064,0.000019,0.000147,0.000059,12.788702,0.000212,
2401,2653,3.09963930345946,0.136581171428567,-0.0188892473850046,0.001946,-0.050183,0.002447,0.060013,-2.235194,320.395324,21.900095,0.999257,0.987671,0.004421,0.475941,0.000092,0.000061,0.000002,0.000092,0.000061,2.941306,0.000155,
2026,2263,-5.00177607172965,-8.38469781932086,-0.00833923125276215,-0.002857,-0.049185,-0.008069,-0.124393,-2.249151,327.569277,22.441578,0.998932,0.981918,0.005114,0.360256,0.000532,0.000476,0.000097,0.000605,0.000403,36.935688,0.001015,
2431,2818,3.72134714933101,3.7329543302537,-0.0159429208572988,0.002680,-0.049977,0.004596,0.085392,-2.221724,317.796190,22.443985,0.999491,0.990736,0.004000,0.478704,0.000042,0.000004,0.000011,0.000045,0.000001,15.083401,0.000052,
2446,2908,4.02944576441813,5.69167852771639,-0.0125761956674637,0.002475,-0.051066,0.011580,0.049174,-2.248446,316.344662,22.749843,0.999367,0.990590,0.003963,0.472610,0.000011,-0.000011,0.000016,0.000020,-0.000019,28.240807,0.000023,
2221,3148,-0.899653523885103,10.8856448506308,0.0393015803183516,0.003795,-0.049451,0.011514,0.119634,-2.208209,313.009591,22.659477,0.999536,0.992542,0.003556,0.461994,-0.000003,0.000008,-0.000014,0.000017,-0.000012,-56.174993,0.000018,
2476,3058,4.65594132450698,8.95324700921762,0.019519640451108,0.003389,-0.050371,0.007152,0.107173,-2.246317,314.281402,23.428404,0.999609,0.990019,0.004048,0.412645,0.000006,-0.000002,0.000040,0.000042,-0.000039,42.087673,0.000047,
2296,2143,0.906056003624908,-11.0176178927753,-0.00319344828204748,-0.000662,-0.052539,-0.017570,0.008938,-2.458332,328.727692,20.914474,0.999273,0.982980,0.005248,0.226527,0.000714,0.000757,-0.000017,0.000763,0.000708,-70.544901,0.001472,
2491,3148,4.96491532389276,10.9082975803687,0.0296348386723935,0.004001,-0.050690,0.012249,0.115201,-2.253801,312.936931,23.801554,0.999567,0.990335,0.003699,0.429873,0.000036,-0.000011,0.000017,0.000041,-0.000016,17.672822,0.000042,
2206,3073,-1.21334110702768,9.258216490774,0.0283430336264701,0.003190,-0.049798,0.010760,0.094665,-2.219287,314.159409,22.529304,0.999676,0.992910,0.003386,0.438705,0.000011,-0.000002,-0.000006,0.000013,-0.000005,-21.484308,0.000013,
2191,2983,-1.52462882901017,7.30483901290065,0.0132770563105282,0.002959,-0.049448,0.010818,0.084547,-2.189831,315.536294,22.389735,0.999307,0.991165,0.003830,0.472581,0.000020,-0.000009,-0.000001,0.000020,-0.000009,-1.811024,0.000020,
2356,2428,2.16195624652708,-4.77946706765884,-0.00970558533464327,0.000790,-0.050769,-0.000819,0.019005,-2.267222,324.057600,21.135228,0.999444,0.989044,0.004404,0.638521,0.000270,0.000194,0.000008,0.000270,0.000193,5.922333,0.000466,
2236,3208,-0.583775409937132,12.1874234183186,0.0478999448210971,0.004031,-0.049445,0.008487,0.139816,-2.211528,312.083318,22.816368,0.999494,0.992551,0.003552,0.445445,-0.000008,0.000009,-0.000006,0.000011,-0.000010,-72.340045,0.000012,
2371,2503,2.47498434775344,-3.13894736791268,-0.00814342366697929,0.001098,-0.050670,0.000857,0.027048,-2.268271,322.866992,21.487964,0.999385,0.987976,0.004434,0.454067,0.000203,0.000113,0.000010,0.000204,0.000112,6.278112,0.000320,
2266,2023,0.27219061611337,-13.654742572333,0.00976824618402361,-0.002282,-0.054781,-0.022378,-0.051026,-2.569358,330.744621,20.612042,0.998324,0.978398,0.006316,0.355921,0.000935,0.000967,-0.000022,0.000978,0.000924,-63.225058,0.001902,
2086,2503,-3.73131664151423,-3.14287117853264,-0.019012884153824,-0.000130,-0.049134,-0.001572,-0.017587,-2.206263,323.384033,22.092563,0.999028,0.989866,0.004120,0.500249,0.000184,0.000071,0.000017,0.000187,0.000068,8.452600,0.000264,
2281,2083,0.588969726206713,-12.3377894506037,0.00881666341877008,-0.001481,-0.055009,-0.010872,-0.052207,-2.526857,329.750548,20.644249,0.998888,0.981468,0.005422,0.388885,0.000830,0.000888,-0.000021,0.000895,0.000823,-72.199100,0.001718,
2311,2203,1.22317481268535,-9.70560863553587,0.007460879959865,-0.000349,-0.052916,-0.011141,0.001622,-2.426185,327.831519,20.807874,0.998756,0.978925,0.005682,0.420233,0.000590,0.000628,-0.000007,0.000630,0.000589,-79.721351,0.001219,
2041,2308,-4.68113375244686,-7.40197560970774,-0.00461699410612937,-0.002051,-0.049128,-0.005346,-0.094849,-2.232252,326.816360,22.294960,0.999753,0.991055,0.004205,0.441348,0.000448,0.000338,0.000068,0.000480,0.000305,25.648842,0.000792,
2386,2578,2.78732680189024,-1.50096461674204,-0.0117559156273614,0.001543,-0.051212,0.004966,0.032312,-2.275483,321.633707,21.691176,0.999342,0.987808,0.004473,0.433653,0.000142,0.000081,0.000011,0.000144,0.000079,10.260932,0.000226,
2011,2218,-5.32226689763943,-9.36934249945131,-0.008408232063573,-0.003480,-0.049390,-0.008980,-0.150633,-2.257431,328.359937,22.488989,0.998925,0.986925,0.004948,0.398990,0.000604,0.000538,0.000108,0.000683,0.000458,36.481085,0.001149,
2131,2698,-2.78301148622804,1.10758710224263,-0.0178703438701291,0.001671,-0.049524,0.006201,0.041364,-2.202746,320.087487,22.113520,0.999465,0.990171,0.003921,0.473352,0.000064,0.000034,-0.000007,0.000066,0.000033,-12.855160,0.000100,
2116,2638,-3.10016315835108,-0.197753720535566,-0.0317883127369782,0.001347,-0.048835,0.001546,0.040889,-2.186689,321.008072,22.121777,0.999311,0.988774,0.004201,0.467831,0.000087,0.000041,0.000000,0.000087,0.000041,-0.053838,0.000131,
2461,2983,4.34319885832202,7.32352498113229,0.00492676711843387,0.003239,-0.050351,0.009422,0.092063,-2.248681,315.337502,23.151321,0.999484,0.989966,0.004001,0.368627,0.000011,-0.000003,0.000029,0.000034,-0.000026,38.417556,0.000036,
2026,2278,-5.00342032681459,-8.05765552592506,-0.00745839550819483,-0.002502,-0.048985,-0.010564,-0.101193,-2.257455,327.359023,22.370066,0.998450,0.982950,0.005328,0.415571,0.000509,0.000430,0.000085,0.000563,0.000376,32.464176,0.000946,
2071,2443,-4.04756983168407,-4.45322638185452,-0.00608914332332233,-0.000405,-0.049232,-0.002933,-0.026228,-2.235186,324.529729,22.177839,0.999170,0.987866,0.004476,0.423776,0.000239,0.000068,0.000023,0.000242,0.000065,7.626565,0.000324,
2056,2368,-4.36401566868636,-6.08886324866882,-0.0190152427804833,-0.001487,-0.048710,-0.007014,-0.064169,-2.212227,325.674483,22.263600,0.998475,0.983936,0.005209,0.420103,0.000353,0.000208,0.000059,0.000374,0.000188,19.557006,0.000572,
2446,2923,4.0274862045663,6.01889964056605,-0.0108042151109089,0.003000,-0.050274,0.007046,0.090556,-2.230415,316.155231,22.881822,0.999646,0.992777,0.003700,0.410526,0.000012,-0.000014,0.000013,0.000017,-0.000019,22.497286,0.000021,
2416,2743,3.4087386688639,2.09897967887331,-0.0221252819296183,0.002199,-0.050280,0.002384,0.071552,-2.256577,318.932083,22.192201,0.999519,0.989866,0.003951,0.441763,0.000054,0.000068,0.000019,0.000081,0.000041,55.309961,0.000125,
2176,2923,-1.84165293737013,6.00273682618531,-0.00744967898714322,0.002566,-0.049040,0.008173,0.075397,-2.177217,316.379829,22.335298,0.998879,0.987103,0.004526,0.453413,0.000023,0.000000,0.000007,0.000025,-0.000002,16.247700,0.000028,
2146,2773,-2.46913571598246,2.74167061911405,-0.022993379340619,0.002121,-0.048804,0.002905,0.071865,-2.194280,318.796010,22.227029,0.999683,0.993544,0.003285,0.406511,0.000045,0.000030,-0.000013,0.000053,0.000023,-29.794491,0.000078,
2101,2563,-3.41437732916729,-1.83331161430871,-0.0293445420526837,0.000967,-0.049495,0.000900,0.025349,-2.231274,322.297092,22.097754,0.999169,0.989078,0.004347,0.448549,0.000132,0.000066,0.000006,0.000132,0.000065,5.175131,0.000201,
2431,2833,3.71801122527481,4.06030968500622,-0.0147296663982388,0.002478,-0.050374,0.007716,0.064445,-2.225848,317.540209,22.581295,0.999273,0.989101,0.004130,0.387102,0.000035,0.000005,0.000010,0.000038,0.000002,17.232093,0.000045,
2326,2293,1.5328861356274,-7.73106691724029,-0.0109906990645072,0.000046,-0.050991,-0.011066,0.020374,-2.338974,326.234380,21.039917,0.998880,0.982171,0.005273,0.421150,0.000435,0.000376,-0.000009,0.000436,0.000375,-8.560494,0.000812,
2161,2863,-2.15811153042835,4.69830607019823,-0.0138549566534039,0.002178,-0.049481,0.009217,0.054580,-2.212930,317.335500,22.278912,0.999344,0.991659,0.003675,0.404244,0.000026,0.000026,0.000003,0.000029,0.000023,44.805113,0.000052,
2476,3073,4.65330860732245,9.27830736662489,0.0229511038955366,0.003671,-0.050472,0.009054,0.112779,-2.265520,314.070494,23.447549,0.999614,0.990483,0.003896,0.429980,0.000007,0.000002,0.000039,0.000043,-0.000034,43.032129,0.000045,
2401,2668,3.09685691495637,0.463712178688994,-0.0198922255398202,0.002026,-0.050289,0.000684,0.070015,-2.253608,320.153004,21.963645,0.999281,0.988708,0.004370,0.439875,0.000083,0.000060,0.000000,0.000083,0.000060,0.881741,0.000144,
2221,3163,-0.901885422519133,11.2107878804705,0.0442306116567579,0.003809,-0.049567,0.010789,0.122662,-2.199349,312.808444,22.684450,0.999517,0.992507,0.003531,0.463448,-0.000002,0.000011,-0.000011,0.000017,-0.000008,-60.112793,0.000017,
2236,3223,-0.587057395460644,12.513308748701,0.0432378409138323,0.003881,-0.049262,0.010331,0.127016,-2.189640,311.785340,22.855521,0.999477,0.991919,0.003730,0.448186,-0.000011,0.000011,-0.000010,0.000015,-0.000015,-68.192233,0.000017,
2341,2368,1.84612663128074,-6.08926638302957,-0.0170413302926704,0.000812,-0.050454,-0.007532,0.043611,-2.298661,324.990717,21.167565,0.998883,0.984518,0.004990,0.464191,0.000334,0.000270,0.000007,0.000335,0.000270,6.261927,0.000605,
2041,2323,-4.68283495534417,-7.07324100275376,-0.00884016479255934,-0.001339,-0.048904,-0.006826,-0.057973,-2.220852,326.576103,22.322959,0.999017,0.983450,0.004967,0.419079,0.000425,0.000270,0.000062,0.000447,0.000248,19.159145,0.000704,
2491,3163,4.9619577186218,11.233595788321,0.0301613296504684,0.003938,-0.050597,0.010732,0.118094,-2.268585,312.698307,23.842484,0.999557,0.991346,0.003581,0.431712,0.000030,0.000006,0.000013,0.000035,0.000001,23.279383,0.000041,
2191,2998,-1.52736350630471,7.63116727469586,0.00768304178325252,0.003066,-0.049133,0.009044,0.095145,-2.186059,315.255174,22.418633,0.999442,0.991307,0.003836,0.461335,0.000018,-0.000006,0.000000,0.000018,-0.000006,0.145078,0.000019,
2056,2383,-4.36654639068834,-5.76119096056105,-0.0200934182532819,-0.001377,-0.049055,-0.002221,-0.072720,-2.203189,325.415267,22.250103,0.999032,0.988175,0.004671,0.439069,0.000336,0.000170,0.000049,0.000350,0.000156,15.336396,0.000518,
2371,2518,2.47205438580909,-2.81175897617916,-0.0137276059500095,0.001263,-0.050695,-0.001742,0.043828,-2.290572,322.594224,21.470193,0.999343,0.986459,0.004726,0.491971,0.000187,0.000106,0.000009,0.000188,0.000105,6.211366,0.000296,
2386,2593,2.78459604295678,-1.17331992595744,-0.0142965960525316,0.001834,-0.050718,0.004077,0.049070,-2.265795,321.385396,21.735995,0.999391,0.987550,0.004535,0.442660,0.000134,0.000075,0.000014,0.000137,0.000072,12.771481,0.000212,
2026,2293,-5.00618569294859,-7.72961934757156,-0.00213414052848293,-0.002835,-0.049476,-0.001590,-0.141257,-2.200695,327.121794,22.374363,0.998535,0.983743,0.005205,0.460506,0.000493,0.000403,0.000079,0.000539,0.000357,30.104684,0.000902,
2011,2233,-5.32481831270112,-9.04158865751701,-0.00365005541920027,-0.003791,-0.050031,-0.003122,-0.180995,-2.253504,328.128447,22.494770,0.999129,0.983837,0.005140,0.387681,0.000584,0.000506,0.000089,0.000642,0.000448,33.150677,0.001096,
2266,2038,0.268863282891669,-13.326136084027,0.0172455921727419,-0.002520,-0.055851,-0.008877,-0.106824,-2.550552,330.510030,20.649397,0.998504,0.980321,0.005816,0.366379,0.000903,0.000936,-0.000018,0.000944,0.000895,-66.191112,0.001840,
2356,2443,2.15925788388053,-4.45082124823259,-0.00643052544239708,0.000449,-0.050319,-0.003855,0.014189,-2.275035,323.836625,21.293048,0.998708,0.981146,0.005416,0.513152,0.000258,0.000172,0.000017,0.000262,0.000168,10.711862,0.000433,
2086,2518,-3.73287304764569,-2.81634246412805,-0.0113946005578782,0.000206,-0.049222,-0.001198,-0.003322,-2.235621,323.219627,22.136373,0.999385,0.991361,0.003890,0.426756,0.000170,0.000068,0.000023,0.000175,0.000063,12.232320,0.000247,
2281,2098,0.585854903497861,-12.0076306438114,0.00367498393245569,-0.001585,-0.054551,-0.011609,-0.054366,-2.508107,329.463702,20.704838,0.998485,0.977841,0.005870,0.378179,0.000797,0.000851,-0.000021,0.000858,0.000790,-71.334007,0.001649,
2461,2998,4.34029647283066,7.64807073847716,0.00774135262736309,0.003290,-0.050595,0.011483,0.086581,-2.243436,315.110872,23.076191,0.999376,0.989780,0.004018,0.502668,0.000010,0.000001,0.000033,0.000039,-0.000028,41.163679,0.000040,
2206,3088,-1.21546881947033,9.58454250725921,0.0312231621115302,0.003547,-0.049477,0.011775,0.108068,-2.186708,313.951187,22.609091,0.999489,0.992352,0.003574,0.407171,0.000012,-0.000006,-0.000009,0.000016,-0.000010,-22.475570,0.000016,
2296,2158,0.903228614360682,-10.6908075831853,-0.000394767511636474,-0.000667,-0.053072,-0.013157,-0.006381,-2.446023,328.494937,20.784869,0.999300,0.983289,0.005270,0.400976,0.000674,0.000714,-0.000010,0.000716,0.000672,-76.773621,0.001388,
2446,2938,4.02430662117304,6.34478648315796,-0.0158672619822937,0.002999,-0.050242,0.004230,0.100995,-2.251150,315.878419,22.885544,0.999627,0.991841,0.003786,0.437900,0.000012,-0.000011,0.000015,0.000020,-0.000018,26.167313,0.000022,
2176,2938,-1.8435805901154,6.3277991505275,0.00063346670305009,0.002692,-0.049389,0.008945,0.078656,-2.194514,316.206670,22.348241,0.999145,0.989965,0.004070,0.434527,0.000023,-0.000006,0.000002,0.000023,-0.000006,4.820488,0.000024,
2311,2218,1.21989710999589,-9.3760923548743,-0.00192255735350955,-0.000224,-0.052348,-0.011738,0.009594,-2.389464,327.518974,20.793970,0.998669,0.977500,0.005811,0.505879,0.000563,0.000587,-0.000004,0.000587,0.000563,-81.414114,0.001150,
2071,2458,-4.04977662481543,-4.12607351280543,-0.00824867013574249,-0.000186,-0.048999,-0.003275,-0.015123,-2.222431,324.280849,22.127564,0.999335,0.989649,0.004350,0.485056,0.000222,0.000058,0.000015,0.000223,0.000056,5.162155,0.000296,
2416,2758,3.4060148357714,2.42533791147615,-0.0193388628003959,0.002334,-0.050178,0.004095,0.071519,-2.246420,318.711079,22.214367,0.999474,0.988876,0.004129,0.477639,0.000055,0.000061,0.000020,0.000078,0.000038,49.835777,0.000119,
2041,2338,-4.68554155776703,-6.7459250178954,-0.00862308694217973,-0.001711,-0.049181,-0.005103,-0.079954,-2.228828,326.314878,22.290276,0.999173,0.986573,0.004562,0.438398,0.000401,0.000224,0.000053,0.000415,0.000209,15.434828,0.000636,
2431,2848,3.71529364268642,4.38584425607993,-0.0121679942578226,0.002464,-0.050193,0.007022,0.066453,-2.219475,317.319304,22.554829,0.999234,0.987207,0.004282,0.469710,0.000027,0.000001,0.000007,0.000028,0.000000,14.193106,0.000033,
2116,2653,-3.10244238152905,0.129489299163424,-0.0319888735331233,0.001557,-0.048843,0.002399,0.048007,-2.190438,320.770215,22.179283,0.999427,0.989568,0.003998,0.410706,0.000078,0.000043,-0.000002,0.000078,0.000043,-3.535230,0.000123,
2146,2788,-2.4718058097732,3.06733869752205,-0.0227646171959464,0.002084,-0.049124,0.005409,0.062490,-2.195649,318.545241,22.181928,0.999628,0.992222,0.003561,0.457951,0.000042,0.000033,-0.000009,0.000047,0.000028,-30.900839,0.000075,
2236,3238,-0.589689265482395,12.8375727756384,0.0414944903785681,0.004095,-0.049635,0.011086,0.134236,-2.220280,311.532768,22.818431,0.999645,0.993846,0.003275,0.474214,-0.000014,-0.000001,-0.000010,0.000004,-0.000020,-61.205546,0.000021,
2131,2713,-2.78576572882468,1.43496318443633,-0.0224287652720818,0.001616,-0.049332,0.005406,0.041287,-2.201241,319.805714,22.160453,0.999419,0.989892,0.004051,0.433815,0.000061,0.000031,-0.000007,0.000062,0.000030,-11.959924,0.000094,
2011,2248,-5.3266564141165,-8.71429584595351,-0.00279259339731652,-0.003648,-0.049647,-0.005439,-0.168068,-2.258954,327.907876,22.432214,0.998919,0.983074,0.005214,0.435017,0.000565,0.000499,0.000078,0.000617,0.000447,33.600915,0.001069,
2221,3178,-0.904150976604864,11.5358048851554,0.0490146292592613,0.003743,-0.049438,0.009251,0.124568,-2.206577,312.605042,22.716159,0.999439,0.991353,0.003652,0.442171,-0.000004,0.000010,-0.000010,0.000015,-0.000009,-63.282382,0.000015,
2476,3088,4.64998319547672,9.60446279666141,0.0245730566834368,0.003527,-0.050573,0.012288,0.093855,-2.248703,313.819009,23.523776,0.999485,0.991846,0.003665,0.426342,0.000013,0.000008,0.000035,0.000046,-0.000025,42.707761,0.000046,
2386,2608,2.78149228509809,-0.846948984327966,-0.00982353914031364,0.001558,-0.051211,0.007723,0.023106,-2.268189,321.153452,21.741557,0.999241,0.987661,0.004432,0.478680,0.000121,0.000065,0.000012,0.000124,0.000063,11.619373,0.000190,
2101,2578,-3.41661987277481,-1.50785195720523,-0.0153671622521188,0.000477,-0.049472,0.005085,-0.009416,-2.210917,322.136710,22.067800,0.999283,0.988052,0.004324,0.500651,0.000119,0.000063,0.000005,0.000120,0.000063,5.554061,0.000185,
2161,2878,-2.15975172298149,5.02387741411052,-0.00821823494430873,0.002586,-0.049245,0.007842,0.077647,-2.201349,317.161593,22.277277,0.999454,0.992598,0.003552,0.427278,0.000025,0.000030,0.000002,0.000031,0.000024,70.168677,0.000055,
2191,3013,-1.52887328283428,7.95566416889555,0.0196497900535633,0.003366,-0.049188,0.009789,0.106547,-2.197940,315.122419,22.417292,0.999424,0.991055,0.003864,0.464501,0.000017,-0.000003,-0.000001,0.000017,-0.000003,-4.275313,0.000018,
2026,2308,-5.00830231329564,-7.40046279101092,-0.014036907988384,-0.002221,-0.049222,-0.004924,-0.103863,-2.237124,326.818553,22.406021,0.998731,0.984008,0.005093,0.385002,0.000457,0.000333,0.000064,0.000484,0.000306,23.113103,0.000797,
2056,2398,-4.36750761866108,-5.43547835207515,-0.0129758385984928,-0.000646,-0.048727,-0.004493,-0.032661,-2.217950,325.273427,22.164468,0.998773,0.986071,0.004872,0.505772,0.000308,0.000132,0.000043,0.000318,0.000122,13.080866,0.000454,
2341,2383,1.84270314135192,-5.76042494276685,-0.0190839609967384,0.000421,-0.050660,-0.006734,0.022836,-2.299717,324.709788,21.266608,0.999280,0.985314,0.004845,0.402756,0.000317,0.000245,0.000001,0.000317,0.000245,0.446943,0.000563,
2461,3013,4.3382426500086,7.97480775891091,0.0133371259017281,0.003430,-0.050151,0.007004,0.110092,-2.241443,314.935389,23.228493,0.999417,0.989705,0.003931,0.406141,0.000011,0.000000,0.000031,0.000037,-0.000026,40.141342,0.000038,
2491,3178,4.96019541637846,11.558921701972,0.0415073691665953,0.004172,-0.050235,0.009341,0.134472,-2.238236,312.563594,23.908842,0.999591,0.990967,0.003726,0.453258,0.000026,0.000016,0.000012,0.000034,0.000008,32.902324,0.000045,
2401,2683,3.09353108394656,0.791143561420846,-0.0215332584465955,0.001905,-0.050175,0.002607,0.057560,-2.242341,319.882492,22.024714,0.999352,0.988027,0.004368,0.436338,0.000078,0.000068,0.000004,0.000079,0.000067,17.884946,0.000146,
2206,3103,-1.2177137976017,9.90856023708765,0.0342688406444722,0.003676,-0.049693,0.011415,0.114937,-2.222641,313.739277,22.549252,0.999335,0.991033,0.003977,0.446697,0.000007,0.000000,-0.000010,0.000014,-0.000007,-35.118256,0.000014,
2281,2113,0.583522574155499,-11.67828061983,0.000276110126662843,-0.001272,-0.053359,-0.015460,-0.026765,-2.479313,329.221318,20.706631,0.998653,0.978812,0.005713,0.436035,0.000765,0.000835,-0.000017,0.000839,0.000761,-76.945306,0.001600,
2266,2053,0.266182248563798,-12.9957765965042,0.00966124441396232,-0.002094,-0.054913,-0.010164,-0.082743,-2.507038,330.229293,20.657882,0.998432,0.979405,0.005789,0.430586,0.000874,0.000920,-0.000014,0.000924,0.000870,-74.555654,0.001794,
2326,2308,1.53038977422403,-7.40253566186481,-0.0111821241445682,0.000517,-0.051189,-0.008786,0.034085,-2.331166,326.003941,21.093293,0.998779,0.983159,0.005218,0.411750,0.000409,0.000342,-0.000001,0.000409,0.000342,-1.197174,0.000752,
2296,2173,0.900180232678064,-10.3624555097579,-0.00611793978902142,-0.000659,-0.052959,-0.014197,-0.002480,-2.438951,328.209795,20.715628,0.999361,0.981753,0.005362,0.510479,0.000645,0.000683,-0.000008,0.000685,0.000644,-78.530678,0.001329,
2311,2233,1.2173955044106,-9.04667369471558,0.000109330757027237,0.000040,-0.052355,-0.009572,0.014325,-2.378530,327.298024,20.921427,0.998463,0.978080,0.005843,0.423927,0.000526,0.000538,-0.000002,0.000538,0.000525,-80.284939,0.001064,
2086,2533,-3.73519978850244,-2.4885325713617,-0.0119913250738932,0.000407,-0.048825,0.000979,-0.000214,-2.196633,322.974794,22.159777,0.999566,0.991987,0.003857,0.442676,0.000153,0.000069,0.000025,0.000160,0.000062,15.598365,0.000229,
2071,2473,-4.05177818231252,-3.79862180265143,-0.00611167537340407,-0.000026,-0.048872,-0.003649,-0.006658,-2.216050,324.064792,22.155741,0.999285,0.989419,0.004440,0.461461,0.000207,0.000062,0.000021,0.000210,0.000059,8.022837,0.000283,
2356,2458,2.156008531885,-4.12111852666037,-0.0160531301681885,0.000776,-0.050317,-0.004036,0.029840,-2.283148,323.528123,21.432543,0.999138,0.985649,0.004762,0.406034,0.000244,0.000157,0.000021,0.000249,0.000152,12.764803,0.000405,
2431,2863,3.71271997247948,4.71170936430444,-0.00998952947929865,0.002614,-0.050612,0.006128,0.076418,-2.265790,317.103180,22.612520,0.999458,0.990104,0.003843,0.415173,0.000023,0.000004,0.000004,0.000024,0.000003,10.773102,0.000029,
2446,2953,4.02148881593007,6.67079559867391,-0.0140227836402573,0.003085,-0.050189,0.004939,0.102346,-2.242545,315.649998,22.924456,0.999688,0.992831,0.003626,0.459191,0.000013,-0.000016,0.000019,0.000023,-0.000026,26.558277,0.000028,
2011,2263,-5.32833614173581,-8.38604661122088,-0.00550899995403142,-0.003202,-0.049275,-0.009023,-0.137785,-2.257985,327.674327,22.419128,0.998629,0.978944,0.005395,0.439281,0.000535,0.000474,0.000087,0.000597,0.000411,35.374597,0.001014,
2371,2533,2.46872004758955,-2.48360896200921,-0.0130028641464719,0.000969,-0.050794,0.001151,0.020042,-2.270135,322.332627,21.560104,0.999280,0.987131,0.004663,0.464623,0.000177,0.000101,0.000007,0.000178,0.000100,5.164282,0.000282,
2176,2953,-1.84599503719626,6.6529531897055,0.00218704459450692,0.002799,-0.049484,0.010092,0.079946,-2.203723,315.976888,22.319000,0.999197,0.991665,0.003736,0.466475,0.000025,-0.000010,0.000000,0.000025,-0.000010,0.781043,0.000025,
2236,3253,-0.592601670328328,13.1628001434807,0.0377088162045993,0.004331,-0.049616,0.014033,0.135536,-2.218962,311.256449,22.830901,0.999634,0.993857,0.003195,0.482742,-0.000018,0.000000,-0.000005,0.000001,-0.000019,-74.733394,0.000022,
2221,3193,-0.90651184498935,11.8609351058268,0.0490713407468775,0.004185,-0.049389,0.011580,0.137503,-2.194697,312.372857,22.714654,0.999485,0.992678,0.003500,0.473360,-0.000007,0.000007,-0.000009,0.000011,-0.000012,-63.921271,0.000013,
2416,2773,3.4033002059424,2.75178890957841,-0.0168140969608999,0.002271,-0.049770,0.002973,0.072927,-2.230983,318.489179,22.241817,0.999493,0.988823,0.004156,0.513368,0.000052,0.000043,0.000017,0.000065,0.000030,37.182336,0.000097,
2041,2353,-4.6878148224643,-6.41750226765176,-0.0147951021948529,-0.001382,-0.048962,-0.005445,-0.063830,-2.219915,326.037811,22.284355,0.998779,0.984226,0.005105,0.447471,0.000381,0.000211,0.000057,0.000399,0.000193,16.984969,0.000604,
2056,2413,-4.36968730692218,-5.10783044960952,-0.0116945588953286,-0.000604,-0.048763,-0.004219,-0.031512,-2.213727,325.043288,22.185560,0.998213,0.982650,0.005376,0.485007,0.000292,0.000093,0.000037,0.000299,0.000087,10.193660,0.000405,
2476,3103,4.64764652851993,9.93003949280631,0.0280250624073801,0.003756,-0.050409,0.009995,0.113189,-2.249211,313.621517,23.579086,0.999394,0.990638,0.003889,0.426039,0.000016,0.000000,0.000032,0.000041,-0.000025,38.360679,0.000042,
2146,2803,-2.47343731581453,3.39257492252221,-0.0155433543682193,0.002495,-0.049120,0.005975,0.079668,-2.196922,318.379332,22.155085,0.999670,0.992387,0.003516,0.491210,0.000036,0.000025,-0.000008,0.000040,0.000021,-27.262087,0.000063,
2116,2668,-3.10509187744741,0.455971212426725,-0.0364507427673857,0.001544,-0.048700,0.001327,0.050645,-2.186960,320.492701,22.129067,0.999497,0.990824,0.003827,0.468143,0.000067,0.000045,-0.000006,0.000068,0.000043,-13.847678,0.000112,
2026,2323,-5.00988106881963,-7.07307830655901,-0.0121291741290861,-0.001903,-0.048608,-0.008221,-0.080004,-2.211759,326.616848,22.357938,0.998941,0.984623,0.004940,0.450276,0.000426,0.000256,0.000053,0.000441,0.000240,16.054379,0.000691,
2191,3028,-1.5317178388161,8.28139569665457,0.0163803357179972,0.003348,-0.049411,0.010086,0.104807,-2.192731,314.848530,22.413858,0.999523,0.992246,0.003810,0.486986,0.000015,-0.000002,-0.000004,0.000016,-0.000003,-10.766176,0.000017,
2101,2593,-3.41897717216989,-1.1805139636808,-0.0146069802040074,0.000440,-0.049234,0.004793,-0.010210,-2.191505,321.899212,22.099044,0.999200,0.988500,0.004346,0.490590,0.000112,0.000064,0.000011,0.000115,0.000061,12.084605,0.000179,
2491,3193,4.95770468154427,11.8836397673513,0.0491331533480661,0.004281,-0.050509,0.011420,0.131419,-2.238610,312.378609,23.930304,0.999454,0.991145,0.003775,0.489320,0.000030,0.000016,0.000008,0.000034,0.000012,24.896182,0.000048,
2461,3028,4.33546052579419,8.30068152929636,0.0190280870074844,0.003362,-0.050249,0.008960,0.099571,-2.238706,314.726968,23.304590,0.999658,0.991403,0.003773,0.386048,0.000011,0.000005,0.000027,0.000035,-0.000019,41.379454,0.000035,
2131,2728,-2.78789349107708,1.76004986180453,-0.0194972722602529,0.001655,-0.049261,0.004056,0.047124,-2.202662,319.593289,22.065577,0.999394,0.988527,0.004248,0.533348,0.000053,0.000030,-0.000007,0.000055,0.000028,-16.218514,0.000085,
2401,2698,3.08987952673258,1.11821915656326,-0.027099226846417,0.001929,-0.050523,0.006544,0.044263,-2.250991,319.578570,22.045728,0.999363,0.989921,0.004103,0.452500,0.000074,0.000083,0.000006,0.000086,0.000070,63.671082,0.000157,
2341,2398,1.84012891176701,-5.43348709656145,-0.0103893531335189,0.000324,-0.051000,-0.002345,0.003006,-2.286860,324.519985,21.285588,0.999570,0.987623,0.004565,0.434658,0.000296,0.000236,0.000002,0.000296,0.000236,1.606332,0.000533,
2011,2278,-5.33040503918085,-8.05778873224185,-0.007261956958871,-0.002889,-0.049197,-0.007370,-0.127867,-2.244842,327.428364,22.410080,0.998620,0.979771,0.005607,0.451734,0.000516,0.000427,0.000074,0.000558,0.000385,29.533578,0.000948,
2446,2968,4.01900353137291,6.99711952607915,-0.00864869466749951,0.002968,-0.050020,0.002593,0.105791,-2.247202,315.453041,23.033974,0.999651,0.992156,0.003681,0.396536,0.000009,-0.000010,0.000026,0.000028,-0.000029,34.819371,0.000033,
2281,2128,0.581525687429682,-11.3497101472715,0.00895068975961522,-0.001119,-0.053026,-0.014086,-0.024217,-2.449837,329.054346,20.773184,0.998397,0.978116,0.005692,0.429492,0.000738,0.000811,-0.000015,0.000814,0.000735,-78.647828,0.001549,
2266,2068,0.263993752530052,-12.6652615753146,0.00690366273499876,-0.001683,-0.054020,-0.013742,-0.051829,-2.472058,329.995212,20.749125,0.998805,0.981099,0.005485,0.403377,0.000845,0.000901,-0.000006,0.000902,0.000844,-83.841414,0.001746,
2236,3268,-0.595702175353328,13.4884926296065,0.0288749280926481,0.004419,-0.049520,0.012460,0.144776,-2.210375,310.945427,22.855418,0.999497,0.993031,0.003428,0.486599,-0.000019,0.000003,-0.000011,0.000008,-0.000023,-68.208023,0.000024,
2071,2488,-4.05447381910738,-3.47086785626412,-0.010117601178365,-0.000016,-0.048842,-0.001477,-0.012395,-2.201867,323.783321,22.152279,0.999462,0.991012,0.004164,0.477009,0.000190,0.000065,0.000022,0.000194,0.000061,9.586970,0.000266,
2386,2623,2.77812990394011,-0.519178711842343,-0.0172636660339549,0.001503,-0.050815,0.005550,0.028566,-2.257588,320.852732,21.764894,0.999164,0.987172,0.004434,0.510124,0.000110,0.000051,0.000007,0.000110,0.000050,6.784105,0.000164,
2206,3118,-1.22010875061339,10.2337843901618,0.039499640262818,0.003625,-0.049799,0.012741,0.108387,-2.214540,313.531329,22.573756,0.999471,0.992343,0.003689,0.446010,0.000003,0.000005,-0.000012,0.000016,-0.000008,-48.335159,0.000016,
2086,2548,-3.73812171784989,-2.1621285713466,-0.0177515871295668,0.000243,-0.049266,0.001679,-0.009908,-2.210059,322.675211,22.065822,0.999330,0.990991,0.004055,0.523272,0.000147,0.000058,0.000026,0.000154,0.000051,15.112762,0.000213,
2296,2188,0.898659245573917,-10.0336336352758,0.00611266419122103,-0.000290,-0.052581,-0.013208,0.011249,-2.421246,328.083056,20.873935,0.998909,0.979384,0.005600,0.401978,0.000612,0.000653,-0.000007,0.000654,0.000611,-81.163152,0.001265,
2431,2878,3.70963232716901,5.03866234185996,-0.0130851421858438,0.002589,-0.050329,0.004126,0.082820,-2.251720,316.838441,22.675301,0.999471,0.990913,0.003678,0.416146,0.000017,0.000011,0.000008,0.000022,0.000006,34.267337,0.000030,
2311,2248,1.21433066535251,-8.71810791950725,-0.002464442210794,-0.000401,-0.051667,-0.013758,0.008619,-2.381060,327.028831,20.942146,0.998505,0.980482,0.005556,0.435318,0.000499,0.000481,0.000000,0.000499,0.000481,1.435535,0.000981,
2221,3208,-0.909060488704927,12.1863346806674,0.0529062406819207,0.004029,-0.049259,0.011807,0.129626,-2.195487,312.151377,22.776375,0.999384,0.991969,0.003683,0.428352,-0.000010,0.000008,-0.000008,0.000011,-0.000013,-69.788720,0.000014,
2356,2473,2.15361477701664,-3.79369259683759,-0.013882302191405,0.001088,-0.050507,-0.003588,0.042515,-2.277489,323.315871,21.464785,0.999519,0.988215,0.004270,0.419483,0.000227,0.000141,0.000019,0.000231,0.000137,12.033391,0.000372,
2371,2548,2.4658026697832,-2.15679746578812,-0.00883008935454654,0.000803,-0.051058,0.003878,0.002668,-2.276101,322.106924,21.588946,0.999141,0.986255,0.004849,0.471534,0.000168,0.000088,0.000011,0.000169,0.000087,7.437119,0.000260,
2326,2323,1.52735326587,-7.07421624945892,-0.0138940654446742,0.000375,-0.050917,-0.009957,0.031661,-2.337772,325.736512,21.121912,0.998624,0.981764,0.005504,0.413105,0.000385,0.000313,-0.000002,0.000385,0.000313,-1.295972,0.000700,
2476,3118,4.64459210123986,10.25488194632,0.0332026912385572,0.003685,-0.050927,0.014458,0.092764,-2.253469,313.398952,23.584778,0.999461,0.990827,0.003735,0.471618,0.000019,0.000006,0.000027,0.000040,-0.000015,38.162677,0.000040,
2011,2293,-5.3334867761721,-7.7274624981472,-0.0193170459151588,-0.002971,-0.049076,-0.005794,-0.135886,-2.202848,327.077916,22.463143,0.999004,0.985891,0.004868,0.431401,0.000502,0.000396,0.000071,0.000538,0.000360,26.733307,0.000904,
2461,3043,4.33270324694938,8.62543063137209,0.0216814485196437,0.003539,-0.050611,0.010599,0.101386,-2.245509,314.506028,23.269838,0.999537,0.990276,0.003898,0.467738,0.000005,0.000013,0.000033,0.000042,-0.000024,48.105198,0.000042,
2041,2368,-4.69002463028424,-6.09013788196675,-0.00887075399566584,-0.001572,-0.048935,-0.003273,-0.078587,-2.198353,325.830741,22.292450,0.998648,0.984968,0.005085,0.455097,0.000371,0.000195,0.000055,0.000386,0.000179,15.986229,0.000578,
2056,2428,-4.37229203019594,-4.77928446553384,-0.015776532531163,-0.000507,-0.048815,-0.001602,-0.034426,-2.181422,324.763916,22.215082,0.998746,0.985270,0.004855,0.484157,0.000269,0.000070,0.000039,0.000276,0.000063,10.801799,0.000361,
2161,2893,-2.16225125573141,5.35034724871413,-0.0120901767302826,0.002744,-0.048927,0.006025,0.090651,-2.189214,316.897812,22.292109,0.999510,0.992271,0.003668,0.434345,0.000024,0.000021,0.000004,0.000027,0.000018,35.942145,0.000046,
2101,2608,-3.42076698851222,-0.853667584242572,-0.014405819978947,0.000783,-0.048885,0.001030,0.016686,-2.185418,321.684855,22.098219,0.998945,0.986657,0.004670,0.499490,0.000107,0.000054,0.000006,0.000107,0.000053,6.793011,0.000164,
2146,2818,-2.47628502241266,3.7199822155327,-0.0188757479979813,0.002363,-0.048987,0.006021,0.073498,-2.185865,318.100963,22.238430,0.999518,0.992309,0.003639,0.426796,0.000037,0.000034,-0.000007,0.000042,0.000028,-38.519825,0.000071,
2416,2788,3.39986028384901,3.0800241152274,-0.0209964919297363,0.002218,-0.050228,0.004133,0.066037,-2.253189,318.202116,22.423002,0.999452,0.988812,0.004222,0.357683,0.000048,0.000035,0.000015,0.000058,0.000025,33.457360,0.000085,
2401,2713,3.08654238123201,1.4449428453165,-0.0304746574200294,0.001630,-0.050474,0.004661,0.037370,-2.255252,319.299413,22.053121,0.999548,0.990458,0.003930,0.486747,0.000062,0.000081,0.000008,0.000083,0.000059,70.457539,0.000143,
2491,3208,4.95412045869471,12.2097841943222,0.0429441744556698,0.004247,-0.050520,0.010970,0.131575,-2.246114,312.080219,24.013219,0.999414,0.991940,0.003698,0.456316,0.000034,0.000012,0.000001,0.000034,0.000012,1.360963,0.000048,
2026,2338,-5.01195672152007,-6.74643719651262,-0.00616422911218706,-0.001914,-0.049015,-0.004736,-0.090222,-2.224002,326.415377,22.324238,0.999147,0.986608,0.004567,0.463821,0.000400,0.000205,0.000045,0.000410,0.000196,12.328432,0.000618,
2176,2968,-1.84712568006669,6.97812747176778,0.00797325140621297,0.003575,-0.049661,0.006354,0.127186,-2.233740,315.828254,22.345423,0.999281,0.991596,0.003751,0.421638,0.000026,-0.000007,0.000000,0.000026,-0.000007,-0.224678,0.000027,
2131,2743,-2.78980189873227,2.08710675527042,-0.0208435835662613,0.002202,-0.049160,0.002695,0.076394,-2.215054,319.367539,22.132337,0.999443,0.989842,0.004062,0.459811,0.000046,0.000023,-0.000009,0.000049,0.000019,-19.134597,0.000071,
2191,3043,-1.5334768276927,8.60739176091958,0.0261479598218557,0.003368,-0.049424,0.008060,0.112064,-2.197947,314.692351,22.535266,0.999694,0.994394,0.003316,0.373679,0.000013,-0.000007,-0.000006,0.000015,-0.000009,-14.616884,0.000015,
2236,3283,-0.598955919520424,13.814475121525,0.0235393449245294,0.004258,-0.049289,0.013021,0.135570,-2.211281,310.645103,22.940212,0.999324,0.992523,0.003591,0.420345,-0.000026,0.000009,-0.000011,0.000012,-0.000030,-74.206554,0.000030,
2116,2683,-3.10721216435206,0.78126667962615,-0.0325793482408585,0.001624,-0.049104,0.001818,0.052688,-2.206063,320.284579,22.066425,0.999515,0.991988,0.003598,0.515734,0.000061,0.000040,-0.000007,0.000063,0.000038,-17.428568,0.000102,
2341,2413,1.83935468435102,-5.10685883673784,0.00428110761583866,0.001100,-0.050809,-0.004122,0.044830,-2.313060,324.441824,21.375506,0.999587,0.989380,0.004358,0.355975,0.000273,0.000229,0.000005,0.000274,0.000228,6.379962,0.000502,
2386,2638,2.77529374413796,-0.191995842043902,-0.0164679758407829,0.001409,-0.050946,0.004379,0.028358,-2.279108,320.615394,21.841816,0.999149,0.987063,0.004464,0.455515,0.000101,0.000056,0.000005,0.000101,0.000056,5.975834,0.000159,
2431,2893,3.70670218368272,5.36498622928195,-0.0141415861741621,0.002716,-0.050317,0.004112,0.088708,-2.248882,316.590532,22.710988,0.999483,0.990814,0.003792,0.433038,0.000014,0.000007,0.000011,0.000021,0.000000,36.949793,0.000025,
2011,2308,-5.33548385830224,-7.40004688374187,-0.0169644631006349,-0.003048,-0.048817,-0.007849,-0.133796,-2.215869,326.858546,22.455719,0.998970,0.986887,0.004788,0.415858,0.000469,0.000320,0.000062,0.000492,0.000298,19.914445,0.000797,
2446,2983,4.01579682380771,7.32268207678487,-0.00458846739144292,0.003014,-0.050584,0.009779,0.080853,-2.244181,315.216931,23.060211,0.999622,0.990686,0.003891,0.424733,0.000010,-0.000002,0.000026,0.000031,-0.000023,38.405377,0.000032,
2296,2203,0.89568430806861,-9.70388727806841,0.000341450550479294,0.000060,-0.052326,-0.010817,0.019340,-2.415351,327.800774,20.943598,0.998331,0.975546,0.006071,0.371144,0.000580,0.000619,-0.000001,0.000619,0.000580,-87.932792,0.001199,
2086,2563,-3.73922401101285,-1.83467552599518,-0.015966440047805,0.000792,-0.048766,-0.007740,0.042629,-2.238455,322.499681,22.154514,0.998751,0.987372,0.004664,0.405925,0.000135,0.000060,0.000011,0.000136,0.000059,7.998501,0.000200,
2221,3223,-0.912349038313121,12.5116170281681,0.0523089956479907,0.003748,-0.049497,0.016356,0.102061,-2.181495,311.873069,22.790501,0.999587,0.993442,0.003391,0.445708,-0.000013,0.000009,-0.000012,0.000015,-0.000018,-65.690613,0.000019,
2056,2443,-4.37474006058519,-4.45191641040097,-0.0160211993114672,-0.000685,-0.048885,-0.002105,-0.041232,-2.215905,324.513351,22.244811,0.999075,0.987554,0.004579,0.415852,0.000242,0.000058,0.000028,0.000246,0.000054,8.447667,0.000320,
2371,2563,2.46297884878551,-1.82882339077657,-0.0109833681265741,0.001076,-0.051076,0.004632,0.012514,-2.265472,321.854966,21.656204,0.999256,0.988190,0.004505,0.457141,0.000150,0.000087,0.000016,0.000154,0.000083,13.543941,0.000240,
2266,2083,0.260683079226457,-12.33545504946,-0.00187095622959532,-0.001634,-0.054310,-0.012834,-0.052700,-2.494207,329.680054,20.772493,0.999209,0.982759,0.005231,0.387095,0.000817,0.000878,-0.000005,0.000878,0.000816,-85.054872,0.001695,
2356,2488,2.1509510772159,-3.46753579395682,-0.00635157227310401,0.000943,-0.050801,-0.000123,0.023547,-2.275467,323.117207,21.438138,0.999390,0.987869,0.004370,0.488028,0.000209,0.000125,0.000014,0.000212,0.000123,8.952703,0.000338,
2281,2143,0.578796497829639,-11.0186930589735,0.00516270160824206,-0.000832,-0.052831,-0.013572,-0.012695,-2.436797,328.791667,20.949590,0.999095,0.982219,0.005334,0.296728,0.000706,0.000743,-0.000009,0.000745,0.000703,-76.780129,0.001449,
2476,3133,4.64167683591462,10.5813682196806,0.0320993227871895,0.003767,-0.050801,0.012757,0.103083,-2.253104,313.153622,23.701962,0.999501,0.990279,0.003730,0.410135,0.000028,0.000000,0.000017,0.000037,-0.000008,25.335668,0.000038,
2041,2383,-4.69211892191569,-5.76275118402906,-0.0112525897760634,-0.001387,-0.048855,-0.005148,-0.064866,-2.220048,325.583207,22.269774,0.999119,0.987860,0.004460,0.450223,0.000358,0.000152,0.000048,0.000368,0.000141,12.544345,0.000526,
2491,3223,4.95100140087994,12.5358485602125,0.0393025472216664,0.004435,-0.050422,0.010170,0.143254,-2.257524,311.814716,24.111886,0.999437,0.991461,0.003763,0.403729,0.000034,0.000000,0.000005,0.000035,-0.000001,8.346160,0.000040,
2311,2263,1.2119669455023,-8.38961077289199,0.00268912193314463,0.000108,-0.052072,-0.006993,0.008770,-2.375649,326.829580,21.032975,0.998958,0.983374,0.005113,0.384328,0.000471,0.000436,-0.000004,0.000471,0.000436,-7.222209,0.000907,
2071,2503,-4.05682815246285,-3.14324214658441,-0.0154996026207073,0.000238,-0.048669,-0.002250,0.001549,-2.194469,323.509997,22.136694,0.999289,0.990383,0.004114,0.498237,0.000180,0.000066,0.000024,0.000184,0.000061,11.221876,0.000255,
2101,2623,-3.42384180606753,-0.525312321832438,-0.0320343501343245,0.001166,-0.048641,0.000092,0.037134,-2.177404,321.314914,22.086547,0.999048,0.986857,0.004588,0.521537,0.000099,0.000044,0.000001,0.000099,0.000044,0.776000,0.000147,
2236,3298,-0.601997900001972,14.139824653141,0.0126135307107802,0.004530,-0.049254,0.011102,0.154397,-2.204220,310.326098,22.932985,0.999395,0.992372,0.003534,0.454393,-0.000035,0.000020,-0.000016,0.000025,-0.000039,-75.057015,0.000039,
2326,2338,1.52592707886065,-6.74775205045104,0.00399852929581357,0.000671,-0.051038,-0.005976,0.031528,-2.305629,325.643377,21.150524,0.998931,0.983313,0.005127,0.452597,0.000366,0.000298,-0.000006,0.000367,0.000297,-4.947277,0.000665,
2416,2803,3.39711934990489,3.40593963523312,-0.0210052950159252,0.002312,-0.049867,0.002799,0.075391,-2.245311,317.967153,22.397925,0.999320,0.988301,0.004420,0.438293,0.000042,0.000021,0.000014,0.000049,0.000014,26.042359,0.000067,
2161,2908,-2.16401749414569,5.67485844991749,-0.0048194891737694,0.002917,-0.049155,0.004640,0.102770,-2.199138,316.727116,22.233889,0.999445,0.991365,0.003842,0.492250,0.000025,0.000009,0.000005,0.000027,0.000008,15.104270,0.000036,
2131,2758,-2.79284893013268,2.41441920172406,-0.022404751976751,0.001830,-0.049104,0.004431,0.054137,-2.189380,319.088275,22.187808,0.999512,0.991083,0.003803,0.435766,0.000046,0.000020,-0.000013,0.000051,0.000014,-22.369093,0.000069,
2461,3058,4.32965027698422,8.95165055430145,0.0197988393000514,0.003446,-0.050379,0.007970,0.107114,-2.248712,314.250165,23.341245,0.999565,0.989476,0.004068,0.446783,0.000005,0.000003,0.000035,0.000039,-0.000031,44.183084,0.000041,
2401,2728,3.08414403346534,1.77163905731543,-0.0241662690326621,0.001768,-0.050686,0.006100,0.038415,-2.263481,319.108994,22.144802,0.999581,0.989726,0.004115,0.432344,0.000050,0.000072,0.000015,0.000079,0.000042,62.833240,0.000124,
2176,2983,-1.85054489392223,7.30462170010136,0.00401065083229923,0.003162,-0.049476,0.009060,0.099902,-2.205454,315.522908,22.372000,0.999222,0.991601,0.003764,0.434810,0.000024,-0.000009,-0.000002,0.000024,-0.000009,-3.994862,0.000024,
2026,2353,-5.01398785744084,-6.41779529451505,-0.0105610391062214,-0.001462,-0.049030,-0.004804,-0.069278,-2.224167,326.157793,22.364172,0.998974,0.986521,0.004836,0.415785,0.000386,0.000200,0.000052,0.000399,0.000187,14.551595,0.000598,
2146,2833,-2.47729847892836,4.04454592368804,-0.00631929587723334,0.002842,-0.048948,0.003600,0.102928,-2.192345,317.991942,22.202689,0.999505,0.993082,0.003531,0.463429,0.000038,0.000025,-0.000002,0.000038,0.000025,-7.983557,0.000064,
2446,2998,4.01388994261227,7.64774493692768,0.00573331436282842,0.003238,-0.050593,0.009538,0.092051,-2.252169,315.069676,23.097304,0.999368,0.987856,0.004190,0.430918,0.000010,0.000005,0.000028,0.000036,-0.000021,42.533647,0.000036,
2206,3133,-1.22198430182454,10.559325134461,0.0438246925702401,0.004018,-0.049353,0.012070,0.128878,-2.185634,313.342423,22.604224,0.999570,0.993816,0.003446,0.460031,-0.000001,0.000009,-0.000012,0.000017,-0.000009,-55.157677,0.000017,
2221,3238,-0.915041123574721,12.8368572221255,0.0425703210194683,0.004067,-0.049551,0.011791,0.131278,-2.212046,311.575096,22.797132,0.999684,0.994003,0.003236,0.426063,-0.000017,-0.000002,-0.000011,0.000004,-0.000023,-61.123852,0.000024,
2191,3058,-1.53626159389175,8.93181877492226,0.02411919728263,0.003254,-0.049297,0.007342,0.109053,-2.204358,314.428100,22.439520,0.999784,0.995221,0.003110,0.476782,0.000019,-0.000009,-0.000005,0.000020,-0.000010,-9.894210,0.000020,
2011,2323,-5.33641714355094,-7.07334146582305,-0.00276715978418451,-0.002658,-0.048074,-0.008119,-0.114942,-2.182985,326.754055,22.459719,0.998838,0.984201,0.005140,0.433895,0.000441,0.000233,0.000050,0.000452,0.000222,12.737620,0.000687,
2041,2398,-4.69353638858295,-5.43543764159568,-0.0159862712854988,-0.000299,-0.048558,-0.005653,-0.013392,-2.231911,325.353593,22.213314,0.999052,0.988513,0.004362,0.488807,0.000330,0.000111,0.000045,0.000339,0.000103,11.125435,0.000462,
2491,3238,4.94681117988701,12.8617221704734,0.0305425298508339,0.004156,-0.050510,0.011471,0.125441,-2.253607,311.476629,24.153092,0.999595,0.992076,0.003637,0.423767,0.000034,0.000004,0.000008,0.000036,0.000002,13.480149,0.000043,
2116,2698,-3.10933515267341,1.10829734224372,-0.0243757470278751,0.001450,-0.048958,0.002643,0.042321,-2.192398,320.099031,22.169730,0.999372,0.990481,0.003917,0.429537,0.000061,0.000025,-0.000007,0.000063,0.000024,-11.304801,0.000089,
2056,2458,-4.37737992655364,-4.12555969178212,-0.0105693472926305,-0.001145,-0.049279,0.001626,-0.073035,-2.205247,324.285437,22.195002,0.999067,0.987201,0.004738,0.472263,0.000227,0.000049,0.000019,0.000229,0.000047,6.033841,0.000296,
2386,2653,2.77249205641865,0.134917685829819,-0.0152861545632277,0.001577,-0.050998,0.006531,0.028344,-2.271433,320.381388,21.872636,0.999123,0.986236,0.004623,0.476185,0.000092,0.000060,0.000005,0.000093,0.000060,9.433507,0.000154,
2371,2578,2.46063436330925,-1.50160801212527,-0.0128137057063213,0.001598,-0.050874,0.002816,0.042979,-2.263124,321.626677,21.669960,0.999291,0.987863,0.004537,0.487558,0.000141,0.000087,0.000017,0.000146,0.000082,16.332556,0.000231,
2251,1993,-0.0525951719059172,-14.3108861888166,-0.0165676777889985,-0.002303,-0.056691,-0.015068,-0.077018,-2.651038,331.005615,20.629800,0.999462,0.990040,0.004599,0.305787,0.001021,0.000941,-0.000071,0.001063,0.000899,-30.425272,0.001964,
2071,2518,-4.05940739773303,-2.81594868214556,-0.0209713807250864,0.000259,-0.049023,-0.003302,0.005367,-2.223190,323.226099,22.131484,0.999358,0.991409,0.003882,0.472887,0.000163,0.000064,0.000027,0.000170,0.000057,14.529046,0.000236,
2296,2218,0.892818637942288,-9.37506108788732,-0.000273942869796429,-0.000083,-0.052074,-0.011384,0.014767,-2.396911,327.548971,20.976477,0.998617,0.978216,0.005758,0.389069,0.000551,0.000577,0.000000,0.000577,0.000551,89.239739,0.001129,
2341,2428,1.83635674063094,-4.7809730726905,0.016683366700363,0.000587,-0.051140,0.004162,-0.007606,-2.267290,324.250534,21.307466,0.999688,0.993240,0.003871,0.507955,0.000259,0.000197,0.000006,0.000259,0.000197,5.484784,0.000458,
2281,2158,0.575745335504241,-10.6908759259035,0.00520365924950283,-0.001013,-0.053166,-0.010938,-0.029912,-2.423940,328.533659,20.881094,0.999396,0.982940,0.005281,0.409018,0.000667,0.000703,0.000002,0.000703,0.000667,86.318559,0.001370,
2431,2908,3.7033694210975,5.69052558958876,-0.0115681536544798,0.002587,-0.050641,0.009584,0.062425,-2.252044,316.341113,22.711147,0.999645,0.990669,0.003725,0.479440,0.000007,-0.000009,0.000014,0.000015,-0.000017,29.579386,0.000019,
2131,2773,-2.79522592754956,2.74036360202995,-0.0211896211604881,0.001807,-0.049005,0.004090,0.054096,-2.191814,318.855012,22.172055,0.999607,0.992409,0.003518,0.454804,0.000043,0.000025,-0.000009,0.000047,0.000021,-22.574307,0.000070,
2086,2578,-3.74230800797956,-1.50715563874994,-0.0209081356899219,0.000783,-0.048934,-0.001317,0.023677,-2.201118,322.196666,22.129942,0.999009,0.988079,0.004456,0.467970,0.000122,0.000059,0.000008,0.000123,0.000058,7.517701,0.000185,
2266,2098,0.257819697539048,-12.005655958724,-0.00304654241762137,-0.001688,-0.054364,-0.011966,-0.058042,-2.503174,329.423257,20.871944,0.998888,0.980185,0.005624,0.307339,0.000786,0.000842,-0.000006,0.000842,0.000785,-83.805854,0.001628,
2476,3148,4.63857902708894,10.9070410005325,0.0325485402213985,0.003599,-0.050682,0.011835,0.098895,-2.255535,312.907111,23.760475,0.999544,0.989605,0.003775,0.404772,0.000029,-0.000011,0.000016,0.000035,-0.000017,19.700673,0.000035,
2011,2338,-5.33850445616786,-6.74566084851463,-0.00975068725051642,-0.002176,-0.048141,-0.008641,-0.091417,-2.195205,326.478310,22.392496,0.998831,0.985875,0.004928,0.478989,0.000413,0.000184,0.000041,0.000420,0.000177,9.911581,0.000613,
2356,2503,2.14794330584517,-3.13937632105768,-0.0106364937661283,0.001105,-0.050808,-0.000148,0.031058,-2.285213,322.845553,21.503116,0.999359,0.988054,0.004452,0.453296,0.000188,0.000117,0.000010,0.000190,0.000115,8.066305,0.000308,
2461,3073,4.32624944081509,9.27739877950792,0.0140798923534362,0.003668,-0.050574,0.009563,0.111176,-2.269815,313.960748,23.366702,0.999640,0.991818,0.003694,0.453660,0.000003,0.000008,0.000032,0.000038,-0.000027,47.344964,0.000039,
2221,3253,-0.918129419046618,13.1618702137108,0.0365379112470805,0.004144,-0.049358,0.013157,0.130523,-2.205480,311.278035,22.771716,0.999658,0.994166,0.003177,0.475574,-0.000020,0.000000,-0.000006,0.000002,-0.000022,-74.067822,0.000024,
2101,2638,-3.42631657983841,-0.19842833018032,-0.0329009724488856,0.001139,-0.048841,0.000097,0.035777,-2.199038,321.063480,22.118406,0.999043,0.987576,0.004394,0.469712,0.000089,0.000038,0.000003,0.000089,0.000038,3.435792,0.000130,
2326,2353,1.52221067358768,-6.41814256666049,-0.0052178268708758,0.000388,-0.050824,-0.006632,0.020874,-2.303924,325.312757,21.234786,0.998889,0.981368,0.005131,0.406557,0.000345,0.000284,0.000001,0.000345,0.000284,1.072460,0.000631,
2161,2923,-2.16690768995481,6.00160096157421,-0.00288679527557179,0.002572,-0.048919,0.006877,0.080179,-2.170961,316.475902,22.308103,0.999128,0.988345,0.004317,0.455642,0.000026,0.000001,0.000007,0.000028,0.000000,14.686509,0.000032,
2446,3013,4.01105478392988,7.97420127743111,0.00228327615843682,0.003256,-0.049989,0.004324,0.112599,-2.235913,314.815591,23.148785,0.999098,0.985964,0.004337,0.447253,0.000012,0.000004,0.000027,0.000035,-0.000019,41.193339,0.000035,
2491,3253,4.94289641971544,13.1872528260992,0.0212036341148973,0.004224,-0.050696,0.013053,0.122350,-2.269426,311.148623,24.184071,0.999728,0.993031,0.003411,0.434466,0.000033,0.000012,0.000011,0.000038,0.000008,22.634526,0.000049,
2416,2818,3.39489236512285,3.73195220900423,-0.0166539520472497,0.002717,-0.049869,0.003238,0.092423,-2.229168,317.776140,22.411120,0.999234,0.988663,0.004335,0.488876,0.000032,0.000010,0.000013,0.000039,0.000004,24.768194,0.000047,
2401,2743,3.08148306438911,2.09854706941545,-0.0286355523592192,0.002277,-0.050473,0.004775,0.066663,-2.258781,318.855566,22.160665,0.999533,0.989714,0.004046,0.466944,0.000046,0.000069,0.000018,0.000079,0.000036,61.479336,0.000118,
2116,2713,-3.11134630409394,1.43447575026263,-0.0221524506899868,0.001756,-0.049073,0.003208,0.054667,-2.204604,319.886803,22.175517,0.999342,0.989578,0.004085,0.415074,0.000057,0.000023,-0.000007,0.000059,0.000022,-11.701436,0.000083,
2026,2368,-5.01638939684816,-6.09106549423319,-0.00635696931789198,-0.001780,-0.049002,-0.002816,-0.089383,-2.202921,325.931529,22.297331,0.998860,0.986948,0.004884,0.495970,0.000387,0.000180,0.000051,0.000399,0.000168,13.201979,0.000583,
2251,2008,-0.0555963982529839,-13.9828982241687,-0.00739068855881442,-0.003292,-0.056807,-0.014295,-0.124914,-2.620853,330.793474,20.610367,0.999250,0.987215,0.005036,0.382278,0.000977,0.000978,-0.000038,0.001016,0.000939,-45.453124,0.001956,
2011,2353,-5.34092765369581,-6.41648398924176,-0.016780969096601,-0.001864,-0.048309,-0.006601,-0.082655,-2.201254,326.186581,22.461405,0.998916,0.988636,0.004731,0.394202,0.000395,0.000193,0.000047,0.000405,0.000182,12.416625,0.000601,
2071,2533,-4.06126648485091,-2.48882154690156,-0.0137776034142121,0.000556,-0.049096,0.001155,0.006300,-2.189803,323.044237,22.167932,0.999315,0.990720,0.004041,0.467438,0.000143,0.000066,0.000030,0.000153,0.000055,19.046417,0.000216,
2176,2998,-1.85245644400635,7.63006440110727,0.00887381627507011,0.003333,-0.049196,0.006965,0.114440,-2.187083,315.333418,22.376091,0.999417,0.991411,0.003789,0.460863,0.000023,-0.000007,0.000001,0.000023,-0.000007,1.010159,0.000023,
2206,3148,-1.22479808248004,10.8849962370678,0.036625191896178,0.004088,-0.049204,0.008717,0.142778,-2.191501,313.050645,22.614673,0.999478,0.993350,0.003511,0.459234,-0.000003,0.000010,-0.000013,0.000018,-0.000011,-58.646947,0.000019,
2146,2848,-2.48061706885668,4.37134456663665,-0.0148154559446994,0.002602,-0.048947,0.003958,0.090770,-2.193398,317.664760,22.212194,0.999519,0.992819,0.003541,0.460707,0.000031,0.000023,0.000000,0.000031,0.000023,0.553760,0.000054,
2041,2413,-4.69736699177897,-5.10677925207577,-0.0201897220891283,-0.001272,-0.048947,-0.000054,-0.073820,-2.197230,325.016107,22.244542,0.998773,0.984314,0.004927,0.486726,0.000315,0.000077,0.000045,0.000323,0.000069,10.264605,0.000419,
2296,2233,0.890193113164141,-9.04634171297613,0.00263530667564282,0.000035,-0.052105,-0.008167,0.009339,-2.360814,327.325464,21.023732,0.998728,0.979312,0.005601,0.410357,0.000512,0.000534,-0.000001,0.000534,0.000512,-86.675286,0.001046,
2386,2668,2.76964422277957,0.462430458962608,-0.0202241901191655,0.001713,-0.050598,0.002719,0.048406,-2.268796,320.116044,21.916986,0.999300,0.987648,0.004414,0.478237,0.000083,0.000063,0.000003,0.000084,0.000062,8.961546,0.000146,
2266,2113,0.256834847599915,-11.6773363023807,0.00518404836469699,-0.001138,-0.052782,-0.019070,-0.008867,-2.468534,329.299388,20.900674,0.998842,0.980193,0.005606,0.341318,0.000755,0.000824,-0.000004,0.000824,0.000754,-86.603267,0.001579,
2311,2278,1.20954664485122,-8.06069298367958,0.00198029375701481,0.000346,-0.051847,-0.008961,0.026482,-2.372108,326.598888,21.109164,0.999025,0.983457,0.004971,0.346033,0.000449,0.000411,-0.000005,0.000450,0.000410,-7.884004,0.000860,
2056,2473,-4.37897151362544,-3.7970253195878,-0.0111365333558524,-0.000485,-0.049039,0.000335,-0.038988,-2.198156,324.071840,22.296345,0.999098,0.988050,0.004811,0.373780,0.000214,0.000052,0.000025,0.000217,0.000048,8.698183,0.000283,
2371,2593,2.45775473898366,-1.174251100718,-0.0179662776258738,0.001723,-0.050640,-0.000543,0.060744,-2.279103,321.357910,21.691253,0.999200,0.987374,0.004553,0.492438,0.000134,0.000079,0.000019,0.000139,0.000074,17.372417,0.000216,
2461,3088,4.32286751845869,9.60400528521443,0.0129504447629074,0.003465,-0.050457,0.010318,0.099099,-2.254139,313.692878,23.468612,0.999651,0.993954,0.003445,0.420809,0.000008,0.000012,0.000028,0.000038,-0.000018,46.781241,0.000038,
2341,2443,1.8325744547259,-4.4504050862753,-0.00234062196790319,0.000763,-0.050752,0.000026,0.014990,-2.273722,323.870452,21.429006,0.999273,0.987540,0.004571,0.418461,0.000248,0.000175,0.000013,0.000250,0.000173,9.929065,0.000425,
2191,3073,-1.53837005840862,9.25651083165197,0.0315382349892843,0.003264,-0.049423,0.007955,0.107538,-2.211575,314.244065,22.433968,0.999673,0.993820,0.003307,0.488455,0.000017,-0.000003,-0.000003,0.000017,-0.000003,-8.648111,0.000019,
2221,3268,-0.920688256005672,13.4867582534404,0.0277280074131454,0.004499,-0.049230,0.008123,0.163115,-2.212160,310.991027,22.737128,0.999541,0.993504,0.003358,0.521379,-0.000021,0.000003,-0.000012,0.000008,-0.000026,-67.179996,0.000027,
2011,2368,-5.34244874939592,-6.08959849366566,-0.0175299602188943,-0.001379,-0.048085,-0.010426,-0.049962,-2.207011,325.971797,22.387555,0.998925,0.988434,0.004752,0.452007,0.000401,0.000171,0.000049,0.000411,0.000161,11.512496,0.000590,
2281,2173,0.572488455538718,-10.363082008208,0.00153810308387392,-0.001082,-0.053315,-0.007636,-0.044166,-2.418790,328.247822,20.784135,0.999276,0.981914,0.005361,0.541804,0.000639,0.000672,0.000004,0.000673,0.000639,82.643291,0.001312,
2491,3268,4.93944622958441,13.5135697665793,0.0173570865877082,0.004327,-0.050719,0.014989,0.119712,-2.260347,310.866525,24.298132,0.999843,0.994828,0.002964,0.386777,0.000032,-0.000004,0.000014,0.000037,-0.000009,18.492123,0.000039,
2251,2023,-0.0571055924921176,-13.6538790085813,0.00632948919246701,-0.003144,-0.055778,-0.013992,-0.118765,-2.578248,330.672223,20.727803,0.998696,0.981458,0.005726,0.333763,0.000937,0.000966,-0.000019,0.000975,0.000927,-63.165867,0.001903,
2446,3028,4.00866796463188,8.2998857043938,0.0130792172224119,0.003278,-0.050206,0.007916,0.100143,-2.237609,314.648115,23.246385,0.999317,0.988146,0.004165,0.399345,0.000012,0.000008,0.000023,0.000033,-0.000013,42.433200,0.000033,
2476,3163,4.63561509631752,11.2327965248529,0.0305919253539173,0.003734,-0.050726,0.010538,0.109982,-2.274449,312.655706,23.832427,0.999572,0.990541,0.003721,0.369339,0.000026,0.000002,0.000015,0.000033,-0.000006,25.855216,0.000036,
2431,2923,3.70082366907058,6.01775501671291,-0.0106480309834183,0.002700,-0.050220,0.006577,0.078913,-2.243654,316.119691,22.847298,0.999677,0.991555,0.003713,0.400887,0.000007,-0.000012,0.000010,0.000011,-0.000017,23.822954,0.000017,
2086,2593,-3.74520022966714,-1.18011741244315,-0.0189027661509158,0.000276,-0.048845,0.001109,-0.006613,-2.187639,321.940391,22.150613,0.999107,0.988354,0.004326,0.460510,0.000117,0.000063,0.000014,0.000121,0.000059,13.855734,0.000184,
2131,2788,-2.79744232482127,3.06630835568375,-0.0182462476487331,0.001854,-0.049056,0.004053,0.056349,-2.191876,318.638336,22.171626,0.999608,0.992790,0.003413,0.460719,0.000039,0.000028,-0.000005,0.000041,0.000026,-21.471943,0.000068,
2071,2548,-4.06422740723565,-2.16181801379448,-0.0180748026401147,0.000346,-0.049281,0.003680,-0.010618,-2.184201,322.749269,22.122727,0.999437,0.991181,0.003968,0.516114,0.000139,0.000056,0.000030,0.000148,0.000046,18.144126,0.000203,
2026,2383,-5.01867527606469,-5.76304601701816,-0.00568674436095762,-0.001966,-0.048694,-0.004222,-0.094005,-2.199288,325.690667,22.336185,0.999328,0.989343,0.004110,0.452680,0.000377,0.000132,0.000045,0.000385,0.000124,10.179943,0.000531,
2101,2653,-3.42833301385711,0.128201614045864,-0.0269826282606687,0.001420,-0.049172,0.004502,0.035722,-2.194076,320.869700,22.162096,0.999323,0.989175,0.004090,0.432552,0.000081,0.000041,0.000001,0.000081,0.000041,1.859332,0.000124,
2161,2938,-2.16898846861563,6.32664649188533,0.00438860907155458,0.002775,-0.049241,0.010566,0.078006,-2.191665,316.290646,22.316602,0.999178,0.988751,0.004303,0.435769,0.000026,-0.000005,0.000004,0.000026,-0.000006,7.330103,0.000028,
2356,2518,2.14525145454278,-2.81197807622969,-0.0114495387101101,0.001117,-0.050608,-0.002694,0.040614,-2.301069,322.605198,21.541171,0.999203,0.986267,0.004668,0.439411,0.000173,0.000109,0.000010,0.000175,0.000107,8.895792,0.000285,
2041,2428,-4.69909201447527,-4.77863456724116,-0.0220831782668824,-0.000829,-0.048502,-0.003438,-0.043924,-2.198997,324.787919,22.292056,0.998766,0.984581,0.004909,0.431350,0.000293,0.000056,0.000050,0.000303,0.000046,11.451933,0.000380,
2221,3283,-0.924343384521134,13.8134267056931,0.0199630027195781,0.004314,-0.049744,0.011987,0.142041,-2.216237,310.658250,22.874957,0.999394,0.992179,0.003512,0.396381,-0.000028,0.000010,-0.000013,0.000014,-0.000032,-72.733286,0.000032,
2266,2128,0.253632687811443,-11.3488755481929,0.00195416605981791,-0.001087,-0.053576,-0.014041,-0.023403,-2.477333,329.016920,20.866207,0.998673,0.980566,0.005576,0.395670,0.000729,0.000802,-0.000003,0.000802,0.000729,-87.876541,0.001532,
2296,2248,0.887140371665026,-8.71788309073197,-0.0032895050692332,-0.000097,-0.051672,-0.011312,0.014031,-2.373578,327.038988,21.010066,0.998903,0.982079,0.005327,0.443767,0.000487,0.000479,0.000001,0.000487,0.000479,6.456713,0.000966,
2491,3283,4.93608884604747,13.8382496516917,0.012974315805252,0.004201,-0.050553,0.012622,0.123105,-2.254224,310.586735,24.265261,0.999859,0.995386,0.002895,0.483221,0.000030,-0.000020,0.000012,0.000032,-0.000023,12.606864,0.000033,
2401,2758,3.07886479326639,2.42499227694507,-0.0226539987088472,0.002242,-0.050200,0.006531,0.058806,-2.248785,318.653396,22.216544,0.999398,0.988214,0.004284,0.466719,0.000045,0.000062,0.000019,0.000074,0.000033,57.534213,0.000110,
2311,2293,1.20613129302196,-7.73219333630201,-0.000680852614152627,0.000062,-0.051289,-0.006451,0.005115,-2.336252,326.312908,21.100682,0.999116,0.984834,0.004936,0.424896,0.000424,0.000383,0.000000,0.000424,0.000383,-0.131144,0.000807,
2416,2833,3.3916646080718,4.05896880560245,-0.0167866688103686,0.002652,-0.050092,0.005746,0.080174,-2.230447,317.517821,22.504099,0.998683,0.986542,0.004592,0.442404,0.000026,0.000012,0.000013,0.000033,0.000004,30.605496,0.000041,
2146,2863,-2.48386270967994,4.69753053210492,-0.0167119204958794,0.002353,-0.049477,0.009663,0.061847,-2.197099,317.376128,22.222510,0.999427,0.991821,0.003685,0.454313,0.000027,0.000020,-0.000002,0.000028,0.000020,-16.635513,0.000048,
2056,2488,-4.38108376476325,-3.46989185082337,-0.0140535573682428,-0.000252,-0.048867,-0.001683,-0.022549,-2.203250,323.821920,22.265231,0.999298,0.989181,0.004432,0.395680,0.000196,0.000057,0.000028,0.000201,0.000052,10.923520,0.000268,
2116,2728,-3.11415088288606,1.7613592608208,-0.0270972765964643,0.001615,-0.048645,0.001935,0.052098,-2.180607,319.599415,22.156622,0.999372,0.989359,0.004113,0.461883,0.000048,0.000021,-0.000009,0.000051,0.000018,-16.853902,0.000071,
2011,2383,-5.34450983340655,-5.76176415530237,-0.0111895126154309,-0.001362,-0.048026,-0.006101,-0.060895,-2.178223,325.771690,22.439507,0.999029,0.988479,0.004446,0.418354,0.000392,0.000119,0.000041,0.000398,0.000113,8.299374,0.000536,
2461,3103,4.32056538342092,9.92857401745556,0.0279976466941321,0.003269,-0.050675,0.014300,0.074976,-2.252000,313.549502,23.502068,0.999546,0.992095,0.003691,0.442866,0.000010,0.000004,0.000025,0.000032,-0.000018,41.629557,0.000033,
2491,3298,4.93320211714809,14.1639462075023,0.0129250979230164,0.004310,-0.050277,0.011747,0.131592,-2.250323,310.347828,24.356104,0.999716,0.993030,0.003434,0.453765,0.000014,-0.000026,-0.000001,0.000014,-0.000026,-1.058448,0.000026,
2086,2608,-3.74710358254046,-0.853159861484009,-0.0191938421385771,0.000867,-0.049152,0.002898,0.015292,-2.185209,321.716965,22.159405,0.999079,0.988153,0.004379,0.453777,0.000112,0.000054,0.000010,0.000114,0.000052,9.114962,0.000170,
2446,3043,4.00578296039481,8.62492997284766,0.0200130011101578,0.003214,-0.050640,0.012719,0.079096,-2.243988,314.439981,23.266884,0.999210,0.987822,0.004202,0.423484,0.000006,0.000016,0.000028,0.000039,-0.000017,50.061094,0.000040,
2326,2368,1.51902169595738,-6.09012380241955,-0.0122329304014102,0.000528,-0.050785,-0.006338,0.026272,-2.324258,325.017322,21.223185,0.999195,0.985310,0.004773,0.434052,0.000325,0.000266,0.000001,0.000325,0.000266,0.748537,0.000592,
2206,3163,-1.22772191718475,11.2096308172864,0.0383879774601041,0.003819,-0.049819,0.011008,0.122817,-2.224250,312.800608,22.615249,0.999715,0.995204,0.003101,0.441293,-0.000003,0.000014,-0.000011,0.000020,-0.000008,-63.747332,0.000020,
2476,3178,4.63302297623799,11.5582635101795,0.0323747284168121,0.004062,-0.050431,0.010859,0.124059,-2.247380,312.438469,23.858142,0.999634,0.991903,0.003580,0.426287,0.000024,0.000010,0.000012,0.000031,0.000003,29.939942,0.000038,
2251,2038,-0.0596420459573928,-13.325184901098,0.0112691678192505,-0.002911,-0.056193,-0.006965,-0.131157,-2.559861,330.459950,20.744898,0.998524,0.979374,0.005806,0.361747,0.000903,0.000934,-0.000016,0.000941,0.000896,-66.530317,0.001838,
2101,2668,-3.43053805848336,0.45418927364819,-0.0239392018751801,0.001428,-0.049046,0.004763,0.035377,-2.178403,320.651909,22.116131,0.999414,0.990100,0.003974,0.495888,0.000068,0.000040,-0.000002,0.000068,0.000040,-3.817311,0.000109,
2371,2608,2.45489590901109,-0.846900497866088,-0.0163270618896263,0.001743,-0.050522,0.001237,0.055379,-2.266938,321.122401,21.747787,0.999043,0.986679,0.004576,0.489734,0.000121,0.000067,0.000016,0.000126,0.000063,15.237126,0.000192,
2131,2803,-2.79954828975166,3.39199835955071,-0.0137176718238834,0.002172,-0.049230,0.008054,0.058941,-2.196651,318.435280,22.168682,0.999486,0.992027,0.003654,0.464377,0.000033,0.000020,-0.000004,0.000034,0.000019,-15.385334,0.000054,
2386,2683,2.76620892099659,0.791474672181877,-0.0290446679098295,0.001982,-0.050360,0.004087,0.056000,-2.238484,319.804793,22.047674,0.999367,0.987212,0.004297,0.422037,0.000079,0.000070,0.000006,0.000082,0.000067,27.129945,0.000149,
2431,2938,3.69826114122769,6.34347525339112,-0.00886567283532713,0.002887,-0.050124,0.005631,0.091020,-2.248240,315.901858,22.867691,0.999694,0.991160,0.003785,0.425442,0.000007,-0.000010,0.000012,0.000013,-0.000016,27.222240,0.000017,
2071,2563,-4.06660347144017,-1.83430114668855,-0.0238491793573417,0.000596,-0.049523,0.002646,0.003757,-2.213833,322.472958,22.151856,0.999076,0.988871,0.004369,0.455338,0.000127,0.000057,0.000014,0.000130,0.000055,10.649605,0.000189,
2341,2458,1.82873659165542,-4.1220844752808,-0.012310168713725,0.000518,-0.050787,0.000310,0.002774,-2.274542,323.531950,21.431031,0.999435,0.987981,0.004386,0.453998,0.000234,0.000161,0.000018,0.000239,0.000157,13.349953,0.000398,
2221,3298,-0.927355249660611,14.1381950544715,0.0113237198247589,0.004597,-0.049728,0.012533,0.153326,-2.218667,310.351242,22.835863,0.999426,0.992703,0.003348,0.450652,-0.000036,0.000025,-0.000020,0.000031,-0.000042,-73.157300,0.000044,
2506,1993,5.53177672782567,-14.3231766664198,0.013603652476661,0.003431,-0.056995,-0.023291,0.221601,-2.682050,331.746481,18.757267,0.998613,0.971137,0.006747,0.325977,0.001264,0.000960,-0.000108,0.001298,0.000926,-17.669390,0.002234,
2191,3088,-1.54088305277576,9.58224003846799,0.0323725543235582,0.003561,-0.049693,0.012016,0.108409,-2.208375,314.006742,22.474606,0.999529,0.992158,0.003601,0.464626,0.000018,-0.000005,-0.000006,0.000019,-0.000006,-13.764353,0.000020,
2176,3013,-1.85466674538248,7.95541918156369,0.0140720446893852,0.003502,-0.049286,0.009539,0.114143,-2.189034,315.132021,22.398069,0.999385,0.989786,0.003984,0.448461,0.000021,-0.000004,-0.000002,0.000021,-0.000004,-3.803332,0.000022,
2026,2398,-5.02013432970324,-5.43580230348729,-0.0057081696315322,-0.001026,-0.048812,-0.001301,-0.058829,-2.209822,325.484006,22.316395,0.999229,0.989713,0.004134,0.453406,0.000350,0.000089,0.000043,0.000357,0.000082,9.182316,0.000467,
2161,2953,-2.17144301278912,6.65165143939156,0.00863969507793172,0.002537,-0.049434,0.010225,0.068011,-2.208248,316.072283,22.299326,0.999384,0.991064,0.003808,0.445954,0.000029,-0.000009,0.000002,0.000029,-0.000009,3.364157,0.000030,
2281,2188,0.570534441295649,-10.0329876316014,0.00199328352624661,-0.000614,-0.052540,-0.010919,-0.011456,-2.412883,328.041739,20.945448,0.998904,0.979023,0.005680,0.416827,0.000607,0.000640,0.000005,0.000641,0.000606,81.711269,0.001247,
2011,2398,-5.34635511183688,-5.43535360321469,-0.00678619698061311,-0.001034,-0.048468,-0.002044,-0.056961,-2.184887,325.571126,22.382200,0.999047,0.988019,0.004476,0.458467,0.000364,0.000071,0.000040,0.000369,0.000065,7.599145,0.000468,
2356,2533,2.14237999656967,-2.48471607131891,-0.0115684533405442,0.001333,-0.050625,0.000447,0.039522,-2.282643,322.359798,21.543690,0.999203,0.986748,0.004677,0.495214,0.000164,0.000102,0.000009,0.000165,0.000101,8.287261,0.000269,
2056,2503,-4.38383214751558,-3.14311210813231,-0.0207382679426473,-0.000114,-0.048992,0.001329,-0.024721,-2.197892,323.522244,22.162484,0.999307,0.989247,0.004290,0.499976,0.000184,0.000062,0.000027,0.000189,0.000056,11.916842,0.000257,
2461,3118,4.31803145815684,10.2539317249714,0.0271550291751055,0.003777,-0.050712,0.013745,0.100430,-2.260950,313.322263,23.522211,0.999461,0.990328,0.003936,0.467036,0.000014,0.000008,0.000021,0.000032,-0.000011,41.033861,0.000033,
2086,2623,-3.7498468028874,-0.526487659655146,-0.0278060169474088,0.000989,-0.048968,0.002318,0.022651,-2.184007,321.409934,22.077172,0.999107,0.988095,0.004387,0.537007,0.000104,0.000041,0.000004,0.000104,0.000041,3.542840,0.000149,
2041,2443,-4.69989881539962,-4.45277201171158,-0.0100189859090278,-0.000142,-0.048284,-0.003857,-0.011129,-2.193800,324.679502,22.259652,0.998728,0.983325,0.005183,0.462389,0.000264,0.000042,0.000036,0.000270,0.000036,8.860431,0.000335,
2476,3193,4.63006420966589,11.8834752163352,0.0358781072667966,0.004117,-0.050394,0.014015,0.114626,-2.226168,312.212174,23.879932,0.999515,0.991805,0.003572,0.481258,0.000027,0.000009,0.000008,0.000030,0.000006,20.863220,0.000038,
2506,2008,5.52846471337814,-13.9936712153828,0.0150178319295264,0.003363,-0.056509,-0.020457,0.207819,-2.643665,331.502454,18.780102,0.998805,0.973845,0.006546,0.406426,0.001228,0.000896,-0.000111,0.001262,0.000863,-16.863601,0.002137,
2266,2143,0.251122437745437,-11.0172570201315,0.00151632044025973,-0.000772,-0.053061,-0.012411,-0.014130,-2.444350,328.779413,21.113858,0.999317,0.984838,0.005115,0.209502,0.000696,0.000736,0.000004,0.000737,0.000695,84.531538,0.001432,
2116,2743,-3.1172764269718,2.08839880919795,-0.0278250373096398,0.001370,-0.049207,0.008142,0.022267,-2.189030,319.319996,22.223219,0.999419,0.989800,0.004051,0.390379,0.000040,0.000014,-0.000011,0.000045,0.000010,-20.388415,0.000058,
2296,2263,0.883342797807398,-8.38692384697146,-0.011453281225954,-0.000277,-0.051433,-0.007525,-0.006880,-2.338223,326.706687,21.160188,0.999396,0.987595,0.004735,0.361869,0.000460,0.000435,-0.000003,0.000460,0.000435,-6.302780,0.000895,
2236,1993,-0.378189953050637,-14.3149252530289,0.0180370103525433,-0.002697,-0.056333,-0.013597,-0.100013,-2.605241,331.299543,20.679382,0.999430,0.988231,0.004830,0.406760,0.001003,0.000933,-0.000048,0.001028,0.000908,-27.044787,0.001938,
2416,2848,3.38903152967832,4.38508988581071,-0.015719201126899,0.002677,-0.049862,0.003243,0.090627,-2.227007,317.292624,22.523280,0.999187,0.988288,0.004232,0.474316,0.000019,0.000007,0.000010,0.000025,0.000001,29.603197,0.000029,
2401,2773,3.0762708605356,2.75122329908832,-0.0172638732453265,0.001908,-0.049907,0.003603,0.054176,-2.238339,318.449553,22.251281,0.999443,0.988481,0.004213,0.488074,0.000042,0.000044,0.000014,0.000057,0.000029,46.437195,0.000088,
2311,2308,1.20199471511362,-7.40203102603259,-0.0177837601725628,-0.000019,-0.051353,-0.006197,0.000517,-2.336204,325.922860,21.141202,0.999302,0.987463,0.004762,0.419236,0.000397,0.000347,0.000006,0.000397,0.000346,6.595405,0.000744,
2446,3058,4.00286504421048,8.9511143602898,0.0191321211143531,0.003362,-0.050590,0.012666,0.086102,-2.243680,314.193822,23.337970,0.999531,0.990329,0.003886,0.404063,0.000003,0.000006,0.000030,0.000035,-0.000025,46.516845,0.000036,
2251,2053,-0.0611379056558654,-12.9951589706413,0.00785327099407596,-0.002038,-0.054933,-0.013922,-0.068089,-2.538348,330.252976,20.791481,0.998658,0.978885,0.005735,0.363309,0.000872,0.000914,-0.000011,0.000917,0.000869,-75.973331,0.001786,
2101,2683,-3.43273853563946,0.780390801380889,-0.0244641206372194,0.001502,-0.048886,0.002386,0.045794,-2.182986,320.415045,22.084662,0.999395,0.990940,0.003826,0.524359,0.000063,0.000034,-0.000003,0.000063,0.000034,-6.549370,0.000099,
2071,2578,-4.06925478719881,-1.50687178677379,-0.026407654015884,0.000494,-0.049200,0.003600,-0.003540,-2.185016,322.201475,22.148471,0.998894,0.988539,0.004510,0.485145,0.000114,0.000058,0.000012,0.000116,0.000056,11.358867,0.000175,
2146,2878,-2.4852119698248,5.02271530131085,-0.00620671945392814,0.002584,-0.048989,0.006419,0.082465,-2.190939,317.240625,22.226380,0.999447,0.991433,0.003759,0.463939,0.000027,0.000027,-0.000003,0.000030,0.000024,-44.709528,0.000054,
2131,2818,-2.80156230378954,3.7176817360927,-0.00835287927156969,0.002227,-0.049198,0.007421,0.063352,-2.197401,318.240907,22.171233,0.999219,0.990538,0.004070,0.466523,0.000034,0.000027,-0.000003,0.000035,0.000025,-22.634738,0.000061,
2506,2023,5.52546887031709,-13.6624626538415,0.0131202269717505,0.004032,-0.056161,-0.016176,0.222041,-2.591920,331.257968,18.912705,0.999027,0.970504,0.006673,0.390541,0.001209,0.000933,-0.000145,0.001271,0.000870,-23.216063,0.002154,
2431,2953,3.69487362582406,6.66969127316461,-0.0122522453760325,0.002939,-0.050463,0.008004,0.084555,-2.242762,315.621790,22.891580,0.999699,0.992653,0.003631,0.456416,0.000006,-0.000016,0.000016,0.000014,-0.000024,27.781310,0.000024,
2011,2413,-5.3494089967991,-5.1085579612532,-0.00432369092112594,-0.001842,-0.048850,0.001232,-0.103132,-2.194960,325.304417,22.349597,0.999102,0.987896,0.004441,0.470636,0.000344,0.000046,0.000053,0.000353,0.000037,9.752345,0.000431,
2326,2383,1.51578464985849,-5.7612327235801,-0.0127766764450712,0.000292,-0.050893,-0.004054,0.007546,-2.325899,324.750943,21.341245,0.999460,0.987236,0.004642,0.350547,0.000310,0.000242,-0.000002,0.000310,0.000242,-1.846019,0.000554,
2461,3133,4.31529303853484,10.5800492420105,0.0279869170896632,0.003898,-0.050620,0.012595,0.110330,-2.264356,313.092965,23.621313,0.999489,0.989503,0.003929,0.417700,0.000021,0.000002,0.000013,0.000027,-0.000005,26.122285,0.000029,
2341,2473,1.82669884397923,-3.79441860607132,-0.0126009356281997,0.001044,-0.050480,-0.003206,0.039260,-2.270168,323.322932,21.463272,0.999418,0.987837,0.004336,0.463856,0.000220,0.000148,0.000016,0.000223,0.000145,11.704931,0.000370,
2206,3178,-1.23012745481009,11.5354133254624,0.0365599836923138,0.004066,-0.049494,0.009662,0.138684,-2.204499,312.555323,22.651447,0.999676,0.994783,0.003161,0.440495,-0.000006,0.000014,-0.000009,0.000018,-0.000010,-69.047927,0.000018,
2026,2413,-5.02310617681915,-5.10733225418694,-0.0115364735826233,-0.001340,-0.048721,-0.000003,-0.076795,-2.182673,325.175459,22.321274,0.999076,0.987421,0.004519,0.467672,0.000335,0.000060,0.000052,0.000344,0.000051,10.271244,0.000430,
2056,2518,-4.38529510271468,-2.8157987783937,-0.0193760205526701,0.000294,-0.048430,-0.004206,0.009783,-2.203104,323.325537,22.197134,0.999177,0.989709,0.004225,0.455454,0.000164,0.000060,0.000029,0.000171,0.000053,14.753480,0.000234,
2041,2458,-4.70267181056552,-4.12583728289082,-0.0102294613913045,-0.000427,-0.048779,-0.000308,-0.034222,-2.197393,324.413072,22.223566,0.998760,0.983552,0.005211,0.488540,0.000248,0.000037,0.000026,0.000251,0.000034,6.831592,0.000312,
2281,2203,0.567701496880069,-9.70350612759101,-0.00163312320711384,-0.000536,-0.052048,-0.011541,-0.005632,-2.407134,327.775177,21.013613,0.998629,0.979046,0.005722,0.385016,0.000578,0.000607,0.000009,0.000610,0.000576,73.525236,0.001186,
2476,3208,4.62747365961441,12.2087750077388,0.0379847843379935,0.004120,-0.050136,0.010740,0.127276,-2.243870,311.996387,23.943900,0.999391,0.991313,0.003709,0.454745,0.000030,0.000004,0.000000,0.000030,0.000004,-0.076364,0.000037,
2236,2008,-0.381425449950353,-13.9850730369592,0.0114477625552354,-0.003053,-0.056068,-0.016112,-0.108157,-2.593692,330.995701,20.666304,0.999385,0.986732,0.005001,0.456556,0.000957,0.000967,-0.000020,0.000983,0.000941,-51.796504,0.001924,
2161,2968,-2.17378329347799,6.97762083043457,0.00895407995557207,0.002735,-0.049723,0.010678,0.075696,-2.210973,315.838045,22.333217,0.999586,0.992681,0.003477,0.418762,0.000031,-0.000007,0.000001,0.000031,-0.000007,1.285921,0.000032,
2191,3103,-1.54308150504002,9.90717185580758,0.0376326553936792,0.003562,-0.049769,0.011597,0.109685,-2.224420,313.807228,22.492683,0.999450,0.992362,0.003640,0.443804,0.000012,0.000000,-0.000007,0.000015,-0.000003,-24.809604,0.000016,
2371,2623,2.45165453056535,-0.519352876365552,-0.021121468342983,0.001791,-0.050429,0.001854,0.055437,-2.252578,320.838474,21.769798,0.999056,0.987369,0.004489,0.523892,0.000109,0.000053,0.000010,0.000111,0.000051,9.814384,0.000166,
2386,2698,2.76364345471142,1.11688597593669,-0.0213995603770627,0.001757,-0.050708,0.004755,0.043128,-2.265553,319.612552,22.042635,0.999424,0.989650,0.003975,0.443339,0.000074,0.000084,0.000008,0.000088,0.000069,61.877873,0.000158,
2266,2158,0.248473584606064,-10.6901796526494,0.00575738707215123,-0.001093,-0.052914,-0.012540,-0.028368,-2.426608,328.559630,21.017866,0.999142,0.982983,0.005249,0.351582,0.000660,0.000699,0.000015,0.000704,0.000655,70.570741,0.001359,
2356,2548,2.13929315856804,-2.15731133827349,-0.0109013613911202,0.001091,-0.050452,0.001189,0.025837,-2.277833,322.108254,21.584736,0.999060,0.986454,0.004746,0.498881,0.000155,0.000091,0.000015,0.000158,0.000088,12.246803,0.000249,
2176,3028,-1.85720749291056,8.28040910668447,0.0165377702161891,0.003482,-0.049657,0.011469,0.107154,-2.189992,314.901233,22.370725,0.999485,0.991545,0.003850,0.486119,0.000019,-0.000004,-0.000005,0.000020,-0.000005,-11.777168,0.000021,
2506,2038,5.52244882318874,-13.3347075650397,0.0244743765047133,0.003778,-0.056807,-0.009006,0.182604,-2.606593,331.071730,18.951750,0.998740,0.968355,0.006929,0.400973,0.001170,0.000966,-0.000137,0.001238,0.000897,-26.616904,0.002145,
2116,2758,-3.11818128685968,2.41303590779087,-0.0149566658547542,0.001776,-0.048941,0.003793,0.053959,-2.175969,319.216078,22.159632,0.999507,0.990696,0.003840,0.470367,0.000040,0.000011,-0.000016,0.000047,0.000004,-23.641893,0.000057,
2101,2698,-3.4353795685739,1.1072115695056,-0.0209899991577913,0.001102,-0.049197,0.003360,0.024429,-2.192304,320.179451,22.152118,0.999164,0.990186,0.004065,0.449034,0.000064,0.000018,-0.000005,0.000065,0.000018,-5.732821,0.000087,
2446,3073,3.99988144539413,9.27655975611929,0.0125776620460556,0.003771,-0.050675,0.010992,0.111121,-2.260130,313.918572,23.325299,0.999732,0.993357,0.003368,0.451643,0.000002,0.000012,0.000028,0.000035,-0.000022,50.016108,0.000035,
2416,2863,3.38630405875553,4.71144579178933,-0.0121226238442773,0.002649,-0.049959,0.003725,0.087455,-2.247238,317.074842,22.610703,0.999406,0.989247,0.004033,0.413772,0.000017,0.000010,0.000007,0.000021,0.000005,31.738131,0.000028,
2131,2833,-2.80393613309198,4.04460788835642,-0.0138940555831937,0.002517,-0.049097,0.004909,0.084287,-2.200721,317.971401,22.211764,0.999460,0.992164,0.003728,0.428277,0.000035,0.000017,0.000001,0.000035,0.000017,1.573813,0.000053,
2026,2428,-5.02524621809214,-4.77931560196551,-0.0199637394376282,-0.001029,-0.048395,-0.004755,-0.049428,-2.203834,324.890763,22.313927,0.998913,0.985569,0.004799,0.445861,0.000312,0.000040,0.000058,0.000324,0.000029,11.467434,0.000392,
2401,2788,3.07313842916636,3.07873013189002,-0.0188358026788933,0.002162,-0.050344,0.007818,0.050462,-2.235046,318.187770,22.360119,0.999512,0.988271,0.004266,0.427872,0.000038,0.000037,0.000013,0.000050,0.000025,43.772932,0.000076,
2086,2638,-3.75169878987976,-0.199320423592404,-0.0253919932536064,0.001332,-0.048961,0.002007,0.039295,-2.200596,321.203571,22.156991,0.999141,0.988163,0.004305,0.440203,0.000095,0.000035,0.000006,0.000095,0.000035,5.544557,0.000134,
2251,2068,-0.0628588199097315,-12.665255917938,0.00862821206135322,-0.001440,-0.053377,-0.017343,-0.028987,-2.477822,330.056599,20.840494,0.998908,0.980325,0.005496,0.401018,0.000842,0.000896,-0.000004,0.000897,0.000842,-85.961942,0.001739,
2056,2533,-4.38712997408912,-2.4895828916782,-0.0124169697029402,0.000569,-0.048612,-0.000253,0.011283,-2.167377,323.142785,22.145317,0.998898,0.988303,0.004459,0.538598,0.000140,0.000062,0.000031,0.000151,0.000051,19.156395,0.000210,
2461,3148,4.31258819533488,10.9056313351378,0.0293726740732723,0.003838,-0.050356,0.009433,0.119633,-2.255158,312.867839,23.665610,0.999446,0.989091,0.003897,0.435968,0.000021,-0.000008,0.000013,0.000026,-0.000013,20.234208,0.000026,
2011,2428,-5.35097562077057,-4.78033931116086,-0.00935609585752673,-0.001151,-0.048230,-0.002870,-0.060066,-2.176947,325.063244,22.352770,0.998940,0.986817,0.004630,0.475039,0.000319,0.000022,0.000057,0.000329,0.000011,10.532271,0.000387,
2476,3223,4.62462140618016,12.5348370310332,0.0354765429947861,0.004374,-0.050089,0.008961,0.145758,-2.243280,311.747174,24.037017,0.999363,0.991435,0.003717,0.417612,0.000028,-0.000004,0.000003,0.000029,-0.000004,5.926937,0.000031,
2431,2968,3.69198623701891,6.99528505139065,-0.0116185936230977,0.002863,-0.050370,0.006683,0.085927,-2.262055,315.383570,22.915373,0.999783,0.995103,0.003182,0.462622,0.000002,-0.000010,0.000023,0.000019,-0.000027,37.117641,0.000028,
2236,2023,-0.382733158494812,-13.6549735065561,0.0142485721020762,-0.002487,-0.054225,-0.023398,-0.058058,-2.563292,330.827407,20.769215,0.998685,0.980847,0.005748,0.408354,0.000919,0.000953,-0.000005,0.000954,0.000918,-81.697116,0.001872,
2326,2398,1.51423849730823,-5.43569756645327,0.00109664376196861,0.000503,-0.050882,-0.003562,0.015570,-2.314935,324.632850,21.282527,0.999387,0.987215,0.004725,0.455968,0.000291,0.000233,0.000000,0.000291,0.000233,-0.261370,0.000525,
2041,2473,-4.70510577305426,-3.79747148344589,-0.0181353877817969,-0.000201,-0.048843,-0.001774,-0.019851,-2.222458,324.119277,22.273632,0.998313,0.983610,0.005341,0.407230,0.000234,0.000038,0.000034,0.000240,0.000033,9.481803,0.000298,
2071,2593,-4.07130597026623,-1.17980595298185,-0.0254835430610569,0.000757,-0.048982,0.004226,0.006797,-2.178327,321.976684,22.168990,0.998955,0.988468,0.004365,0.468889,0.000111,0.000064,0.000017,0.000117,0.000058,18.116948,0.000179,
2296,2278,0.881484657523686,-8.06047911885842,-0.00209117595102271,0.000058,-0.051960,-0.005190,0.000418,-2.339580,326.550601,21.118044,0.999307,0.986282,0.004765,0.434260,0.000439,0.000410,-0.000005,0.000440,0.000409,-9.525617,0.000849,
2311,2323,1.19968589691195,-7.07445825774437,-0.0110335656356142,0.000089,-0.051584,-0.003908,-0.002433,-2.338325,325.733963,21.191158,0.998988,0.984065,0.005136,0.401277,0.000371,0.000315,0.000003,0.000371,0.000315,2.803243,0.000686,
2506,2053,5.51845953549111,-13.0032917531342,0.0197127735256686,0.003627,-0.056721,-0.005580,0.162570,-2.579922,330.768924,19.107208,0.998919,0.980842,0.005759,0.337186,0.001135,0.000969,-0.000150,0.001224,0.000881,-30.552862,0.002114,
2146,2893,-2.48749479821173,5.34845267560594,-0.00465286774499418,0.002702,-0.049071,0.006552,0.087502,-2.184588,317.014599,22.218665,0.999383,0.989859,0.004110,0.485436,0.000025,0.000017,-0.000001,0.000025,0.000017,-6.045087,0.000042,
2281,2218,0.564512212959134,-9.37433538505849,-0.00348295662502096,-0.000981,-0.051802,-0.012685,-0.022131,-2.397715,327.501118,21.074102,0.998741,0.980508,0.005549,0.364190,0.000549,0.000569,0.000011,0.000574,0.000544,66.239186,0.001118,
2446,3088,3.99809665098973,9.60229525959831,0.0256637534437232,0.004027,-0.050702,0.012354,0.117852,-2.248553,313.789124,23.441262,0.999693,0.993455,0.003439,0.398474,0.000006,0.000012,0.000024,0.000033,-0.000015,48.635282,0.000034,
2116,2773,-3.12067262733073,2.73907541283712,-0.0143004523787909,0.001867,-0.049217,0.006783,0.049159,-2.191842,318.973487,22.160806,0.999626,0.992218,0.003570,0.456591,0.000038,0.000018,-0.000012,0.000044,0.000013,-25.576039,0.000059,
2401,2803,3.07067595103456,3.4047843996534,-0.0201727936044449,0.002522,-0.050315,0.005268,0.076258,-2.241627,317.958207,22.351635,0.999530,0.990151,0.004096,0.475469,0.000034,0.000023,0.000011,0.000040,0.000016,32.058528,0.000058,
2506,2068,5.51657038347679,-12.6744520601585,0.0337687242919174,0.003294,-0.055546,-0.009994,0.164883,-2.542928,330.646056,19.232313,0.999284,0.983494,0.005253,0.313121,0.001096,0.000962,-0.000160,0.001203,0.000855,-33.634801,0.002068,
2206,3193,-1.23192017112887,11.8599389481949,0.0422639253527564,0.004424,-0.049315,0.008601,0.158628,-2.197114,312.377700,22.632407,0.999753,0.996138,0.002958,0.482480,-0.000008,0.000011,-0.000008,0.000014,-0.000011,-70.932514,0.000015,
2161,2983,-2.17659394743725,7.30389886453978,0.00642443193004283,0.002827,-0.049518,0.013714,0.070684,-2.192187,315.567059,22.358752,0.999528,0.992871,0.003502,0.421361,0.000027,-0.000011,-0.000002,0.000027,-0.000011,-3.276569,0.000027,
2086,2653,-3.75347974684427,0.126377050558546,-0.0152625643831925,0.001638,-0.049466,0.007729,0.036672,-2.197094,321.042789,22.151111,0.999410,0.989456,0.003996,0.448948,0.000087,0.000039,0.000003,0.000087,0.000039,3.468426,0.000129,
2026,2443,-5.02669164554119,-4.45112341383452,-0.0214234730619296,-0.000236,-0.048280,-0.006157,-0.009078,-2.212962,324.676521,22.381844,0.999308,0.989638,0.004206,0.360477,0.000283,0.000023,0.000039,0.000289,0.000017,8.382297,0.000344,
2056,2548,-4.39013542525495,-2.16134576968818,-0.02203000759107,0.000545,-0.048479,0.001156,0.006220,-2.169380,322.814894,22.173027,0.999243,0.989394,0.004184,0.504702,0.000137,0.000054,0.000030,0.000147,0.000045,17.833364,0.000200,
2386,2713,2.7616152425475,1.44320559098645,-0.0158436348303894,0.002069,-0.050386,0.003291,0.062821,-2.256523,319.434743,22.071375,0.999581,0.991372,0.003659,0.467145,0.000063,0.000081,0.000009,0.000085,0.000059,68.302166,0.000145,
2191,3118,-1.54548993412142,10.2323371330295,0.0433316806211792,0.003438,-0.049571,0.012844,0.100152,-2.210005,313.600244,22.507869,0.999404,0.992746,0.003622,0.456379,0.000006,0.000005,-0.000009,0.000015,-0.000003,-43.280699,0.000016,
2011,2443,-5.35259398929533,-4.45224738198623,-0.0063441612202837,-0.000592,-0.048434,-0.000397,-0.041106,-2.161096,324.864823,22.427443,0.999174,0.989403,0.004276,0.405651,0.000295,-0.000001,0.000041,0.000300,-0.000006,7.709271,0.000343,
2476,3238,4.62044014331098,12.8606159608356,0.0216002039492196,0.004299,-0.050479,0.007861,0.146467,-2.246727,311.384866,24.047955,0.999704,0.993775,0.003225,0.458479,0.000028,-0.000001,0.000005,0.000029,-0.000002,9.112928,0.000032,
2356,2563,2.13601881632156,-1.82848036309131,-0.0160902716094142,0.000958,-0.050333,-0.000188,0.024676,-2.258114,321.819534,21.694763,0.999179,0.989399,0.004398,0.448441,0.000138,0.000088,0.000022,0.000147,0.000080,20.605624,0.000230,
2371,2638,2.44888632325885,-0.191439796972588,-0.0222543990157646,0.001983,-0.050374,0.001856,0.064326,-2.238890,320.593633,21.862316,0.999113,0.987862,0.004404,0.486970,0.000101,0.000056,0.000007,0.000102,0.000055,8.802160,0.000160,
2131,2848,-2.80721229049846,4.37163968350011,-0.0225601019896544,0.002248,-0.049002,0.004484,0.073250,-2.177685,317.643715,22.217648,0.999536,0.992737,0.003586,0.451131,0.000028,0.000014,0.000001,0.000028,0.000014,4.505985,0.000043,
2416,2878,3.38316843493183,5.0381336375418,-0.0135967197604145,0.002656,-0.049803,0.004690,0.084407,-2.220006,316.814304,22.647859,0.999462,0.990518,0.003811,0.451439,0.000013,0.000014,0.000009,0.000023,0.000004,46.608926,0.000029,
2236,2038,-0.385696611043077,-13.3258487584804,0.0122510599045427,-0.002270,-0.054949,-0.017119,-0.068661,-2.564589,330.559376,20.766502,0.998676,0.978278,0.005829,0.434565,0.000889,0.000929,-0.000003,0.000929,0.000889,-85.385065,0.001818,
2176,3043,-1.85914145177662,8.6070949316111,0.0230912501430112,0.003500,-0.048813,0.009027,0.115723,-2.190013,314.719170,22.529020,0.999670,0.995088,0.003248,0.339230,0.000015,-0.000009,-0.000009,0.000018,-0.000012,-18.407440,0.000018,
2041,2488,-4.70653513997173,-3.47110777062824,-0.012290006051046,0.000214,-0.048744,-0.002782,0.002079,-2.217240,323.947942,22.242061,0.999324,0.988416,0.004464,0.437567,0.000218,0.000045,0.000037,0.000226,0.000037,11.480179,0.000285,
2431,2983,3.69022211652147,7.31993477440993,0.00566691302395839,0.003029,-0.050595,0.011125,0.077061,-2.251422,315.274702,22.940494,0.999655,0.991261,0.003716,0.497304,0.000003,-0.000002,0.000023,0.000024,-0.000023,41.926905,0.000027,
2461,3163,4.31032177167959,11.2308600561969,0.0346622559194429,0.004102,-0.050526,0.008788,0.134191,-2.259886,312.680874,23.718358,0.999559,0.990571,0.003788,0.431827,0.000022,0.000003,0.000013,0.000028,-0.000004,26.398651,0.000030,
2266,2173,0.244673261509956,-10.3623967259336,0.00253462341981958,-0.001575,-0.053521,-0.006558,-0.070446,-2.422479,328.249746,20.925500,0.999442,0.983941,0.005121,0.476760,0.000633,0.000669,0.000020,0.000678,0.000624,66.104700,0.001302,
2251,2083,-0.0670335448037314,-12.3352224807801,0.00192869035100784,-0.001962,-0.054499,-0.009845,-0.077756,-2.504890,329.710783,20.912187,0.999068,0.981204,0.005484,0.329580,0.000813,0.000874,-0.000003,0.000874,0.000813,-87.389332,0.001688,
2101,2713,-3.43768477695977,1.4333849390647,-0.0191964413046435,0.001305,-0.049287,0.006876,0.023400,-2.198598,319.950343,22.147568,0.999294,0.989852,0.004045,0.448722,0.000060,0.000016,-0.000005,0.000061,0.000016,-6.539362,0.000081,
2341,2488,1.82426883908311,-3.46783083206336,-0.00780398323888676,0.001141,-0.050473,-0.002056,0.039709,-2.262424,323.120707,21.445013,0.999381,0.987647,0.004296,0.527614,0.000202,0.000132,0.000011,0.000203,0.000131,9.004790,0.000337,
2506,2083,5.51311428513473,-12.3448540939644,0.0189480496411534,0.003452,-0.053930,-0.018880,0.207013,-2.502016,330.322802,19.107377,0.999310,0.984854,0.004943,0.543806,0.001056,0.000962,-0.000160,0.001176,0.000842,-36.825227,0.002027,
2011,2458,-5.3542644884765,-4.12611997903511,-0.00549755464714963,-0.000248,-0.048192,-0.002664,-0.019111,-2.184421,324.652579,22.345897,0.999300,0.989677,0.004155,0.453047,0.000273,-0.000004,0.000031,0.000277,-0.000007,6.199783,0.000315,
2296,2293,0.878879422331089,-7.73109770362581,-0.00340311439475727,0.000122,-0.051214,-0.007260,0.010579,-2.329322,326.307023,21.229229,0.999256,0.986245,0.004740,0.365677,0.000414,0.000385,0.000001,0.000414,0.000385,1.737018,0.000799,
2446,3103,3.99508370491249,9.92680437870307,0.0314465133610611,0.003608,-0.050667,0.013255,0.095199,-2.244735,313.569666,23.408221,0.999678,0.993458,0.003494,0.486357,0.000008,0.000006,0.000021,0.000029,-0.000014,43.633412,0.000029,
2476,3253,4.61697494166099,13.1858118416965,0.0205335040794807,0.004318,-0.050738,0.012105,0.131007,-2.259164,311.114049,24.091362,0.999706,0.993374,0.003228,0.457887,0.000026,0.000005,0.000007,0.000029,0.000002,17.097972,0.000035,
2026,2458,-5.02969735328294,-4.12483235260709,-0.0272262802718046,-0.000321,-0.049133,-0.000444,-0.028965,-2.230211,324.367309,22.249075,0.999366,0.990082,0.004092,0.467810,0.000263,0.000020,0.000028,0.000267,0.000017,6.440397,0.000318,
2326,2413,1.51049478369787,-5.10792166653975,-0.00870924005567986,0.000297,-0.050849,-0.003288,0.005184,-2.319561,324.298204,21.222609,0.999395,0.987086,0.004731,0.547724,0.000270,0.000222,0.000003,0.000270,0.000222,4.090724,0.000492,
2311,2338,1.19694068639038,-6.74736574577533,-0.0051719333885103,0.000132,-0.052288,0.002490,-0.022503,-2.344387,325.520769,21.196588,0.999067,0.983504,0.004977,0.423558,0.000352,0.000296,-0.000003,0.000352,0.000296,-2.767193,0.000649,
2401,2818,3.06851816355859,3.73154065978736,-0.0168463168851076,0.002886,-0.049935,0.003547,0.099402,-2.219361,317.764358,22.419036,0.999442,0.989073,0.004330,0.475479,0.000024,0.000014,0.000010,0.000030,0.000008,31.798819,0.000040,
2071,2608,-4.07347041505254,-0.8519424837637,-0.0300562713233035,0.001152,-0.048837,0.003210,0.027911,-2.175601,321.716436,22.223864,0.999155,0.989506,0.004133,0.414386,0.000107,0.000054,0.000013,0.000110,0.000051,13.323124,0.000165,
2281,2233,0.562065352695321,-9.04593559630668,0.000406925522213442,-0.000862,-0.052167,-0.010546,-0.023969,-2.388125,327.289665,21.128753,0.998774,0.979769,0.005556,0.349129,0.000509,0.000526,0.000008,0.000529,0.000506,68.872106,0.001036,
2056,2563,-4.39201447572131,-1.83510831418367,-0.0153955909697743,0.000533,-0.048620,0.000757,0.006744,-2.179155,322.628516,22.174379,0.999223,0.988394,0.004335,0.488756,0.000128,0.000055,0.000012,0.000130,0.000053,9.385661,0.000188,
2086,2668,-3.75579095375107,0.45282309320686,-0.0169305523170351,0.001731,-0.049239,0.006687,0.044098,-2.178061,320.793331,22.103504,0.999358,0.989927,0.003984,0.514900,0.000073,0.000037,0.000001,0.000073,0.000037,0.878278,0.000111,
2161,2998,-2.17856613985407,7.62909649346551,0.0137548002427934,0.002787,-0.049256,0.012132,0.073826,-2.176658,315.386976,22.359427,0.999619,0.992948,0.003573,0.445655,0.000025,-0.000009,0.000001,0.000025,-0.000009,2.290200,0.000025,
2116,2788,-3.12333816016459,3.065264586915,-0.0159831612331232,0.001823,-0.049303,0.008021,0.043464,-2.185741,318.710246,22.140043,0.999551,0.992095,0.003624,0.487112,0.000032,0.000023,-0.000008,0.000037,0.000019,-30.112274,0.000056,
2386,2728,2.75850107850766,1.77005932070594,-0.0163779334770311,0.002000,-0.050584,0.004651,0.054705,-2.256659,319.177957,22.113242,0.999572,0.990613,0.003874,0.468794,0.000051,0.000074,0.000016,0.000082,0.000043,62.136315,0.000127,
2041,2503,-4.70970490200296,-3.14370137454764,-0.0150112106549614,-0.000259,-0.048728,0.001585,-0.031795,-2.187945,323.649270,22.208436,0.999371,0.989600,0.004185,0.494195,0.000205,0.000055,0.000034,0.000212,0.000048,12.165261,0.000277,
2461,3178,4.30742833731337,11.5566451758598,0.0360940132958376,0.004204,-0.050487,0.009920,0.134680,-2.253027,312.447052,23.791142,0.999634,0.991554,0.003676,0.419026,0.000020,0.000010,0.000008,0.000025,0.000005,29.310682,0.000032,
2206,3208,-1.23489629732554,12.1849402414643,0.0451979538106571,0.004192,-0.049543,0.013292,0.132926,-2.199081,312.131135,22.653624,0.999611,0.994330,0.003286,0.474553,-0.000010,0.000014,-0.000006,0.000016,-0.000012,-76.335349,0.000016,
2146,2908,-2.48939505561484,5.67387270063276,0.000305025626062161,0.002940,-0.049330,0.006095,0.099755,-2.198063,316.824337,22.230049,0.999282,0.988961,0.004213,0.468038,0.000025,0.000005,-0.000001,0.000025,0.000005,-2.181561,0.000032,
2506,2098,5.50867531872356,-12.0117594702811,0.0128163876143503,0.003277,-0.054424,-0.012040,0.172512,-2.497055,329.993002,19.440794,0.999444,0.986521,0.004847,0.280090,0.001011,0.000933,-0.000171,0.001147,0.000797,-38.555786,0.001954,
2236,2053,-0.388521354965167,-12.9948699390299,0.00852356229387397,-0.002174,-0.054604,-0.016381,-0.066528,-2.545359,330.288539,20.898675,0.998769,0.976434,0.005851,0.346487,0.000860,0.000911,0.000000,0.000911,0.000860,89.516142,0.001771,
2131,2863,-2.80891697117706,4.69640964748274,-0.0075334520429351,0.002259,-0.049124,0.008077,0.062930,-2.181462,317.515450,22.223447,0.999530,0.992069,0.003634,0.446459,0.000025,0.000012,-0.000002,0.000026,0.000012,-7.443641,0.000038,
2356,2578,2.13384926857902,-1.50169750296069,-0.0145288564169164,0.001404,-0.050350,-0.001515,0.049789,-2.261602,321.614441,21.704505,0.999115,0.987611,0.004532,0.474955,0.000130,0.000089,0.000023,0.000140,0.000079,24.018321,0.000221,
2416,2893,3.3809789913529,5.36407426644627,-0.0115680379131504,0.003211,-0.050181,0.004170,0.111625,-2.242785,316.613912,22.696084,0.999525,0.990321,0.003856,0.427666,0.000011,0.000010,0.000011,0.000021,-0.000001,44.099823,0.000024,
2341,2503,1.82046959423745,-3.13933759543389,-0.0156567135089176,0.000767,-0.050308,-0.001906,0.022061,-2.259319,322.793991,21.495339,0.999213,0.986807,0.004470,0.518678,0.000179,0.000122,0.000008,0.000181,0.000121,8.190184,0.000303,
2476,3268,4.6137338024022,13.511727236934,0.0197733472936648,0.004538,-0.050892,0.016355,0.124822,-2.267733,310.854629,24.202896,0.999846,0.995286,0.002841,0.392687,0.000024,-0.000008,0.000011,0.000027,-0.000011,16.619659,0.000027,
2011,2473,-5.35731023851028,-3.79841353502643,-0.0092757849867553,-0.000664,-0.048564,0.000634,-0.047293,-2.186307,324.351095,22.349755,0.998975,0.986803,0.004587,0.436620,0.000257,0.000000,0.000042,0.000264,-0.000007,9.042363,0.000301,
2026,2473,-5.0321474976912,-3.79736918071961,-0.0231840765106881,-0.000544,-0.049323,0.003420,-0.049881,-2.207623,324.137878,22.280179,0.998715,0.985180,0.004907,0.450612,0.000248,0.000023,0.000036,0.000253,0.000017,8.873637,0.000303,
2266,2188,0.243050146174376,-10.0321863278477,0.00307097096720099,-0.000830,-0.052576,-0.010143,-0.024109,-2.409964,328.057892,21.091315,0.999098,0.983164,0.005223,0.351427,0.000599,0.000636,0.000019,0.000644,0.000591,66.900544,0.001235,
2101,2728,-3.44041630681576,1.76086165622301,-0.028527384751726,0.001347,-0.048723,0.003365,0.035798,-2.179870,319.641110,22.152537,0.999331,0.989533,0.004069,0.464192,0.000050,0.000014,-0.000007,0.000052,0.000012,-10.538473,0.000068,
2191,3133,-1.54774988253315,10.5584974509672,0.0417249650326426,0.003809,-0.049326,0.011785,0.120742,-2.187294,313.361611,22.564568,0.999349,0.992872,0.003671,0.435862,0.000004,0.000009,-0.000010,0.000017,-0.000004,-53.181322,0.000018,
2176,3058,-1.86134891350473,8.93063757900681,0.0300304836688383,0.003441,-0.049180,0.009945,0.110094,-2.188960,314.527647,22.402642,0.999687,0.995018,0.003231,0.477972,0.000020,-0.000008,-0.000009,0.000023,-0.000011,-16.078925,0.000023,
2431,2998,3.68794432478841,7.64649839004375,0.00849153215369824,0.003391,-0.050627,0.009789,0.098644,-2.253081,315.074323,23.057744,0.999375,0.984993,0.004515,0.427725,0.000002,0.000007,0.000024,0.000029,-0.000020,47.733027,0.000029,
2296,2308,0.875595394371384,-7.40434830052281,-0.00550578018248871,0.000023,-0.051980,-0.002979,-0.008654,-2.337286,326.028900,21.115550,0.999164,0.985262,0.005015,0.503513,0.000388,0.000350,0.000007,0.000389,0.000349,10.577210,0.000739,
2251,2098,-0.0693856578144434,-12.0068767718445,0.00633674362694592,-0.002028,-0.054336,-0.010104,-0.079856,-2.496139,329.504258,20.922074,0.999016,0.979947,0.005790,0.354853,0.000782,0.000840,-0.000002,0.000840,0.000782,-88.445123,0.001623,
2371,2653,2.44540914796555,0.136096319046608,-0.0262522058754939,0.001774,-0.050272,0.002979,0.050742,-2.237821,320.302585,21.913724,0.999249,0.987438,0.004484,0.478224,0.000093,0.000060,0.000007,0.000095,0.000058,11.252011,0.000155,
2461,3193,4.3046180904321,11.8814641166103,0.0416875861422454,0.004254,-0.050574,0.013599,0.123117,-2.235792,312.236403,23.792509,0.999570,0.990981,0.003729,0.488105,0.000022,0.000008,0.000006,0.000024,0.000006,19.239116,0.000031,
2056,2578,-4.39395932450526,-1.50765215988484,-0.0221414577394512,0.001230,-0.048417,-0.000504,0.042438,-2.163701,322.365095,22.149139,0.998959,0.988401,0.004388,0.525233,0.000115,0.000056,0.000006,0.000116,0.000055,5.945366,0.000175,
2446,3118,3.99266446598669,10.2527405865198,0.0283530283385289,0.004128,-0.050524,0.009458,0.133362,-2.253286,313.336034,23.466863,0.999628,0.991820,0.003666,0.470580,0.000012,0.000009,0.000019,0.000029,-0.000008,42.928760,0.000030,
2071,2623,-4.07508761252498,-0.526578751647413,-0.028757516782548,0.001540,-0.048709,-0.000687,0.056933,-2.177524,321.514084,22.109650,0.999100,0.988835,0.004260,0.524109,0.000097,0.000037,0.000009,0.000099,0.000036,8.067698,0.000139,
2311,2353,1.19446518795647,-6.41787479618885,-0.00954870497434968,0.000350,-0.051172,-0.002708,0.005613,-2.309910,325.269084,21.284885,0.999244,0.985253,0.004701,0.404102,0.000332,0.000281,0.000002,0.000332,0.000280,2.236243,0.000613,
2041,2518,-4.71192879683339,-2.81656349915757,-0.0147920896717437,-0.000121,-0.048794,0.003335,-0.030323,-2.172863,323.410265,22.195928,0.999144,0.989876,0.004268,0.515061,0.000183,0.000055,0.000036,0.000192,0.000046,14.740621,0.000253,
2476,3283,4.61178519276091,13.8363437035192,0.0299539093223871,0.004524,-0.050595,0.013257,0.136210,-2.251169,310.705075,24.232671,0.999839,0.995769,0.002854,0.434629,0.000023,-0.000018,0.000012,0.000026,-0.000021,14.964310,0.000028,
2506,2113,5.50555063826273,-11.6834307574693,0.0103114519173459,0.003255,-0.053796,-0.014647,0.181858,-2.489821,329.739767,19.382451,0.999443,0.985996,0.004988,0.409822,0.000967,0.000886,-0.000176,0.001108,0.000746,-38.483146,0.001865,
2281,2248,0.559508147679409,-8.71829202594613,0.000598804085143456,-0.000683,-0.051988,-0.009616,-0.018778,-2.382999,327.054872,21.085481,0.998983,0.980926,0.005415,0.427777,0.000483,0.000471,0.000008,0.000487,0.000467,26.774960,0.000955,
2401,2833,3.06496426527223,4.05866775947208,-0.0194409456526046,0.002644,-0.049871,0.005845,0.079955,-2.225522,317.478270,22.508328,0.999277,0.988310,0.004315,0.425603,0.000015,0.000015,0.000009,0.000024,0.000006,45.702765,0.000032,
2131,2878,-2.81039593323213,5.02043505395843,0.00246149453857925,0.002531,-0.049148,0.007191,0.078000,-2.208760,317.370952,22.149461,0.999524,0.991451,0.003689,0.498593,0.000027,0.000021,-0.000003,0.000028,0.000020,-24.217120,0.000048,
2116,2803,-3.12503913742471,3.39132517086903,-0.00902280708424996,0.001945,-0.049002,0.005508,0.056523,-2.198751,318.537759,22.197501,0.999449,0.992394,0.003616,0.419886,0.000026,0.000017,-0.000005,0.000029,0.000015,-25.043525,0.000044,
2086,2683,-3.75847705241496,0.77998754118353,-0.0241497959640924,0.001592,-0.048733,0.002277,0.050561,-2.175311,320.496348,22.097061,0.999486,0.991485,0.003667,0.523847,0.000066,0.000029,-0.000002,0.000066,0.000029,-2.340002,0.000098,
2146,2923,-2.49162259670015,5.99969381975985,0.00338377464578343,0.002934,-0.049024,0.005006,0.102888,-2.188484,316.608914,22.245514,0.999009,0.986163,0.004599,0.469551,0.000026,-0.000002,0.000002,0.000026,-0.000002,4.498251,0.000029,
2161,3013,-2.1806569306134,7.95470612513371,0.0115899914914053,0.003230,-0.049105,0.009997,0.100786,-2.186026,315.151206,22.362141,0.999441,0.990598,0.003968,0.442785,0.000024,-0.000007,-0.000002,0.000024,-0.000007,-3.314441,0.000025,
2326,2428,1.50677088941988,-4.77716789172143,-0.0212443038681158,0.000579,-0.051125,0.000136,0.006219,-2.293639,323.950430,21.385402,0.999483,0.989510,0.004339,0.447224,0.000256,0.000189,0.000006,0.000257,0.000189,4.766804,0.000447,
2206,3223,-1.2388499430711,12.5116259232837,0.0337301741870419,0.003648,-0.049620,0.013129,0.108336,-2.202337,311.764298,22.752322,0.999801,0.995879,0.002913,0.387538,-0.000013,0.000016,-0.000012,0.000020,-0.000017,-70.741631,0.000022,
2026,2488,-5.03329408259504,-3.47114690751414,-0.0187268503900668,0.000004,-0.048492,-0.001043,-0.012185,-2.191347,323.970736,22.211936,0.999167,0.986364,0.004546,0.526306,0.000231,0.000031,0.000042,0.000239,0.000022,11.472039,0.000290,
2011,2488,-5.35952572222854,-3.47062272095807,-0.0187258862093813,-0.000172,-0.048276,-0.000422,-0.021747,-2.181774,324.055746,22.308300,0.999167,0.986998,0.004524,0.472374,0.000243,0.000010,0.000052,0.000254,-0.000001,12.119489,0.000293,
2356,2593,2.13094205934094,-1.17368114567468,-0.021448403894567,0.001691,-0.050427,-0.003892,0.071304,-2.282052,321.334409,21.775361,0.999076,0.987404,0.004565,0.423436,0.000123,0.000080,0.000023,0.000133,0.000070,23.499507,0.000206,
2236,2068,-0.390883014701512,-12.6662214667371,0.0166825743893924,-0.002315,-0.054335,-0.013447,-0.082358,-2.512961,330.099342,20.943246,0.998829,0.979194,0.005657,0.358372,0.000833,0.000893,0.000006,0.000894,0.000832,84.010454,0.001727,
2476,3298,4.60780600572385,14.1625087863661,0.0155491495366391,0.004636,-0.050284,0.011459,0.148299,-2.251778,310.349132,24.292784,0.999611,0.993085,0.003537,0.429313,0.000011,-0.000019,0.000005,0.000012,-0.000020,9.759119,0.000020,
2341,2518,1.81799691522547,-2.81120000140115,-0.0139303652558169,0.000983,-0.050234,-0.001848,0.031817,-2.263862,322.574574,21.612913,0.998905,0.983807,0.004818,0.434120,0.000165,0.000114,0.000010,0.000167,0.000112,10.819349,0.000281,
2386,2743,2.75575344807138,2.09688050020959,-0.0189078155456741,0.001826,-0.049949,-0.001936,0.070610,-2.258261,318.928490,22.142187,0.999633,0.991052,0.003833,0.481620,0.000047,0.000072,0.000020,0.000083,0.000036,61.280978,0.000122,
2461,3208,4.30157366090583,12.2074418484762,0.0389519259131816,0.004213,-0.050127,0.010661,0.132417,-2.240163,311.976271,23.877096,0.999477,0.989037,0.004056,0.452306,0.000024,0.000002,-0.000001,0.000024,0.000002,-3.063982,0.000029,
2416,2908,3.37778978930876,5.68968705306233,-0.00990283890115506,0.003130,-0.050521,0.007872,0.094187,-2.259532,316.365827,22.709649,0.999616,0.990791,0.003768,0.444724,0.000005,-0.000006,0.000013,0.000014,-0.000015,34.074939,0.000017,
2056,2593,-4.39697095267615,-1.17907985462881,-0.0280005377754264,0.001150,-0.048687,0.003676,0.026862,-2.171604,322.057497,22.262919,0.998665,0.987473,0.004491,0.398894,0.000112,0.000064,0.000012,0.000115,0.000061,12.928642,0.000179,
2041,2533,-4.71382742750943,-2.4889640839254,-0.0154756005937884,0.000304,-0.048851,0.003460,-0.011175,-2.174918,323.181087,22.239363,0.998977,0.988844,0.004290,0.463026,0.000157,0.000057,0.000038,0.000170,0.000045,18.624255,0.000227,
2371,2668,2.44255998618873,0.462681098893569,-0.024036296254792,0.001597,-0.050376,0.002700,0.043574,-2.253092,320.070275,21.950973,0.999427,0.988437,0.004367,0.467192,0.000085,0.000065,0.000005,0.000086,0.000063,13.760311,0.000150,
2251,2113,-0.0717299468406942,-11.6778599492616,0.00875831644844993,-0.001862,-0.053872,-0.009277,-0.074808,-2.471117,329.287889,20.960065,0.998732,0.979999,0.005729,0.368182,0.000751,0.000821,0.000001,0.000821,0.000751,89.422093,0.001573,
2101,2743,-3.44227146896293,2.08702536157704,-0.0220739241149204,0.001613,-0.048972,0.005409,0.042017,-2.181300,319.457816,22.188638,0.999399,0.989761,0.004018,0.427940,0.000043,0.000006,-0.000010,0.000046,0.000004,-14.082835,0.000055,
2506,2128,5.50205138417809,-11.3545177698038,0.0101343411815265,0.003348,-0.054434,-0.009348,0.165396,-2.473365,329.479544,19.399298,0.999459,0.984109,0.005214,0.474014,0.000932,0.000856,-0.000172,0.001070,0.000717,-38.762640,0.001799,
2491,1993,5.20384752405321,-14.323783228258,0.0176841892649122,0.004047,-0.057773,-0.016834,0.224234,-2.690397,331.737382,18.822443,0.998422,0.964535,0.007443,0.359667,0.001277,0.001006,-0.000122,0.001324,0.000959,-20.986460,0.002293,
2431,3013,3.68501058979731,7.97294509275159,0.00599369480477208,0.003253,-0.050207,0.005109,0.109826,-2.249330,314.818932,23.126888,0.999301,0.986323,0.004356,0.411542,0.000004,0.000007,0.000022,0.000028,-0.000017,47.113017,0.000028,
2176,3073,-1.86406696358074,9.25488726329251,0.0313013282294037,0.003188,-0.049275,0.009831,0.098738,-2.197328,314.282700,22.317335,0.999703,0.994990,0.003131,0.566223,0.000016,-0.000004,-0.000008,0.000019,-0.000006,-18.953721,0.000019,
2191,3148,-1.55049738031915,10.8841441086579,0.0393221196566742,0.003845,-0.049269,0.012160,0.121289,-2.180671,313.096597,22.589363,0.999091,0.991836,0.003939,0.431087,0.000001,0.000012,-0.000011,0.000019,-0.000006,-57.855709,0.000020,
2281,2263,0.555505406660114,-8.38634343830697,-0.0117770355190032,-0.000807,-0.051684,-0.006035,-0.036295,-2.351613,326.690545,21.286522,0.999384,0.986286,0.004813,0.288619,0.000456,0.000429,0.000004,0.000457,0.000428,8.477953,0.000886,
2446,3133,3.98933986904931,10.5791819031066,0.0265934944475248,0.004009,-0.050370,0.010232,0.125026,-2.255085,313.066610,23.578106,0.999550,0.988315,0.004153,0.408296,0.000018,0.000003,0.000010,0.000024,-0.000002,26.829831,0.000026,
2401,2848,3.06248592710685,4.3839700315574,-0.0111373489571065,0.002561,-0.049962,0.007566,0.069861,-2.223936,317.293442,22.508264,0.999424,0.990158,0.004022,0.472405,0.000010,0.000010,0.000008,0.000018,0.000002,45.167567,0.000022,
2026,2503,-5.03651103489207,-3.14139629478515,-0.0282759623132165,-0.000253,-0.048442,0.001231,-0.030212,-2.159303,323.629947,22.328163,0.999593,0.992445,0.003745,0.433743,0.000213,0.000046,0.000039,0.000222,0.000037,12.481231,0.000280,
2296,2323,0.872772813173444,-7.07566138710269,-0.00408975824251456,-0.000282,-0.051472,-0.004354,-0.017818,-2.329694,325.788878,21.203726,0.998960,0.983530,0.005301,0.454985,0.000365,0.000317,0.000004,0.000365,0.000317,4.419730,0.000683,
2131,2893,-2.81303903935741,5.3473975351095,-0.000736633694032207,0.002497,-0.048999,0.006071,0.079856,-2.202974,317.101564,22.219445,0.999379,0.990398,0.004042,0.439687,0.000025,0.000012,-0.000002,0.000026,0.000012,-6.612079,0.000038,
2071,2638,-4.07715067829508,-0.199510986229129,-0.0248408507889621,0.001470,-0.048493,-0.002327,0.058457,-2.176112,321.305171,22.174923,0.999003,0.987526,0.004443,0.457420,0.000088,0.000031,0.000011,0.000090,0.000029,10.335498,0.000125,
2311,2368,1.19185324446513,-6.09034526584376,-0.0113361646444901,0.000628,-0.051041,-0.002586,0.017977,-2.295969,325.024222,21.245133,0.999547,0.988117,0.004330,0.491763,0.000314,0.000261,0.000000,0.000314,0.000261,-0.093396,0.000575,
2146,2938,-2.49366168724181,6.32633447514581,0.00288897666746379,0.003403,-0.048842,0.004603,0.125745,-2.192853,316.382910,22.328730,0.999330,0.989517,0.004100,0.389152,0.000024,-0.000006,0.000001,0.000024,-0.000006,0.961615,0.000025,
2506,2143,5.49848782336247,-11.0241760862645,0.0100570449395718,0.002878,-0.053949,-0.009896,0.146290,-2.480027,329.216744,19.576275,0.998952,0.975735,0.006071,0.354333,0.000893,0.000819,-0.000159,0.001020,0.000692,-38.433013,0.001723,
2011,2503,-5.36227160937812,-3.14191140507176,-0.0261055389793796,-0.000336,-0.048416,-0.001691,-0.025869,-2.170045,323.747480,22.368952,0.999552,0.992127,0.003879,0.412541,0.000229,0.000025,0.000049,0.000240,0.000014,12.936906,0.000286,
2266,2203,0.240137865977669,-9.70330560817315,-0.00423818637500517,-0.000679,-0.052132,-0.011834,-0.011465,-2.420140,327.768023,21.081651,0.998538,0.981107,0.005588,0.379268,0.000573,0.000604,0.000019,0.000613,0.000564,64.454852,0.001178,
2116,2818,-3.12721619359336,3.71759006000167,-0.0136868404206894,0.002479,-0.049010,0.005102,0.082358,-2.195858,318.280869,22.172757,0.999415,0.991917,0.003760,0.451059,0.000027,0.000024,-0.000005,0.000031,0.000020,-36.370265,0.000051,
2326,2443,1.50476116658744,-4.45008211612257,-0.0145339296946645,0.000759,-0.050634,-0.000925,0.018334,-2.276332,323.775752,21.407800,0.999260,0.987791,0.004612,0.477472,0.000246,0.000170,0.000013,0.000248,0.000168,9.699335,0.000418,
2086,2698,-3.76135018174741,1.10696503001196,-0.0240911555549133,0.001223,-0.048740,0.004415,0.027370,-2.180432,320.230455,22.146469,0.999340,0.990678,0.003885,0.468594,0.000068,0.000012,-0.000004,0.000068,0.000011,-4.181579,0.000086,
2236,2083,-0.394613307887248,-12.3354647477555,0.0088636797748336,-0.002810,-0.054131,-0.012356,-0.108520,-2.488213,329.766284,21.015934,0.999139,0.981785,0.005418,0.335266,0.000807,0.000871,0.000007,0.000871,0.000806,84.042977,0.001678,
2056,2608,-4.39900437401348,-0.853744613162021,-0.0232965140515375,0.000992,-0.048595,0.001471,0.025808,-2.188076,321.853751,22.184904,0.998929,0.988644,0.004321,0.455777,0.000107,0.000052,0.000007,0.000108,0.000051,7.143122,0.000162,
2461,3223,4.29840706908659,12.5332750619687,0.0325113985977623,0.004386,-0.050153,0.008093,0.150057,-2.251915,311.693453,23.938680,0.999554,0.991336,0.003695,0.431978,0.000022,-0.000004,0.000002,0.000023,-0.000004,4.240337,0.000024,
2041,2548,-4.71655794216898,-2.16138659547161,-0.0255631689466327,0.000380,-0.048742,0.002152,-0.004026,-2.185878,322.861833,22.211247,0.999415,0.989697,0.003977,0.474014,0.000155,0.000055,0.000038,0.000168,0.000042,18.765620,0.000223,
2386,2758,2.75263811640907,2.42412204217742,-0.0238309904075322,0.002421,-0.050289,0.003470,0.078354,-2.268753,318.650607,22.204628,0.999379,0.988425,0.004157,0.452122,0.000046,0.000065,0.000020,0.000077,0.000033,58.031858,0.000113,
2491,2008,5.20011545596039,-13.9934591715337,0.0171716072306367,0.003400,-0.056969,-0.017531,0.197683,-2.652236,331.464172,18.897877,0.998812,0.970951,0.006671,0.385247,0.001250,0.000954,-0.000127,0.001297,0.000907,-20.341260,0.002215,
2206,3238,-1.24044060661889,12.8353393101099,0.0394603663746125,0.004176,-0.049611,0.011605,0.137519,-2.214488,311.596375,22.688352,0.999754,0.994982,0.003028,0.455079,-0.000017,0.000005,-0.000011,0.000010,-0.000021,-66.926380,0.000021,
2341,2533,1.81527825837245,-2.48412476214357,-0.0144249313207752,0.001216,-0.050535,-0.000497,0.037690,-2.279056,322.333304,21.628485,0.999009,0.985183,0.004757,0.441039,0.000154,0.000108,0.000007,0.000156,0.000107,8.714470,0.000264,
2356,2608,2.12812659569909,-0.847561409287003,-0.011178035557748,0.001497,-0.050808,0.003583,0.036022,-2.244580,321.141490,21.768078,0.999055,0.987095,0.004575,0.507470,0.000112,0.000066,0.000020,0.000120,0.000058,20.768135,0.000182,
2026,2518,-5.03845766222353,-2.81644498004448,-0.0228286107590066,-0.000171,-0.048757,0.003285,-0.032165,-2.164720,323.432209,22.183680,0.999655,0.993717,0.003472,0.563961,0.000187,0.000047,0.000038,0.000197,0.000037,14.079110,0.000251,
2161,3028,-2.18298034444629,8.279664356236,0.0166080558851149,0.003147,-0.049411,0.010645,0.094853,-2.200767,314.942907,22.362433,0.999363,0.989059,0.004357,0.437180,0.000023,-0.000007,-0.000006,0.000024,-0.000009,-10.928035,0.000024,
2416,2923,3.37509304005872,6.0164452908508,-0.00698922247727296,0.003050,-0.050333,0.006628,0.095160,-2.256943,316.145848,22.822194,0.999721,0.991613,0.003644,0.381991,0.000004,-0.000009,0.000009,0.000008,-0.000014,27.334118,0.000014,
2431,3028,3.68233102057772,8.29863998789756,0.0116604919334122,0.003220,-0.050257,0.006740,0.102245,-2.242759,314.613382,23.182686,0.999302,0.987393,0.004347,0.411374,0.000004,0.000011,0.000019,0.000026,-0.000012,49.719316,0.000027,
2401,2863,3.0598037399275,4.71069240671,-0.012081673654734,0.002884,-0.050095,0.007636,0.084394,-2.229033,317.055200,22.580060,0.999436,0.990093,0.003927,0.440796,0.000008,0.000013,0.000006,0.000017,0.000004,57.096671,0.000022,
2311,2383,1.18994751577959,-5.76271138982199,-0.00656162358080792,0.000715,-0.050551,-0.007953,0.040438,-2.308960,324.843992,21.310291,0.999224,0.986015,0.004858,0.447164,0.000298,0.000240,-0.000001,0.000298,0.000240,-1.291316,0.000539,
2101,2758,-3.44376831305518,2.41209831861749,-0.0164810694748212,0.002004,-0.048985,0.002984,0.067139,-2.177562,319.286620,22.116225,0.999469,0.989683,0.003934,0.505268,0.000044,0.000002,-0.000015,0.000048,-0.000003,-17.859130,0.000054,
2176,3088,-1.86669678277758,9.58195275176828,0.0261595588338537,0.003608,-0.049624,0.011796,0.111916,-2.205033,314.007144,22.453562,0.999545,0.992912,0.003474,0.433638,0.000016,-0.000004,-0.000011,0.000021,-0.000009,-24.206352,0.000021,
2491,2023,5.19751797300397,-13.663581807143,0.025453132628968,0.003192,-0.056171,-0.017719,0.189253,-2.602914,331.282232,19.026456,0.999002,0.970553,0.006513,0.368285,0.001229,0.000978,-0.000151,0.001299,0.000907,-25.106417,0.002218,
2506,2158,5.49511807912135,-10.6947893695689,0.0107261539294541,0.002395,-0.053164,-0.012009,0.132698,-2.449748,328.965943,19.642420,0.999151,0.977635,0.005668,0.382532,0.000859,0.000751,-0.000185,0.000997,0.000613,-36.829416,0.001625,
2131,2908,-2.81462111194462,5.67258013511498,0.00197767113837699,0.003114,-0.048908,0.004655,0.112590,-2.193553,316.913010,22.169409,0.999293,0.988458,0.004301,0.504265,0.000025,0.000001,-0.000002,0.000025,0.000001,-4.621096,0.000029,
2446,3148,3.98675516738466,10.9046861546615,0.0290783906337992,0.003914,-0.049922,0.006533,0.134724,-2.236768,312.851109,23.612729,0.999572,0.990472,0.003788,0.443231,0.000019,-0.000006,0.000010,0.000022,-0.000010,19.815326,0.000023,
2146,2953,-2.4968898363295,6.65176697894689,0.00229319031643627,0.002928,-0.048872,0.007823,0.094076,-2.178451,316.102163,22.285926,0.999576,0.991161,0.003717,0.453699,0.000025,-0.000009,-0.000001,0.000025,-0.000009,-2.191234,0.000026,
2251,2128,-0.0741557834055051,-11.3494549052467,0.00827164190224039,-0.001538,-0.054106,-0.008018,-0.064185,-2.476918,329.053353,20.946599,0.998135,0.979116,0.005893,0.401974,0.000726,0.000800,0.000004,0.000800,0.000726,87.208496,0.001526,
2371,2683,2.43904405196065,0.790988707031879,-0.0344509480831903,0.001929,-0.050386,0.004807,0.051349,-2.244331,319.746435,22.022473,0.999421,0.988900,0.004128,0.446016,0.000079,0.000072,0.000007,0.000084,0.000068,31.897840,0.000152,
2281,2278,0.553644665669211,-8.05977059264602,-0.0102771756097582,-0.000285,-0.051356,-0.008563,-0.003819,-2.326313,326.494153,21.149609,0.999550,0.987830,0.004615,0.480780,0.000436,0.000405,0.000004,0.000436,0.000405,6.831110,0.000841,
2461,3238,4.29548886734579,12.8589909620492,0.0346354961853308,0.004436,-0.050194,0.009585,0.146845,-2.232382,311.461368,24.011383,0.999777,0.993853,0.003195,0.431870,0.000024,-0.000004,0.000002,0.000024,-0.000005,4.533993,0.000025,
2011,2518,-5.36413012494073,-2.81668131344802,-0.0188449359658307,-0.000313,-0.048403,0.000078,-0.029631,-2.155168,323.562791,22.245619,0.999629,0.992900,0.003657,0.539724,0.000202,0.000033,0.000046,0.000214,0.000021,14.297254,0.000260,
2071,2653,-4.0800384740447,0.126969020042438,-0.0273117713709894,0.001408,-0.049131,0.002995,0.040213,-2.187841,321.023759,22.150066,0.999180,0.989020,0.004219,0.467848,0.000080,0.000037,0.000006,0.000081,0.000036,7.774810,0.000119,
2296,2338,0.86990295363255,-6.74681901177605,-0.00811635491260176,-0.000051,-0.051367,-0.003318,-0.010703,-2.325603,325.519738,21.260876,0.999124,0.985043,0.004897,0.433775,0.000345,0.000299,-0.000002,0.000345,0.000299,-3.059140,0.000645,
2236,2098,-0.396455704762094,-12.0065855551812,0.0076681281007609,-0.002210,-0.053311,-0.015617,-0.070209,-2.460794,329.553336,20.993583,0.998892,0.980475,0.005676,0.409358,0.000777,0.000842,0.000010,0.000843,0.000775,81.740819,0.001619,
2491,2038,5.19440026240978,-13.3344503114088,0.0243575282288475,0.003161,-0.055565,-0.018849,0.192472,-2.603921,331.034678,19.036255,0.998904,0.971026,0.006652,0.419866,0.001185,0.000993,-0.000135,0.001255,0.000923,-27.306907,0.002186,
2056,2623,-4.40074206298639,-0.52685733703219,-0.0239632043417828,0.001360,-0.048175,-0.002491,0.054038,-2.182946,321.633490,22.185707,0.999136,0.990215,0.004079,0.455285,0.000096,0.000031,0.000004,0.000096,0.000030,3.538366,0.000132,
2041,2563,-4.71802269605882,-1.83470451027664,-0.0226938970381525,0.000799,-0.048406,-0.001389,0.025206,-2.173173,322.672405,22.197628,0.999411,0.989758,0.003968,0.493282,0.000144,0.000059,0.000020,0.000149,0.000055,12.539738,0.000210,
2386,2773,2.74961943449916,2.75038919389461,-0.017440211732378,0.002187,-0.050506,0.008456,0.049620,-2.261945,318.431028,22.254145,0.999368,0.988615,0.004147,0.452723,0.000043,0.000048,0.000015,0.000061,0.000030,50.318672,0.000093,
2206,3253,-1.24300614655577,13.1601245313158,0.0377083658122501,0.004386,-0.049559,0.012020,0.145867,-2.216114,311.344406,22.673910,0.999775,0.995298,0.002919,0.483183,-0.000020,0.000006,-0.000007,0.000008,-0.000021,-75.952566,0.000022,
2191,3163,-1.55379002051246,11.2100866204075,0.0273530912449473,0.003855,-0.049495,0.010502,0.126754,-2.216161,312.756510,22.630154,0.999600,0.994952,0.003219,0.368005,0.000000,0.000017,-0.000010,0.000022,-0.000005,-64.534327,0.000023,
2161,3043,-2.18433056263048,8.60461507302841,0.029956217798258,0.003465,-0.049431,0.011056,0.108309,-2.187585,314.823259,22.392188,0.999513,0.992936,0.003616,0.429697,0.000018,-0.000012,-0.000011,0.000022,-0.000015,-18.172908,0.000022,
2506,2173,5.49277253849109,-10.3660048728828,0.0118658180813895,0.003037,-0.052754,-0.012427,0.163855,-2.419334,328.764182,19.663468,0.998658,0.976666,0.005919,0.455724,0.000812,0.000731,-0.000184,0.000960,0.000583,-38.822249,0.001558,
2116,2833,-3.13012939593314,4.04450413780198,-0.0178639221070398,0.002372,-0.049240,0.006564,0.073001,-2.208849,317.992668,22.232275,0.999580,0.992298,0.003727,0.381700,0.000027,0.000013,-0.000002,0.000027,0.000013,-8.547966,0.000041,
2086,2713,-3.76314980472109,1.43259135636598,-0.0198495169250918,0.001675,-0.049156,0.006764,0.041255,-2.196826,320.036924,22.121485,0.999340,0.990112,0.003960,0.476475,0.000065,0.000011,-0.000005,0.000065,0.000010,-4.907925,0.000082,
2491,2053,5.18936577499776,-13.0005887956066,-0.000790803078814406,0.003213,-0.055043,-0.020662,0.202026,-2.603907,330.591127,19.213502,0.998960,0.976902,0.006012,0.306087,0.001146,0.000996,-0.000143,0.001233,0.000910,-31.190800,0.002151,
2356,2623,2.12484075231943,-0.519424427760192,-0.0175260843159322,0.001301,-0.050293,0.000433,0.038276,-2.243244,320.846610,21.843365,0.998902,0.987763,0.004540,0.473017,0.000100,0.000055,0.000015,0.000105,0.000051,16.529819,0.000159,
2461,3253,4.29160242250091,13.1843137929495,0.0295016582430776,0.004249,-0.050402,0.012703,0.126356,-2.238770,311.151350,24.036689,0.999756,0.994014,0.003106,0.452990,0.000024,-0.000001,0.000006,0.000026,-0.000003,11.746013,0.000028,
2416,2938,3.37230190233972,6.34193436035387,-0.00362247813313843,0.003027,-0.050334,0.007791,0.089874,-2.243882,315.923914,22.814493,0.999648,0.991198,0.003819,0.449734,0.000004,-0.000008,0.000008,0.000008,-0.000012,27.945955,0.000012,
2011,2533,-5.3655123902721,-2.489676433596,-0.0183234289157213,0.000363,-0.048527,-0.002091,0.007314,-2.177748,323.361778,22.265370,0.999209,0.987589,0.004502,0.486198,0.000177,0.000038,0.000048,0.000192,0.000023,17.226201,0.000236,
2431,3043,3.67923244530377,8.62437851826508,0.0123574353582967,0.003359,-0.050450,0.010720,0.093857,-2.237976,314.365328,23.214929,0.999423,0.989004,0.004106,0.433202,-0.000001,0.000018,0.000023,0.000034,-0.000016,56.135925,0.000034,
2281,2293,0.551294784005432,-7.73159459024561,-0.00857740291553455,0.000079,-0.051647,-0.006597,0.006217,-2.338116,326.276236,21.203265,0.999310,0.985544,0.004924,0.445120,0.000409,0.000386,0.000009,0.000412,0.000383,19.681706,0.000795,
2446,3163,3.9842512364717,11.2301120308411,0.0327361658369796,0.004072,-0.050142,0.006083,0.143610,-2.243117,312.644716,23.675363,0.999583,0.991097,0.003858,0.425271,0.000020,0.000003,0.000009,0.000024,-0.000001,24.064190,0.000028,
2326,2458,1.50166833212385,-4.12171247930095,-0.0204658615525091,0.000747,-0.050424,-0.002933,0.024796,-2.269823,323.489505,21.445095,0.999302,0.987661,0.004528,0.482734,0.000232,0.000155,0.000019,0.000237,0.000151,13.299505,0.000391,
2026,2533,-5.0398698165203,-2.48893468222206,-0.0224063514447153,0.000445,-0.048778,0.000042,0.005016,-2.187434,323.230309,22.249553,0.999245,0.989380,0.004190,0.466658,0.000165,0.000048,0.000040,0.000177,0.000036,17.139074,0.000228,
2341,2548,1.81264148572518,-2.15695034351359,-0.012882485286525,0.001309,-0.050456,-0.000020,0.040331,-2.267576,322.105507,21.649474,0.998717,0.983413,0.005058,0.469118,0.000146,0.000098,0.000014,0.000149,0.000094,15.053995,0.000246,
2131,2923,-2.8172547599889,5.99896583586561,0.000577046162106853,0.003050,-0.048976,0.004690,0.109527,-2.190930,316.653843,22.211374,0.999201,0.988770,0.004276,0.470307,0.000026,-0.000005,0.000002,0.000026,-0.000005,2.830485,0.000028,
2146,2968,-2.49906766081428,6.97697063579162,0.00569180127592972,0.003061,-0.049304,0.008324,0.098542,-2.198480,315.890960,22.288134,0.999653,0.993026,0.003376,0.438547,0.000026,-0.000009,-0.000004,0.000027,-0.000009,-5.772888,0.000027,
2266,2218,0.237524527645522,-9.37516245625748,0.002666441196709,-0.000927,-0.052154,-0.008991,-0.032204,-2.391037,327.562891,21.119675,0.998549,0.979540,0.005680,0.398222,0.000543,0.000570,0.000019,0.000580,0.000534,62.625303,0.001114,
2401,2878,3.05625879353212,5.03773144801948,-0.0179201946175453,0.002648,-0.050025,0.006643,0.077267,-2.207845,316.753981,22.623366,0.999447,0.991592,0.003676,0.463851,0.000004,0.000014,0.000008,0.000019,0.000000,61.879447,0.000021,
2236,2113,-0.39919048981961,-11.6795738966539,0.0131453573833369,-0.002325,-0.054058,-0.009677,-0.094918,-2.481422,329.333915,20.927322,0.998933,0.980740,0.005629,0.479206,0.000746,0.000822,0.000011,0.000824,0.000744,81.683024,0.001568,
2311,2398,1.18877125183645,-5.43756732226901,0.0142118652296972,0.000862,-0.050667,-0.006148,0.040995,-2.304118,324.776081,21.287306,0.999122,0.986914,0.004963,0.508280,0.000280,0.000231,-0.000001,0.000280,0.000231,-1.023919,0.000512,
2071,2668,-4.08263732892197,0.453580611989992,-0.0249363612956017,0.001220,-0.049055,0.006486,0.021590,-2.176256,320.782003,22.159273,0.999121,0.988668,0.004301,0.467600,0.000064,0.000034,0.000004,0.000065,0.000034,6.647400,0.000100,
2371,2698,2.43660522338652,1.1169091247713,-0.0285745688759675,0.001789,-0.050101,0.003431,0.049889,-2.240690,319.550465,22.019206,0.999384,0.990097,0.003840,0.494267,0.000073,0.000085,0.000008,0.000089,0.000069,62.797431,0.000158,
2176,3103,-1.86899806624141,9.90681403323265,0.0296187070135261,0.003499,-0.049409,0.009774,0.113210,-2.207750,313.792580,22.440694,0.999531,0.993512,0.003358,0.455012,0.000010,0.000000,-0.000013,0.000019,-0.000009,-33.619649,0.000019,
2206,3268,-1.2464806787088,13.4861909786112,0.0223400877735571,0.004463,-0.049435,0.009983,0.155995,-2.208432,310.979481,22.697210,0.999514,0.993053,0.003389,0.482939,-0.000021,0.000007,-0.000013,0.000012,-0.000026,-67.985455,0.000026,
2116,2848,-3.13243890752095,4.37009878592828,-0.0140982967766377,0.002309,-0.048874,0.007379,0.067901,-2.160142,317.775141,22.173457,0.999631,0.992870,0.003516,0.492512,0.000020,0.000012,-0.000002,0.000020,0.000012,-12.405096,0.000032,
2056,2638,-4.40360787312467,-0.199979231403297,-0.0269326425676013,0.001076,-0.048546,-0.001095,0.036913,-2.191229,321.348966,22.184491,0.999117,0.989416,0.004222,0.443618,0.000086,0.000025,0.000008,0.000087,0.000024,7.403652,0.000117,
2491,2068,5.18550464188594,-12.6708207403337,8.98647332405744E-05,0.003026,-0.055342,-0.012977,0.163998,-2.556295,330.317852,19.267925,0.999242,0.979273,0.005751,0.362040,0.001106,0.000990,-0.000144,0.001203,0.000893,-34.070551,0.002104,
2041,2578,-4.72010473878938,-1.50777791803367,-0.0290322950817199,0.001377,-0.048574,-0.001409,0.051820,-2.181662,322.403765,22.151508,0.999055,0.989199,0.004215,0.524397,0.000131,0.000059,0.000011,0.000133,0.000058,8.189795,0.000195,
2251,2143,-0.0765226573075637,-11.0192293170951,0.00317800751452069,-0.001241,-0.053005,-0.012642,-0.035087,-2.445319,328.797829,21.017751,0.998587,0.981057,0.005511,0.388956,0.000695,0.000739,0.000012,0.000742,0.000691,75.652015,0.001433,
2446,3178,3.98101893147866,11.5557600598171,0.0334201764661088,0.004010,-0.050462,0.008881,0.130133,-2.259857,312.390861,23.754663,0.999636,0.991507,0.003664,0.379958,0.000021,0.000010,0.000004,0.000022,0.000009,15.999088,0.000032,
2506,2188,5.48839359794377,-10.0363941719538,0.00704128832632023,0.002329,-0.053401,-0.010924,0.125394,-2.432700,328.442654,19.746351,0.998486,0.975244,0.006236,0.423638,0.000783,0.000713,-0.000177,0.000928,0.000567,-39.404516,0.001510,
2101,2773,-3.44671835241495,2.73978290323938,-0.0243936759760572,0.002069,-0.048788,0.004537,0.065593,-2.172908,318.975001,22.180682,0.999541,0.990838,0.003856,0.447039,0.000041,0.000010,-0.000012,0.000045,0.000006,-18.124188,0.000056,
2026,2548,-5.04176242222363,-2.16198340266676,-0.0194105074534718,0.000548,-0.048385,-0.001102,0.013027,-2.181224,323.020855,22.263123,0.999485,0.990109,0.003834,0.450351,0.000166,0.000053,0.000044,0.000181,0.000037,18.991996,0.000234,
2386,2788,2.74650685192455,3.07799027371284,-0.0214314298642648,0.002220,-0.050433,0.007589,0.054336,-2.249857,318.157423,22.343878,0.999644,0.991529,0.003779,0.418510,0.000038,0.000041,0.000013,0.000052,0.000027,48.911560,0.000080,
2086,2728,-3.76514195357115,1.75957356383105,-0.0247820746251932,0.002027,-0.048795,0.001325,0.073276,-2.198092,319.784228,22.135980,0.999273,0.989624,0.004078,0.460048,0.000053,0.000008,-0.000008,0.000054,0.000007,-9.362966,0.000067,
2431,3058,3.6762326165614,8.9507768430172,0.0125980321104748,0.003235,-0.050334,0.009743,0.091866,-2.230595,314.119426,23.306361,0.999615,0.990659,0.003907,0.398110,-0.000004,0.000008,0.000026,0.000029,-0.000025,51.265328,0.000031,
2011,2548,-5.3676547585218,-2.16319414675051,-0.0169754599845078,0.000566,-0.048679,0.001435,0.007051,-2.181670,323.130752,22.230895,0.999399,0.988443,0.004115,0.505853,0.000178,0.000051,0.000056,0.000200,0.000030,20.767552,0.000250,
2161,3058,-2.18593363588598,8.92845517260271,0.0433637105697358,0.003489,-0.049260,0.010936,0.109724,-2.201377,314.692744,22.349190,0.999592,0.994774,0.003435,0.467898,0.000022,-0.000010,-0.000012,0.000026,-0.000014,-18.673335,0.000026,
2146,2983,-2.50139016488396,7.30253625067191,0.00578721863956844,0.003279,-0.049130,0.008983,0.106674,-2.185765,315.655399,22.272052,0.999684,0.994254,0.003193,0.474880,0.000021,-0.000012,-0.000005,0.000022,-0.000013,-9.262869,0.000022,
2491,2083,5.18278649008186,-12.3424199215534,0.00249826231987527,0.002782,-0.054698,-0.017865,0.171797,-2.558016,330.104091,19.268910,0.999216,0.978460,0.005698,0.421014,0.001065,0.000982,-0.000140,0.001170,0.000877,-36.790787,0.002054,
2206,3283,-1.24917524689484,13.8117523807639,0.0199426407602346,0.004589,-0.049458,0.010341,0.160702,-2.203098,310.717870,22.752788,0.999330,0.991880,0.003571,0.447850,-0.000028,0.000011,-0.000014,0.000015,-0.000032,-71.955367,0.000032,
2326,2473,1.49983190882414,-3.79538482276433,-0.0122907228098939,0.000939,-0.050439,-0.004681,0.039597,-2.290331,323.330123,21.458128,0.999338,0.987506,0.004393,0.484672,0.000219,0.000143,0.000016,0.000223,0.000139,11.557661,0.000365,
2461,3268,4.28683341883806,13.5105470259437,0.0108986236923556,0.004207,-0.050630,0.014810,0.116373,-2.252020,310.738339,24.083064,0.999762,0.994487,0.002966,0.446245,0.000025,-0.000012,0.000009,0.000027,-0.000014,13.068094,0.000027,
2401,2893,3.05423308613726,5.36295859701085,-0.00913722674573592,0.002827,-0.050144,0.006430,0.086230,-2.217840,316.592110,22.642465,0.999517,0.991179,0.003755,0.479882,0.000003,0.000010,0.000009,0.000016,-0.000004,55.415152,0.000017,
2296,2353,0.868115122475828,-6.41972023665359,0.00317084251980759,0.000116,-0.051046,-0.002356,-0.006174,-2.303909,325.376048,21.296355,0.999474,0.988023,0.004365,0.451413,0.000322,0.000283,0.000001,0.000322,0.000282,1.587718,0.000605,
2191,3178,-1.55559038836831,11.5345553463512,0.0335136024853,0.004228,-0.049273,0.010520,0.144046,-2.191381,312.580079,22.588198,0.999796,0.996434,0.002932,0.448305,-0.000004,0.000017,-0.000009,0.000021,-0.000007,-69.813042,0.000021,
2266,2233,0.234707709436506,-9.04639615804873,-0.000598936139510897,-0.000823,-0.052148,-0.008698,-0.028447,-2.383997,327.297500,21.135747,0.998644,0.978330,0.005657,0.417446,0.000505,0.000530,0.000012,0.000535,0.000500,68.458709,0.001035,
2341,2563,1.80951250867929,-1.82888615218839,-0.0146679499015931,0.001202,-0.050504,0.000882,0.032303,-2.253680,321.838752,21.724944,0.998858,0.985516,0.004796,0.444931,0.000130,0.000095,0.000023,0.000142,0.000084,26.356420,0.000228,
2131,2938,-2.81910618170145,6.32503293922828,0.010302533937022,0.003224,-0.048887,0.007514,0.109078,-2.183522,316.490137,22.302199,0.999557,0.991995,0.003783,0.391721,0.000024,-0.000008,-0.000001,0.000024,-0.000008,-1.971945,0.000024,
2056,2653,-4.40628132549879,0.12644264095443,-0.0335644425819055,0.001169,-0.048919,-0.000352,0.038947,-2.216046,321.053258,22.132220,0.999188,0.990429,0.004138,0.466152,0.000075,0.000031,0.000002,0.000076,0.000031,3.137179,0.000110,
2236,2128,-0.401537471795518,-11.3478970771679,0.00797426476907503,-0.001834,-0.053038,-0.011661,-0.065667,-2.443414,329.077240,21.117265,0.998526,0.980057,0.005653,0.351318,0.000720,0.000794,0.000013,0.000796,0.000718,80.226675,0.001514,
2356,2638,2.12243326661282,-0.192682272235437,-0.012292567289478,0.001335,-0.050358,0.000489,0.039607,-2.262800,320.648113,21.915044,0.999160,0.987526,0.004482,0.421142,0.000091,0.000058,0.000011,0.000095,0.000054,16.715336,0.000151,
2281,2308,0.549402636694886,-7.40375628756374,-0.00399389926303684,0.000348,-0.051322,-0.009274,0.027555,-2.334602,326.093590,21.244409,0.999137,0.983810,0.005256,0.437101,0.000382,0.000354,0.000014,0.000388,0.000348,22.672202,0.000736,
2116,2863,-3.13420080476206,4.69549977096958,-0.00524961544027747,0.002602,-0.049049,0.010246,0.072784,-2.168131,317.610244,22.194716,0.999635,0.992268,0.003577,0.466155,0.000017,0.000010,-0.000005,0.000019,0.000008,-25.275769,0.000028,
2041,2593,-4.72228229694301,-1.18046649236613,-0.0257962170553014,0.001231,-0.048469,-0.002287,0.047573,-2.178272,322.183648,22.217386,0.998799,0.988932,0.004323,0.454977,0.000124,0.000069,0.000015,0.000128,0.000065,14.378995,0.000197,
2311,2413,1.18468790094617,-5.10746343667319,-0.00355541047684937,0.000773,-0.050199,-0.007409,0.041391,-2.290088,324.384745,21.345054,0.999331,0.987624,0.004659,0.498915,0.000259,0.000216,0.000001,0.000259,0.000216,1.942346,0.000476,
2071,2683,-4.08446525286346,0.779763177194496,-0.0249896396101121,0.001433,-0.048870,0.001618,0.045367,-2.182011,320.562440,22.130509,0.999347,0.990497,0.003936,0.487898,0.000058,0.000025,0.000002,0.000058,0.000025,3.626243,0.000085,
2026,2563,-5.04388571035705,-1.83543685277339,-0.01803510346042,0.000575,-0.048520,-0.001337,0.014896,-2.172896,322.791953,22.227653,0.999468,0.989758,0.003949,0.485349,0.000152,0.000063,0.000022,0.000157,0.000058,13.198235,0.000223,
2491,2098,5.18117121192488,-12.0147062375798,0.0233175733392272,0.002564,-0.054384,-0.017204,0.159502,-2.557034,330.023385,19.411534,0.999515,0.984240,0.005045,0.340561,0.001019,0.000944,-0.000149,0.001135,0.000828,-37.896552,0.001972,
2371,2713,2.43398662771439,1.44430753590408,-0.0286573704629518,0.001972,-0.049983,0.002446,0.061851,-2.237976,319.317349,22.107974,0.999490,0.990763,0.003778,0.449696,0.000063,0.000082,0.000010,0.000086,0.000059,67.496839,0.000146,
2446,3193,3.978529223822,11.8805309228335,0.0416074669129216,0.004061,-0.050560,0.011507,0.122664,-2.249167,312.206140,23.773366,0.999653,0.991527,0.003611,0.422845,0.000023,0.000008,0.000000,0.000023,0.000008,0.863595,0.000032,
2461,3283,4.2837502898229,13.8358112316862,0.00751066025065938,0.004493,-0.050758,0.015672,0.126213,-2.259998,310.473198,24.123793,0.999555,0.991608,0.003625,0.450541,0.000034,-0.000019,0.000010,0.000036,-0.000021,10.744401,0.000036,
2176,3118,-1.87114951451306,10.2317676408483,0.0351863891239645,0.003488,-0.049326,0.009063,0.114970,-2.201395,313.595926,22.443848,0.999450,0.993150,0.003521,0.469376,0.000004,0.000004,-0.000014,0.000018,-0.000010,-44.701736,0.000018,
2416,2953,3.3691043069795,6.66879851021741,-0.00804211529299437,0.003139,-0.050517,0.007841,0.094835,-2.236956,315.646350,22.888804,0.999632,0.991521,0.003929,0.429883,0.000003,-0.000015,0.000012,0.000009,-0.000021,26.578652,0.000021,
2506,2203,5.48545303266962,-9.70767411683096,0.0130863499545057,0.002266,-0.052736,-0.007704,0.110407,-2.380668,328.235161,19.802229,0.998878,0.973321,0.006257,0.483384,0.000747,0.000650,-0.000170,0.000875,0.000522,-37.064875,0.001411,
2431,3073,3.67360751285758,9.27563790548006,0.0108184324168406,0.003585,-0.050268,0.008058,0.114230,-2.236529,313.881775,23.260324,0.999678,0.992079,0.003621,0.487361,-0.000004,0.000014,0.000024,0.000030,-0.000020,54.946946,0.000031,
2086,2743,-3.76704366598203,2.08548213944645,-0.0190048929862314,0.002243,-0.048914,0.003014,0.078317,-2.195368,319.594271,22.138570,0.999375,0.990030,0.004019,0.459295,0.000043,0.000001,-0.000011,0.000046,-0.000002,-13.691888,0.000052,
2206,3298,-1.25206260098268,14.1363728184433,0.0142135023477294,0.004863,-0.049676,0.012286,0.166987,-2.220440,310.430439,22.730284,0.999335,0.992668,0.003404,0.468161,-0.000036,0.000029,-0.000021,0.000035,-0.000042,-73.406599,0.000045,
2146,2998,-2.50321467291436,7.62747277618869,0.0175105433287968,0.003068,-0.048799,0.007247,0.102387,-2.161093,315.504685,22.269135,0.999610,0.992964,0.003494,0.509577,0.000019,-0.000011,-0.000002,0.000019,-0.000011,-3.429178,0.000019,
2011,2563,-5.36981520752481,-1.83569378336429,-0.0199963283965872,0.000612,-0.048342,-0.001872,0.018182,-2.180328,322.874126,22.250471,0.999272,0.987924,0.004269,0.476599,0.000157,0.000065,0.000027,0.000164,0.000057,15.070657,0.000230,
2101,2788,-3.44863409283012,3.06500524839481,-0.0150056915840651,0.002176,-0.048855,0.007958,0.060513,-2.168689,318.805114,22.159281,0.999523,0.990980,0.003898,0.473771,0.000034,0.000016,-0.000010,0.000038,0.000012,-23.784703,0.000052,
2251,2158,-0.0788376401490929,-10.6906095227534,0.00469244239576483,-0.001381,-0.052253,-0.017403,-0.025698,-2.435991,328.578285,21.041325,0.998415,0.980213,0.005480,0.400627,0.000659,0.000705,0.000022,0.000714,0.000650,67.946027,0.001364,
2161,3073,-2.18891351509519,9.25412403418497,0.0382497282154191,0.003336,-0.049328,0.010123,0.105166,-2.200015,314.400532,22.342534,0.999605,0.994200,0.003335,0.485110,0.000017,-0.000005,-0.000011,0.000022,-0.000010,-22.155643,0.000022,
2191,3193,-1.55772474130681,11.8582712440648,0.0451835008821035,0.003957,-0.049573,0.011512,0.128323,-2.208749,312.417348,22.554249,0.999714,0.995602,0.003081,0.478051,-0.000007,0.000014,-0.000009,0.000018,-0.000010,-70.060645,0.000018,
2401,2908,3.05142635536408,5.68933600579257,-0.00487989510747866,0.003032,-0.050673,0.011770,0.076018,-2.239606,316.372605,22.749703,0.999575,0.990560,0.003846,0.395893,-0.000002,-0.000006,0.000012,0.000008,-0.000016,40.181752,0.000016,
2386,2803,2.74351363410288,3.4043567944158,-0.0287939022783803,0.002504,-0.050455,0.005108,0.076292,-2.260670,317.873571,22.322005,0.999845,0.994959,0.003367,0.473026,0.000034,0.000027,0.000010,0.000041,0.000019,35.855246,0.000062,
2341,2578,1.80661589816269,-1.5016308271021,-0.0142026008860512,0.001148,-0.050054,0.001777,0.026887,-2.229855,321.593653,21.740998,0.998917,0.985776,0.004627,0.490459,0.000124,0.000091,0.000023,0.000136,0.000079,27.423268,0.000218,
2071,2698,-4.086804492001,1.10625372373212,-0.0231897601575497,0.001436,-0.048675,0.003385,0.040501,-2.174797,320.329493,22.136878,0.999372,0.990931,0.003849,0.485717,0.000064,0.000006,0.000000,0.000064,0.000006,-0.394655,0.000077,
2041,2608,-4.72464058692639,-0.854157165437378,-0.024827189706798,0.001160,-0.048524,-0.001186,0.041182,-2.181934,321.943028,22.183300,0.998759,0.987381,0.004581,0.478609,0.000117,0.000057,0.000008,0.000118,0.000056,7.454500,0.000177,
2266,2248,0.231780396027826,-8.71736777812082,-0.0024073593838807,-0.000565,-0.052185,-0.003311,-0.034406,-2.358660,327.034183,21.178177,0.998827,0.981381,0.005423,0.428317,0.000479,0.000477,0.000010,0.000488,0.000467,42.982446,0.000956,
2326,2488,1.49720546552392,-3.46740530918583,-0.0117973279293437,0.001016,-0.050101,-0.005266,0.045292,-2.254716,323.096486,21.499917,0.999301,0.987434,0.004364,0.514205,0.000203,0.000127,0.000011,0.000205,0.000126,8.092477,0.000333,
2491,2113,5.17834004881829,-11.6866687702064,0.0284061600260088,0.002522,-0.054359,-0.015676,0.151732,-2.531269,329.816203,19.390000,0.999483,0.983807,0.005128,0.449872,0.000976,0.000907,-0.000148,0.001094,0.000789,-38.401190,0.001891,
2461,3298,4.28142051807882,14.1612142359376,0.00633868023720652,0.004855,-0.050265,0.010537,0.162460,-2.250154,310.252859,24.175518,0.999536,0.993148,0.003496,0.461763,0.000037,-0.000020,0.000005,0.000037,-0.000021,4.503481,0.000037,
2131,2953,-2.82182273453219,6.65018184786393,0.0112393944722271,0.003072,-0.048868,0.009829,0.095148,-2.173689,316.240059,22.247695,0.999605,0.992108,0.003585,0.461068,0.000026,-0.000010,-0.000003,0.000026,-0.000010,-4.313618,0.000026,
2026,2578,-5.04662321178262,-1.50787673695039,-0.0220991087056746,0.000514,-0.048602,0.001665,0.003814,-2.162137,322.504371,22.239695,0.998916,0.989201,0.004353,0.475101,0.000140,0.000067,0.000012,0.000142,0.000065,9.159626,0.000212,
2056,2668,-4.40775407639636,0.452235252830974,-0.0185912496464198,0.001257,-0.048851,0.002389,0.035309,-2.192707,320.931572,22.159372,0.999255,0.989615,0.004178,0.457083,0.000059,0.000029,0.000001,0.000059,0.000029,1.728531,0.000090,
2506,2218,5.48198705088761,-9.37828453319086,0.00412014176271214,0.002333,-0.052622,-0.011854,0.129562,-2.418562,327.937028,19.857261,0.999121,0.974786,0.005973,0.454376,0.000717,0.000600,-0.000148,0.000818,0.000499,-34.265576,0.001329,
2116,2878,-3.13691380525282,5.02128036371642,-0.00879526090255922,0.002352,-0.048815,0.007042,0.070774,-2.193630,317.334992,22.180471,0.999524,0.991954,0.003754,0.458211,0.000019,0.000021,-0.000006,0.000026,0.000014,-49.678194,0.000041,
2086,2758,-3.77021257411013,2.41227094411125,-0.026205656722027,0.002042,-0.049028,0.005124,0.062899,-2.187561,319.275357,22.118185,0.999452,0.990378,0.003957,0.486914,0.000042,-0.000006,-0.000017,0.000048,-0.000011,-18.007715,0.000050,
2296,2368,0.865843378354064,-6.09216279895069,0.00294453025588837,0.000307,-0.050669,-0.006056,0.015192,-2.305132,325.153268,21.288296,0.999213,0.984939,0.004867,0.489875,0.000302,0.000262,0.000000,0.000302,0.000262,0.579394,0.000564,
2356,2653,2.11907864010222,0.134938564016828,-0.020488143805494,0.001346,-0.050025,-0.000908,0.045123,-2.256048,320.341148,21.932367,0.999331,0.987217,0.004543,0.450372,0.000084,0.000061,0.000009,0.000087,0.000058,18.800886,0.000146,
2236,2143,-0.4036655660198,-11.0190137135549,0.00356243808317913,-0.001301,-0.052456,-0.015124,-0.029851,-2.437011,328.834947,21.098217,0.998482,0.980063,0.005556,0.400826,0.000689,0.000733,0.000021,0.000741,0.000681,68.626173,0.001423,
2011,2578,-5.37308724813959,-1.50822344334024,-0.0245740493318181,-0.000234,-0.047957,-0.003022,-0.017493,-2.161951,322.557900,22.242113,0.998637,0.986950,0.004864,0.492398,0.000143,0.000072,0.000011,0.000145,0.000071,8.958440,0.000220,
2221,1993,-0.705460125072324,-14.3142313057571,0.0233097809685319,-0.002911,-0.056043,-0.015520,-0.103812,-2.605149,331.371741,20.870216,0.999423,0.988059,0.004801,0.321996,0.001015,0.000916,-0.000016,0.001018,0.000914,-8.927719,0.001932,
2311,2428,1.18087513085795,-4.7778973266505,-0.012343118883166,0.000665,-0.050300,-0.003601,0.023429,-2.275469,324.049911,21.445245,0.999590,0.989922,0.004143,0.447405,0.000246,0.000179,0.000003,0.000246,0.000179,2.444788,0.000426,
2446,3208,3.97548927208566,12.2058629342935,0.0417478236959141,0.004032,-0.050376,0.011849,0.120131,-2.246010,311.958588,23.807388,0.999584,0.990269,0.003866,0.443031,0.000024,0.000002,-0.000006,0.000026,0.000000,-13.970761,0.000030,
2476,1993,4.87608071182455,-14.3237542794056,0.0242494955640495,0.003887,-0.057361,-0.018586,0.223395,-2.678138,331.749367,18.953534,0.997703,0.969885,0.006846,0.347955,0.001332,0.001000,-0.000081,0.001350,0.000981,-12.929046,0.002341,
2176,3133,-1.87291688809438,10.5573783002914,0.0402046637363469,0.003872,-0.049127,0.007913,0.136366,-2.183981,313.413787,22.496198,0.999333,0.993090,0.003678,0.445729,0.000002,0.000008,-0.000015,0.000020,-0.000011,-50.450871,0.000020,
2251,2173,-0.0821414070842117,-10.3618117669813,0.00295461373343642,-0.001521,-0.052725,-0.011705,-0.050897,-2.430397,328.297073,21.055637,0.999001,0.984084,0.005087,0.418325,0.000630,0.000676,0.000027,0.000688,0.000618,65.067160,0.001307,
2161,3088,-2.19194976675123,9.58074625254851,0.0297816794511618,0.003462,-0.049542,0.010910,0.108516,-2.206061,314.087656,22.414397,0.999418,0.990988,0.003805,0.416252,0.000016,-0.000005,-0.000015,0.000023,-0.000012,-27.780522,0.000023,
2416,2968,3.36673450497667,6.99431078837522,0.00118405186481141,0.002975,-0.050287,0.007834,0.087396,-2.230367,315.471144,22.938264,0.999760,0.993967,0.003423,0.433889,0.000000,-0.000010,0.000018,0.000014,-0.000024,37.794828,0.000024,
2281,2323,0.546500552630608,-7.07489754844035,-0.00362701502484697,0.000189,-0.050658,-0.008230,0.017073,-2.293965,325.843343,21.304606,0.998942,0.983079,0.005315,0.447290,0.000359,0.000322,0.000010,0.000361,0.000319,13.999671,0.000681,
2371,2728,2.43134765893607,1.77075899912353,-0.0221197522525358,0.001921,-0.050254,0.005369,0.049023,-2.243894,319.115143,22.176260,0.999492,0.990301,0.003890,0.416606,0.000052,0.000074,0.000016,0.000083,0.000044,62.866489,0.000128,
2191,3208,-1.56017896707842,12.1835258096106,0.0440588565777489,0.004182,-0.049608,0.011544,0.138473,-2.223441,312.172567,22.587361,0.999507,0.993334,0.003589,0.443360,-0.000009,0.000018,-0.000009,0.000021,-0.000011,-73.271037,0.000021,
2026,2593,-5.04955025975316,-1.18048811204725,-0.0263917883192448,0.000300,-0.048878,0.005004,-0.015332,-2.168941,322.206952,22.256864,0.998698,0.988894,0.004571,0.442169,0.000131,0.000080,0.000019,0.000137,0.000074,18.063641,0.000215,
2431,3088,3.67227544055948,9.60045568168871,0.0317386410752647,0.003677,-0.050222,0.009850,0.111783,-2.242928,313.809323,23.359439,0.999710,0.993050,0.003449,0.430539,-0.000001,0.000012,0.000019,0.000026,-0.000015,54.014823,0.000026,
2146,3013,-2.50559573372646,7.95347309568524,0.0172928314744354,0.003152,-0.048933,0.006348,0.108835,-2.187457,315.264674,22.337272,0.999395,0.990599,0.003959,0.421871,0.000019,-0.000009,-0.000004,0.000020,-0.000010,-8.610050,0.000020,
2101,2803,-3.45138499439397,3.39136438107392,-0.0191362752401574,0.002047,-0.048921,0.007131,0.056857,-2.194581,318.523544,22.171447,0.999426,0.991657,0.003753,0.436683,0.000026,0.000013,-0.000008,0.000030,0.000009,-23.848890,0.000041,
2506,2233,5.47893244434541,-9.04834845635115,0.00748262823032064,0.002055,-0.052334,-0.012706,0.120245,-2.420029,327.712332,20.059994,0.998923,0.979850,0.005566,0.313673,0.000701,0.000571,-0.000123,0.000775,0.000497,-31.097584,0.001281,
2386,2818,2.74083458199148,3.73096835438754,-0.0269958354998039,0.002520,-0.050360,0.004334,0.079829,-2.259425,317.647532,22.385943,0.999676,0.991595,0.003843,0.453400,0.000023,0.000019,0.000008,0.000030,0.000012,37.560919,0.000044,
2056,2683,-4.40931072958826,0.778533668971612,-0.0138403687417394,0.001613,-0.048338,0.000603,0.056924,-2.160030,320.749603,22.141772,0.999411,0.990905,0.003926,0.502341,0.000054,0.000017,0.000002,0.000054,0.000017,3.606414,0.000075,
2491,2128,5.17603863334497,-11.35780450195,0.0343624829185956,0.002890,-0.053995,-0.014774,0.165256,-2.490401,329.637001,19.442841,0.999517,0.987094,0.004757,0.499579,0.000941,0.000876,-0.000142,0.001055,0.000763,-38.521715,0.001825,
2011,2593,-5.37475660407224,-1.18096144475589,-0.0251902768827676,0.000412,-0.047809,-0.002142,0.009870,-2.166938,322.337336,22.277343,0.998701,0.987163,0.004972,0.440737,0.000132,0.000084,0.000019,0.000139,0.000077,19.503694,0.000219,
2071,2713,-4.08955051629129,1.43344530166208,-0.0303996379071805,0.001558,-0.048818,0.004492,0.042894,-2.181104,320.028421,22.152292,0.999193,0.989825,0.004045,0.461143,0.000063,0.000007,-0.000001,0.000063,0.000007,-1.302937,0.000077,
2041,2623,-4.72696440789431,-0.527223487441596,-0.0260143888296511,0.001122,-0.048043,-0.002290,0.042647,-2.181444,321.691866,22.188411,0.998788,0.987091,0.004631,0.467086,0.000102,0.000030,0.000004,0.000102,0.000030,3.497422,0.000139,
2341,2593,1.80402384611124,-1.17383607145945,-0.0187814471004799,0.001703,-0.050413,0.001506,0.053156,-2.256010,321.338068,21.817270,0.999193,0.987768,0.004401,0.425393,0.000117,0.000079,0.000022,0.000128,0.000069,24.880844,0.000199,
2401,2923,3.04876022817636,6.01454412498252,-0.00250763129611187,0.002848,-0.050450,0.008660,0.078916,-2.245826,316.150906,22.723958,0.999529,0.990574,0.003891,0.460564,-0.000003,-0.000010,0.000008,0.000002,-0.000015,32.049299,0.000016,
2296,2383,0.86267458879853,-5.76266076125163,-0.00715077867369018,0.000569,-0.051062,-0.006751,0.029425,-2.326396,324.840282,21.388137,0.998769,0.981792,0.005496,0.400884,0.000285,0.000243,0.000001,0.000285,0.000243,1.910735,0.000529,
2476,2008,4.87082618104908,-13.9923524667476,0.0130427454013216,0.002829,-0.056841,-0.016332,0.166746,-2.634365,331.356695,18.999485,0.998734,0.975706,0.006052,0.407219,0.001292,0.000955,-0.000091,0.001316,0.000932,-14.233615,0.002258,
2266,2263,0.230603459666352,-8.38888330654688,0.00873110495820129,-0.000025,-0.051469,-0.005250,-0.002954,-2.349253,326.915976,21.324064,0.999605,0.988792,0.004486,0.319209,0.000453,0.000433,0.000006,0.000455,0.000432,15.893590,0.000887,
2326,2503,1.49342942436699,-3.1388959444788,-0.0153581908971887,0.000755,-0.050691,0.000757,0.012377,-2.254326,322.790297,21.593561,0.999206,0.987720,0.004314,0.456692,0.000183,0.000117,0.000008,0.000184,0.000116,6.840492,0.000303,
2236,2158,-0.407199434438144,-10.6882843216094,-0.00477614945367577,-0.001501,-0.051944,-0.013206,-0.045038,-2.401972,328.507980,21.183301,0.998574,0.982164,0.005381,0.375410,0.000655,0.000703,0.000028,0.000716,0.000642,65.644314,0.001359,
2446,3223,3.97214949255849,12.5314737245776,0.0402274702074692,0.003929,-0.050482,0.013272,0.110044,-2.250525,311.689362,23.869111,0.999601,0.991020,0.003813,0.427538,0.000022,-0.000003,-0.000004,0.000023,-0.000004,-9.738600,0.000025,
2131,2968,-2.82426177973791,6.97590106836,0.00938685497175129,0.003044,-0.049112,0.006947,0.102443,-2.195965,315.987653,22.262286,0.999766,0.994008,0.003116,0.429351,0.000027,-0.000010,-0.000005,0.000028,-0.000011,-8.104287,0.000028,
2116,2893,-3.13976335197974,5.34778730489484,-0.0133746014751068,0.002358,-0.048927,0.008778,0.065874,-2.187610,317.047617,22.198848,0.999315,0.991821,0.004066,0.449101,0.000019,0.000013,-0.000004,0.000021,0.000011,-26.102169,0.000032,
2221,2008,-0.709441707549662,-13.982509765438,0.0101325368306107,-0.003340,-0.055777,-0.014704,-0.126013,-2.576248,330.998324,20.934682,0.999397,0.986113,0.005117,0.309905,0.000965,0.000948,0.000005,0.000966,0.000947,14.591314,0.001914,
2356,2668,2.11645737256267,0.4613675755771,-0.0168461289350716,0.001689,-0.050372,0.004354,0.042249,-2.257907,320.125088,21.953164,0.999475,0.989311,0.004211,0.466969,0.000076,0.000067,0.000007,0.000079,0.000063,27.763787,0.000142,
2506,2248,5.47601952323719,-8.7212259880929,0.0117814018319677,0.002581,-0.052940,-0.004537,0.112556,-2.423703,327.498490,20.022015,0.998674,0.979866,0.005782,0.411152,0.000673,0.000535,-0.000127,0.000749,0.000459,-30.794481,0.001220,
2086,2773,-3.77192999037647,2.73895111674957,-0.0232235529074387,0.002367,-0.048689,0.002741,0.084871,-2.184970,319.078418,22.178019,0.999547,0.990470,0.004021,0.428501,0.000040,0.000003,-0.000014,0.000045,-0.000002,-18.057365,0.000051,
2416,2983,3.36400302829513,7.31954129537793,0.00316284742660855,0.003163,-0.050143,0.009525,0.089872,-2.234949,315.245361,22.926114,0.999840,0.994265,0.003278,0.488601,0.000001,-0.000003,0.000019,0.000018,-0.000021,42.286311,0.000023,
2251,2188,-0.0851882957005685,-10.0303718905711,-0.00504230149039131,-0.001404,-0.052251,-0.012476,-0.042848,-2.403136,327.995531,21.228964,0.999509,0.988585,0.004502,0.298630,0.000596,0.000641,0.000026,0.000653,0.000584,65.146761,0.001237,
2311,2443,1.17885793845864,-4.4521369017781,-0.000703974466603086,0.000861,-0.050838,0.000892,0.016897,-2.278658,323.898438,21.412122,0.999376,0.988457,0.004468,0.510488,0.000237,0.000161,0.000011,0.000238,0.000159,7.904169,0.000400,
2431,3103,3.66886200726685,9.92665627996431,0.0238556569265143,0.003806,-0.050396,0.008988,0.120835,-2.253457,313.506406,23.410046,0.999747,0.994219,0.003289,0.418236,0.000003,0.000008,0.000016,0.000022,-0.000011,49.797083,0.000022,
2101,2818,-3.45329631205869,3.71776723748091,-0.0222893253531424,0.002420,-0.048619,0.002001,0.089155,-2.202932,318.285691,22.182449,0.999410,0.992437,0.003627,0.418591,0.000026,0.000019,-0.000009,0.000032,0.000013,-34.773933,0.000046,
2056,2698,-4.41228887717133,1.10544929013037,-0.0174776218100305,0.001370,-0.048400,0.003704,0.036972,-2.148280,320.456235,22.137122,0.999266,0.990456,0.003969,0.513864,0.000063,0.000000,0.000002,0.000064,0.000000,2.025597,0.000073,
2071,2728,-4.09114852003536,1.75943340468286,-0.0268400928679284,0.001954,-0.048625,0.002381,0.067219,-2.172565,319.839226,22.134494,0.999047,0.988823,0.004265,0.484414,0.000052,0.000003,-0.000004,0.000053,0.000003,-5.188656,0.000063,
2191,3223,-1.56330412718698,12.5091093557292,0.044575662511761,0.003777,-0.049704,0.013803,0.112765,-2.210378,311.905362,22.636593,0.999699,0.994770,0.003137,0.420104,-0.000012,0.000020,-0.000015,0.000027,-0.000018,-68.177779,0.000027,
2026,2608,-5.05152758179068,-0.852974058659029,-0.0355160425084478,0.000926,-0.048859,0.001659,0.022677,-2.175613,321.926019,22.249007,0.998749,0.986282,0.004831,0.434643,0.000125,0.000067,0.000013,0.000127,0.000064,11.778331,0.000195,
2281,2338,0.543622858540232,-6.74658100447336,-0.00719013031095983,0.000157,-0.050559,-0.009737,0.020648,-2.332661,325.575039,21.360707,0.998996,0.985113,0.004944,0.382350,0.000339,0.000305,0.000003,0.000339,0.000305,5.096790,0.000644,
2491,2143,5.1712172427743,-11.0248967203817,0.0177208904067356,0.002928,-0.054178,-0.010767,0.151649,-2.469464,329.240649,19.646522,0.998840,0.980533,0.005688,0.379609,0.000897,0.000838,-0.000129,0.001000,0.000735,-38.463249,0.001742,
2041,2638,-4.72933293052806,-0.20090354972271,-0.0239692178844848,0.000978,-0.048128,-0.001230,0.033024,-2.173509,321.456738,22.162044,0.999141,0.989495,0.004229,0.494162,0.000088,0.000025,0.000010,0.000090,0.000024,8.622646,0.000119,
2446,3238,3.96874057682719,12.857533202605,0.0329553911048492,0.004130,-0.050321,0.013497,0.118493,-2.243554,311.390096,23.932185,0.999683,0.992792,0.003417,0.422164,0.000023,-0.000006,-0.000005,0.000024,-0.000007,-9.128158,0.000024,
2011,2608,-5.37800021377695,-0.852807548576472,-0.0379766819219185,0.000395,-0.048435,0.001823,-0.001892,-2.184110,321.976296,22.306846,0.999481,0.991201,0.003999,0.383310,0.000123,0.000069,0.000013,0.000126,0.000066,12.912225,0.000195,
2176,3148,-1.87587228192927,10.8827187751657,0.0365736523863234,0.004012,-0.049330,0.012042,0.129851,-2.195758,313.131759,22.503499,0.999394,0.993427,0.003573,0.437770,0.000000,0.000010,-0.000016,0.000022,-0.000012,-53.415281,0.000022,
2341,2608,1.79997838486437,-0.845490098257415,-0.0312920016203861,0.001415,-0.050143,0.001328,0.040647,-2.235483,320.976986,21.834844,0.999198,0.986535,0.004620,0.466095,0.000107,0.000066,0.000020,0.000114,0.000058,21.881911,0.000175,
2476,2023,4.86774111868577,-13.6612866596428,0.014370807171872,0.002797,-0.056012,-0.015309,0.161772,-2.581059,331.119888,19.153983,0.999099,0.981188,0.005484,0.366353,0.001259,0.000973,-0.000116,0.001300,0.000933,-19.480413,0.002243,
2371,2743,2.42854424378831,2.09699675904262,-0.0251283185367583,0.002076,-0.050497,0.003523,0.062594,-2.258053,318.859739,22.160562,0.999459,0.989560,0.003941,0.459430,0.000046,0.000073,0.000018,0.000082,0.000037,63.211567,0.000121,
2161,3103,-2.19394931935363,9.90576221009107,0.0330481622792718,0.003608,-0.048991,0.008303,0.123447,-2.191126,313.884924,22.396377,0.999577,0.993532,0.003329,0.458560,0.000011,-0.000001,-0.000016,0.000022,-0.000012,-34.781044,0.000022,
2236,2173,-0.409418485183188,-10.3601605217837,0.00208630918217523,-0.001448,-0.051922,-0.010957,-0.049900,-2.388430,328.318755,21.219754,0.998637,0.983597,0.005247,0.375990,0.000627,0.000674,0.000028,0.000687,0.000614,64.712575,0.001302,
2296,2398,0.860010969870725,-5.4347534258093,-0.0049772091248883,0.000656,-0.050752,-0.004210,0.024973,-2.275983,324.611054,21.394432,0.999026,0.985040,0.005104,0.476532,0.000267,0.000233,0.000001,0.000267,0.000233,1.214279,0.000500,
2386,2833,2.73756660745253,4.05764570719921,-0.022412118621105,0.002098,-0.050514,0.008245,0.046357,-2.243370,317.407543,22.466461,0.999561,0.987465,0.004316,0.432069,0.000014,0.000020,0.000008,0.000025,0.000009,56.592372,0.000035,
2131,2983,-2.82666528053207,7.30144035518859,0.00832938699136321,0.003238,-0.048905,0.007697,0.109211,-2.177088,315.741128,22.229193,0.999719,0.994001,0.003202,0.486286,0.000021,-0.000012,-0.000007,0.000023,-0.000013,-10.895151,0.000023,
2506,2263,5.47216728142245,-8.39069385073403,0.00391769536048514,0.002558,-0.052632,-0.004176,0.110273,-2.396679,327.186836,20.145688,0.998308,0.976113,0.006066,0.378366,0.000636,0.000478,-0.000131,0.000710,0.000404,-29.521854,0.001128,
2431,3118,3.66536496680259,10.2531958841298,0.016843509600335,0.004021,-0.050427,0.011096,0.122997,-2.239787,313.203482,23.478269,0.999822,0.995180,0.003080,0.412979,0.000007,0.000011,0.000013,0.000022,-0.000004,49.352890,0.000024,
2401,2938,3.04614823645318,6.34017891318567,-0.000132957895402797,0.002830,-0.050270,0.006922,0.084457,-2.241470,315.931520,22.730821,0.999547,0.990498,0.003916,0.502865,-0.000002,-0.000009,0.000007,0.000002,-0.000013,30.412636,0.000014,
2266,2278,0.226876542946457,-8.0605651330517,-0.00165266736348713,-0.000364,-0.051602,-0.005596,-0.017446,-2.356312,326.573286,21.257180,0.999451,0.986492,0.004759,0.407179,0.000433,0.000407,0.000006,0.000434,0.000406,12.647852,0.000840,
2116,2908,-3.14104647907141,5.67333285751752,-0.00313868149623886,0.002756,-0.048647,0.007177,0.089131,-2.154596,316.912053,22.213401,0.999204,0.990198,0.004186,0.470306,0.000020,0.000003,-0.000003,0.000020,0.000002,-10.457263,0.000025,
2146,3028,-2.50789664297432,8.27838870686183,0.0199502610127524,0.003398,-0.049275,0.009602,0.110276,-2.182064,315.043954,22.297192,0.999395,0.991022,0.003878,0.474582,0.000020,-0.000010,-0.000007,0.000021,-0.000012,-13.227573,0.000021,
2326,2518,1.4906447367321,-2.81063696475144,-0.0204377237029689,0.000911,-0.049894,-0.002255,0.030171,-2.238084,322.522115,21.639911,0.999151,0.986325,0.004500,0.462232,0.000170,0.000111,0.000011,0.000172,0.000109,10.177391,0.000283,
2221,2023,-0.711657810855908,-13.6531792726481,0.00756489092810853,-0.002961,-0.055179,-0.016732,-0.101997,-2.574796,330.760132,20.935793,0.998927,0.980921,0.005582,0.332639,0.000927,0.000932,0.000014,0.000945,0.000915,49.998489,0.001860,
2416,2998,3.36159228471085,7.64534996593276,0.00541197332529464,0.003530,-0.050632,0.009621,0.106156,-2.261835,315.035403,22.995142,0.999559,0.989052,0.003997,0.439614,0.000000,0.000007,0.000019,0.000023,-0.000016,49.849647,0.000023,
2476,2038,4.86472222453671,-13.3317270861411,0.0114421768735724,0.002760,-0.054877,-0.019168,0.175236,-2.582879,330.867195,19.183674,0.999014,0.979036,0.005865,0.395148,0.001207,0.000989,-0.000107,0.001251,0.000945,-22.276575,0.002203,
2491,2158,5.16743830384319,-10.695244940519,0.0124386001616585,0.002560,-0.053478,-0.012261,0.140872,-2.449772,328.943167,19.683184,0.998970,0.979151,0.005730,0.424726,0.000866,0.000760,-0.000146,0.000968,0.000658,-35.049731,0.001636,
2011,2623,-5.37902543418948,-0.528073300096089,-0.0250544048960819,0.000924,-0.048565,0.003446,0.018038,-2.173110,321.861870,22.220366,0.999543,0.991461,0.003813,0.468915,0.000107,0.000032,0.000013,0.000109,0.000030,9.693130,0.000146,
2026,2623,-5.0529016178758,-0.527377817482993,-0.0268377673112923,0.001201,-0.048425,0.000305,0.039155,-2.172882,321.772475,22.213751,0.998990,0.986815,0.004696,0.463061,0.000109,0.000035,0.000009,0.000110,0.000034,6.761215,0.000150,
2086,2788,-3.77428721325646,3.06416822854399,-0.0174529008116338,0.002135,-0.048658,0.004504,0.069115,-2.177065,318.867794,22.124064,0.999431,0.990290,0.003980,0.489233,0.000033,0.000011,-0.000013,0.000039,0.000005,-24.280715,0.000048,
2446,3253,3.965880197061,13.1827124153854,0.0353098636109053,0.003917,-0.050205,0.011587,0.115907,-2.240018,311.160879,23.976023,0.999780,0.994343,0.003033,0.432836,0.000023,-0.000006,-0.000001,0.000023,-0.000006,-2.254397,0.000023,
2356,2683,2.11354590941697,0.789450712619164,-0.0232719643533983,0.002025,-0.050337,0.003108,0.062061,-2.257055,319.846778,22.044094,0.999505,0.989853,0.004008,0.416208,0.000070,0.000074,0.000009,0.000081,0.000063,50.839721,0.000144,
2056,2713,-4.41450601685435,1.43261341720967,-0.0245799304523757,0.001832,-0.048480,0.002370,0.061924,-2.168974,320.178632,22.164398,0.999014,0.989434,0.004105,0.460878,0.000064,0.000002,0.000002,0.000064,0.000002,1.536255,0.000075,
2191,3238,-1.56460958077642,12.8328549361106,0.053241354996544,0.004300,-0.049657,0.011207,0.145033,-2.215297,311.765038,22.583921,0.999758,0.994748,0.003045,0.481128,-0.000015,0.000010,-0.000016,0.000018,-0.000023,-64.153400,0.000024,
2251,2203,-0.087214414188356,-9.70322562765339,-0.00738530423069506,-0.000766,-0.051579,-0.014117,-0.008024,-2.390855,327.769871,21.090793,0.998914,0.983959,0.005163,0.474906,0.000572,0.000607,0.000026,0.000621,0.000558,61.768777,0.001179,
2176,3163,-1.87760903353164,11.2076095362825,0.0435560385187159,0.004319,-0.049396,0.011251,0.146469,-2.201876,312.961607,22.531790,0.999800,0.996335,0.002904,0.414433,0.000000,0.000016,-0.000014,0.000024,-0.000008,-59.864163,0.000025,
2071,2743,-4.09273802463085,2.08535825880169,-0.0245882646913174,0.002408,-0.048341,-0.000269,0.095715,-2.183792,319.643346,22.124145,0.999308,0.990447,0.003974,0.480603,0.000044,-0.000003,-0.000007,0.000045,-0.000004,-8.323340,0.000050,
2341,2623,1.79785377806586,-0.519469071441762,-0.0221103406914267,0.001555,-0.050310,0.003364,0.039935,-2.245755,320.809792,21.861232,0.999230,0.987558,0.004424,0.466597,0.000095,0.000057,0.000015,0.000100,0.000052,19.025686,0.000155,
2041,2653,-4.73178360784296,0.126262014371797,-0.0346386520675424,0.001516,-0.048613,-0.000391,0.055289,-2.202997,321.147264,22.148129,0.999324,0.989700,0.004122,0.471786,0.000076,0.000029,0.000002,0.000076,0.000029,2.364944,0.000108,
2101,2833,-3.45558334786525,4.04327113212275,-0.0162540645411013,0.002530,-0.049268,0.007779,0.077143,-2.198526,318.080593,22.172483,0.999630,0.993380,0.003408,0.433843,0.000024,0.000008,-0.000007,0.000027,0.000005,-21.372676,0.000034,
2236,2188,-0.411683941074454,-10.0304122697197,0.000333656417126349,-0.001087,-0.051595,-0.012444,-0.028416,-2.384692,328.083468,21.327717,0.999072,0.985393,0.004947,0.295480,0.000592,0.000639,0.000024,0.000649,0.000582,67.100820,0.001231,
2506,2278,5.46829288123522,-8.06164100311477,0.000798695560945362,0.001877,-0.052012,-0.006416,0.088033,-2.370020,326.895333,20.188899,0.998508,0.977077,0.005761,0.425635,0.000597,0.000431,-0.000107,0.000649,0.000379,-26.083352,0.001040,
2161,3118,-2.19638828739103,10.2314816893514,0.0364987805435248,0.003512,-0.048781,0.008750,0.117719,-2.177343,313.662731,22.448982,0.999531,0.993252,0.003428,0.428591,0.000006,0.000003,-0.000017,0.000021,-0.000012,-42.680823,0.000021,
2311,2458,1.17513827201679,-4.12377196845205,-0.00671693140952812,0.000602,-0.051245,0.004262,-0.006593,-2.266399,323.581626,21.441418,0.999176,0.987364,0.004722,0.527433,0.000222,0.000147,0.000016,0.000226,0.000144,11.668369,0.000373,
2476,2053,4.86149925441121,-13.0023872603558,0.0104828679121169,0.002939,-0.055651,-0.016198,0.171858,-2.596634,330.614039,19.233247,0.999146,0.982248,0.005463,0.391796,0.001162,0.000995,-0.000118,0.001223,0.000934,-27.311324,0.002164,
2281,2353,0.54026748890033,-6.41967326751968,-0.00210897643381713,-0.000402,-0.050991,-0.003204,-0.026963,-2.305874,325.327806,21.312899,0.999128,0.984583,0.004960,0.486575,0.000315,0.000288,0.000008,0.000317,0.000286,14.590076,0.000603,
2386,2848,2.73571207413651,4.38360579114725,-0.0159470357933174,0.002547,-0.050123,0.007209,0.070907,-2.224724,317.241621,22.496005,0.999507,0.989190,0.004071,0.464263,0.000010,0.000015,0.000008,0.000020,0.000004,54.045337,0.000026,
2116,2923,-3.14299652176647,5.99843638520875,0.00162632867022694,0.002852,-0.048684,0.005750,0.097763,-2.167719,316.716707,22.197159,0.998944,0.988462,0.004420,0.476502,0.000022,-0.000002,0.000002,0.000022,-0.000002,4.126421,0.000024,
2401,2953,3.04265018414059,6.66669426453014,-0.00382434070070303,0.002673,-0.050689,0.008465,0.071527,-2.247600,315.642427,22.790772,0.999550,0.991386,0.003854,0.481892,0.000000,-0.000016,0.000011,0.000005,-0.000022,26.666631,0.000023,
2026,2638,-5.05493157658366,-0.202174990485979,-0.0172552123866012,0.000868,-0.048413,0.000614,0.022942,-2.183333,321.594152,22.166746,0.999289,0.990435,0.004020,0.490205,0.000092,0.000030,0.000015,0.000095,0.000026,13.175320,0.000128,
2131,2998,-2.82874571315682,7.62644421264382,0.00995249149997335,0.003323,-0.048581,0.004519,0.122783,-2.163802,315.523959,22.174837,0.999742,0.994053,0.003250,0.558903,0.000020,-0.000010,-0.000002,0.000020,-0.000010,-4.292984,0.000020,
2371,2758,2.4256962436416,2.42426994141374,-0.027543957386456,0.002260,-0.050412,0.003174,0.072330,-2.267922,318.604798,22.245343,0.999118,0.985818,0.004363,0.405786,0.000043,0.000066,0.000018,0.000076,0.000033,61.644249,0.000112,
2011,2638,-5.38161716977088,-0.200496393537207,-0.0327761728518681,0.000882,-0.048253,0.001057,0.022661,-2.172644,321.559201,22.233289,0.999149,0.986786,0.004457,0.445243,0.000090,0.000033,0.000026,0.000100,0.000023,20.946898,0.000131,
2431,3133,3.66275998168796,10.5780510566043,0.0231875035518101,0.003907,-0.050270,0.011525,0.116187,-2.242355,313.004321,23.494455,0.999738,0.993074,0.003338,0.442992,0.000014,0.000006,0.000006,0.000017,0.000003,29.388335,0.000022,
2326,2533,1.48798841286272,-2.48388368239329,-0.0200524963248085,0.001116,-0.050260,-0.000826,0.034495,-2.264112,322.286877,21.644925,0.999210,0.986765,0.004475,0.466524,0.000159,0.000107,0.000006,0.000160,0.000106,6.574438,0.000268,
2146,3043,-2.5104832988168,8.60434213216238,0.0171006816444219,0.003447,-0.049069,0.008629,0.115583,-2.170475,314.780474,22.313945,0.999427,0.992822,0.003423,0.476271,0.000015,-0.000014,-0.000011,0.000019,-0.000018,-18.812063,0.000021,
2416,3013,3.35862919848469,7.97180001130061,0.00531066696640892,0.003395,-0.050399,0.008010,0.105979,-2.255036,314.788709,23.077706,0.999430,0.986942,0.004226,0.410924,0.000002,0.000007,0.000018,0.000022,-0.000014,49.217320,0.000022,
2296,2413,0.857219485110772,-5.10637262463985,-0.00769430596920984,0.000768,-0.050586,-0.004554,0.031321,-2.291557,324.351911,21.468114,0.999216,0.986575,0.004798,0.418858,0.000246,0.000214,0.000000,0.000246,0.000214,-0.299968,0.000460,
2491,2173,5.16545843807913,-10.3675703675415,0.0171972558574112,0.003156,-0.053405,-0.013572,0.173178,-2.459111,328.773446,19.680752,0.998044,0.970082,0.006608,0.479013,0.000820,0.000729,-0.000150,0.000931,0.000618,-36.502793,0.001560,
2191,3253,-1.56799095819466,13.1585579711289,0.0436795758398603,0.004349,-0.049545,0.013722,0.139410,-2.210651,311.433361,22.603008,0.999656,0.994061,0.003206,0.479797,-0.000018,0.000012,-0.000013,0.000017,-0.000023,-69.477116,0.000024,
2056,2728,-4.41705026291416,1.7592023062676,-0.0265674061291179,0.001849,-0.048625,0.004244,0.057387,-2.170305,319.914358,22.166348,0.999179,0.990274,0.003971,0.452606,0.000054,-0.000001,-0.000003,0.000054,-0.000002,-2.786551,0.000062,
2266,2293,0.223782727842206,-7.73190347208404,-0.00674102994531722,-0.000635,-0.051398,-0.008509,-0.020191,-2.352231,326.285954,21.270352,0.999297,0.984293,0.005087,0.425994,0.000406,0.000390,0.000012,0.000412,0.000384,27.249180,0.000796,
2221,2038,-0.714536244464089,-13.3237402156867,0.00607024460612138,-0.002975,-0.055024,-0.013899,-0.111649,-2.547890,330.496970,20.939470,0.998727,0.976457,0.005910,0.378597,0.000898,0.000909,0.000014,0.000918,0.000889,56.801807,0.001807,
2446,3268,3.96122204554693,13.5085332851713,0.0163704368800381,0.003938,-0.050533,0.013265,0.110518,-2.248881,310.749901,23.977477,0.999739,0.993705,0.003173,0.473052,0.000023,-0.000015,0.000002,0.000023,-0.000015,3.013849,0.000023,
2041,2668,-4.73330437509585,0.452284087445221,-0.0260317878032197,0.001745,-0.048357,-0.000631,0.066562,-2.187183,320.987404,22.150604,0.999298,0.988456,0.004346,0.477823,0.000060,0.000023,-0.000001,0.000060,0.000023,-1.964349,0.000086,
2356,2698,2.1107944801892,1.11487086505412,-0.0180927512633957,0.001852,-0.050575,0.004951,0.047577,-2.250267,319.632251,21.985108,0.999520,0.990982,0.003815,0.520994,0.000065,0.000087,0.000010,0.000091,0.000061,68.965555,0.000153,
2251,2218,-0.0892215488406585,-9.37468688831405,0.0017727817999571,-0.000696,-0.051463,-0.012742,-0.009233,-2.370946,327.602799,21.197451,0.998273,0.978216,0.005926,0.413798,0.000542,0.000572,0.000026,0.000587,0.000527,59.696771,0.001115,
2071,2758,-4.0954744478314,2.41166380419074,-0.026085308000404,0.002242,-0.048748,0.001707,0.082304,-2.192373,319.374286,22.120811,0.999416,0.991330,0.003854,0.472443,0.000046,-0.000012,-0.000015,0.000049,-0.000016,-13.590525,0.000050,
2476,2068,4.85882225513958,-12.6731135266111,0.0172043413757592,0.002984,-0.055383,-0.013632,0.164351,-2.555931,330.420226,19.313259,0.999107,0.979836,0.005745,0.412465,0.001117,0.000983,-0.000118,0.001186,0.000914,-30.218572,0.002106,
2086,2803,-3.77607631996949,3.3907766591493,-0.0176439553848695,0.002569,-0.048539,0.001736,0.097119,-2.187337,318.650370,22.173556,0.999323,0.990817,0.003872,0.428505,0.000028,0.000009,-0.000011,0.000033,0.000004,-24.504445,0.000040,
2056,2743,-4.41947029257586,2.08523650337561,-0.0291013039424683,0.001847,-0.048585,0.003252,0.060053,-2.190332,319.652984,22.136440,0.999395,0.991606,0.003758,0.457121,0.000046,-0.000006,-0.000004,0.000047,-0.000007,-4.824028,0.000050,
2386,2863,2.73343157360467,4.70952336565539,-0.0077167277865442,0.002703,-0.050268,0.009594,0.069468,-2.226923,317.064499,22.559071,0.999469,0.989373,0.003976,0.441765,0.000007,0.000017,0.000006,0.000020,0.000004,64.878804,0.000026,
2446,3283,3.95771164492104,13.8343288457432,0.00676001486499445,0.004188,-0.050630,0.013000,0.122906,-2.264618,310.434919,24.040581,0.999733,0.992855,0.003334,0.444833,0.000032,-0.000019,0.000002,0.000033,-0.000019,2.054376,0.000033,
2011,2653,-5.38379364199846,0.126025760569732,-0.0374653303824175,0.001157,-0.048099,0.000053,0.038076,-2.161578,321.292840,22.170116,0.998921,0.986886,0.004558,0.508198,0.000063,0.000032,0.000007,0.000065,0.000031,11.273385,0.000097,
2161,3133,-2.19878468242936,10.5562590124638,0.0365921084607521,0.003724,-0.049065,0.009806,0.124185,-2.178548,313.425099,22.412538,0.999419,0.993164,0.003582,0.472840,0.000004,0.000006,-0.000018,0.000024,-0.000013,-46.678768,0.000024,
2101,2848,-3.45827508641779,4.36928205707887,-0.0191698076520765,0.002262,-0.048553,0.005056,0.073055,-2.163284,317.808293,22.114942,0.999775,0.994178,0.003175,0.528020,0.000017,0.000007,-0.000008,0.000021,0.000003,-27.763764,0.000027,
2026,2653,-5.05731513720422,0.125707531299476,-0.0284911865088588,0.001368,-0.048121,-0.000279,0.048522,-2.170539,321.282741,22.170862,0.999284,0.991034,0.003885,0.489859,0.000067,0.000030,0.000000,0.000067,0.000030,-0.760654,0.000100,
2506,2293,5.46500393361213,-7.7327937872249,0.00258293049319036,0.001654,-0.052051,-0.005314,0.073575,-2.372144,326.652596,20.297024,0.998982,0.978030,0.005605,0.378631,0.000563,0.000362,-0.000093,0.000599,0.000325,-21.374084,0.000938,
2281,2368,0.538132982264862,-6.09224449473114,0.00239823849193499,-0.000124,-0.051020,-0.002550,-0.016432,-2.309626,325.133657,21.341737,0.999063,0.981825,0.005276,0.483375,0.000294,0.000269,0.000007,0.000296,0.000267,14.328234,0.000564,
2341,2638,1.795574383027,-0.192984200644979,-0.0172364925832085,0.001528,-0.050033,0.000907,0.047334,-2.247814,320.614443,21.888889,0.999292,0.987260,0.004441,0.473875,0.000086,0.000057,0.000012,0.000091,0.000053,19.934416,0.000145,
2491,2188,5.16055169520767,-10.0358169304043,0.00643352561769461,0.002437,-0.053104,-0.011546,0.132692,-2.426442,328.399225,19.850258,0.997999,0.970629,0.006589,0.404573,0.000796,0.000712,-0.000144,0.000904,0.000604,-36.826228,0.001518,
2116,2938,-3.14549979874073,6.32435322898332,-0.000136584033157305,0.002971,-0.048924,0.006631,0.100524,-2.183153,316.460599,22.215483,0.999310,0.990628,0.003981,0.445665,0.000020,-0.000006,-0.000001,0.000020,-0.000006,-1.172655,0.000020,
2266,2308,0.221891956119638,-7.40425380811156,0.000654400784867448,-0.000286,-0.051354,-0.006963,-0.009266,-2.333254,326.116331,21.306582,0.998901,0.981915,0.005436,0.436064,0.000379,0.000357,0.000016,0.000387,0.000349,27.560021,0.000736,
2176,3178,-1.8796741068409,11.5314143016098,0.0538518547769513,0.004251,-0.049422,0.013076,0.137643,-2.193280,312.794170,22.467980,0.999737,0.995063,0.003096,0.497761,-0.000005,0.000018,-0.000013,0.000024,-0.000010,-66.020672,0.000024,
2371,2773,2.42324982911618,2.75027626414396,-0.0190089598327745,0.002260,-0.050323,0.006303,0.061246,-2.249750,318.420896,22.276340,0.999462,0.989693,0.003911,0.434212,0.000040,0.000052,0.000013,0.000061,0.000032,56.963680,0.000094,
2041,2683,-4.73632653682497,0.779397112877518,-0.0287478146885292,0.001405,-0.048472,0.003063,0.040624,-2.173283,320.695764,22.165217,0.999424,0.991144,0.003906,0.470160,0.000057,0.000008,0.000000,0.000057,0.000008,0.505307,0.000070,
2131,3013,-2.83107684923658,7.95247501308454,0.0163623573702125,0.003274,-0.048942,0.007821,0.110502,-2.180821,315.320575,22.281183,0.999356,0.991289,0.003797,0.440331,0.000020,-0.000006,-0.000005,0.000021,-0.000007,-10.167760,0.000021,
2296,2428,0.854670370467637,-4.77830324682346,-0.00741779034348156,0.000941,-0.050213,-0.004335,0.038652,-2.272411,324.118563,21.512224,0.999434,0.988483,0.004436,0.425614,0.000233,0.000174,0.000000,0.000233,0.000174,-0.360070,0.000408,
2401,2968,3.04115043138743,6.99219628442136,0.0126971026233491,0.002995,-0.050671,0.011114,0.076745,-2.236688,315.540927,22.884918,0.999786,0.994980,0.003301,0.443263,-0.000004,-0.000010,0.000017,0.000010,-0.000025,39.475867,0.000025,
2146,3058,-2.51276533604788,8.92908726827096,0.0239934440214711,0.003289,-0.049213,0.009667,0.104977,-2.198955,314.583230,22.327202,0.999515,0.993948,0.003397,0.441641,0.000018,-0.000012,-0.000012,0.000023,-0.000016,-19.253191,0.000023,
2191,3268,-1.57166759336019,13.4838640883266,0.0322489046586156,0.004125,-0.049671,0.014677,0.126065,-2.210543,311.078461,22.584810,0.999410,0.991531,0.003706,0.511269,-0.000019,0.000011,-0.000020,0.000020,-0.000029,-63.564385,0.000030,
2476,2083,4.8549852488406,-12.3428609768003,0.0105643751155071,0.002962,-0.055327,-0.011360,0.154782,-2.549315,330.112937,19.373809,0.999258,0.979942,0.005570,0.418830,0.001074,0.000973,-0.000115,0.001149,0.000897,-33.199351,0.002051,
2431,3148,3.659216512659,10.904193117842,0.0193100781638122,0.003552,-0.050136,0.010291,0.104430,-2.244452,312.713828,23.569784,0.999710,0.993385,0.003245,0.414333,0.000014,-0.000002,0.000007,0.000016,-0.000004,20.757151,0.000017,
2446,3298,3.95484746746149,14.159092065157,0.00279509031696534,0.004564,-0.050485,0.012058,0.143754,-2.269976,310.176149,24.033326,0.999757,0.993359,0.003264,0.497515,0.000039,-0.000018,-0.000006,0.000040,-0.000019,-5.417184,0.000040,
2311,2473,1.17257947272489,-3.796028284841,-0.00474636190284627,0.000514,-0.051141,0.002396,-0.004260,-2.288954,323.357447,21.527842,0.999070,0.985878,0.004764,0.451705,0.000210,0.000138,0.000012,0.000212,0.000136,9.278690,0.000351,
2236,2203,-0.414016986743352,-9.70433101563769,0.000954528512693287,-0.001056,-0.051247,-0.014877,-0.019019,-2.384767,327.857692,21.135189,0.999337,0.987928,0.004635,0.511645,0.000568,0.000603,0.000024,0.000615,0.000556,63.329469,0.001172,
2221,2053,-0.7174300384813,-12.9928472368055,-0.00211115210157686,-0.002942,-0.053944,-0.016940,-0.100050,-2.519301,330.198744,21.004970,0.998520,0.976609,0.005959,0.364172,0.000867,0.000893,0.000015,0.000900,0.000860,65.517919,0.001760,
2416,3028,3.35529243536839,8.2978773994289,0.0041081959410576,0.003191,-0.050286,0.009109,0.092682,-2.228565,314.519667,23.103153,0.999470,0.988486,0.004136,0.458769,0.000001,0.000010,0.000015,0.000021,-0.000010,53.299579,0.000021,
2011,2668,-5.38517172707662,0.451762232980222,-0.0289366014463326,0.001638,-0.048306,0.002238,0.054248,-2.160655,321.137467,22.160088,0.998908,0.987314,0.004452,0.507212,0.000044,0.000025,-0.000004,0.000045,0.000024,-11.634818,0.000070,
2326,2548,1.48545677060612,-2.15620309145988,-0.0241094709780327,0.001599,-0.050078,-0.001836,0.060271,-2.249031,322.035312,21.659138,0.998929,0.984884,0.004836,0.502821,0.000151,0.000099,0.000013,0.000154,0.000096,13.107345,0.000252,
2071,2773,-4.09708444579752,2.73756576257914,-0.0195074419190178,0.002580,-0.048733,0.001769,0.097693,-2.193679,319.201179,22.140925,0.999338,0.989859,0.004073,0.447632,0.000045,-0.000002,-0.000012,0.000048,-0.000005,-13.760778,0.000053,
2026,2668,-5.05928035761947,0.451627531493592,-0.0264168714788298,0.001642,-0.048275,0.001434,0.056362,-2.173275,321.065333,22.127422,0.999223,0.990424,0.003970,0.521316,0.000051,0.000020,-0.000008,0.000053,0.000018,-13.295343,0.000074,
2506,2308,5.4623248133762,-7.40480823121784,0.00428492599945685,0.001703,-0.051661,-0.008157,0.086973,-2.367839,326.437466,20.323832,0.998932,0.979632,0.005551,0.418986,0.000546,0.000326,-0.000089,0.000577,0.000295,-19.588774,0.000887,
2056,2758,-4.42146184936779,2.41054224922956,-0.0176276605283761,0.001644,-0.048908,0.005998,0.042874,-2.186383,319.488620,22.131256,0.999291,0.990761,0.003972,0.460844,0.000048,-0.000018,-0.000013,0.000051,-0.000021,-10.376981,0.000051,
2386,2878,2.73057242494266,5.03654820499623,-0.00927709678768451,0.002674,-0.050033,0.007143,0.077009,-2.225613,316.813876,22.651772,0.999478,0.991492,0.003738,0.393387,0.000003,0.000017,0.000007,0.000020,0.000000,66.169901,0.000023,
2356,2713,2.10787261269349,1.44306446971844,-0.019242039136941,0.001930,-0.050196,0.005771,0.048412,-2.240305,319.378704,22.130118,0.999503,0.991281,0.003722,0.425175,0.000058,0.000087,0.000011,0.000090,0.000055,71.580898,0.000147,
2251,2233,-0.0922832165193945,-9.04584203049147,-0.00404926921999049,-0.000451,-0.051867,-0.009194,-0.009755,-2.379785,327.311994,21.209993,0.998445,0.979325,0.005710,0.418468,0.000506,0.000532,0.000022,0.000544,0.000494,60.507640,0.001038,
2191,3283,-1.57364334148372,13.809241646576,0.0311000615732837,0.004490,-0.049313,0.009658,0.158835,-2.204917,310.855404,22.628852,0.999616,0.994184,0.003186,0.485907,-0.000025,0.000014,-0.000019,0.000022,-0.000032,-67.591982,0.000033,
2041,2698,-4.73857852100523,1.10611912786235,-0.0277758162517898,0.001411,-0.048376,0.003446,0.039899,-2.152828,320.459937,22.172452,0.999266,0.990553,0.003997,0.476083,0.000066,-0.000010,0.000001,0.000066,-0.000010,0.417467,0.000071,
2086,2818,-3.77855226099128,3.71677986348195,-0.0186987883270717,0.002445,-0.048639,0.000142,0.095995,-2.189245,318.396944,22.157116,0.999491,0.992250,0.003627,0.441912,0.000027,0.000015,-0.000012,0.000034,0.000008,-31.305939,0.000044,
2461,1993,4.54577388334511,-14.320807457007,0.0079843297673392,0.002888,-0.056688,-0.022313,0.191626,-2.676933,331.543800,19.100557,0.998346,0.969056,0.006723,0.310483,0.001301,0.001034,-0.000110,0.001340,0.000995,-19.741481,0.002344,
2401,2983,3.03801579021984,7.31853132388178,0.00824183850778581,0.003001,-0.050269,0.009408,0.083340,-2.230809,315.264860,22.918959,0.999674,0.992251,0.003678,0.460052,-0.000002,-0.000004,0.000018,0.000015,-0.000021,43.375619,0.000022,
2116,2953,-3.14794899067419,6.65041624209729,0.00203196423439067,0.002966,-0.048735,0.008662,0.094368,-2.155743,316.228013,22.236505,0.999520,0.991267,0.003725,0.454751,0.000025,-0.000008,0.000000,0.000025,-0.000008,-0.722768,0.000025,
2101,2863,-3.45949924363801,4.69501922156825,-0.00850075711502996,0.002860,-0.048732,0.006396,0.096595,-2.169166,317.676975,22.178433,0.999612,0.992435,0.003591,0.459212,0.000014,0.000006,-0.000010,0.000021,-0.000001,-34.657288,0.000023,
2491,2203,5.15705182930327,-9.70662351709166,0.00449291648487815,0.002192,-0.052734,-0.011561,0.121726,-2.408514,328.129298,19.899730,0.998222,0.972023,0.006383,0.434785,0.000754,0.000652,-0.000137,0.000849,0.000556,-34.763981,0.001416,
2431,3163,3.65723920299967,11.2292151438959,0.0266866243102299,0.003983,-0.050358,0.010703,0.122728,-2.243876,312.548212,23.611071,0.999667,0.992424,0.003475,0.422418,0.000014,0.000006,0.000005,0.000017,0.000003,26.674214,0.000021,
2266,2323,0.219068676996244,-7.07473216053379,0.0019166446936083,-0.000268,-0.050938,-0.003377,-0.020129,-2.273187,325.872751,21.416322,0.998675,0.979861,0.005758,0.414069,0.000356,0.000327,0.000011,0.000360,0.000323,18.896132,0.000683,
2011,2683,-5.38704787873603,0.77734482604145,-0.0185760087621247,0.001321,-0.048237,0.001161,0.042557,-2.169090,320.969695,22.163836,0.999775,0.996025,0.002904,0.483292,0.000046,-0.000001,-0.000003,0.000046,-0.000001,-3.135965,0.000053,
2161,3148,-2.20177234439659,10.8814694113266,0.033517585257016,0.003626,-0.049403,0.011871,0.113157,-2.204918,313.143408,22.425744,0.999354,0.992446,0.003772,0.441911,0.000003,0.000009,-0.000018,0.000024,-0.000013,-49.508054,0.000024,
2341,2653,1.79203371585684,0.134638514842671,-0.0228532497781089,0.001635,-0.050547,0.006149,0.033826,-2.232031,320.309955,21.919218,0.999412,0.989003,0.004236,0.496586,0.000078,0.000057,0.000009,0.000082,0.000053,20.846653,0.000136,
2476,2098,4.85177412817061,-12.0120712986112,0.00664112930348892,0.002710,-0.054336,-0.016673,0.163813,-2.530219,329.846414,19.507024,0.999381,0.979147,0.005551,0.364627,0.001026,0.000932,-0.000125,0.001112,0.000845,-34.619218,0.001964,
2311,2488,1.17051412847099,-3.46825348170341,-0.00464814527509816,0.000864,-0.050474,-0.002056,0.027211,-2.269277,323.146508,21.562327,0.999279,0.986865,0.004453,0.470372,0.000193,0.000124,0.000005,0.000194,0.000124,4.433762,0.000320,
2176,3193,-1.88156566467266,11.8545880950357,0.0671120995576189,0.003998,-0.049516,0.012573,0.127385,-2.220996,312.650538,22.401972,0.999799,0.996502,0.002843,0.547263,-0.000008,0.000015,-0.000012,0.000020,-0.000013,-66.844780,0.000021,
2506,2323,5.45929201363949,-7.07619423767488,0.000992963257431256,0.002140,-0.051289,-0.007273,0.103731,-2.332493,326.183574,20.332422,0.998787,0.983178,0.005200,0.509076,0.000505,0.000313,-0.000079,0.000533,0.000285,-19.733640,0.000831,
2296,2443,0.850789265096825,-4.4515297699436,-0.0158906676557535,0.000797,-0.050939,0.000938,0.013980,-2.280583,323.781186,21.388095,0.999477,0.988750,0.004393,0.573134,0.000225,0.000157,0.000008,0.000226,0.000156,6.958562,0.000384,
2461,2008,4.54218266034959,-13.9918780881968,0.0157745148937352,0.002340,-0.057261,-0.014495,0.137026,-2.651529,331.312266,19.156637,0.998616,0.973548,0.006301,0.337976,0.001270,0.000990,-0.000110,0.001309,0.000952,-19.081495,0.002270,
2236,2218,-0.417155277028247,-9.37456270880112,-0.00175302729007853,-0.000973,-0.052051,-0.009044,-0.034333,-2.391633,327.577605,21.256673,0.998827,0.983082,0.005201,0.407122,0.000540,0.000570,0.000026,0.000585,0.000525,60.189210,0.001110,
2371,2788,2.42097824617396,3.0776282332226,-0.0124734407684173,0.002449,-0.050313,0.007497,0.065696,-2.235649,318.235093,22.422772,0.999852,0.994269,0.003336,0.342621,0.000037,0.000044,0.000012,0.000053,0.000028,53.455377,0.000082,
2131,3028,-2.83369339964226,8.27746329824493,0.0198427566051578,0.003221,-0.049302,0.012500,0.093875,-2.182794,315.088767,22.260405,0.999393,0.991607,0.003772,0.463856,0.000019,-0.000006,-0.000007,0.000021,-0.000008,-14.476463,0.000022,
2416,3043,3.35335206514655,8.6230192036637,0.0143122395293744,0.003364,-0.050230,0.008926,0.101350,-2.230365,314.368646,23.149731,0.999563,0.990140,0.003967,0.457240,-0.000003,0.000016,0.000019,0.000028,-0.000015,58.536810,0.000028,
2071,2788,-4.09941351353208,3.06282017813959,-0.0133787734491762,0.002413,-0.048862,0.004831,0.081254,-2.184002,318.992867,22.090817,0.999330,0.988895,0.004129,0.504178,0.000039,0.000006,-0.000013,0.000044,0.000002,-19.509255,0.000051,
2281,2383,0.535107379080944,-5.76359648480622,-0.00678416465035525,0.000171,-0.051462,-0.003277,-0.000626,-2.348102,324.830412,21.389217,0.998771,0.981944,0.005409,0.427024,0.000277,0.000250,0.000009,0.000280,0.000248,16.957439,0.000528,
2011,2698,-5.38933852150511,1.10421673604235,-0.0207804745883209,0.001326,-0.047605,-0.000098,0.046420,-2.140179,320.711980,22.149020,0.999788,0.995467,0.003028,0.515475,0.000059,-0.000020,-0.000005,0.000059,-0.000020,-3.907456,0.000060,
2086,2833,-3.78085345130354,4.04244227098059,-0.011230517723277,0.002377,-0.048997,0.005160,0.078251,-2.186088,318.198046,22.173201,0.999755,0.994609,0.003103,0.427689,0.000024,0.000003,-0.000012,0.000029,-0.000002,-23.708781,0.000033,
2146,3073,-2.51581126002285,9.25482585159859,0.0193443375632114,0.003287,-0.049480,0.013010,0.094641,-2.204510,314.289169,22.337929,0.999707,0.996047,0.002967,0.432083,0.000014,-0.000005,-0.000011,0.000018,-0.000010,-24.439824,0.000018,
2491,2218,5.1535975379627,-9.37562929871684,-0.0029385441928298,0.002380,-0.052218,-0.012624,0.134621,-2.419108,327.836711,20.090662,0.999040,0.980611,0.005540,0.294635,0.000719,0.000596,-0.000121,0.000793,0.000522,-31.446424,0.001325,
2221,2068,-0.719923210457512,-12.663401396162,0.00138940612907845,-0.002931,-0.053681,-0.014330,-0.107815,-2.486022,329.978608,21.070171,0.998503,0.978231,0.005862,0.354338,0.000838,0.000878,0.000020,0.000886,0.000830,67.692245,0.001716,
2041,2713,-4.74085097670866,1.43305247899308,-0.0345359325036156,0.001696,-0.048395,0.000980,0.059844,-2.177228,320.180369,22.185436,0.998959,0.989127,0.004351,0.431394,0.000065,-0.000009,0.000001,0.000065,-0.000009,0.690696,0.000071,
2386,2893,2.7277855374211,5.36216647076489,-0.00969275419066662,0.002588,-0.049799,0.004290,0.083472,-2.210096,316.572308,22.613723,0.999523,0.992243,0.003643,0.490102,0.000002,0.000011,0.000008,0.000016,-0.000003,58.801599,0.000017,
2251,2248,-0.0954962036189748,-8.71489114892389,-0.00763061297016066,-0.000741,-0.051032,-0.008912,-0.023691,-2.323106,327.024880,21.378625,0.998074,0.977476,0.006136,0.332475,0.000481,0.000479,0.000022,0.000502,0.000459,43.778541,0.000961,
2101,2878,-3.46207660163996,5.02058249672037,-0.0129095447205714,0.002841,-0.048789,0.004202,0.102067,-2.191131,317.402102,22.134262,0.999622,0.992274,0.003685,0.482597,0.000016,0.000019,-0.000011,0.000029,0.000006,-48.658368,0.000037,
2341,2668,1.78951607951125,0.461936569283452,-0.0151770969754352,0.001675,-0.050488,0.010420,0.020809,-2.232807,320.116971,22.052274,0.999635,0.991737,0.003926,0.399672,0.000072,0.000062,0.000007,0.000075,0.000058,26.879062,0.000134,
2116,2968,-3.1497223230027,6.97513012084933,0.00803726365592183,0.003135,-0.049106,0.006785,0.107565,-2.191561,316.047637,22.226807,0.999626,0.992570,0.003436,0.431562,0.000027,-0.000009,-0.000002,0.000027,-0.000010,-3.931532,0.000027,
2056,2773,-4.42311951861527,2.73621590747948,-0.0126901616083046,0.001930,-0.048839,0.004699,0.059695,-2.195392,319.303469,22.124326,0.999060,0.988742,0.004288,0.453256,0.000048,-0.000007,-0.000010,0.000050,-0.000009,-9.870461,0.000054,
2326,2563,1.48267263446863,-1.82914444705172,-0.0153578837725945,0.001344,-0.050531,0.003483,0.030076,-2.245617,321.834790,21.746327,0.998621,0.983475,0.005100,0.454075,0.000135,0.000098,0.000022,0.000145,0.000088,24.711490,0.000235,
2356,2728,2.10553332624612,1.76929329791773,-0.00977541156578354,0.001960,-0.050207,0.009108,0.038038,-2.230033,319.203471,22.184458,0.999484,0.990351,0.003862,0.419934,0.000049,0.000079,0.000017,0.000087,0.000041,65.646697,0.000131,
2266,2338,0.215663445067616,-6.74673909167187,-0.00597187260854071,-0.000452,-0.051346,-0.003591,-0.028006,-2.311573,325.557301,21.399391,0.998847,0.983053,0.005303,0.420227,0.000336,0.000310,0.000006,0.000338,0.000308,11.657769,0.000646,
2026,2683,-5.06314050108575,0.780084901448546,-0.0405103411169989,0.001145,-0.048976,0.005493,0.022117,-2.174110,320.670266,22.185906,0.999768,0.995569,0.003057,0.452906,0.000049,-0.000001,-0.000005,0.000049,-0.000001,-6.016230,0.000056,
2476,2113,4.84775806620791,-11.6822103622651,0.00100375861552493,0.002490,-0.054469,-0.013601,0.142084,-2.508631,329.535202,19.540425,0.999240,0.975641,0.006018,0.413053,0.000984,0.000902,-0.000122,0.001072,0.000815,-35.714029,0.001892,
2461,2023,4.53903090848889,-13.6607966607873,0.0115455111026108,0.002509,-0.056557,-0.015411,0.148483,-2.615188,331.045927,19.266281,0.998947,0.978631,0.005748,0.322979,0.001237,0.001001,-0.000125,0.001291,0.000947,-23.317440,0.002246,
2431,3178,3.6548696177017,11.5538438326068,0.0361789203786316,0.003968,-0.050414,0.012577,0.115016,-2.251715,312.374453,23.639956,0.999675,0.991849,0.003512,0.434266,0.000017,0.000011,0.000000,0.000017,0.000011,-3.059951,0.000029,
2161,3163,-2.20365586694091,11.2066230914219,0.0383048232566239,0.003893,-0.049271,0.010728,0.129118,-2.183739,312.953984,22.437788,0.999560,0.992849,0.003517,0.460165,0.000004,0.000018,-0.000016,0.000028,-0.000007,-56.723784,0.000030,
2236,2233,-0.420317616246951,-9.04550990684698,-0.0079638046531727,-0.000867,-0.052268,-0.005920,-0.039663,-2.392927,327.278680,21.276693,0.998788,0.983278,0.005123,0.409596,0.000504,0.000532,0.000024,0.000546,0.000491,60.740204,0.001037,
2311,2503,1.16755559121071,-3.14036877970607,-0.00922952424451751,0.000982,-0.050067,-0.002332,0.033726,-2.261792,322.871588,21.581506,0.999358,0.988419,0.004239,0.492055,0.000174,0.000113,0.000003,0.000174,0.000113,3.049021,0.000289,
2071,2803,-4.10222364325633,3.38983605816024,-0.0198093832103723,0.002347,-0.048909,0.004548,0.078988,-2.196372,318.693213,22.131344,0.999340,0.990356,0.003976,0.448003,0.000035,0.000006,-0.000012,0.000040,0.000002,-19.447765,0.000047,
2506,2338,5.45583267022997,-6.7466645334769,0.00242068293596276,0.001623,-0.051146,-0.008051,0.083124,-2.325112,325.931039,20.505075,0.999186,0.985754,0.005100,0.406971,0.000476,0.000285,-0.000079,0.000504,0.000257,-19.742203,0.000775,
2191,3298,-1.57748475818752,14.1360541474202,0.0105896279717967,0.004645,-0.049179,0.009404,0.166783,-2.210004,310.444817,22.715790,0.999791,0.996113,0.002757,0.406699,-0.000033,0.000038,-0.000026,0.000046,-0.000041,-71.969529,0.000051,
2371,2803,2.41837538466582,3.40252048832919,-0.01084159738474,0.002599,-0.050481,0.007726,0.071695,-2.248887,318.011220,22.336203,0.999842,0.994639,0.003354,0.457145,0.000034,0.000029,0.000010,0.000042,0.000021,37.198020,0.000064,
2131,3043,-2.83534394652174,8.60301235780111,0.0258177319951187,0.003644,-0.049208,0.012161,0.114510,-2.167531,314.914437,22.293875,0.999431,0.992388,0.003611,0.450507,0.000014,-0.000010,-0.000011,0.000019,-0.000014,-20.896351,0.000019,
2011,2713,-5.3923164597226,1.43117905119519,-0.0258435702035058,0.001146,-0.048090,0.004143,0.026424,-2.151549,320.406857,22.164372,0.999666,0.993908,0.003476,0.477117,0.000053,-0.000025,-0.000001,0.000053,-0.000025,-0.996017,0.000053,
2416,3058,3.35025896593129,8.9486872573166,0.0182261881567456,0.003281,-0.050452,0.013606,0.080234,-2.238196,314.134839,23.212675,0.999625,0.991042,0.003820,0.433317,-0.000007,0.000006,0.000024,0.000024,-0.000025,52.631980,0.000028,
2026,2698,-5.06538057540621,1.10633208828192,-0.0413022006833899,0.001040,-0.048230,0.002578,0.025521,-2.160955,320.424176,22.142947,0.999777,0.995221,0.003128,0.499479,0.000061,-0.000019,-0.000007,0.000061,-0.000020,-5.187547,0.000062,
2401,2998,3.03523846095176,7.64556547945519,0.00114001696744026,0.003337,-0.049990,0.004658,0.116085,-2.245559,314.992481,23.024746,0.999592,0.990007,0.003971,0.384384,-0.000001,0.000006,0.000016,0.000019,-0.000014,51.078702,0.000020,
2491,2233,5.14936279095714,-9.04772832913012,-0.00351681735668308,0.001710,-0.052802,-0.007529,0.084261,-2.395851,327.539083,20.042390,0.998932,0.980600,0.005728,0.427933,0.000700,0.000555,-0.000102,0.000752,0.000503,-27.274847,0.001263,
2461,2038,4.53605786697813,-13.330714776326,0.00813907351238186,0.002638,-0.055575,-0.018011,0.164579,-2.586734,330.791535,19.308034,0.999066,0.979183,0.005759,0.367805,0.001185,0.001006,-0.000113,0.001240,0.000951,-25.812717,0.002197,
2281,2398,0.532105023451489,-5.43445927219067,-0.00713313350701128,0.000237,-0.051333,0.001344,-0.012965,-2.287445,324.571678,21.473481,0.998998,0.984877,0.005159,0.432920,0.000260,0.000239,0.000008,0.000263,0.000236,19.317380,0.000500,
2086,2848,-3.78296479524121,4.36760260282887,-0.00577656214363742,0.002316,-0.048512,0.005305,0.075164,-2.164088,317.997023,22.112613,0.999654,0.993308,0.003388,0.509147,0.000017,0.000003,-0.000013,0.000025,-0.000005,-30.397566,0.000026,
2041,2728,-4.74239993387552,1.75878053619702,-0.0272540073278265,0.002081,-0.048302,0.002318,0.073875,-2.165354,320.012077,22.170026,0.999262,0.991235,0.003756,0.451125,0.000055,-0.000010,-0.000003,0.000055,-0.000010,-2.199010,0.000059,
2221,2083,-0.722884625943191,-12.3345145669489,0.000962802270123575,-0.003334,-0.053626,-0.014841,-0.124665,-2.476022,329.717191,21.069390,0.998708,0.979487,0.005738,0.387553,0.000810,0.000856,0.000018,0.000863,0.000804,70.772706,0.001667,
2296,2458,0.847941520030432,-4.12198728276032,-0.0146376501917302,0.000711,-0.050531,0.002508,0.004920,-2.239869,323.538520,21.565133,0.999183,0.986996,0.004714,0.468281,0.000211,0.000141,0.000014,0.000213,0.000138,10.995013,0.000354,
2056,2788,-4.42595055893921,3.06349492170144,-0.0185287512273362,0.001885,-0.048780,0.006209,0.053426,-2.178289,319.004620,22.159002,0.999184,0.989175,0.004149,0.430504,0.000039,0.000003,-0.000011,0.000042,0.000000,-15.221188,0.000048,
2476,2128,4.84498807777092,-11.3537862400475,0.0077597868435646,0.002361,-0.054549,-0.011942,0.129851,-2.495846,329.337184,19.591767,0.998983,0.973088,0.006314,0.433963,0.000948,0.000876,-0.000116,0.001033,0.000791,-36.291593,0.001829,
2386,2908,2.72430976478192,5.68869061875702,-0.0145703817217395,0.002828,-0.050537,0.009782,0.074408,-2.244860,316.277603,22.681514,0.999433,0.990606,0.003910,0.430255,-0.000001,-0.000005,0.000011,0.000008,-0.000014,40.864658,0.000015,
2176,3208,-1.88524609875228,12.1824129356268,0.046511810907873,0.004145,-0.049368,0.010399,0.140984,-2.223219,312.245066,22.544782,0.999647,0.994755,0.003160,0.412882,-0.000009,0.000018,-0.000012,0.000022,-0.000014,-69.591385,0.000022,
2101,2893,-3.46402546180163,5.34548200043431,-0.00153343676890927,0.002924,-0.049143,0.009526,0.090177,-2.196615,317.241689,22.132304,0.999408,0.992342,0.003850,0.479583,0.000017,0.000012,-0.000009,0.000024,0.000005,-37.504364,0.000031,
2326,2578,1.48008315749438,-1.50201666131162,-0.0143975507572236,0.001406,-0.050422,0.002664,0.035756,-2.247150,321.605134,21.780127,0.999153,0.987847,0.004354,0.454103,0.000129,0.000093,0.000024,0.000141,0.000081,26.437771,0.000225,
2266,2353,0.212678378889102,-6.41887023543352,-0.00667198537598779,-0.000544,-0.051325,-0.001150,-0.040314,-2.302015,325.296899,21.399712,0.998979,0.983373,0.005255,0.456973,0.000312,0.000291,0.000011,0.000316,0.000286,22.465576,0.000603,
2251,2263,-0.0973729421449114,-8.38787070284624,-0.00281150943987996,-0.000387,-0.050900,-0.009602,-0.005158,-2.327135,326.842176,21.339986,0.999014,0.983466,0.005207,0.392338,0.000457,0.000433,0.000018,0.000466,0.000424,28.277964,0.000890,
2146,3088,-2.5178811024195,9.58071912075204,0.0206124994346055,0.003541,-0.049416,0.011360,0.111456,-2.192795,314.071311,22.387867,0.999692,0.994731,0.003146,0.400794,0.000011,-0.000003,-0.000013,0.000019,-0.000011,-31.558789,0.000019,
2341,2683,1.78629367234321,0.788644721343239,-0.0213387911749692,0.001581,-0.050670,0.008364,0.023538,-2.251239,319.824637,22.038151,0.999632,0.991506,0.003860,0.432650,0.000067,0.000069,0.000010,0.000078,0.000058,47.432380,0.000136,
2011,2728,-5.39404225754631,1.75690479057656,-0.0236387404119114,0.001603,-0.048268,0.005331,0.044269,-2.140157,320.200188,22.107150,0.999526,0.991922,0.003796,0.533995,0.000046,-0.000028,-0.000005,0.000046,-0.000028,-3.823844,0.000046,
2116,2983,-3.15134270985351,7.29938107451441,0.0185636470589543,0.003345,-0.049100,0.007693,0.114557,-2.186070,315.898729,22.167654,0.999686,0.993689,0.003250,0.498836,0.000020,-0.000012,-0.000004,0.000020,-0.000013,-6.669066,0.000021,
2206,1993,-1.03412695498239,-14.3124611179389,0.00562048328617948,-0.003197,-0.055609,-0.020815,-0.100427,-2.617845,331.264896,20.909377,0.999262,0.982702,0.005206,0.376973,0.001017,0.000911,-0.000013,0.001019,0.000909,-6.856974,0.001929,
2161,3178,-2.20596412926863,11.531171326896,0.0448373506070538,0.003935,-0.049611,0.014293,0.119966,-2.191939,312.754517,22.436949,0.999552,0.990981,0.003706,0.461683,0.000000,0.000022,-0.000016,0.000030,-0.000008,-61.918262,0.000031,
2431,3193,3.65249636643538,11.8789687478895,0.0416041953437229,0.004033,-0.050435,0.011407,0.122413,-2.247030,312.181350,23.680703,0.999627,0.991028,0.003670,0.446840,0.000021,0.000009,-0.000004,0.000022,0.000008,-15.206027,0.000031,
2026,2713,-5.06712418025338,1.43244938638421,-0.0352771515232462,0.001342,-0.048596,0.004850,0.033031,-2.170383,320.238964,22.170395,0.999633,0.993858,0.003529,0.453004,0.000056,-0.000020,-0.000005,0.000057,-0.000020,-3.792153,0.000058,
2071,2818,-4.10426608643188,3.71566369946308,-0.0175446878767502,0.002320,-0.048582,0.001304,0.087126,-2.186642,318.476712,22.112256,0.999476,0.991139,0.003905,0.473609,0.000037,0.000012,-0.000013,0.000042,0.000006,-23.622747,0.000053,
2236,2248,-0.422546749488564,-8.71683287048093,-0.00274965577580133,-0.000876,-0.051273,-0.006102,-0.039153,-2.351724,327.080303,21.343281,0.998676,0.981486,0.005471,0.407612,0.000480,0.000484,0.000026,0.000508,0.000456,46.974008,0.000965,
2461,2053,4.53334258875274,-13.0023297129117,0.01416115030122,0.002514,-0.055881,-0.017386,0.156463,-2.611417,330.592185,19.359555,0.998902,0.980206,0.005703,0.349083,0.001141,0.001005,-0.000119,0.001210,0.000935,-30.085572,0.002152,
2491,2248,5.14607632177571,-8.71924063926438,-0.00265625615008958,0.001672,-0.052500,-0.004750,0.072053,-2.379051,327.291318,20.074151,0.998862,0.980699,0.005625,0.474152,0.000670,0.000514,-0.000105,0.000723,0.000461,-26.707511,0.001194,
2506,2353,5.45327406767908,-6.41919701556285,0.00608271250501957,0.001953,-0.051354,-0.007038,0.094258,-2.323489,325.729998,20.521312,0.999210,0.985113,0.005175,0.455115,0.000457,0.000296,-0.000069,0.000482,0.000271,-20.280436,0.000763,
2131,3058,-2.83772392648613,8.92829859090084,0.0273809090163013,0.003526,-0.049011,0.010273,0.114694,-2.185992,314.683152,22.311369,0.999334,0.992151,0.003762,0.419173,0.000018,-0.000008,-0.000012,0.000022,-0.000013,-21.281693,0.000022,
2356,2743,2.10273068335335,2.09552706192173,-0.0112887537131883,0.001812,-0.050191,0.005177,0.045083,-2.241228,318.954059,22.176309,0.999594,0.991068,0.003679,0.455997,0.000043,0.000077,0.000020,0.000086,0.000034,65.393206,0.000124,
2311,2518,1.1642818902152,-2.81198849845507,-0.0124918664934626,0.000843,-0.049985,-0.000593,0.021488,-2.243672,322.588501,21.652941,0.999284,0.987009,0.004392,0.472224,0.000161,0.000108,0.000006,0.000162,0.000107,6.737195,0.000271,
2041,2743,-4.74513280756812,2.08438578674982,-0.0248648331305503,0.001742,-0.048898,0.006283,0.047062,-2.173042,319.762558,22.127494,0.999464,0.991840,0.003689,0.478392,0.000046,-0.000013,-0.000004,0.000047,-0.000013,-3.510274,0.000048,
2371,2818,2.41529446779535,3.72887852088386,-0.0157632070634008,0.002773,-0.050361,0.007777,0.079537,-2.252037,317.733564,22.328534,0.999856,0.994883,0.003360,0.502789,0.000025,0.000025,0.000009,0.000033,0.000016,44.158732,0.000051,
2386,2923,2.72238243731748,6.01414409958177,-0.00486908051726687,0.003081,-0.050482,0.010388,0.083892,-2.241895,316.123625,22.721913,0.999275,0.989625,0.004158,0.435560,-0.000003,-0.000009,0.000006,0.000001,-0.000013,33.306920,0.000014,
2476,2143,4.84167957704194,-11.023355060891,0.00668161021428659,0.002370,-0.054223,-0.010111,0.123521,-2.471996,329.078791,19.735493,0.998215,0.974748,0.006077,0.373751,0.000903,0.000841,-0.000110,0.000986,0.000757,-37.077136,0.001749,
2056,2803,-4.42807807577332,3.39024034460526,-0.0229906505353483,0.002302,-0.048532,0.005161,0.075681,-2.159472,318.745754,22.158734,0.999230,0.990572,0.003998,0.444240,0.000036,0.000003,-0.000010,0.000039,0.000000,-15.642147,0.000045,
2281,2413,0.529611611684132,-5.1070779814669,-0.00573504955804083,0.000273,-0.051181,0.000491,-0.008396,-2.303829,324.345552,21.495517,0.999185,0.986593,0.004774,0.423661,0.000239,0.000219,0.000005,0.000240,0.000218,12.681784,0.000459,
2221,2098,-0.724134804591014,-12.0066620357281,0.00929535301401074,-0.002263,-0.054145,-0.009955,-0.091332,-2.475072,329.578913,21.084514,0.998479,0.979428,0.005868,0.394798,0.000779,0.000830,0.000021,0.000838,0.000772,70.247804,0.001610,
2401,3013,3.03243384094596,7.97100623068338,0.00412195187305997,0.003373,-0.050149,0.006622,0.110571,-2.249830,314.766852,23.046224,0.999556,0.989302,0.004000,0.403348,0.000002,0.000006,0.000016,0.000020,-0.000013,48.667112,0.000020,
2416,3073,3.34806009885837,9.2742638238168,0.0185019369102406,0.003706,-0.050153,0.009862,0.113674,-2.233414,313.925099,23.234482,0.999655,0.991251,0.003761,0.463054,-0.000006,0.000012,0.000022,0.000026,-0.000021,56.287470,0.000028,
2206,2008,-1.03600851023441,-13.9834098334738,0.00834388127339025,-0.002911,-0.054737,-0.023227,-0.079416,-2.585726,331.067658,20.908943,0.999069,0.978741,0.005670,0.429775,0.000974,0.000949,0.000008,0.000977,0.000947,15.827737,0.001923,
2026,2728,-5.06824722459657,1.75774728584675,-0.0247085132605775,0.001797,-0.048316,0.003937,0.056611,-2.158384,320.107745,22.141479,0.999530,0.992147,0.003696,0.484077,0.000047,-0.000021,-0.000007,0.000048,-0.000022,-5.853374,0.000048,
2431,3208,3.64915996097451,12.2045090798625,0.0367188170679924,0.004042,-0.050386,0.011126,0.123857,-2.247761,311.895603,23.708515,0.999606,0.989491,0.003983,0.466992,0.000023,0.000003,-0.000010,0.000027,-0.000001,-21.949932,0.000031,
2146,3103,-2.520268121398,9.90486991479553,0.0256546333833398,0.003363,-0.049154,0.011800,0.101979,-2.186320,313.859590,22.310215,0.999827,0.996374,0.002727,0.491783,0.000007,0.000001,-0.000016,0.000020,-0.000012,-39.706097,0.000020,
2116,2998,-3.15436132821812,7.62594260637142,0.0102954433099853,0.003215,-0.048938,0.006069,0.113443,-2.181111,315.583716,22.196842,0.999473,0.992430,0.003533,0.477323,0.000020,-0.000010,0.000000,0.000020,-0.000010,0.458711,0.000020,
2251,2278,-0.100016855800643,-8.0603088560616,-0.000328276150014517,-0.000321,-0.051343,-0.006033,-0.013923,-2.331578,326.612465,21.332177,0.999352,0.985053,0.004848,0.421146,0.000437,0.000406,0.000015,0.000443,0.000400,22.227607,0.000843,
2011,2743,-5.39694438170653,2.08514190805366,-0.0355776648263486,0.001628,-0.048269,0.004750,0.046920,-2.158241,319.859565,22.201222,0.999531,0.992354,0.003587,0.410096,0.000038,-0.000033,-0.000006,0.000038,-0.000033,-4.491424,0.000041,
2506,2368,5.4504316745857,-6.09097574717434,0.00036752347870106,0.002554,-0.050790,-0.008821,0.128918,-2.321617,325.473975,20.519648,0.998622,0.979657,0.005866,0.521644,0.000434,0.000294,-0.000063,0.000458,0.000270,-21.036846,0.000736,
2296,2473,0.844903929052286,-3.79447567992901,-0.0161389133324974,0.000445,-0.050421,0.001621,-0.004261,-2.263049,323.274106,21.599315,0.998487,0.981776,0.005486,0.442101,0.000200,0.000134,0.000011,0.000201,0.000132,9.315523,0.000336,
2176,3223,-1.88759553771721,12.5077260001644,0.0525132181103913,0.004026,-0.049303,0.011273,0.132974,-2.189565,312.041421,22.579441,0.999730,0.995119,0.003003,0.422866,-0.000011,0.000019,-0.000017,0.000026,-0.000019,-65.490323,0.000027,
2341,2698,1.7844299598884,1.11414223020427,-0.013990179509392,0.001828,-0.050581,0.006547,0.041272,-2.242218,319.660407,22.001327,0.999687,0.992697,0.003691,0.515162,0.000062,0.000082,0.000012,0.000088,0.000056,65.099844,0.000145,
2266,2368,0.210291681359944,-6.08955802811219,-0.01490672115915,0.000197,-0.050729,-0.003079,0.000281,-2.289558,325.025831,21.460967,0.998902,0.983048,0.005257,0.435860,0.000289,0.000274,0.000009,0.000293,0.000269,26.051016,0.000563,
2491,2263,5.14372018249955,-8.38991854417388,-0.000563195388281201,0.002020,-0.051933,-0.007325,0.098075,-2.368828,327.091642,20.206322,0.998614,0.979059,0.005504,0.413294,0.000630,0.000458,-0.000108,0.000682,0.000406,-25.788915,0.001100,
2461,2068,4.53082826525206,-12.6734439732902,0.0223408368624405,0.002578,-0.055226,-0.014703,0.149619,-2.555750,330.411329,19.404999,0.998877,0.980487,0.005696,0.417009,0.001097,0.000987,-0.000117,0.001171,0.000913,-32.460058,0.002089,
2326,2593,1.47714415563911,-1.17452677883914,-0.0190588903715252,0.001575,-0.050263,0.002271,0.044964,-2.237404,321.331834,21.791751,0.999579,0.991354,0.003791,0.487443,0.000120,0.000081,0.000021,0.000129,0.000072,23.768603,0.000203,
2161,3193,-2.20856482222946,11.8558216370095,0.0437613315773433,0.003829,-0.049492,0.012400,0.120865,-2.203154,312.501347,22.406770,0.999618,0.993544,0.003282,0.489343,-0.000002,0.000019,-0.000017,0.000028,-0.000011,-61.483020,0.000028,
2086,2863,-3.78492524354589,4.69423993181888,-0.00794056673584009,0.002872,-0.048753,0.005070,0.101378,-2.173875,317.761025,22.166377,0.999417,0.991019,0.003928,0.444297,0.000012,0.000003,-0.000016,0.000024,-0.000009,-37.097106,0.000024,
2071,2833,-4.10645919764183,4.04153057454468,-0.00555776546855213,0.002177,-0.049074,0.008247,0.060539,-2.187459,318.306611,22.184765,0.999496,0.991553,0.003692,0.396681,0.000035,0.000001,-0.000016,0.000041,-0.000005,-21.142186,0.000045,
2236,2263,-0.424735018307477,-8.38858133002667,0.000535971097463062,-0.000712,-0.051520,-0.006440,-0.030635,-2.352902,326.874249,21.398078,0.999025,0.982542,0.005358,0.374779,0.000458,0.000437,0.000023,0.000472,0.000422,32.983402,0.000895,
2056,2818,-4.43010844840122,3.71588941867063,-0.0205556650724361,0.002429,-0.048579,0.004741,0.082760,-2.154763,318.529762,22.129457,0.999247,0.989820,0.004062,0.472494,0.000036,0.000010,-0.000010,0.000039,0.000006,-19.056549,0.000049,
2131,3073,-2.84008200581825,9.25339636737257,0.0303640145253894,0.003599,-0.049032,0.012360,0.111747,-2.188035,314.460522,22.308091,0.999637,0.994264,0.003358,0.425264,0.000012,-0.000001,-0.000011,0.000019,-0.000007,-29.901277,0.000019,
2431,3223,3.64611161302426,12.5298784920094,0.0395329267316811,0.003844,-0.050678,0.012419,0.109845,-2.263335,311.658998,23.784015,0.999562,0.990777,0.003806,0.424342,0.000021,0.000000,-0.000010,0.000025,-0.000004,-21.501780,0.000027,
2101,2908,-3.46585776174316,5.67160530313117,0.00167840193819302,0.003060,-0.048891,0.005616,0.108077,-2.164953,317.041976,22.149617,0.999263,0.992048,0.003956,0.494773,0.000019,0.000001,-0.000008,0.000021,-0.000002,-20.816621,0.000024,
2041,2758,-4.74671728825931,2.40941718421542,-0.0190116532333491,0.002149,-0.048923,0.007102,0.063520,-2.164242,319.585004,22.047217,0.999296,0.991367,0.003986,0.559997,0.000047,-0.000030,-0.000013,0.000049,-0.000032,-9.669885,0.000050,
2476,2158,4.8386904176206,-10.6944115274072,0.00425384807334694,0.002356,-0.053624,-0.013580,0.136254,-2.493148,328.829199,19.779368,0.998309,0.971990,0.006420,0.368247,0.000865,0.000762,-0.000124,0.000948,0.000679,-33.699835,0.001634,
2026,2743,-5.07061728934334,2.08374655826056,-0.0211779278243966,0.001656,-0.048563,0.006720,0.042359,-2.159074,319.880016,22.136632,0.999369,0.990548,0.003989,0.478543,0.000038,-0.000023,-0.000007,0.000039,-0.000024,-6.508008,0.000040,
2506,2383,5.4464200719625,-5.76167582336126,-0.00102826469770889,0.001961,-0.050984,-0.006775,0.093805,-2.319641,325.183264,20.664496,0.998492,0.980664,0.005537,0.441687,0.000412,0.000254,-0.000083,0.000447,0.000218,-23.205083,0.000679,
2401,3028,3.02973468081133,8.29640499172971,0.00887040606420442,0.003353,-0.050191,0.008307,0.103617,-2.223211,314.554348,23.048389,0.999586,0.989467,0.004005,0.472563,0.000002,0.000009,0.000013,0.000019,-0.000008,52.155643,0.000019,
2116,3013,-3.15620212262645,7.95099288538593,0.0159312569886083,0.003462,-0.048847,0.005977,0.125089,-2.184011,315.398129,22.193328,0.998895,0.988898,0.004209,0.480629,0.000022,-0.000005,-0.000002,0.000023,-0.000005,-5.101938,0.000024,
2491,2278,5.14116586603646,-8.06124333271028,0.00114801036221479,0.002280,-0.052052,-0.008972,0.116209,-2.364392,326.881171,20.286189,0.998894,0.980866,0.005313,0.398844,0.000590,0.000417,-0.000087,0.000626,0.000381,-22.570278,0.001017,
2206,2023,-1.03790180400702,-13.6549973657628,0.0190129167094142,-0.002669,-0.054865,-0.018243,-0.084110,-2.566849,330.910864,20.958537,0.998898,0.980266,0.005553,0.418909,0.000941,0.000931,0.000017,0.000954,0.000918,36.357727,0.001872,
2386,2938,2.71930347013969,6.33996141199687,-0.00120233258189728,0.002750,-0.050654,0.012152,0.062239,-2.251685,315.887838,22.768914,0.999304,0.989443,0.004129,0.421447,-0.000003,-0.000009,0.000004,-0.000001,-0.000011,27.125459,0.000013,
2266,2383,0.207807004255809,-5.76217027795055,-0.0158494153707807,0.000624,-0.051234,-0.000653,0.011659,-2.314500,324.787286,21.460080,0.998256,0.979283,0.005707,0.438883,0.000271,0.000255,0.000012,0.000277,0.000249,27.118748,0.000526,
2461,2083,4.52661532327599,-12.343420171406,0.0202423400685916,0.002039,-0.055744,-0.009209,0.104172,-2.552730,330.105987,19.498036,0.998919,0.979252,0.005817,0.384980,0.001053,0.000975,-0.000112,0.001133,0.000895,-35.374084,0.002032,
2281,2428,0.527286969555885,-4.77913761116625,-0.00619975886843349,0.000581,-0.050744,-0.000869,0.010403,-2.293942,324.117645,21.529657,0.999454,0.988685,0.004410,0.428891,0.000225,0.000181,0.000003,0.000226,0.000181,3.580031,0.000407,
2086,2878,-3.78725053712287,5.01936346151216,-0.00677252238347137,0.002779,-0.048745,0.003730,0.100943,-2.184188,317.526952,22.110765,0.999422,0.991464,0.003894,0.488433,0.000013,0.000017,-0.000018,0.000033,-0.000003,-48.186343,0.000037,
2311,2533,1.1616127689296,-2.48525393422882,-0.0126338617570241,0.000991,-0.050513,0.000074,0.025784,-2.277607,322.348938,21.658640,0.999339,0.988278,0.004263,0.465758,0.000152,0.000105,0.000001,0.000152,0.000105,0.983697,0.000259,
2326,2608,1.47410283673963,-0.846905848781333,-0.0212681848366856,0.001542,-0.050310,0.002951,0.041061,-2.241120,321.065761,21.855341,0.999482,0.989459,0.004050,0.455418,0.000107,0.000071,0.000017,0.000113,0.000064,21.517643,0.000180,
2341,2713,1.78100737150899,1.44237575584543,-0.0220981623297689,0.001780,-0.050187,0.005704,0.042145,-2.242466,319.348914,22.103272,0.999450,0.989793,0.004013,0.450099,0.000055,0.000081,0.000013,0.000086,0.000050,66.956794,0.000138,
2506,2398,5.44196481883865,-5.43230626261414,-0.0113746107078896,0.001665,-0.051192,-0.004909,0.072954,-2.326771,324.832205,20.744297,0.998419,0.982959,0.005260,0.418204,0.000396,0.000221,-0.000067,0.000419,0.000198,-18.729219,0.000630,
2251,2293,-0.103176769635237,-7.73169853071242,-0.00460288261808728,-0.000618,-0.050988,-0.007134,-0.023853,-2.316905,326.324752,21.337985,0.999083,0.983565,0.005072,0.455795,0.000411,0.000389,0.000020,0.000423,0.000377,30.900644,0.000800,
2371,2833,2.41186849949444,4.05674545433015,-0.0189260182906992,0.002430,-0.050115,0.007268,0.065748,-2.229245,317.447952,22.452160,0.999676,0.990696,0.003881,0.442947,0.000016,0.000027,0.000008,0.000031,0.000012,61.792954,0.000045,
2011,2758,-5.39858592994259,2.41041938963554,-0.032100981322003,0.001994,-0.048257,0.004194,0.065274,-2.167156,319.664132,22.142473,0.999414,0.991929,0.003731,0.448006,0.000037,-0.000057,-0.000020,0.000041,-0.000061,-11.742371,0.000062,
2176,3238,-1.89017322163564,12.8325067279772,0.0494492012506953,0.004328,-0.049276,0.012662,0.142538,-2.191478,311.779855,22.552086,0.999715,0.994719,0.003076,0.459240,-0.000013,0.000009,-0.000017,0.000019,-0.000022,-61.515944,0.000024,
2356,2758,2.09890929675851,2.42369050144673,-0.0263101122181411,0.001920,-0.049931,0.004198,0.053606,-2.228396,318.592156,22.219476,0.999439,0.989316,0.003951,0.464963,0.000041,0.000070,0.000020,0.000080,0.000031,62.977857,0.000114,
2221,2113,-0.72738948502877,-11.6782275951533,0.0105002674503112,-0.002923,-0.054131,-0.008306,-0.126841,-2.488484,329.312568,21.094002,0.998692,0.980903,0.005542,0.394064,0.000747,0.000810,0.000021,0.000816,0.000741,72.926359,0.001557,
2041,2773,-4.74936755060754,2.73699433758274,-0.0242919525443881,0.002066,-0.048793,0.006090,0.062517,-2.172170,319.296148,22.133750,0.999038,0.989995,0.004164,0.458039,0.000046,-0.000017,-0.000010,0.000047,-0.000018,-8.762063,0.000048,
2431,3238,3.64259593794685,12.8557860541025,0.0322087318364197,0.004088,-0.050384,0.014832,0.112262,-2.248945,311.353328,23.825248,0.999573,0.991951,0.003629,0.446142,0.000021,-0.000007,-0.000011,0.000025,-0.000011,-19.970224,0.000025,
2416,3088,3.34546028330427,9.60015985341861,0.0227250185886305,0.003746,-0.050123,0.010220,0.114180,-2.241036,313.715258,23.327321,0.999656,0.992720,0.003529,0.409260,-0.000003,0.000009,0.000016,0.000021,-0.000015,55.368001,0.000021,
2146,3118,-2.52229081235489,10.2304692353448,0.0331851723667569,0.003259,-0.048833,0.010246,0.102033,-2.170392,313.677312,22.375172,0.999635,0.994711,0.003172,0.449286,0.000001,0.000005,-0.000017,0.000021,-0.000014,-47.799926,0.000021,
2161,3208,-2.21048786508331,12.1810716596149,0.0475090402063074,0.004100,-0.049188,0.010795,0.138353,-2.201450,312.304584,22.450835,0.999554,0.994064,0.003205,0.455759,-0.000004,0.000022,-0.000017,0.000030,-0.000012,-63.123881,0.000031,
2071,2848,-4.10938614084708,4.36875782692362,-0.014940571388081,0.002228,-0.048754,0.008672,0.061763,-2.170993,317.985305,22.207872,0.999668,0.993426,0.003346,0.386805,0.000027,0.000000,-0.000018,0.000036,-0.000008,-26.607415,0.000038,
2296,2488,0.842950717705786,-3.46705708174328,-0.0191047505872461,0.001004,-0.049934,-0.004230,0.041323,-2.263957,323.052069,21.594219,0.999258,0.987842,0.004460,0.477492,0.000184,0.000123,0.000004,0.000185,0.000123,3.362534,0.000309,
2236,2278,-0.427627165478114,-8.06027571264659,-0.00258337725205138,-0.000457,-0.051950,-0.001941,-0.033639,-2.348339,326.603391,21.392040,0.999103,0.983710,0.005049,0.408986,0.000437,0.000406,0.000018,0.000445,0.000397,24.394438,0.000843,
2056,2833,-4.43223262229041,4.041595587025,-0.0154803025633896,0.002375,-0.048669,0.005485,0.078103,-2.166406,318.324069,22.145671,0.999082,0.987039,0.004416,0.439091,0.000033,0.000002,-0.000014,0.000039,-0.000004,-20.809836,0.000043,
2206,2038,-1.04148575909662,-13.3243783065538,0.0111264792798806,-0.003015,-0.054782,-0.016045,-0.106897,-2.535954,330.581099,20.992981,0.998660,0.979470,0.005650,0.436224,0.000913,0.000902,0.000017,0.000925,0.000889,36.162817,0.001815,
2476,2173,4.8359687534547,-10.364541379115,0.00245101034556683,0.002723,-0.053212,-0.015171,0.159256,-2.455949,328.594250,19.861832,0.997536,0.964321,0.007157,0.382319,0.000815,0.000726,-0.000129,0.000908,0.000634,-35.499737,0.001550,
2101,2923,-3.46855182453366,5.99735270951098,0.00211680731121078,0.002780,-0.048953,0.005901,0.094240,-2.186209,316.787947,22.169234,0.999191,0.990617,0.004048,0.454656,0.000021,-0.000004,-0.000002,0.000021,-0.000005,-5.029961,0.000022,
2026,2758,-5.07207227719046,2.40937530899822,-0.0193365268010552,0.002349,-0.048748,0.006459,0.074959,-2.161376,319.684906,22.089893,0.999015,0.989941,0.004249,0.513423,0.000038,-0.000044,-0.000019,0.000042,-0.000048,-12.314828,0.000052,
2491,2293,5.13754866294463,-7.73363646476507,0.00238663631961344,0.001917,-0.052327,-0.005711,0.087048,-2.375484,326.619894,20.284212,0.998930,0.981738,0.005241,0.450746,0.000558,0.000354,-0.000079,0.000585,0.000327,-18.782458,0.000924,
2506,2413,5.43995823828623,-5.1046761257572,-0.00847811070275384,0.002131,-0.050392,-0.009508,0.112403,-2.304650,324.652670,20.767612,0.998818,0.983951,0.005198,0.479328,0.000376,0.000215,-0.000044,0.000388,0.000204,-14.358313,0.000601,
2116,3028,-3.15882786011334,8.27665929284308,0.0175910622618289,0.003374,-0.048960,0.008817,0.112590,-2.179186,315.154898,22.215778,0.999262,0.991174,0.003813,0.465561,0.000023,-0.000005,-0.000005,0.000024,-0.000006,-8.921056,0.000025,
2131,3088,-2.84209123251544,9.57818171338798,0.035165441870106,0.003541,-0.048924,0.008923,0.119491,-2.182303,314.263751,22.283403,0.999815,0.995513,0.003087,0.460443,0.000009,0.000002,-0.000013,0.000019,-0.000008,-37.185029,0.000019,
2386,2953,2.7165573784376,6.66570292713237,0.000355933851096779,0.002775,-0.050732,0.012118,0.063498,-2.259479,315.657298,22.795817,0.999234,0.988545,0.004270,0.429389,-0.000003,-0.000017,0.000008,0.000001,-0.000020,23.819946,0.000023,
2326,2623,1.47206917214143,-0.520906262799649,-0.0156432620709097,0.001585,-0.049924,-0.000751,0.055925,-2.245719,320.884511,21.842794,0.999527,0.988674,0.004095,0.498287,0.000094,0.000067,0.000011,0.000098,0.000064,19.457629,0.000163,
2461,2098,4.52304570813005,-12.0122101949463,0.0111861298497615,0.001981,-0.055120,-0.012656,0.114728,-2.540486,329.798231,19.619363,0.999463,0.981692,0.005372,0.333646,0.001008,0.000932,-0.000118,0.001094,0.000846,-36.104726,0.001946,
2011,2773,-5.40033638973057,2.7369534255307,-0.0303866996995339,0.002218,-0.047936,0.001206,0.083819,-2.153795,319.453392,22.166986,0.999440,0.991551,0.003854,0.424967,0.000040,-0.000045,-0.000017,0.000043,-0.000049,-11.131327,0.000054,
2311,2548,1.15825343096015,-2.15718069924832,-0.0182897104447193,0.000844,-0.050232,0.000478,0.017781,-2.251465,322.050090,21.683011,0.999167,0.985884,0.004710,0.500958,0.000143,0.000099,0.000008,0.000144,0.000097,10.157711,0.000243,
2281,2443,0.524186404796556,-4.45179249988666,-0.00947953940107027,0.000548,-0.051118,0.000906,0.002838,-2.295582,323.840273,21.499578,0.999512,0.989108,0.004347,0.486413,0.000215,0.000166,0.000009,0.000216,0.000165,9.686846,0.000382,
2401,3043,3.02769882426891,8.62146908926049,0.0190873840337531,0.003479,-0.050331,0.008938,0.107038,-2.234598,314.398295,23.096966,0.999619,0.990950,0.003816,0.457080,-0.000001,0.000015,0.000017,0.000025,-0.000011,57.450860,0.000025,
2041,2788,-4.75134348045011,3.06348036419583,-0.0222967320330554,0.002204,-0.048611,0.004913,0.072172,-2.173469,319.078872,22.175126,0.999118,0.988490,0.004181,0.407739,0.000036,-0.000004,-0.000009,0.000038,-0.000006,-11.981666,0.000041,
2266,2398,0.204983616022545,-5.43305241271367,-0.0175606096527758,0.000284,-0.050184,-0.004974,0.010729,-2.268002,324.528729,21.544049,0.998874,0.984826,0.005020,0.428627,0.000256,0.000240,0.000012,0.000262,0.000234,29.057955,0.000496,
2341,2728,1.77815135138,1.77030983019718,-0.0249041426966983,0.001895,-0.049970,0.004854,0.050495,-2.234756,319.089154,22.218077,0.999347,0.988755,0.004159,0.379853,0.000049,0.000073,0.000018,0.000083,0.000039,61.690094,0.000125,
2176,3253,-1.89333513952564,13.1576103022916,0.044938434266669,0.004369,-0.049626,0.017356,0.129714,-2.203880,311.483689,22.561102,0.999681,0.994665,0.003152,0.448599,-0.000014,0.000014,-0.000014,0.000020,-0.000020,-67.061312,0.000023,
2476,2188,4.83273835588629,-10.0350680796223,0.00423610216029147,0.002169,-0.052392,-0.018068,0.145252,-2.436913,328.352228,19.969803,0.997978,0.968497,0.006964,0.352925,0.000789,0.000705,-0.000125,0.000878,0.000615,-35.742230,0.001501,
2071,2863,-4.11103436825072,4.69343489882689,-0.00954861270963647,0.002500,-0.048809,0.006962,0.079118,-2.185429,317.804479,22.142537,0.999385,0.991235,0.003861,0.434134,0.000021,0.000001,-0.000021,0.000034,-0.000013,-32.628349,0.000035,
2356,2773,2.09668701884513,2.75041223458017,-0.0216293575787176,0.002047,-0.049789,0.002447,0.065690,-2.226590,318.398988,22.302019,0.999510,0.990071,0.003800,0.423056,0.000039,0.000054,0.000015,0.000063,0.000030,59.115319,0.000095,
2236,2293,-0.430488080731887,-7.73129166206608,-0.0118289582813418,-0.000440,-0.050975,-0.007319,-0.015115,-2.336374,326.302664,21.384539,0.999187,0.985218,0.004712,0.451838,0.000409,0.000387,0.000022,0.000423,0.000373,31.441658,0.000797,
2221,2128,-0.729364665440503,-11.3482948562586,0.00800852180378797,-0.002514,-0.052861,-0.013438,-0.091318,-2.439723,329.085290,21.143051,0.998553,0.980307,0.005533,0.415876,0.000720,0.000782,0.000022,0.000789,0.000713,72.273530,0.001502,
2251,2308,-0.105210538825897,-7.40353820832982,-0.00435394320010118,-0.000290,-0.050777,-0.010719,0.002998,-2.328407,326.111577,21.379519,0.998496,0.979698,0.005641,0.427947,0.000385,0.000354,0.000022,0.000396,0.000343,27.185019,0.000739,
2161,3223,-2.21289488967536,12.5058174153395,0.0540477745810222,0.004003,-0.049314,0.013707,0.125002,-2.188144,312.100533,22.456205,0.999642,0.994348,0.003116,0.472445,-0.000005,0.000022,-0.000023,0.000035,-0.000019,-60.079067,0.000035,
2056,2848,-4.43415408942825,4.36740017637337,-0.0163080447687776,0.002761,-0.048490,0.004157,0.099663,-2.163816,318.095067,22.116189,0.999299,0.990495,0.003921,0.465498,0.000025,0.000002,-0.000018,0.000035,-0.000008,-28.541246,0.000037,
2026,2773,-5.07481528602171,2.73722583821971,-0.02659022268341,0.002273,-0.048585,0.005624,0.073821,-2.162766,319.379370,22.179240,0.999257,0.991161,0.004114,0.412803,0.000042,-0.000032,-0.000015,0.000045,-0.000035,-10.761722,0.000047,
2506,2428,5.43729318485531,-4.77805540647915,0.00204177852037901,0.002121,-0.051353,-0.004398,0.091806,-2.325155,324.477086,20.817825,0.998614,0.981525,0.005603,0.470803,0.000364,0.000198,-0.000025,0.000368,0.000194,-8.274954,0.000571,
2086,2893,-3.78951673909153,5.34466350814262,0.000540090225911172,0.002812,-0.049383,0.009519,0.085499,-2.202045,317.329031,22.127664,0.999430,0.993226,0.003695,0.452036,0.000013,0.000011,-0.000017,0.000029,-0.000005,-44.023338,0.000031,
2431,3253,3.63907728947153,13.1821360467837,0.0201907372336336,0.004355,-0.050352,0.012837,0.131988,-2.248738,311.025384,23.900022,0.999560,0.992300,0.003503,0.420300,0.000019,-0.000008,-0.000009,0.000022,-0.000010,-16.673735,0.000022,
2416,3103,3.34298365605155,9.92589814919983,0.0235896445672097,0.003945,-0.050154,0.007662,0.132711,-2.242881,313.495313,23.382063,0.999779,0.995188,0.003134,0.399519,0.000002,0.000008,0.000014,0.000020,-0.000010,51.174707,0.000020,
2011,2788,-5.4024241191782,3.06255066829139,-0.0231786585571285,0.002000,-0.047805,0.001947,0.071845,-2.128743,319.258373,22.140805,0.999446,0.991356,0.003859,0.463874,0.000035,-0.000030,-0.000022,0.000041,-0.000037,-17.021766,0.000045,
2371,2848,2.40916562017675,4.38307557685273,-0.0189206091845904,0.002445,-0.049833,0.005319,0.073486,-2.217488,317.211108,22.473929,0.999576,0.989764,0.003970,0.473905,0.000012,0.000021,0.000009,0.000026,0.000007,58.250604,0.000035,
2296,2503,0.839111263775752,-3.13797144248426,-0.0263077922292609,0.000660,-0.050109,-0.001200,0.015227,-2.259391,322.722155,21.703475,0.999665,0.992081,0.003796,0.404236,0.000168,0.000110,0.000001,0.000168,0.000110,1.132403,0.000281,
2206,2053,-1.04477734660869,-12.9927057340789,-0.000678658073923089,-0.003024,-0.054176,-0.017208,-0.103409,-2.535878,330.244536,21.116951,0.998083,0.975312,0.006212,0.333012,0.000882,0.000883,0.000021,0.000903,0.000862,45.449261,0.001765,
2131,3103,-2.84446284620024,9.90344488364538,0.0365403947961909,0.003610,-0.048954,0.009486,0.120974,-2.180530,314.031840,22.288414,0.999799,0.995729,0.002960,0.461580,0.000006,0.000005,-0.000015,0.000021,-0.000010,-43.521072,0.000021,
2146,3133,-2.52437926157968,10.5547767740304,0.0367423424967797,0.003592,-0.049227,0.012313,0.110985,-2.174330,313.471371,22.319398,0.999460,0.993869,0.003452,0.507989,0.000001,0.000007,-0.000021,0.000025,-0.000017,-49.464642,0.000025,
2491,2308,5.13449286386636,-7.40374208655377,0.00154821108509395,0.001820,-0.051575,-0.008208,0.092496,-2.350397,326.374570,20.439455,0.998439,0.979391,0.005678,0.381721,0.000544,0.000317,-0.000078,0.000569,0.000293,-17.242941,0.000876,
2476,2203,4.82962702334239,-9.7063713532429,0.00467187376233369,0.002633,-0.052752,-0.011500,0.141459,-2.415041,328.109543,19.994845,0.998039,0.969353,0.006697,0.409080,0.000742,0.000651,-0.000120,0.000825,0.000568,-34.588922,0.001401,
2101,2938,-3.47101361967622,6.32328768211177,0.00510268422789295,0.002770,-0.048937,0.009293,0.083851,-2.178623,316.558259,22.199480,0.999219,0.990789,0.003995,0.432752,0.000018,-0.000007,-0.000004,0.000018,-0.000008,-9.673023,0.000018,
2461,2113,4.51931978691435,-11.6818082575895,0.000334435482784556,0.002077,-0.054299,-0.013995,0.124473,-2.499610,329.474943,19.625479,0.999370,0.977955,0.005790,0.426652,0.000969,0.000904,-0.000114,0.001055,0.000818,-37.141750,0.001878,
2506,2443,5.43357019852143,-4.44963236981588,4.14064512597179E-05,0.001838,-0.051371,-0.002586,0.071861,-2.320843,324.196666,20.894568,0.998737,0.981824,0.005461,0.461085,0.000361,0.000161,-0.000013,0.000362,0.000160,-3.673870,0.000535,
2041,2803,-4.75334447810955,3.38931503847832,-0.0219331283022939,0.002488,-0.048441,0.004933,0.085256,-2.163429,318.851601,22.137042,0.999285,0.990571,0.003832,0.448225,0.000035,-0.000004,-0.000008,0.000036,-0.000006,-10.710787,0.000039,
2011,2803,-5.40498167754091,3.38800774266031,-0.0265365268016353,0.002035,-0.048267,0.004283,0.066906,-2.160283,318.982701,22.080298,0.999335,0.991764,0.003835,0.481028,0.000041,-0.000029,-0.000020,0.000047,-0.000035,-14.931339,0.000048,
2266,2413,0.203001961477838,-5.10719789732591,-0.00489551229907192,0.000225,-0.050569,-0.002530,-0.000181,-2.281129,324.381644,21.530702,0.999072,0.986235,0.004728,0.455502,0.000236,0.000220,0.000007,0.000238,0.000217,20.022340,0.000455,
2176,3268,-1.89718698195634,13.4833915920125,0.0286305788113737,0.004116,-0.049561,0.016064,0.122046,-2.209848,311.093496,22.565477,0.999595,0.993824,0.003289,0.449034,-0.000013,0.000013,-0.000020,0.000024,-0.000025,-61.259700,0.000028,
2071,2878,-4.11375055693881,5.01943736760211,-0.0131589544836856,0.002286,-0.048818,0.005506,0.073435,-2.186306,317.524912,22.123021,0.999221,0.989338,0.004270,0.449490,0.000023,0.000016,-0.000024,0.000044,-0.000005,-41.186209,0.000048,
2311,2563,1.15591104555654,-1.83067338401501,-0.0106985139933045,0.001031,-0.050890,0.004992,0.010713,-2.261089,321.863408,21.721728,0.999026,0.986955,0.004639,0.485574,0.000125,0.000100,0.000015,0.000132,0.000093,24.824615,0.000226,
2431,3268,3.63524146459751,13.5081414568647,0.0151067718388163,0.004088,-0.050405,0.015100,0.111362,-2.235642,310.715179,23.973937,0.999682,0.993133,0.003358,0.407837,0.000018,-0.000015,-0.000007,0.000020,-0.000017,-11.338197,0.000021,
2056,2863,-4.43615700365111,4.69266629878689,-0.00718884723858082,0.002576,-0.048422,0.004798,0.089306,-2.166669,317.917406,22.120854,0.999235,0.991158,0.003898,0.452218,0.000016,0.000001,-0.000022,0.000032,-0.000015,-35.668459,0.000032,
2281,2458,0.521505321645584,-4.12354028419574,-0.00643037405450286,0.000576,-0.051054,0.004022,-0.006232,-2.259062,323.613294,21.578659,0.999590,0.990095,0.004254,0.473015,0.000200,0.000150,0.000013,0.000204,0.000147,13.808097,0.000352,
2026,2788,-5.07707548825269,3.06310179062588,-0.0259645094332086,0.002122,-0.048248,0.003431,0.073004,-2.144008,319.140517,22.133923,0.999398,0.991745,0.003813,0.467092,0.000037,-0.000017,-0.000014,0.000040,-0.000020,-13.689355,0.000040,
2116,3043,-3.16090121589388,8.60258521612997,0.0298771918922967,0.003226,-0.049380,0.012736,0.094026,-2.180960,314.994161,22.342288,0.999571,0.992974,0.003487,0.339877,0.000019,-0.000009,-0.000009,0.000021,-0.000012,-16.126687,0.000021,
2401,3058,3.02458960414429,8.94776723053824,0.0189175355639577,0.003405,-0.050151,0.010158,0.099287,-2.225128,314.143309,23.173581,0.999669,0.992117,0.003644,0.434736,-0.000003,0.000006,0.000021,0.000023,-0.000020,51.135098,0.000025,
2221,2143,-0.731167116746821,-11.0189784284114,0.00473032681577479,-0.001524,-0.052570,-0.013545,-0.045503,-2.435594,328.862188,21.177659,0.998749,0.982492,0.005314,0.407138,0.000690,0.000721,0.000029,0.000739,0.000673,59.140394,0.001412,
2416,3118,3.33990415299151,10.251635210653,0.0260345795722401,0.003750,-0.050142,0.009306,0.117787,-2.228758,313.254941,23.434538,0.999830,0.995382,0.002976,0.407718,0.000007,0.000012,0.000011,0.000021,-0.000002,51.033444,0.000024,
2431,3283,3.63242897559848,13.8331404510215,0.0105724195585708,0.004456,-0.050330,0.013143,0.135521,-2.244676,310.454973,23.984300,0.999784,0.993763,0.003171,0.437068,0.000023,-0.000018,-0.000009,0.000025,-0.000020,-12.157305,0.000026,
2326,2638,1.46876585047514,-0.193265144491605,-0.0198949740232024,0.001559,-0.050155,0.001435,0.047115,-2.251071,320.596335,21.902061,0.999366,0.988524,0.004177,0.468704,0.000086,0.000064,0.000011,0.000090,0.000060,23.173720,0.000151,
2341,2743,1.77600404674239,2.09557104808105,-0.0179329139240281,0.002033,-0.050063,0.004926,0.056543,-2.233813,318.910015,22.176955,0.999524,0.990136,0.003918,0.458658,0.000044,0.000071,0.000021,0.000082,0.000032,61.376356,0.000118,
2386,2968,2.71346655855723,6.99225055553536,-0.00120838519256949,0.002816,-0.051004,0.013485,0.060405,-2.256981,315.395738,22.869043,0.999510,0.990650,0.003982,0.401339,-0.000007,-0.000011,0.000013,0.000004,-0.000022,40.394595,0.000024,
2356,2788,2.09425062195578,3.07621089861767,-0.0176790647614098,0.002173,-0.049975,0.002774,0.070281,-2.230085,318.192656,22.303179,0.999706,0.992959,0.003496,0.457082,0.000036,0.000047,0.000013,0.000056,0.000027,56.574665,0.000085,
2296,2518,0.836047378791005,-2.81050358530159,-0.0302588787678815,0.000702,-0.049922,-0.000027,0.013277,-2.250290,322.444162,21.695061,0.999596,0.991150,0.003866,0.453062,0.000157,0.000106,0.000005,0.000158,0.000106,5.026060,0.000265,
2236,2308,-0.433169980643719,-7.40252740113984,-0.0147782294994272,-0.000318,-0.050975,-0.007571,-0.008732,-2.333230,326.042148,21.435091,0.998836,0.984157,0.004962,0.427817,0.000381,0.000351,0.000022,0.000393,0.000339,27.548422,0.000733,
2086,2908,-3.79190437171869,5.67128903693622,-0.00246579186983809,0.002836,-0.048847,0.006726,0.094879,-2.176555,317.068821,22.152099,0.999393,0.992139,0.003776,0.451920,0.000013,-0.000001,-0.000015,0.000023,-0.000011,-32.969602,0.000023,
2491,2323,5.13092344323708,-7.07466199774966,-0.00231698097434219,0.002218,-0.051929,-0.001691,0.085670,-2.307998,326.092008,20.478155,0.998439,0.980496,0.005582,0.446629,0.000507,0.000297,-0.000067,0.000527,0.000277,-16.379181,0.000817,
2071,2893,-4.11622407625199,5.34559999286335,-0.00729372846006981,0.002176,-0.048900,0.011245,0.051990,-2.161910,317.308328,22.166718,0.999401,0.991796,0.003842,0.426334,0.000020,0.000011,-0.000025,0.000041,-0.000010,-40.004739,0.000042,
2506,2458,5.42982768598135,-4.12039761079134,-0.00759016691495162,0.001910,-0.050943,-0.002001,0.073139,-2.273214,323.889874,20.955185,0.998953,0.985464,0.004854,0.511045,0.000345,0.000144,-0.000017,0.000347,0.000142,-4.798044,0.000503,
2206,2068,-1.04617880126865,-12.6655217925573,0.0140473107101684,-0.002539,-0.054431,-0.011725,-0.098624,-2.519032,330.131216,21.116463,0.998612,0.978970,0.005801,0.369672,0.000854,0.000873,0.000028,0.000893,0.000833,54.461996,0.001727,
2041,2818,-4.75577797775016,3.71479804699773,-0.0174150583758887,0.002174,-0.048573,0.006346,0.066828,-2.159108,318.627717,22.108433,0.999199,0.990531,0.003931,0.473535,0.000034,0.000003,-0.000006,0.000035,0.000002,-10.022317,0.000041,
2011,2818,-5.40739726812082,3.71301486286021,-0.0251733753293593,0.001997,-0.048906,0.007692,0.055739,-2.175684,318.740183,22.003228,0.998993,0.990477,0.004015,0.530541,0.000041,-0.000025,-0.000016,0.000045,-0.000028,-12.750220,0.000045,
2176,3283,-1.8996398408058,13.8086546769999,0.0222198747955531,0.004382,-0.049444,0.011655,0.148058,-2.214567,310.819810,22.580607,0.999678,0.994781,0.003063,0.440012,-0.000015,0.000016,-0.000017,0.000023,-0.000022,-65.838044,0.000026,
2266,2428,0.200317847956995,-4.77855600694388,-0.0095150675771265,0.000561,-0.050326,-0.002379,0.014821,-2.257770,324.115003,21.576169,0.999202,0.987448,0.004532,0.460722,0.000222,0.000183,0.000003,0.000222,0.000183,4.501261,0.000405,
2161,3238,-2.21586010245118,12.8313257944686,0.0459265734905898,0.004049,-0.049331,0.012379,0.131086,-2.208429,311.792996,22.485220,0.999691,0.994344,0.003106,0.431797,-0.000007,0.000013,-0.000024,0.000029,-0.000023,-56.343294,0.000030,
2251,2323,-0.108597331982228,-7.0746999670337,-0.00547242130738823,-0.000423,-0.050995,-0.003294,-0.027438,-2.276393,325.829126,21.411424,0.998666,0.982254,0.005372,0.473715,0.000361,0.000323,0.000016,0.000367,0.000317,19.560021,0.000685,
2131,3118,-2.84731816863344,10.2291538993179,0.0334498696532819,0.003551,-0.048890,0.010980,0.113759,-2.175363,313.753646,22.307119,0.999724,0.995351,0.003082,0.452604,0.000002,0.000007,-0.000018,0.000023,-0.000014,-48.903730,0.000023,
2431,3298,3.62899204503973,14.1581650770688,0.00238137958325524,0.004570,-0.050222,0.012130,0.144565,-2.249796,310.148824,23.977841,0.999779,0.993758,0.003135,0.487026,0.000028,-0.000015,-0.000018,0.000035,-0.000021,-20.243097,0.000035,
2101,2953,-3.47380250872923,6.6492209482492,0.00345472288972815,0.002724,-0.049075,0.012584,0.072099,-2.169249,316.288475,22.199212,0.999374,0.991400,0.003784,0.442973,0.000022,-0.000009,-0.000003,0.000023,-0.000009,-5.667003,0.000023,
2146,3148,-2.52711967835523,10.8805630177023,0.0307308513932867,0.003729,-0.048978,0.011673,0.119255,-2.186602,313.184036,22.353365,0.999492,0.992888,0.003536,0.468597,-0.000002,0.000009,-0.000020,0.000024,-0.000017,-52.037488,0.000025,
2026,2803,-5.07911923707809,3.38857446990323,-0.0247886682261083,0.002394,-0.048449,0.005194,0.080564,-2.163708,318.914888,22.098389,0.999425,0.992134,0.003680,0.472929,0.000041,-0.000017,-0.000011,0.000043,-0.000019,-10.908252,0.000043,
2056,2878,-4.43873287038614,5.01824391295924,-0.00695151129161786,0.002424,-0.048700,0.006358,0.077823,-2.174415,317.664424,22.096888,0.999178,0.989812,0.004165,0.462877,0.000018,0.000017,-0.000026,0.000043,-0.000008,-44.734801,0.000046,
2281,2473,0.518472114482268,-3.79590743895411,-0.00870891126334072,0.000485,-0.050867,0.005069,-0.013847,-2.252259,323.343828,21.586039,0.999356,0.988532,0.004438,0.501622,0.000189,0.000141,0.000009,0.000191,0.000139,10.052526,0.000331,
2461,2128,4.51697397945557,-11.3532610531192,0.0061097456277821,0.002422,-0.054608,-0.012433,0.134274,-2.490275,329.290851,19.680716,0.999401,0.975341,0.006046,0.437921,0.000932,0.000878,-0.000109,0.001017,0.000793,-38.020471,0.001814,
2416,3133,3.33685720891556,10.5760350109533,0.0281025253800635,0.003638,-0.049961,0.011275,0.105506,-2.214508,313.014661,23.364835,0.999869,0.995416,0.002874,0.538438,0.000013,0.000008,0.000006,0.000017,0.000004,34.646053,0.000023,
2326,2653,1.46503231231333,0.134809945770698,-0.0277278223657618,0.001443,-0.050326,0.004512,0.031121,-2.234783,320.270693,21.954811,0.999389,0.989800,0.004035,0.467266,0.000077,0.000061,0.000008,0.000080,0.000058,22.277480,0.000139,
2116,3058,-3.16332446148748,8.92639155670493,0.0259129488605936,0.003371,-0.049042,0.010474,0.107468,-2.187605,314.730621,22.175306,0.999568,0.993091,0.003533,0.502861,0.000022,-0.000008,-0.000010,0.000025,-0.000011,-16.936003,0.000025,
2176,3298,-1.90272614088477,14.133939068629,0.0140340829827323,0.004416,-0.049416,0.011387,0.150445,-2.221851,310.507629,22.595368,0.999825,0.996385,0.002564,0.428871,-0.000016,0.000038,-0.000022,0.000046,-0.000024,-70.066171,0.000046,
2446,1993,4.21646257527928,-14.3198305189381,0.0023580518781614,0.002357,-0.057177,-0.021014,0.161789,-2.698190,331.434010,19.212349,0.998971,0.977293,0.005897,0.285067,0.001239,0.001044,-0.000113,0.001291,0.000992,-24.543996,0.002290,
2491,2338,5.12722571908995,-6.74556190267828,-0.00128681791272811,0.001409,-0.051352,-0.003096,0.054240,-2.305583,325.825606,20.612692,0.998857,0.984638,0.005396,0.375415,0.000477,0.000274,-0.000069,0.000499,0.000252,-17.170176,0.000764,
2506,2473,5.42602354490475,-3.79181662092677,-0.0091381861079185,0.001636,-0.051169,0.001290,0.047744,-2.293269,323.607601,21.085834,0.999248,0.984684,0.004732,0.422757,0.000316,0.000133,-0.000014,0.000317,0.000132,-4.273976,0.000462,
2311,2578,1.15249400385145,-1.50087531630425,-0.0255262482123726,0.001217,-0.050094,0.001348,0.031993,-2.243691,321.516370,21.842978,0.999495,0.990781,0.003897,0.415151,0.000118,0.000099,0.000019,0.000130,0.000087,31.973517,0.000218,
2476,2218,4.8262202757654,-9.37600393794065,0.0035833550919051,0.002444,-0.051992,-0.010831,0.130655,-2.382431,327.846128,20.151259,0.999005,0.979629,0.005757,0.344698,0.000702,0.000596,-0.000109,0.000770,0.000528,-32.124601,0.001306,
2356,2803,2.09209104631028,3.40179274210188,-0.00914272355737467,0.002351,-0.050175,0.004761,0.071356,-2.241445,318.021179,22.331402,0.999814,0.994444,0.003352,0.456332,0.000034,0.000033,0.000011,0.000044,0.000023,42.851487,0.000068,
2296,2533,0.83325392511885,-2.48427060772474,-0.0370164436686764,0.001066,-0.050167,-0.000908,0.032827,-2.282990,322.165033,21.595368,0.999694,0.993455,0.003476,0.551060,0.000148,0.000103,-0.000002,0.000148,0.000103,-2.595584,0.000252,
2341,2758,1.77328619583819,2.42196330855084,-0.0145424657138165,0.001954,-0.050115,0.005976,0.049229,-2.231532,318.686966,22.213676,0.999535,0.990308,0.003962,0.461009,0.000041,0.000064,0.000021,0.000076,0.000028,59.568212,0.000108,
2041,2833,-4.75808251810403,4.04061246640681,-0.0130092710647887,0.002025,-0.048658,0.008185,0.054846,-2.146955,318.409019,22.105306,0.999063,0.988735,0.004166,0.480873,0.000031,-0.000001,-0.000010,0.000034,-0.000004,-16.494842,0.000037,
2386,2983,2.71154416245072,7.31796708736888,0.00500443476363444,0.003256,-0.050396,0.012913,0.082953,-2.226459,315.225086,22.895327,0.999479,0.989751,0.004161,0.448443,-0.000006,-0.000006,0.000014,0.000008,-0.000020,44.695301,0.000020,
2161,3253,-2.21907324028365,13.1568381251057,0.0332976246742192,0.004245,-0.049201,0.012486,0.139885,-2.198749,311.450177,22.464456,0.999654,0.994281,0.003161,0.471029,-0.000008,0.000017,-0.000021,0.000030,-0.000020,-60.145430,0.000030,
2086,2923,-3.79475269401019,5.99718353742675,-0.00378898922508597,0.002506,-0.048956,0.007286,0.077967,-2.189876,316.796967,22.164758,0.999338,0.991170,0.003822,0.424493,0.000014,-0.000007,-0.000010,0.000017,-0.000010,-21.693671,0.000017,
2071,2908,-4.11814070400221,5.67111422415154,-0.00726472842404746,0.002542,-0.048758,0.009858,0.072842,-2.162610,317.085549,22.137160,0.999540,0.992112,0.003634,0.451793,0.000020,-0.000003,-0.000022,0.000034,-0.000017,-31.349586,0.000034,
2371,2863,2.40683073862983,4.70870264765084,-0.0126236674386746,0.002670,-0.050314,0.007624,0.075394,-2.251881,317.021518,22.528099,0.999517,0.990535,0.003878,0.425875,0.000009,0.000021,0.000007,0.000025,0.000005,64.594126,0.000032,
2221,2158,-0.733807458845579,-10.6891121508834,0.00162518798276778,-0.001410,-0.051875,-0.014066,-0.038393,-2.384539,328.601309,21.223457,0.998760,0.984781,0.005242,0.434063,0.000659,0.000694,0.000033,0.000714,0.000639,59.175377,0.001354,
2236,2323,-0.436082810448465,-7.07429618143964,-0.0169205108653045,-0.000321,-0.050827,-0.005450,-0.015674,-2.316809,325.775164,21.437268,0.998754,0.985593,0.004835,0.465305,0.000356,0.000322,0.000015,0.000362,0.000316,21.039127,0.000679,
2026,2818,-5.08146378602356,3.71384453463737,-0.0206914013342612,0.002189,-0.048795,0.006899,0.066341,-2.163355,318.691842,22.050822,0.999292,0.991775,0.003721,0.510927,0.000038,-0.000010,-0.000008,0.000040,-0.000012,-8.939095,0.000041,
2011,2833,-5.40837526216358,4.03977668326674,-0.0117034594085226,0.002353,-0.048303,0.005461,0.078360,-2.160214,318.630896,22.151818,0.999602,0.994038,0.003553,0.385093,0.000039,-0.000025,-0.000021,0.000045,-0.000031,-17.031515,0.000046,
2401,3073,3.02183490671763,9.27346519648192,0.0200333390193919,0.003568,-0.050065,0.011207,0.102997,-2.227646,313.910844,23.219149,0.999602,0.991635,0.003712,0.431129,-0.000002,0.000011,0.000020,0.000026,-0.000017,54.044777,0.000026,
2206,2083,-1.04977496119621,-12.3355259533201,0.0059184764982092,-0.003020,-0.053990,-0.011501,-0.121242,-2.491924,329.799652,21.113715,0.998712,0.978502,0.005805,0.419962,0.000825,0.000852,0.000029,0.000870,0.000807,57.385518,0.001677,
2101,2968,-3.47540834643319,6.97426361925289,0.0104635727017239,0.002912,-0.049192,0.009643,0.089250,-2.193325,316.120204,22.214550,0.999532,0.991315,0.003652,0.404108,0.000023,-0.000010,-0.000005,0.000024,-0.000010,-8.276176,0.000024,
2266,2443,0.197923035271419,-4.45039652335677,-0.0105396780550677,0.000651,-0.050463,-0.006067,0.031041,-2.304411,323.879961,21.686573,0.999526,0.988904,0.004331,0.330438,0.000210,0.000170,0.000007,0.000212,0.000169,10.116777,0.000382,
2506,2488,5.42307673773047,-3.46401965787216,-0.0113459687982527,0.001689,-0.050756,-0.002210,0.063913,-2.275995,323.361678,21.106173,0.999430,0.985265,0.004660,0.482145,0.000298,0.000107,-0.000021,0.000300,0.000104,-6.205171,0.000420,
2491,2353,5.12481315965421,-6.41843424785858,-0.00189116924673272,0.001621,-0.050767,-0.009076,0.087093,-2.301932,325.611022,20.554093,0.998788,0.984760,0.005491,0.498390,0.000455,0.000284,-0.000062,0.000475,0.000264,-18.035916,0.000749,
2131,3133,-2.84923626119554,10.5537906447416,0.0376855626633414,0.003897,-0.049289,0.011661,0.127543,-2.191130,313.558118,22.297268,0.999663,0.994967,0.003098,0.451357,0.000002,0.000008,-0.000021,0.000027,-0.000017,-49.400807,0.000027,
2461,2143,4.51306905018528,-11.0232539698205,0.00112280441771873,0.002110,-0.054314,-0.010716,0.113735,-2.471070,328.986034,19.748351,0.998913,0.975585,0.006036,0.447128,0.000889,0.000835,-0.000107,0.000972,0.000752,-37.949143,0.001729,
2446,2008,4.21414731816325,-13.9926910168579,0.01570065387466,0.002198,-0.057185,-0.017903,0.143004,-2.682891,331.285480,19.178622,0.998822,0.977613,0.006053,0.389587,0.001218,0.001007,-0.000109,0.001264,0.000961,-22.918814,0.002232,
2251,2338,-0.111865278049461,-6.74690710913384,-0.00525204776005239,-0.000946,-0.051497,-0.001601,-0.057151,-2.336465,325.559490,21.478015,0.998738,0.983864,0.005256,0.372221,0.000339,0.000303,0.000009,0.000341,0.000301,12.612106,0.000643,
2056,2893,-4.44135898188761,5.34443861326572,5.09390133629495E-07,0.002083,-0.048767,0.012318,0.045339,-2.147446,317.445929,22.148120,0.999416,0.992508,0.003771,0.432505,0.000014,0.000013,-0.000027,0.000040,-0.000014,-44.550180,0.000041,
2191,1993,-1.36193505623276,-14.3127007569908,0.0113894001947301,-0.003740,-0.055973,-0.018017,-0.134662,-2.624648,331.320071,21.028108,0.999410,0.983900,0.005139,0.357618,0.001042,0.000883,0.000016,0.001044,0.000881,5.528831,0.001927,
2281,2488,0.515432061913128,-3.46877971324611,-0.0199965626908352,0.000667,-0.050562,0.000997,0.008199,-2.269579,323.029310,21.493861,0.999602,0.990645,0.004104,0.605811,0.000175,0.000128,0.000000,0.000175,0.000128,0.349811,0.000304,
2146,3163,-2.52855734405251,11.205333231903,0.039177021302919,0.004042,-0.048991,0.008437,0.143594,-2.179873,313.033827,22.366325,0.999535,0.991633,0.003686,0.468983,-0.000002,0.000019,-0.000019,0.000031,-0.000013,-59.320121,0.000031,
2041,2848,-4.75991483704975,4.36693309862077,-0.0229605435739018,0.002831,-0.048289,0.003596,0.104838,-2.167237,318.132194,22.077184,0.999211,0.990358,0.004023,0.481251,0.000024,0.000001,-0.000015,0.000031,-0.000006,-26.100146,0.000033,
2311,2593,1.15048413262387,-1.17513589174211,-0.0161075788043945,0.001344,-0.050054,0.002520,0.033850,-2.223370,321.353930,21.806127,0.999565,0.991266,0.003773,0.505092,0.000107,0.000087,0.000016,0.000116,0.000078,28.735139,0.000196,
2161,3268,-2.22178165816484,13.4819098024114,0.0323622839889026,0.004299,-0.049170,0.014595,0.135921,-2.190291,311.192576,22.474305,0.999612,0.994320,0.003234,0.478103,-0.000008,0.000015,-0.000026,0.000033,-0.000025,-56.869429,0.000034,
2341,2773,1.77125110269915,2.7485256638719,-0.00958686035278333,0.002365,-0.050143,0.006039,0.067871,-2.238664,318.502816,22.291579,0.999602,0.991991,0.003645,0.412457,0.000038,0.000050,0.000015,0.000060,0.000028,55.983409,0.000090,
2026,2833,-5.08385334075959,4.04019591808463,-0.0177995485751694,0.001978,-0.048799,0.007980,0.053660,-2.163417,318.459674,22.097600,0.999640,0.993854,0.003496,0.454296,0.000032,-0.000011,-0.000013,0.000036,-0.000015,-15.278428,0.000036,
2011,2848,-5.41059406671814,4.36427094761011,-0.0159262583100599,0.002548,-0.048641,0.003845,0.091607,-2.182966,318.366257,22.000635,0.999653,0.994766,0.003441,0.501353,0.000036,-0.000017,-0.000024,0.000045,-0.000026,-20.888203,0.000045,
2386,2998,2.709231131284,7.64321476188093,0.0104323861841067,0.003229,-0.050429,0.010563,0.090089,-2.244715,315.032868,22.925146,0.999561,0.990396,0.003936,0.442689,-0.000006,0.000003,0.000013,0.000012,-0.000015,54.171018,0.000016,
2506,2503,5.42013624295044,-3.13567269408982,-0.0132164228063516,0.002120,-0.050865,-0.001082,0.079220,-2.299608,323.117512,21.226107,0.999308,0.985648,0.004867,0.400839,0.000272,0.000095,-0.000024,0.000275,0.000091,-7.626941,0.000382,
2491,2368,5.12145618052382,-6.08942153591687,-0.00653654223856392,0.002056,-0.051138,-0.005440,0.092936,-2.307275,325.334644,20.643088,0.998209,0.982607,0.005623,0.464861,0.000431,0.000281,-0.000057,0.000450,0.000262,-18.693424,0.000720,
2326,2668,1.46264768917991,0.462691764253506,-0.0252178020083988,0.001597,-0.050022,0.003645,0.041299,-2.231933,320.057526,22.094911,0.999625,0.991383,0.003846,0.364997,0.000072,0.000066,0.000004,0.000074,0.000064,24.697367,0.000138,
2116,3073,-3.16609395464345,9.25325277477411,0.0180288184091637,0.003478,-0.048555,0.008913,0.117137,-2.187218,314.428969,22.261801,0.999690,0.993345,0.003615,0.419157,0.000017,0.000000,-0.000010,0.000021,-0.000005,-24.171106,0.000022,
2071,2923,-4.11971393046463,5.99602305185648,-0.00340404471393185,0.002766,-0.048811,0.004485,0.098473,-2.181362,316.899778,22.101453,0.999432,0.991561,0.003730,0.464951,0.000018,-0.000009,-0.000015,0.000025,-0.000016,-23.246930,0.000025,
2416,3148,3.33480990151238,10.9011734249889,0.0396807766771872,0.003796,-0.050314,0.013559,0.104191,-2.238917,312.864781,23.463236,0.999770,0.994274,0.003088,0.462022,0.000013,0.000002,0.000007,0.000016,-0.000001,26.095286,0.000018,
2356,2818,2.0893449091729,3.72820006108375,-0.00823465111068344,0.002486,-0.050084,0.006142,0.072692,-2.238173,317.785686,22.365982,0.999671,0.992201,0.003656,0.463636,0.000026,0.000029,0.000009,0.000036,0.000018,50.445975,0.000056,
2461,2158,4.51020960286677,-10.693178537456,-0.00194940357033602,0.002155,-0.053286,-0.015428,0.133907,-2.482296,328.737928,19.879032,0.999013,0.975170,0.005905,0.362714,0.000853,0.000759,-0.000118,0.000933,0.000679,-34.145944,0.001618,
2086,2938,-3.79569046853939,6.32233808796252,0.00581651368651137,0.003244,-0.048475,0.005450,0.117513,-2.166218,316.672482,22.153901,0.999295,0.991265,0.003838,0.457281,0.000009,-0.000009,-0.000010,0.000014,-0.000014,-24.483890,0.000016,
2056,2908,-4.44310494473863,5.67010007873213,-0.00214356560428541,0.002640,-0.048443,0.009480,0.079090,-2.149497,317.217838,22.116909,0.999443,0.992048,0.003710,0.456101,0.000015,-0.000004,-0.000025,0.000032,-0.000021,-34.333445,0.000033,
2401,3088,3.01946912175999,9.59887929512611,0.0250581468403652,0.003731,-0.050280,0.011245,0.110255,-2.243511,313.714795,23.280577,0.999479,0.991391,0.003774,0.398153,-0.000001,0.000007,0.000015,0.000018,-0.000012,52.759740,0.000019,
2206,2098,-1.0518017999187,-12.0062725924606,0.00637781057400844,-0.002454,-0.053912,-0.010253,-0.099192,-2.482186,329.584139,21.161019,0.998808,0.981641,0.005502,0.402077,0.000793,0.000825,0.000033,0.000846,0.000773,57.849242,0.001619,
2476,2233,4.82288313749435,-9.04888154958564,0.00678199069693619,0.001953,-0.052577,-0.010163,0.105409,-2.410110,327.605800,20.121107,0.999097,0.981454,0.005580,0.406232,0.000676,0.000550,-0.000096,0.000728,0.000498,-28.299536,0.001234,
2221,2173,-0.736425768313786,-10.3608144630029,0.00321268531575924,-0.001640,-0.051369,-0.015011,-0.045750,-2.371435,328.365813,21.219593,0.998825,0.984027,0.005182,0.472689,0.000631,0.000668,0.000032,0.000686,0.000612,60.233263,0.001299,
2101,2983,-3.47772378058307,7.29982062434277,0.0104452494308021,0.003017,-0.049005,0.009481,0.094675,-2.179641,315.881101,22.194672,0.999548,0.992741,0.003467,0.438144,0.000015,-0.000013,-0.000006,0.000016,-0.000014,-11.229244,0.000018,
2236,2338,-0.438488903730882,-6.74651799338247,-0.00823857256227711,-0.000605,-0.050966,-0.003686,-0.034457,-2.334315,325.586572,21.543858,0.998942,0.985856,0.004865,0.363887,0.000332,0.000302,0.000008,0.000334,0.000300,13.805791,0.000635,
2266,2458,0.193963326881256,-4.1210466656438,-0.0234551071944793,0.000528,-0.050416,-0.002989,0.015275,-2.263922,323.512946,21.713791,0.999644,0.990403,0.004140,0.371248,0.000197,0.000154,0.000012,0.000201,0.000151,14.854583,0.000352,
2446,2023,4.21121303266003,-13.6609434179067,0.013065645597635,0.002505,-0.056095,-0.017845,0.157266,-2.619225,331.034749,19.339564,0.999008,0.980603,0.005451,0.348284,0.001187,0.001010,-0.000119,0.001247,0.000950,-26.761249,0.002203,
2296,2548,0.831527658654828,-2.15630099514323,-0.0254182687926345,0.001152,-0.049776,-0.001815,0.040013,-2.255776,322.025110,21.763723,0.999249,0.989278,0.004294,0.440398,0.000137,0.000095,0.000004,0.000137,0.000095,5.391512,0.000233,
2146,3178,-2.53074147019588,11.5299133655304,0.0461607778909752,0.004153,-0.049141,0.011946,0.137954,-2.187545,312.841636,22.370198,0.999489,0.990811,0.003698,0.464114,-0.000003,0.000022,-0.000021,0.000034,-0.000015,-60.713265,0.000034,
2161,3283,-2.22392010691447,13.8067425508575,0.0331758081061366,0.004616,-0.049202,0.013840,0.152843,-2.193836,310.970515,22.487371,0.999659,0.995011,0.003018,0.470018,-0.000008,0.000016,-0.000020,0.000028,-0.000020,-60.371299,0.000029,
2371,2878,2.40434561919446,5.03511908335087,-0.00866914800690211,0.002756,-0.050561,0.007686,0.079024,-2.269483,316.813513,22.624351,0.999473,0.992760,0.003656,0.352710,0.000004,0.000019,0.000008,0.000022,0.000001,67.178286,0.000026,
2041,2863,-4.76228182194886,4.69238838106298,-0.0113455724481355,0.002286,-0.048405,0.007083,0.069930,-2.167992,317.950834,22.115809,0.999184,0.990243,0.004218,0.433763,0.000015,0.000000,-0.000020,0.000028,-0.000014,-34.360722,0.000028,
2191,2008,-1.36448973240812,-13.9831843308649,0.00594832233451825,-0.003450,-0.055536,-0.018356,-0.120164,-2.596633,331.048591,20.980737,0.999168,0.982771,0.005355,0.451288,0.000994,0.000924,0.000031,0.001005,0.000912,20.600361,0.001918,
2026,2848,-5.08675612554084,4.36519677254533,-0.0406580145759676,0.002055,-0.048164,-0.003246,0.088128,-2.206439,318.060746,21.874542,0.999646,0.995006,0.003320,0.624844,0.000025,-0.000005,-0.000016,0.000031,-0.000012,-23.175461,0.000032,
2011,2863,-5.4128234926261,4.69080822739856,-0.0139802124365929,0.002659,-0.048621,0.007019,0.088115,-2.171049,318.135058,22.053099,0.999299,0.991052,0.004108,0.448533,0.000029,-0.000012,-0.000023,0.000040,-0.000022,-24.510058,0.000040,
2491,2383,5.11764726041749,-5.76124781408892,-0.00664958127083537,0.001614,-0.051436,-0.002259,0.060399,-2.308276,325.057861,20.700495,0.998378,0.980622,0.005637,0.467070,0.000410,0.000243,-0.000074,0.000438,0.000215,-20.652675,0.000666,
2506,2518,5.41629569301302,-2.80801459408526,-0.0171381570505673,0.001721,-0.050883,-0.001097,0.061003,-2.288194,322.822721,21.234585,0.999298,0.986369,0.004814,0.466194,0.000235,0.000081,-0.000028,0.000240,0.000076,-10.044589,0.000329,
2281,2503,0.512723045717205,-3.13884776817235,-0.0208363744441158,0.000619,-0.050453,-0.000635,0.011495,-2.260460,322.781294,21.733590,0.999670,0.991619,0.003913,0.404162,0.000162,0.000114,-0.000001,0.000162,0.000114,-1.664599,0.000277,
2251,2353,-0.11329524338435,-6.41923224336973,-0.00103186366203545,-0.000229,-0.050786,-0.004188,-0.015552,-2.311076,325.393853,21.492394,0.998917,0.984871,0.005104,0.408265,0.000315,0.000283,0.000012,0.000319,0.000280,18.331817,0.000599,
2131,3148,-2.85173131919835,10.8788137733505,0.0407513857363142,0.003695,-0.048965,0.011601,0.118524,-2.178003,313.329676,22.290474,0.999620,0.993606,0.003234,0.475702,-0.000001,0.000010,-0.000021,0.000026,-0.000017,-52.644928,0.000026,
2341,2788,1.76836220350817,3.07498850595307,-0.0118577458030131,0.002320,-0.050019,0.004124,0.072560,-2.236585,318.244316,22.298888,0.999646,0.993051,0.003495,0.444008,0.000036,0.000044,0.000013,0.000054,0.000026,53.757377,0.000081,
2461,2173,4.5071164381164,-10.363183133286,-0.00663581382156053,0.002415,-0.052546,-0.016296,0.149379,-2.438127,328.471400,19.935701,0.998914,0.977582,0.005690,0.407417,0.000804,0.000723,-0.000121,0.000891,0.000636,-35.750868,0.001535,
2446,2038,4.20833090449527,-13.3313045184824,0.0146429993768606,0.002500,-0.055505,-0.017856,0.157350,-2.579993,330.805909,19.385979,0.998770,0.978841,0.005812,0.396892,0.001137,0.001009,-0.000107,0.001197,0.000949,-29.490131,0.002151,
2326,2683,1.45978125845018,0.788807278403993,-0.0262867199925836,0.001667,-0.050048,0.004593,0.041242,-2.230089,319.805119,22.048664,0.999702,0.991735,0.003816,0.447867,0.000069,0.000072,0.000006,0.000077,0.000065,50.781525,0.000141,
2476,2248,4.82009406893865,-8.72108744076763,0.00581053065548076,0.002066,-0.052026,-0.012942,0.121323,-2.398316,327.371443,20.074650,0.999014,0.981258,0.005468,0.523396,0.000647,0.000506,-0.000099,0.000698,0.000455,-27.286692,0.001161,
2071,2938,-4.12132837433385,6.321638120174,0.00188582723438913,0.003209,-0.048636,0.004678,0.118439,-2.169508,316.719689,22.113932,0.999400,0.990874,0.003771,0.460714,0.000014,-0.000011,-0.000014,0.000020,-0.000017,-24.409444,0.000022,
2116,3088,-3.16784187371138,9.5783393720277,0.0240436918063551,0.003798,-0.048690,0.008739,0.132430,-2.180581,314.249709,22.272184,0.999683,0.993205,0.003445,0.417787,0.000012,0.000004,-0.000010,0.000019,-0.000003,-35.061117,0.000020,
2401,3103,3.01725636678576,9.92387794000629,0.0293961105041376,0.003896,-0.050142,0.008722,0.127055,-2.246150,313.522611,23.289418,0.999559,0.992877,0.003450,0.431313,0.000004,0.000008,0.000014,0.000020,-0.000008,49.188808,0.000020,
2311,2608,1.1477016905033,-0.847717890363995,-0.0175413330026686,0.001426,-0.049853,0.002480,0.037827,-2.224457,321.102336,21.854688,0.999625,0.991270,0.003695,0.488364,0.000096,0.000077,0.000015,0.000104,0.000069,28.446138,0.000173,
2221,2188,-0.738893993694216,-10.030888695284,-0.00189020104176052,-0.001194,-0.050934,-0.015300,-0.024190,-2.364892,328.102751,21.305329,0.998806,0.981463,0.005404,0.415232,0.000595,0.000636,0.000028,0.000650,0.000581,63.311882,0.001232,
2161,3298,-2.22667084187824,14.1314451610677,0.0307779463260545,0.004581,-0.049285,0.013755,0.151383,-2.215065,310.703352,22.492406,0.999802,0.996474,0.002566,0.452139,-0.000005,0.000035,-0.000025,0.000047,-0.000017,-64.521911,0.000048,
2056,2923,-4.44497614246029,5.99546456247682,-0.00137955390749767,0.002859,-0.048414,0.006038,0.098854,-2.161492,317.000189,22.093604,0.999452,0.992086,0.003693,0.461608,0.000015,-0.000011,-0.000016,0.000023,-0.000019,-24.995925,0.000024,
2386,3013,2.70719629455246,7.96831815647019,0.0195387562213796,0.003434,-0.050696,0.011303,0.096747,-2.262691,314.870946,22.969426,0.999616,0.990791,0.003801,0.422709,-0.000003,0.000002,0.000013,0.000013,-0.000014,50.245978,0.000015,
2011,2878,-5.41481293134943,5.01716873437213,-0.0125585895198128,0.002905,-0.048215,0.007889,0.097254,-2.144387,317.911962,22.074819,0.999121,0.989945,0.004139,0.441289,0.000037,0.000015,-0.000025,0.000053,-0.000001,-32.913253,0.000060,
2506,2533,5.41326790598888,-2.47957787185609,-0.0165210262621827,0.001821,-0.050689,-0.000331,0.062753,-2.277439,322.585321,21.361095,0.999523,0.988158,0.004386,0.412656,0.000217,0.000069,-0.000013,0.000219,0.000068,-5.142383,0.000299,
2101,2998,-3.48020541794147,7.62581510484057,0.00369101659197213,0.003114,-0.048928,0.004996,0.112281,-2.192329,315.597764,22.199743,0.999571,0.993078,0.003423,0.421207,0.000015,-0.000009,-0.000001,0.000015,-0.000009,-3.123857,0.000015,
2146,3193,-2.53325885432185,11.8550814636267,0.0437398692203033,0.004148,-0.049307,0.009284,0.145715,-2.203132,312.583869,22.383768,0.999567,0.992630,0.003376,0.441695,-0.000004,0.000019,-0.000023,0.000033,-0.000018,-58.397662,0.000033,
2491,2398,5.11435342618438,-5.432733439392,-0.00752374365322339,0.001496,-0.051596,-0.002140,0.054486,-2.323360,324.801235,20.800836,0.999226,0.987577,0.004666,0.412260,0.000392,0.000222,-0.000062,0.000412,0.000202,-17.996122,0.000625,
2041,2878,-4.76480109086945,5.0186493776896,-0.0154240137383113,0.002380,-0.048758,0.007819,0.072089,-2.174537,317.675150,22.121666,0.998842,0.986244,0.004722,0.413425,0.000018,0.000019,-0.000023,0.000042,-0.000005,-45.264311,0.000046,
2086,2953,-3.79851139883861,6.648082710057,0.00528934792714608,0.003033,-0.048773,0.008185,0.099784,-2.163183,316.406269,22.150074,0.999224,0.992227,0.003763,0.462717,0.000014,-0.000011,-0.000009,0.000018,-0.000014,-18.428695,0.000019,
2416,3163,3.33218658825727,11.226843001228,0.0389015851296222,0.004046,-0.050137,0.011834,0.122109,-2.232383,312.630125,23.507685,0.999698,0.993362,0.003285,0.470609,0.000012,0.000008,0.000006,0.000016,0.000004,35.363750,0.000021,
2446,2053,4.20543774638144,-13.0032004721433,0.0165835370444825,0.002659,-0.056264,-0.015337,0.154963,-2.612082,330.578654,19.373047,0.998519,0.978907,0.005893,0.433157,0.001097,0.001005,-0.000109,0.001169,0.000932,-33.609194,0.002106,
2206,2113,-1.0542606896937,-11.6773351430338,0.00406549580230831,-0.002441,-0.053364,-0.013480,-0.088266,-2.470408,329.334642,21.152738,0.998801,0.983137,0.005140,0.441846,0.000761,0.000804,0.000035,0.000823,0.000741,61.012727,0.001566,
2236,2353,-0.440502582588067,-6.41835008510581,-0.00972566098295147,-0.000142,-0.050478,-0.007053,-0.002152,-2.310469,325.364019,21.549097,0.998640,0.984535,0.005113,0.405510,0.000307,0.000282,0.000009,0.000310,0.000279,18.343532,0.000589,
2371,2893,2.4015475391844,5.36051016545269,-0.00473234430592129,0.002475,-0.050061,0.007135,0.068332,-2.223717,316.591156,22.566661,0.999490,0.991627,0.003734,0.497080,0.000001,0.000011,0.000008,0.000015,-0.000003,62.200847,0.000016,
2026,2863,-5.08812837244078,4.69234965420948,-0.0198065936257876,0.002301,-0.048594,0.006281,0.073200,-2.180980,317.975200,22.112122,0.999273,0.991794,0.003993,0.402179,0.000015,-0.000005,-0.000018,0.000026,-0.000016,-30.806022,0.000026,
2461,2188,4.50293546317792,-10.032640076386,-0.0210934350575371,0.002331,-0.052242,-0.017978,0.151978,-2.437355,328.110545,19.988790,0.999572,0.987073,0.004793,0.412987,0.000772,0.000698,-0.000113,0.000854,0.000616,-35.954600,0.001477,
2356,2833,2.08631341362478,4.05513681871,-0.0121094165092472,0.002597,-0.050178,0.006098,0.077955,-2.236697,317.513826,22.419180,0.999710,0.990671,0.003877,0.450723,0.000017,0.000032,0.000008,0.000036,0.000014,66.211602,0.000051,
2266,2473,0.191779615575065,-3.79605683849278,-0.0108010761452988,0.000304,-0.050618,-0.000003,-0.004930,-2.266086,323.356594,21.626801,0.999744,0.991612,0.003910,0.482515,0.000186,0.000144,0.000010,0.000189,0.000141,12.816241,0.000331,
2251,2368,-0.116570779758813,-6.08892747239046,-0.0137122880481115,0.000247,-0.050533,-0.001497,-0.002436,-2.280613,325.057857,21.582809,0.999311,0.987711,0.004791,0.373715,0.000289,0.000267,0.000008,0.000292,0.000264,18.405870,0.000556,
2476,2263,4.8170892619533,-8.39095037393567,0.00480129220323988,0.002223,-0.051394,-0.012870,0.128527,-2.365020,327.126595,20.225969,0.998940,0.979320,0.005424,0.464436,0.000612,0.000454,-0.000103,0.000662,0.000403,-26.200532,0.001076,
2191,2023,-1.36637004614919,-13.6525990218561,0.00776423474150079,-0.002882,-0.054680,-0.017407,-0.096821,-2.564411,330.845282,21.114720,0.998813,0.983165,0.005306,0.367461,0.000958,0.000906,0.000035,0.000975,0.000889,26.683077,0.001865,
2296,2563,0.829547057265156,-1.83011784646342,-0.0109458324612888,0.001249,-0.050572,0.003798,0.025245,-2.254692,321.888191,21.822940,0.998820,0.987680,0.004851,0.412963,0.000119,0.000094,0.000008,0.000122,0.000092,16.894652,0.000214,
2131,3163,-2.85396046200022,11.203678751402,0.0411454909654481,0.003863,-0.049201,0.010421,0.129761,-2.188769,313.099215,22.280255,0.999514,0.991626,0.003579,0.479773,-0.000002,0.000023,-0.000020,0.000034,-0.000013,-61.303692,0.000034,
2506,2548,5.41175943426969,-2.15318445085923,-2.23360017344021E-05,0.002118,-0.050881,0.000807,0.071894,-2.288462,322.488940,21.467651,0.999766,0.990152,0.004007,0.356390,0.000204,0.000035,-0.000013,0.000205,0.000034,-4.522369,0.000259,
2341,2803,1.76511586473461,3.40188859716334,-0.0142291304764512,0.002244,-0.050239,0.006333,0.061319,-2.233702,317.968731,22.349624,0.999543,0.992325,0.003648,0.432718,0.000034,0.000030,0.000010,0.000043,0.000021,40.422049,0.000065,
2281,2518,0.510352771708831,-2.81315038980622,-0.0143620720738795,0.000634,-0.050402,0.001651,0.004568,-2.263998,322.586151,21.668926,0.999743,0.992057,0.003798,0.493803,0.000153,0.000105,0.000002,0.000153,0.000105,2.872452,0.000260,
2071,2953,-4.12414253495065,6.64745660804561,0.00010889334902231,0.003044,-0.048768,0.007246,0.103472,-2.163891,316.445789,22.105529,0.999204,0.991643,0.003783,0.471009,0.000018,-0.000013,-0.000013,0.000023,-0.000018,-19.937134,0.000024,
2176,1993,-1.68921770159917,-14.3127421687933,0.0186261750295671,-0.004244,-0.055543,-0.020369,-0.150750,-2.619207,331.409660,21.169472,0.999041,0.981530,0.005451,0.327431,0.001092,0.000886,0.000024,0.001094,0.000883,6.434310,0.001981,
2401,3118,3.01467254806858,10.2496897349889,0.0385795381429261,0.003596,-0.049861,0.009815,0.109467,-2.215233,313.335916,23.373312,0.999851,0.995746,0.002816,0.422824,0.000009,0.000013,0.000012,0.000023,-0.000001,49.532406,0.000026,
2326,2698,1.45760858827103,1.11438455268162,-0.0228568849292401,0.001899,-0.049980,0.003008,0.057390,-2.232106,319.606650,21.998293,0.999610,0.990755,0.003902,0.530921,0.000062,0.000081,0.000008,0.000084,0.000059,69.263578,0.000144,
2056,2938,-4.44718131323858,6.32083381043446,0.00277469918819406,0.002874,-0.048498,0.008069,0.093765,-2.162948,316.785941,22.088339,0.999303,0.991621,0.003751,0.459350,0.000011,-0.000013,-0.000014,0.000017,-0.000019,-24.289998,0.000021,
2011,2893,-5.4172145664372,5.34252260550365,-0.00990129800362638,0.002542,-0.048255,0.006638,0.083806,-2.164509,317.677390,22.063791,0.999341,0.992017,0.003627,0.419694,0.000032,0.000015,-0.000024,0.000049,-0.000002,-35.307423,0.000055,
2041,2893,-4.76654091122043,5.34326813971519,-0.00165845888665217,0.002309,-0.048929,0.010919,0.060152,-2.174549,317.534806,22.104687,0.999190,0.991072,0.003906,0.422337,0.000014,0.000017,-0.000024,0.000040,-0.000009,-47.077766,0.000042,
2491,2413,5.11137112035687,-5.10520626918396,-0.0160118297930012,0.001793,-0.051024,-0.008223,0.091592,-2.345872,324.524786,20.750715,0.999288,0.987703,0.004634,0.500187,0.000370,0.000216,-0.000042,0.000381,0.000206,-14.374388,0.000595,
2461,2203,4.49936065077766,-9.70412013434841,-0.0195822994907644,0.002149,-0.052692,-0.012137,0.121571,-2.435612,327.850325,20.030843,0.999121,0.981822,0.005371,0.429607,0.000725,0.000650,-0.000108,0.000802,0.000574,-35.325212,0.001382,
2146,3208,-2.53557430907407,12.1800578037827,0.047735122257734,0.004171,-0.048979,0.010423,0.143500,-2.180453,312.369584,22.382911,0.999599,0.993624,0.003232,0.471673,-0.000004,0.000021,-0.000025,0.000036,-0.000019,-58.462474,0.000036,
2446,2068,4.20137365666165,-12.6729046318265,0.0150042005835189,0.001971,-0.056090,-0.012506,0.113065,-2.591478,330.281100,19.473696,0.998392,0.976660,0.006231,0.409025,0.001055,0.000985,-0.000104,0.001130,0.000910,-35.661679,0.002043,
2026,2878,-5.08986020416526,5.01760531605889,-0.012469219841762,0.002571,-0.048723,0.008786,0.078737,-2.173746,317.798417,22.095884,0.999003,0.987494,0.004483,0.415275,0.000020,0.000018,-0.000021,0.000039,-0.000002,-43.625881,0.000044,
2116,3103,-3.1694790081856,9.90323013375697,0.0304239988223571,0.004076,-0.048675,0.006538,0.151793,-2.177977,314.077595,22.273966,0.999829,0.995679,0.002945,0.421158,0.000009,0.000007,-0.000012,0.000020,-0.000005,-42.522198,0.000021,
2101,3013,-3.48222357466355,7.95063911960382,0.00714811521788761,0.003373,-0.048683,0.006031,0.121235,-2.188070,315.391408,22.153842,0.999329,0.991679,0.003648,0.471622,0.000019,-0.000003,-0.000003,0.000019,-0.000003,-7.865097,0.000020,
2386,3028,2.70358555648282,8.29478296312668,0.0148220183279477,0.003089,-0.050543,0.011236,0.081232,-2.245996,314.570225,23.015616,0.999569,0.990600,0.003875,0.436092,-0.000003,0.000005,0.000010,0.000012,-0.000010,54.662430,0.000013,
2506,2563,5.4091754979918,-1.82766269540261,0.00579315062930164,0.002771,-0.051390,0.008260,0.072807,-2.276579,322.295463,21.379658,0.999749,0.990958,0.003956,0.518339,0.000195,0.000044,-0.000009,0.000196,0.000043,-3.546641,0.000254,
2311,2623,1.14546456282535,-0.521422602540113,-0.0133129350823538,0.001526,-0.050034,0.001058,0.047167,-2.243183,320.903871,21.871012,0.999434,0.989278,0.004008,0.485964,0.000084,0.000074,0.000010,0.000090,0.000068,31.035113,0.000159,
2236,2368,-0.44320851741109,-6.08922059480354,-0.0138428389439014,0.000102,-0.050159,-0.006478,0.007286,-2.278258,325.096156,21.613771,0.999193,0.987222,0.004736,0.396025,0.000280,0.000264,0.000004,0.000281,0.000264,12.321760,0.000545,
2086,2968,-3.8006466979941,6.97322126544039,0.0103337816505586,0.003020,-0.048929,0.008768,0.097422,-2.175183,316.202108,22.148224,0.999288,0.991863,0.003725,0.450844,0.000016,-0.000011,-0.000011,0.000020,-0.000015,-19.510129,0.000020,
2191,2038,-1.36918686062998,-13.3209226098694,-0.00244271144219965,-0.002584,-0.054141,-0.018875,-0.078438,-2.542578,330.536875,21.228850,0.998931,0.985846,0.004925,0.293615,0.000926,0.000883,0.000032,0.000943,0.000866,27.853286,0.001810,
2206,2128,-1.05667106757958,-11.347803147155,0.00304314909811865,-0.002333,-0.052679,-0.014807,-0.078885,-2.441613,329.093800,21.201365,0.998754,0.982336,0.005292,0.441973,0.000731,0.000776,0.000037,0.000797,0.000710,60.861596,0.001508,
2011,2908,-5.41861158627808,5.66790401527749,-0.00195980925713002,0.002929,-0.048180,0.006340,0.102520,-2.150832,317.518504,22.063435,0.999245,0.991854,0.003667,0.421199,0.000036,-0.000005,-0.000018,0.000043,-0.000012,-20.696377,0.000045,
2221,2203,-0.741630011679213,-9.70198714081803,-0.00681512177987997,-0.001117,-0.050501,-0.016787,-0.015804,-2.343170,327.828404,21.290384,0.998960,0.983326,0.005162,0.473507,0.000572,0.000603,0.000028,0.000619,0.000555,59.327124,0.001175,
2416,3178,3.32922709979307,11.5524424375736,0.0378759383227703,0.004046,-0.049972,0.010941,0.125422,-2.234526,312.378780,23.556908,0.999623,0.992287,0.003465,0.465991,0.000015,0.000012,0.000002,0.000016,0.000011,22.843626,0.000027,
2131,3178,-2.85635972446081,11.5285678633505,0.0436435220908606,0.003812,-0.049369,0.010568,0.126937,-2.192835,312.872198,22.281908,0.999302,0.988000,0.004023,0.478440,-0.000003,0.000026,-0.000021,0.000037,-0.000015,-62.306554,0.000037,
2476,2278,4.81266931046461,-8.06043879389408,-0.00405358239868292,0.001777,-0.051565,-0.010950,0.100824,-2.369139,326.781357,20.374991,0.999227,0.980140,0.005377,0.370615,0.000574,0.000415,-0.000081,0.000608,0.000381,-22.805107,0.000998,
2176,2008,-1.6928043782765,-13.9819088289763,0.00460553896436977,-0.004185,-0.055462,-0.017097,-0.158197,-2.570616,331.044582,21.123369,0.999028,0.983130,0.005259,0.438813,0.001035,0.000917,0.000034,0.001044,0.000907,15.122070,0.001953,
2371,2908,2.39864841504362,5.68710749053071,-0.00762863374114886,0.002796,-0.050106,0.008699,0.077551,-2.217293,316.331107,22.613699,0.999360,0.989996,0.003993,0.496953,-0.000003,-0.000003,0.000009,0.000006,-0.000013,44.143230,0.000013,
2356,2848,2.0826967653425,4.38220471915774,-0.0185035691166604,0.002418,-0.049974,0.007382,0.065333,-2.218433,317.202784,22.453826,0.999614,0.990463,0.003883,0.473133,0.000013,0.000026,0.000009,0.000030,0.000009,62.683359,0.000041,
2341,2818,1.76215091167003,3.72833903097347,-0.0147951523157417,0.002233,-0.050023,0.007552,0.056660,-2.217347,317.714876,22.364059,0.999304,0.988807,0.004035,0.471269,0.000025,0.000030,0.000009,0.000036,0.000018,52.382919,0.000055,
2266,2488,0.18888761732898,-3.46823279500755,-0.0228685839798004,0.000771,-0.050516,-0.002594,0.025082,-2.275025,323.043177,21.582795,0.999655,0.990924,0.003985,0.544665,0.000171,0.000132,0.000003,0.000172,0.000131,4.373616,0.000304,
2281,2533,0.508743469877004,-2.4869222427885,-0.0111821671269468,0.001270,-0.050254,-0.001352,0.043798,-2.284664,322.409412,21.644225,0.999605,0.992725,0.003673,0.526587,0.000145,0.000100,-0.000004,0.000145,0.000099,-4.588511,0.000246,
2401,3133,3.01113989672733,10.5758871469979,0.0264395302428966,0.003782,-0.049778,0.007675,0.125816,-2.224235,313.004550,23.404087,0.999801,0.994791,0.003016,0.427603,0.000014,0.000010,0.000008,0.000020,0.000004,38.529597,0.000026,
2296,2578,0.827134188218285,-1.50256381829912,-0.0157492985975409,0.001563,-0.050145,-0.001078,0.056280,-2.249385,321.635680,21.837816,0.999222,0.989244,0.004295,0.434354,0.000113,0.000094,0.000011,0.000118,0.000089,24.796076,0.000208,
2326,2713,1.45458779472107,1.44329776836324,-0.0271641110424525,0.001842,-0.049669,0.000865,0.062268,-2.238224,319.330582,22.199734,0.999263,0.986437,0.004482,0.358054,0.000054,0.000077,0.000009,0.000081,0.000051,70.152669,0.000133,
2071,2968,-4.12685432987119,6.97295739939135,-0.00036649983053394,0.002874,-0.049000,0.009363,0.089483,-2.172098,316.183858,22.095102,0.998994,0.991029,0.003939,0.469310,0.000019,-0.000013,-0.000014,0.000024,-0.000019,-21.063468,0.000025,
2491,2428,5.10836122202105,-4.77640666821133,-0.0156782427183657,0.001899,-0.051012,-0.007630,0.094211,-2.313766,324.286229,20.852147,0.999195,0.986457,0.004793,0.491533,0.000357,0.000199,-0.000026,0.000361,0.000195,-9.182122,0.000564,
2251,2383,-0.119241375223076,-5.76424586188388,-0.00887690172635303,0.000026,-0.051604,0.000879,-0.020718,-2.321544,324.839277,21.405807,0.999016,0.985874,0.004908,0.534711,0.000271,0.000247,0.000011,0.000275,0.000243,20.911498,0.000518,
2056,2953,-4.44930469505524,6.64599233216933,0.00746643916863832,0.002815,-0.048663,0.008081,0.091026,-2.157061,316.578494,22.063748,0.999197,0.992440,0.003658,0.483798,0.000016,-0.000015,-0.000013,0.000020,-0.000020,-19.894686,0.000023,
2041,2908,-4.76801835770137,5.66892237229151,0.000276294197135485,0.002882,-0.048592,0.008390,0.093688,-2.168268,317.340475,22.093622,0.999366,0.991486,0.003744,0.431543,0.000018,-0.000002,-0.000020,0.000030,-0.000014,-32.160144,0.000030,
2116,3118,-3.17248177855516,10.2279838540587,0.0331552652333471,0.003595,-0.048872,0.010066,0.119116,-2.175039,313.823190,22.243324,0.999786,0.995640,0.002916,0.456914,0.000005,0.000008,-0.000017,0.000023,-0.000010,-48.052331,0.000023,
2461,2218,4.49675965127522,-9.37632498902824,-0.0108587036763765,0.001924,-0.052704,-0.011365,0.108374,-2.425413,327.667592,20.078258,0.999332,0.985739,0.005122,0.449229,0.000688,0.000598,-0.000099,0.000751,0.000535,-32.844944,0.001292,
2446,2083,4.19754477099566,-12.342638880743,0.0122800089854422,0.001767,-0.056781,-0.007854,0.086183,-2.594712,329.989116,19.588454,0.998076,0.974887,0.006629,0.346844,0.001014,0.000969,-0.000098,0.001092,0.000891,-38.466149,0.001986,
2146,3223,-2.53785895005667,12.5048540815579,0.0534425741828386,0.004223,-0.048839,0.013204,0.137500,-2.167058,312.165906,22.387747,0.999593,0.993867,0.003151,0.486857,-0.000005,0.000021,-0.000031,0.000042,-0.000026,-56.155819,0.000042,
2506,2578,5.40430886248563,-1.49674616970888,-0.0155517403480872,0.002254,-0.050616,0.001360,0.076162,-2.252077,321.874793,21.540704,0.999540,0.987111,0.004620,0.444585,0.000181,0.000045,-0.000009,0.000181,0.000044,-3.667051,0.000239,
2191,2053,-1.37257064306838,-12.992061426674,-0.00558830508629171,-0.003207,-0.053851,-0.018169,-0.109081,-2.525229,330.239466,21.176935,0.998741,0.982427,0.005363,0.380983,0.000893,0.000870,0.000033,0.000917,0.000846,35.481900,0.001764,
2176,2023,-1.69433000233563,-13.6522095415943,0.00981099122151363,-0.003617,-0.054459,-0.017452,-0.130712,-2.527822,330.873926,21.204223,0.998255,0.983777,0.005389,0.416212,0.000992,0.000896,0.000035,0.001004,0.000885,17.915164,0.001890,
2386,3043,2.70092115186754,8.6205733448652,0.0120410330929417,0.003500,-0.050518,0.010702,0.102139,-2.230329,314.322407,23.018036,0.999660,0.992076,0.003647,0.491972,-0.000006,0.000009,0.000013,0.000017,-0.000013,59.555166,0.000018,
2026,2893,-5.09193422726053,5.34310651922937,-0.00753758612023603,0.002386,-0.048593,0.006953,0.075249,-2.177055,317.592488,22.098489,0.999341,0.992055,0.003649,0.399134,0.000013,0.000018,-0.000021,0.000036,-0.000005,-48.037009,0.000039,
2416,3193,3.32684266493706,11.8776958369369,0.0423532777712126,0.004251,-0.050146,0.010925,0.134905,-2.235005,312.179810,23.608801,0.999572,0.991243,0.003575,0.460091,0.000019,0.000010,-0.000001,0.000019,0.000010,-5.442371,0.000029,
2011,2923,-5.42069096960943,5.99340231997736,0.00106184355735195,0.002855,-0.047925,0.004836,0.103319,-2.136326,317.300698,22.041127,0.999278,0.992202,0.003534,0.445490,0.000039,-0.000018,-0.000006,0.000040,-0.000019,-5.783584,0.000040,
2086,2983,-3.80312584230639,7.29850503682113,0.00963738837975825,0.003036,-0.049170,0.009492,0.095995,-2.187159,315.950843,22.123838,0.999401,0.992882,0.003544,0.461694,0.000005,-0.000016,-0.000012,0.000011,-0.000021,-24.022875,0.000021,
2311,2638,1.1427285747494,-0.194023086192857,-0.0164840689994321,0.001620,-0.049793,-0.001203,0.059308,-2.236689,320.645756,21.904963,0.999257,0.988364,0.004136,0.491529,0.000077,0.000069,0.000011,0.000085,0.000061,36.177236,0.000147,
2221,2218,-0.74469125086825,-9.37401701423149,0.00218581926174011,-0.001653,-0.051818,-0.008590,-0.067041,-2.358948,327.610650,21.378792,0.998909,0.982905,0.005122,0.390747,0.000544,0.000571,0.000031,0.000590,0.000524,56.966528,0.001115,
2206,2143,-1.05882908973027,-11.0177743688965,0.00291012142878344,-0.001806,-0.052570,-0.012979,-0.060458,-2.433152,328.869078,21.330628,0.999199,0.984818,0.004924,0.340678,0.000700,0.000718,0.000045,0.000755,0.000663,50.773764,0.001419,
2251,2398,-0.121447701438004,-5.43487435834161,-0.00758468826791159,0.000294,-0.050795,-0.000270,-0.004396,-2.273593,324.622814,21.539445,0.999169,0.988908,0.004485,0.474070,0.000255,0.000232,0.000011,0.000259,0.000227,21.159015,0.000487,
2116,3133,-3.17511712948118,10.5539652083281,0.026754169663775,0.003787,-0.048896,0.009119,0.130677,-2.196099,313.536001,22.296888,0.999849,0.997044,0.002624,0.384906,0.000005,0.000010,-0.000021,0.000028,-0.000014,-48.168317,0.000028,
2071,2983,-4.12821060870712,7.29761002818225,0.00616219302133914,0.003357,-0.048905,0.007222,0.117820,-2.193360,316.022844,22.071714,0.999262,0.991451,0.003725,0.467805,0.000005,-0.000019,-0.000016,0.000013,-0.000027,-26.619039,0.000027,
2041,2923,-4.77020121217668,5.99378886026469,0.00215799593854626,0.002892,-0.048709,0.008146,0.094832,-2.165288,317.113825,22.017167,0.999336,0.991972,0.003700,0.502927,0.000019,-0.000011,-0.000011,0.000022,-0.000015,-18.506577,0.000023,
2371,2923,2.39605222266432,6.01341155209698,-0.00208268249343746,0.002814,-0.050107,0.010907,0.070534,-2.209468,316.125444,22.697276,0.999271,0.989780,0.004069,0.461783,-0.000006,-0.000007,0.000004,-0.000002,-0.000011,40.858605,0.000014,
2401,3148,3.0093071948755,10.899929897828,0.0377865473878387,0.004014,-0.050081,0.008214,0.134302,-2.255468,312.863157,23.406756,0.999803,0.994933,0.002947,0.437805,0.000014,0.000005,0.000008,0.000019,0.000000,30.302233,0.000022,
2266,2503,0.186365231334296,-3.13945365005642,-0.0198337389010135,0.000701,-0.049986,-0.002716,0.022509,-2.242025,322.822079,21.728269,0.999669,0.991693,0.003954,0.458963,0.000160,0.000115,0.000003,0.000160,0.000115,3.324110,0.000276,
2101,3028,-3.48477578355547,8.27590251144845,0.0113566592636971,0.003110,-0.048745,0.007938,0.103597,-2.165374,315.164459,22.138648,0.999189,0.991215,0.003781,0.510182,0.000020,-0.000003,-0.000005,0.000021,-0.000004,-11.132457,0.000022,
2461,2233,4.49334099863733,-9.04784721659608,0.00244113531982748,0.001077,-0.053159,-0.003753,0.040894,-2.401842,327.468009,20.226286,0.998967,0.981189,0.005520,0.381389,0.000659,0.000551,-0.000088,0.000708,0.000502,-29.315335,0.001216,
2236,2383,-0.445376354750803,-5.76322812755318,-0.00609541024755345,0.000129,-0.050601,-0.004521,0.002033,-2.284730,324.913962,21.550091,0.999327,0.987595,0.004648,0.475882,0.000262,0.000246,0.000005,0.000263,0.000244,17.310492,0.000508,
2056,2968,-4.45157653630162,6.97109612058154,0.0107464152194439,0.002834,-0.048789,0.010324,0.085413,-2.180979,316.356534,22.057545,0.999213,0.991502,0.003714,0.460171,0.000016,-0.000016,-0.000014,0.000021,-0.000021,-20.820726,0.000025,
2491,2443,5.10571845696989,-4.4480549532995,-0.0109311912429462,0.002077,-0.050969,-0.006094,0.096551,-2.301865,324.084421,20.979023,0.998906,0.982867,0.005061,0.436662,0.000350,0.000157,-0.000014,0.000351,0.000156,-4.060828,0.000520,
2281,2548,0.505353753522932,-2.15667383011611,-0.0235918907300743,0.001452,-0.049897,-0.002091,0.054769,-2.269470,322.072292,21.818334,0.999313,0.990091,0.004137,0.396564,0.000134,0.000088,0.000001,0.000134,0.000088,1.163009,0.000224,
2131,3193,-2.85890606150413,11.8539499432021,0.0436126227806426,0.003847,-0.049133,0.011717,0.125057,-2.201645,312.624695,22.322342,0.999521,0.991810,0.003549,0.433517,-0.000004,0.000023,-0.000023,0.000037,-0.000017,-59.898071,0.000037,
2476,2293,4.80912040979014,-7.73475143611669,0.00423680169831187,0.001266,-0.052708,-0.002788,0.046012,-2.393984,326.554172,20.282458,0.999309,0.981405,0.005269,0.496892,0.000545,0.000357,-0.000072,0.000569,0.000332,-18.829161,0.000912,
2326,2728,1.4519186294215,1.76924691471389,-0.0256872016653347,0.001946,-0.049824,0.002159,0.062536,-2.239790,319.099583,22.176102,0.999429,0.988789,0.004142,0.414768,0.000048,0.000071,0.000016,0.000079,0.000040,62.267285,0.000121,
2446,2098,4.19434960061956,-12.0114444926164,0.0014153062470541,0.001698,-0.054924,-0.017293,0.118865,-2.553609,329.688435,19.660004,0.999034,0.979320,0.005897,0.372093,0.000971,0.000926,-0.000103,0.001054,0.000843,-38.794939,0.001901,
2506,2593,5.40012582571731,-1.16781381492998,-0.0271343872361172,0.001919,-0.050780,-0.001629,0.072258,-2.276972,321.529468,21.661507,0.999812,0.994073,0.003588,0.360850,0.000171,0.000050,0.000009,0.000171,0.000049,4.316389,0.000231,
2341,2833,1.75989799532222,4.05509187376491,-0.0133806817581785,0.002625,-0.050094,0.006631,0.077799,-2.237781,317.503302,22.462353,0.999616,0.990924,0.003801,0.388967,0.000016,0.000035,0.000009,0.000039,0.000013,68.265638,0.000054,
2296,2593,0.825171862398307,-1.1766918465998,-0.00440052007070335,0.001430,-0.049752,-0.001846,0.052938,-2.234151,321.484114,21.834031,0.999562,0.991659,0.003709,0.483825,0.000103,0.000083,0.000008,0.000105,0.000080,18.972164,0.000186,
2356,2863,2.08012344176352,4.7077497618529,-0.016588281984582,0.002698,-0.050543,0.009399,0.070844,-2.239734,316.980194,22.454667,0.999550,0.990244,0.003909,0.489583,0.000011,0.000022,0.000008,0.000026,0.000006,63.210842,0.000035,
2176,2038,-1.69697922885359,-13.321976997813,0.00835722533639682,-0.003683,-0.054330,-0.017399,-0.133864,-2.532703,330.617448,21.311402,0.998700,0.984518,0.005127,0.320079,0.000955,0.000871,0.000032,0.000966,0.000860,18.706970,0.001827,
2416,3208,3.32395690774133,12.203079744067,0.0423181344629029,0.004227,-0.050020,0.009808,0.137978,-2.232794,311.936446,23.647112,0.999514,0.990797,0.003772,0.470416,0.000020,0.000005,-0.000006,0.000022,0.000003,-18.633724,0.000027,
2386,3058,2.698701324877,8.94656028317026,0.0195721734288554,0.003564,-0.050059,0.010400,0.106358,-2.216351,314.144018,23.111779,0.999640,0.992341,0.003583,0.454358,-0.000008,0.000002,0.000018,0.000016,-0.000022,52.304736,0.000023,
2011,2938,-5.42313916477684,6.31908554234895,-0.00252195928220544,0.002891,-0.048026,0.004748,0.105176,-2.143927,317.028856,22.014999,0.999485,0.992985,0.003490,0.451562,0.000038,-0.000020,0.000004,0.000038,-0.000020,3.501924,0.000038,
2041,2938,-4.77314402327914,6.31968635696794,-0.000399839636997967,0.002635,-0.048765,0.011489,0.073585,-2.169857,316.827366,22.015642,0.999164,0.991083,0.003883,0.491753,0.000013,-0.000013,-0.000009,0.000016,-0.000016,-16.622959,0.000018,
2191,2068,-1.37562070326006,-12.6640668787206,-0.00799454265785471,-0.003293,-0.054717,-0.013808,-0.126945,-2.557374,329.961498,21.109443,0.999149,0.983836,0.005323,0.434420,0.000862,0.000863,0.000040,0.000903,0.000823,45.497821,0.001726,
2026,2908,-5.09324714084849,5.66827164461363,0.00353728072394688,0.002706,-0.048305,0.006978,0.090068,-2.149247,317.455844,22.086943,0.999306,0.991922,0.003683,0.428190,0.000017,-0.000001,-0.000017,0.000027,-0.000011,-31.834109,0.000028,
2311,2653,1.13965478676316,0.132676036989693,-0.0142195326952788,0.001430,-0.050231,0.002683,0.037154,-2.243000,320.399018,21.938242,0.999414,0.989589,0.003995,0.484452,0.000066,0.000064,0.000007,0.000072,0.000058,39.815340,0.000130,
2146,3238,-2.5412691410259,12.830984305214,0.0426414258502632,0.004015,-0.049001,0.012496,0.129949,-2.184692,311.822104,22.456048,0.999647,0.994044,0.003095,0.407105,-0.000006,0.000013,-0.000034,0.000039,-0.000032,-52.816695,0.000041,
2476,2308,4.80695089243682,-7.40349761667861,0.0030743895211458,0.001743,-0.051375,-0.009139,0.092506,-2.332942,326.346458,20.522463,0.998901,0.977017,0.005998,0.376766,0.000529,0.000321,-0.000071,0.000551,0.000299,-17.195206,0.000863,
2071,2998,-4.12975121957282,7.62256133998575,0.0228470772106562,0.003138,-0.048631,0.006869,0.108850,-2.171459,315.908968,22.104926,0.999510,0.992377,0.003462,0.452355,0.000002,-0.000013,-0.000011,0.000008,-0.000019,-27.818167,0.000019,
2206,2158,-1.06185002036601,-10.6896404991843,0.000277123088437747,-0.002094,-0.052255,-0.012734,-0.074377,-2.416986,328.592266,21.258210,0.998999,0.985314,0.005012,0.448965,0.000671,0.000690,0.000048,0.000729,0.000632,50.446968,0.001362,
2461,2248,4.49145279956543,-8.71983203292896,0.00395803203485912,0.001669,-0.052676,-0.008890,0.087461,-2.406170,327.285053,20.241780,0.998714,0.978465,0.005650,0.418295,0.000629,0.000506,-0.000092,0.000678,0.000457,-28.092597,0.001142,
2056,2983,-4.45384312841317,7.29699940368438,0.0130226203875736,0.002971,-0.048778,0.013344,0.083247,-2.169748,316.128961,22.086642,0.999142,0.989514,0.003954,0.436116,0.000000,-0.000024,-0.000015,0.000008,-0.000031,-25.927126,0.000033,
2116,3148,-3.17741370941758,10.878097689175,0.0326253551715467,0.003779,-0.048798,0.012145,0.121419,-2.175588,313.331168,22.218233,0.999737,0.995107,0.002971,0.486095,0.000003,0.000012,-0.000020,0.000028,-0.000013,-51.469310,0.000028,
2086,2998,-3.80529160571943,7.62399477601357,0.0143862521050551,0.002950,-0.049375,0.009008,0.093308,-2.202998,315.743584,22.163346,0.999535,0.992966,0.003401,0.404467,0.000003,-0.000011,-0.000007,0.000006,-0.000014,-22.624003,0.000014,
2101,3043,-3.48664603333038,8.60145416754455,0.0206821991824313,0.003221,-0.049001,0.010079,0.102281,-2.187580,314.996495,22.231695,0.999518,0.992571,0.003502,0.394989,0.000014,-0.000007,-0.000009,0.000018,-0.000010,-20.552821,0.000018,
2251,2413,-0.123663345215995,-5.10714652793222,-0.00609719615999893,0.000460,-0.050628,-0.002421,0.010315,-2.288429,324.407442,21.592026,0.999136,0.987980,0.004448,0.431367,0.000235,0.000210,0.000003,0.000236,0.000210,6.169304,0.000445,
2491,2458,5.10207470341282,-4.12004651310519,-0.0114013153619794,0.001836,-0.051061,-0.002804,0.072871,-2.297116,323.813176,21.037466,0.998997,0.984929,0.004830,0.443438,0.000333,0.000134,-0.000015,0.000334,0.000133,-4.338536,0.000481,
2416,3223,3.32056822547522,12.5282715313008,0.0413067024026077,0.003943,-0.050414,0.010717,0.121363,-2.251817,311.665316,23.687190,0.999468,0.990647,0.003799,0.457527,0.000018,0.000003,-0.000006,0.000020,0.000001,-20.065733,0.000024,
2371,2938,2.39349912504987,6.33900981810288,0.00224772009778462,0.002873,-0.050389,0.011887,0.069580,-2.231911,315.916130,22.740968,0.999161,0.989102,0.004171,0.436112,-0.000006,-0.000008,0.000002,-0.000005,-0.000009,30.788112,0.000014,
2011,2953,-5.4250799404429,6.64433373213717,0.00603877605919934,0.002832,-0.048041,0.006592,0.097418,-2.138792,316.848709,22.025749,0.999685,0.994487,0.003032,0.433249,0.000040,-0.000021,0.000010,0.000042,-0.000022,8.992342,0.000042,
2326,2743,1.44936487196284,2.09532070854982,-0.0182585417577457,0.001895,-0.049893,0.005799,0.047676,-2.213304,318.902841,22.187698,0.999617,0.990412,0.003873,0.464279,0.000043,0.000068,0.000019,0.000078,0.000033,61.321531,0.000114,
2131,3208,-2.86058882091438,12.1790094409747,0.0496893535776053,0.004162,-0.048866,0.010033,0.144870,-2.172486,312.449690,22.334384,0.999684,0.993934,0.003196,0.455005,-0.000004,0.000024,-0.000025,0.000039,-0.000018,-59.463759,0.000039,
2176,2053,-1.69946951653378,-12.9926494524685,0.00539756696281302,-0.003404,-0.054324,-0.016012,-0.125405,-2.523176,330.360412,21.310654,0.998801,0.984715,0.004993,0.346091,0.000918,0.000859,0.000035,0.000934,0.000843,24.665932,0.001778,
2236,2398,-0.44867173539539,-5.43411162222549,-0.0135142830799282,0.000090,-0.050497,-0.002938,-0.004798,-2.267988,324.602322,21.607876,0.999413,0.989676,0.004225,0.457848,0.000247,0.000230,0.000004,0.000247,0.000229,11.342951,0.000476,
2041,2953,-4.77451173579385,6.64567956117558,0.00277641019937391,0.003041,-0.048247,0.005537,0.109114,-2.156402,316.644901,22.049387,0.999503,0.993195,0.003317,0.463363,0.000016,-0.000016,-0.000008,0.000018,-0.000018,-13.177117,0.000021,
2506,2608,5.39726487623562,-0.841385558582353,-0.0258865925403597,0.001865,-0.050218,-0.003809,0.078460,-2.272135,321.302461,21.639363,0.999825,0.993826,0.003642,0.449673,0.000166,0.000037,0.000003,0.000166,0.000037,1.459063,0.000216,
2446,2113,4.19191228016435,-11.6826972252932,0.0113501878564648,0.001676,-0.054273,-0.014548,0.107969,-2.514665,329.518029,19.744090,0.999375,0.979147,0.005723,0.381947,0.000935,0.000900,-0.000100,0.001019,0.000816,-40.052975,0.001838,
2401,3163,3.00585350684463,11.2257338694052,0.0352048872006208,0.003791,-0.050491,0.009465,0.119422,-2.262013,312.580603,23.465898,0.999624,0.993106,0.003364,0.416473,0.000015,0.000010,0.000007,0.000020,0.000004,35.664286,0.000026,
2221,2233,-0.74679748532883,-9.04608038475038,0.0016354841525299,-0.001205,-0.051468,-0.009345,-0.043951,-2.363980,327.387710,21.358450,0.998876,0.983049,0.005220,0.427356,0.000511,0.000533,0.000030,0.000553,0.000490,55.136345,0.001044,
2341,2848,1.7561407751698,4.38166035178951,-0.0189025563263385,0.002244,-0.049789,0.008428,0.054151,-2.217230,317.188815,22.455245,0.999619,0.991175,0.003776,0.453091,0.000013,0.000029,0.000010,0.000034,0.000008,65.103736,0.000044,
2281,2563,0.50221119058903,-1.83065205987238,-0.0206908276284707,0.001036,-0.050407,0.001172,0.024600,-2.262732,321.823721,21.754957,0.999155,0.988694,0.004448,0.495444,0.000118,0.000087,0.000004,0.000118,0.000087,6.469830,0.000206,
2266,2518,0.184403906832092,-2.81376579482964,-0.00964572418757825,0.000773,-0.049979,-0.001286,0.021067,-2.241710,322.663343,21.692037,0.999571,0.991360,0.003915,0.521821,0.000152,0.000107,0.000007,0.000153,0.000106,9.076736,0.000260,
2146,3253,-2.54398284209628,13.156117444702,0.0335989571791515,0.004300,-0.048885,0.010477,0.149273,-2.180818,311.520021,22.426042,0.999632,0.993796,0.003151,0.447658,-0.000006,0.000017,-0.000033,0.000041,-0.000030,-54.562216,0.000042,
2296,2608,0.821522591459182,-0.848107699407166,-0.0133731367193946,0.001452,-0.049912,0.001757,0.041695,-2.225409,321.153901,21.913955,0.999379,0.989916,0.004010,0.443510,0.000090,0.000072,0.000009,0.000094,0.000068,22.193886,0.000163,
2056,2998,-4.45578106918923,7.62247123313436,0.0135427571294144,0.003123,-0.048775,0.009466,0.101226,-2.165538,315.906942,22.074918,0.999164,0.989515,0.004037,0.445957,-0.000004,-0.000018,-0.000011,0.000002,-0.000024,-29.219668,0.000026,
2026,2923,-5.09566958257208,5.9936597214048,0.00268834713767774,0.002665,-0.048439,0.007504,0.086726,-2.142692,317.201743,22.034835,0.999312,0.992485,0.003642,0.476642,0.000018,-0.000011,-0.000008,0.000020,-0.000013,-13.792621,0.000021,
2386,3073,2.69555205029326,9.27268067478039,0.0123554221622157,0.003636,-0.049680,0.007276,0.121037,-2.209288,313.852545,23.132865,0.999604,0.991782,0.003671,0.482879,-0.000005,0.000007,0.000019,0.000021,-0.000018,53.822648,0.000023,
2356,2878,2.07802264343038,5.03346082605128,-0.00668269744107874,0.002766,-0.050597,0.010520,0.069975,-2.246989,316.817750,22.519467,0.999554,0.991330,0.003771,0.455961,0.000007,0.000019,0.000009,0.000023,0.000002,62.262166,0.000028,
2071,3013,-4.13192042947761,7.94763338772209,0.0278443662353993,0.003182,-0.048600,0.009108,0.104518,-2.156459,315.702132,22.079495,0.999403,0.991308,0.003682,0.488796,0.000005,-0.000005,-0.000013,0.000014,-0.000014,-33.389542,0.000016,
2191,2083,-1.3777364203484,-12.3332532606157,-0.00280468032730141,-0.003350,-0.053647,-0.015307,-0.124530,-2.507685,329.764693,21.306616,0.999127,0.983192,0.005357,0.304460,0.000832,0.000843,0.000039,0.000877,0.000798,48.961653,0.001676,
2041,2968,-4.77671620877833,6.9701910726307,0.00699485360178187,0.002961,-0.048426,0.006385,0.102866,-2.185530,316.430482,22.000412,0.999519,0.993026,0.003306,0.474984,0.000014,-0.000019,-0.000009,0.000017,-0.000022,-14.085835,0.000023,
2311,2668,1.1369369165304,0.460873260218634,-0.0179415135451677,0.001681,-0.049981,0.001654,0.052326,-2.232992,320.138728,22.047109,0.999773,0.992261,0.003609,0.418176,0.000062,0.000071,0.000002,0.000071,0.000062,79.698762,0.000133,
2206,2173,-1.06424405488958,-10.3607797309866,6.14762269037783E-05,-0.002036,-0.051969,-0.014258,-0.066813,-2.415486,328.356495,21.297949,0.999098,0.986267,0.004835,0.430063,0.000642,0.000663,0.000044,0.000698,0.000607,51.614755,0.001306,
2011,2968,-5.42745656810215,6.96917207057819,0.0116996274589951,0.002634,-0.048447,0.010533,0.077474,-2.146158,316.632488,21.994230,0.999676,0.994665,0.002962,0.444782,0.000036,-0.000029,0.000007,0.000037,-0.000030,5.894000,0.000039,
2476,2323,4.80326524146287,-7.07546761047424,-0.00286412801904135,0.001797,-0.051604,-0.006881,0.086338,-2.330510,326.048089,20.484206,0.998856,0.978764,0.005707,0.476586,0.000495,0.000303,-0.000061,0.000512,0.000286,-16.244880,0.000809,
2491,2473,5.09895781734728,-3.79247792626872,-0.0058127814199338,0.001672,-0.051143,0.001217,0.049946,-2.294318,323.593350,21.118437,0.999153,0.984802,0.004814,0.425067,0.000306,0.000129,-0.000015,0.000308,0.000127,-4.780396,0.000447,
2116,3163,-3.17944687511707,11.2030278823668,0.0402589977128969,0.003735,-0.048862,0.012222,0.119119,-2.178524,313.147662,22.249988,0.999599,0.993264,0.003373,0.453719,0.000002,0.000027,-0.000020,0.000038,-0.000009,-60.592499,0.000039,
2086,3013,-3.80755204706774,7.94905415951403,0.0138471977872427,0.003138,-0.049004,0.009120,0.101818,-2.180589,315.503264,22.093144,0.999659,0.993525,0.003177,0.495535,0.000007,-0.000004,-0.000009,0.000012,-0.000008,-29.309857,0.000012,
2506,2623,5.39467569756117,-0.516640603702164,-0.0144143815608118,0.001740,-0.050604,0.000234,0.056897,-2.292182,321.133898,21.579375,0.999843,0.994389,0.003383,0.551095,0.000152,-0.000007,-0.000005,0.000152,-0.000007,-1.936400,0.000172,
2101,3058,-3.48858682008716,8.92563871138891,0.0274011086036694,0.003319,-0.048775,0.010562,0.105457,-2.173753,314.811636,22.148868,0.999677,0.993893,0.003267,0.492037,0.000018,-0.000006,-0.000010,0.000021,-0.000009,-19.173760,0.000021,
2461,2263,4.48833360843542,-8.38948761702492,-0.00308346529823211,0.002019,-0.052062,-0.010765,0.110794,-2.374769,327.006136,20.352357,0.998966,0.978944,0.005593,0.395825,0.000594,0.000458,-0.000098,0.000646,0.000407,-27.574477,0.001061,
2416,3238,3.31717140315945,12.8544916703529,0.0319227748155413,0.004263,-0.050218,0.010902,0.135534,-2.241498,311.354053,23.749340,0.999402,0.991096,0.003754,0.452187,0.000018,-0.000004,-0.000008,0.000020,-0.000007,-18.085548,0.000021,
2026,2938,-5.0981471815534,6.31929916062317,0.00434434228924374,0.002607,-0.048720,0.011112,0.074025,-2.146533,316.959061,22.038185,0.999134,0.990791,0.003980,0.459015,0.000016,-0.000013,-0.000003,0.000016,-0.000013,-5.359018,0.000017,
2131,3223,-2.86328930494008,12.5035744327981,0.0538900725408666,0.003991,-0.048985,0.014579,0.123295,-2.167162,312.218095,22.316918,0.999652,0.994112,0.003120,0.482015,-0.000004,0.000021,-0.000032,0.000043,-0.000026,-55.802846,0.000044,
2146,3268,-2.54650401336292,13.4811059846816,0.0321948631443547,0.004402,-0.048923,0.010403,0.154192,-2.187239,311.267510,22.440111,0.999629,0.994320,0.003115,0.433586,-0.000008,0.000017,-0.000039,0.000046,-0.000036,-53.736422,0.000048,
2251,2428,-0.126272793474211,-4.78059802330929,-0.00764690166988657,0.000652,-0.050508,-0.001631,0.016563,-2.289484,324.158848,21.499082,0.998755,0.985969,0.004660,0.548063,0.000220,0.000174,0.000000,0.000220,0.000174,0.058074,0.000395,
2236,2413,-0.452854823797583,-5.1027913359675,-0.0340009509785091,0.000053,-0.050374,-0.002056,-0.009330,-2.259350,324.183120,21.757355,0.999550,0.990807,0.003917,0.340483,0.000228,0.000201,-0.000005,0.000229,0.000200,-9.234990,0.000430,
2446,2128,4.18880137525324,-11.3537135017154,0.0117661855855431,0.001688,-0.054358,-0.012721,0.101724,-2.513712,329.273195,19.788699,0.999309,0.977891,0.005974,0.393620,0.000899,0.000875,-0.000094,0.000981,0.000792,-41.312140,0.001777,
2176,2068,-1.70140294902658,-12.6645248740839,0.0110522540774127,-0.003054,-0.054301,-0.013092,-0.118348,-2.506317,330.173812,21.294367,0.999116,0.984574,0.005129,0.394679,0.000885,0.000857,0.000042,0.000915,0.000827,35.704738,0.001742,
2266,2533,0.18206216058255,-2.48645241075241,-0.0185214796906052,0.001577,-0.050054,-0.003658,0.065778,-2.265811,322.391208,21.661825,0.999669,0.995298,0.003283,0.554669,0.000143,0.000100,0.000002,0.000143,0.000100,2.598293,0.000244,
2371,2953,2.39068688179684,6.66527176327779,-0.000648352345137937,0.002966,-0.050434,0.009401,0.082702,-2.247439,315.660022,22.791890,0.999310,0.989151,0.004162,0.409999,-0.000006,-0.000016,0.000005,-0.000005,-0.000018,22.403495,0.000024,
2401,3178,3.0028086634654,11.5511724166767,0.0359270491759958,0.003784,-0.050169,0.011619,0.111429,-2.236542,312.332546,23.483189,0.999545,0.992693,0.003489,0.469061,0.000017,0.000013,0.000004,0.000019,0.000011,32.653639,0.000031,
2041,2983,-4.77881293829106,7.2959211152563,0.0133306016432471,0.003093,-0.048717,0.010975,0.096111,-2.172471,316.232298,22.039474,0.999354,0.991653,0.003655,0.440597,-0.000002,-0.000031,-0.000010,0.000001,-0.000034,-17.353622,0.000039,
2281,2578,0.501067811652529,-1.50401439569244,-0.0106558953705758,0.001637,-0.049835,-0.001887,0.062654,-2.234283,321.702191,21.792744,0.999014,0.986855,0.004722,0.514276,0.000111,0.000087,0.000008,0.000113,0.000085,16.757154,0.000199,
2071,3028,-4.13445602638932,8.27344132063838,0.0228793244608028,0.003402,-0.048672,0.010036,0.111992,-2.159933,315.423598,22.077375,0.999590,0.993123,0.003338,0.483443,0.000008,-0.000004,-0.000015,0.000018,-0.000014,-34.661850,0.000019,
2341,2863,1.7541676574586,4.70682822362667,-0.00838377455630734,0.002386,-0.050094,0.009729,0.056036,-2.225652,317.034629,22.472127,0.999616,0.990994,0.003820,0.463993,0.000009,0.000025,0.000009,0.000029,0.000005,65.453026,0.000037,
2056,3013,-4.45852409824341,7.9477701326899,0.0131672493819224,0.002826,-0.048805,0.010477,0.084652,-2.171120,315.643151,22.055173,0.998853,0.986207,0.004753,0.454007,-0.000002,-0.000008,-0.000011,0.000007,-0.000017,-37.226824,0.000017,
2491,2488,5.09655094701873,-3.4644447068838,-0.0068733062758497,0.001871,-0.050351,-0.005529,0.085214,-2.282607,323.376086,21.176073,0.999378,0.985416,0.004612,0.439385,0.000293,0.000107,-0.000023,0.000296,0.000104,-6.985862,0.000415,
2476,2338,4.80018120808981,-6.74624154452525,-0.00183444806185662,0.001839,-0.051451,-0.005161,0.081806,-2.324892,325.808616,20.626846,0.998631,0.980828,0.005608,0.398130,0.000465,0.000283,-0.000065,0.000486,0.000263,-17.779359,0.000760,
2386,3088,2.69300162596192,9.59707453637211,0.0228496924037813,0.003484,-0.050394,0.011407,0.098821,-2.251634,313.673470,23.161930,0.999407,0.990621,0.003868,0.453622,-0.000003,0.000002,0.000012,0.000012,-0.000013,51.125250,0.000014,
2326,2758,1.4460326418647,2.42171560006305,-0.0216371473751451,0.001704,-0.050247,0.007054,0.034418,-2.229431,318.617488,22.189410,0.999619,0.991796,0.003735,0.481030,0.000038,0.000061,0.000019,0.000072,0.000027,60.656930,0.000102,
2011,2983,-5.42999479159522,7.29467762105901,0.00801594306187781,0.002792,-0.048927,0.013790,0.075751,-2.157112,316.356101,21.966933,0.999369,0.991849,0.003488,0.448456,0.000016,-0.000041,0.000009,0.000017,-0.000042,8.671252,0.000042,
2221,2248,-0.749721515579875,-8.71741120563624,-0.00682653254972365,-0.000985,-0.051173,-0.009651,-0.032775,-2.341534,327.086637,21.301776,0.998817,0.982648,0.005266,0.527890,0.000488,0.000487,0.000031,0.000519,0.000456,44.365539,0.000976,
2416,3253,3.31372885647374,13.1804461269593,0.0250162270679652,0.004421,-0.050239,0.012102,0.138443,-2.231798,311.052320,23.806556,0.999204,0.989772,0.003992,0.451198,0.000016,-0.000005,-0.000006,0.000018,-0.000007,-14.323517,0.000018,
2206,2188,-1.06688618048124,-10.0320141577813,0.00487504417765194,-0.001998,-0.052506,-0.007548,-0.086461,-2.411109,328.135230,21.384565,0.998796,0.981505,0.005391,0.367112,0.000609,0.000635,0.000041,0.000665,0.000579,54.015429,0.001245,
2026,2953,-5.09932231410239,6.64471730299068,0.00740774584602377,0.003155,-0.048225,0.004515,0.117571,-2.152066,316.784037,22.036491,0.999471,0.992458,0.003483,0.445015,0.000016,-0.000016,-0.000001,0.000016,-0.000016,-1.094636,0.000019,
2461,2278,4.48576742837581,-8.06060954005933,-0.00146919446228821,0.002028,-0.051148,-0.014692,0.126355,-2.362038,326.792201,20.441432,0.999303,0.979675,0.005517,0.376177,0.000562,0.000422,-0.000077,0.000596,0.000388,-23.916941,0.000991,
2191,2098,-1.38070797324753,-12.0044575262529,-0.0142947839381691,-0.002865,-0.053209,-0.012772,-0.110113,-2.455907,329.442698,21.139881,0.999238,0.985498,0.005196,0.541118,0.000800,0.000815,0.000043,0.000851,0.000764,50.177809,0.001616,
2446,2143,4.18485418976458,-11.0229223263175,-0.00215110533815732,0.001706,-0.053969,-0.015017,0.111227,-2.502984,328.923975,19.839694,0.999023,0.977082,0.006116,0.408867,0.000856,0.000827,-0.000092,0.000935,0.000748,-40.508109,0.001686,
2311,2683,1.13460007738911,0.786650347974458,-0.0144740864790265,0.001967,-0.050001,0.003315,0.059772,-2.222389,319.931829,21.997703,0.999738,0.991520,0.003728,0.511014,0.000061,0.000076,0.000005,0.000078,0.000060,74.205430,0.000138,
2131,3238,-2.86625225938797,12.8291986807409,0.0439865845492591,0.004107,-0.049077,0.013364,0.132133,-2.191653,311.898452,22.350089,0.999672,0.994167,0.002971,0.428719,-0.000005,0.000013,-0.000035,0.000040,-0.000032,-52.189508,0.000043,
2146,3283,-2.54951482569724,13.8063629023672,0.0249063718851517,0.004564,-0.049102,0.012713,0.154588,-2.190517,310.961030,22.447664,0.999554,0.994133,0.003211,0.429007,-0.000008,0.000020,-0.000035,0.000043,-0.000032,-56.187479,0.000045,
2296,2623,0.818268469191768,-0.521654695309927,-0.0169098137801029,0.001252,-0.050281,0.002592,0.029558,-2.250340,320.869262,21.884312,0.999328,0.988806,0.004105,0.479064,0.000080,0.000071,0.000006,0.000083,0.000067,26.938193,0.000151,
2356,2893,2.07572088894378,5.36002475306387,-0.00105497352706152,0.002644,-0.049956,0.007490,0.075376,-2.207180,316.625082,22.587525,0.999605,0.991508,0.003645,0.466077,0.000002,0.000009,0.000008,0.000014,-0.000004,56.841776,0.000015,
2041,2998,-4.78071135852771,7.62146548245371,0.0175155499749735,0.003295,-0.048774,0.011302,0.104576,-2.165396,316.031358,22.056048,0.999152,0.989961,0.003979,0.422789,-0.000006,-0.000024,-0.000006,-0.000004,-0.000026,-16.141650,0.000033,
2281,2593,0.497642713941854,-1.17608221725906,-0.0145572482625766,0.001387,-0.049968,0.000565,0.042932,-2.235585,321.406279,21.861725,0.999144,0.988344,0.004405,0.472877,0.000100,0.000075,0.000006,0.000102,0.000074,12.585971,0.000176,
2101,3073,-3.49091675049792,9.25166920319681,0.0293051866688074,0.003286,-0.048644,0.010173,0.105121,-2.171929,314.582183,22.219973,0.999559,0.991687,0.003652,0.422848,0.000014,0.000002,-0.000008,0.000019,-0.000002,-26.482155,0.000020,
2086,3028,-3.80963464991262,8.27460921848688,0.0161870972593192,0.003339,-0.048829,0.009414,0.110275,-2.171038,315.286655,22.104582,0.999519,0.992517,0.003442,0.491813,0.000009,-0.000003,-0.000011,0.000015,-0.000009,-29.964834,0.000015,
2506,2638,5.39151029282003,-0.188638637420652,-0.0117237203745617,0.001879,-0.051128,0.005141,0.044079,-2.291509,320.898895,21.726487,0.999651,0.992008,0.003873,0.466187,0.000140,0.000023,-0.000019,0.000143,0.000020,-8.867126,0.000178,
2236,2428,-0.454092891791053,-4.7784699712121,-0.0174585318213758,0.000454,-0.050822,0.000922,-0.000706,-2.259406,324.088482,21.631899,0.999382,0.989600,0.004160,0.487880,0.000213,0.000163,-0.000005,0.000214,0.000163,-5.348915,0.000378,
2266,2548,0.179527975692601,-2.15736322846078,-0.0196777043877319,0.001827,-0.049858,-0.003479,0.076738,-2.258987,322.148451,21.838169,0.999531,0.992284,0.003748,0.411467,0.000133,0.000086,0.000005,0.000133,0.000086,5.646148,0.000221,
2116,3178,-3.18119979812772,11.5273026064284,0.0471883277595566,0.003968,-0.049063,0.011543,0.131818,-2.190264,312.973496,22.228695,0.999559,0.992396,0.003451,0.465501,0.000000,0.000029,-0.000022,0.000041,-0.000012,-61.603761,0.000043,
2401,3193,3.0001110056062,11.8763461902734,0.0416509940978358,0.003752,-0.050551,0.014051,0.100978,-2.244851,312.124175,23.542889,0.999497,0.992000,0.003557,0.445054,0.000019,0.000010,0.000002,0.000020,0.000010,10.426960,0.000030,
2011,2998,-5.43147000733133,7.62013904352822,0.0130429898749185,0.003065,-0.048306,0.009745,0.099532,-2.139425,316.177426,21.970637,0.999435,0.992363,0.003436,0.449695,0.000016,-0.000034,0.000012,0.000019,-0.000037,13.320945,0.000037,
2476,2353,4.79756334142577,-6.41796699988647,-0.00338220100860553,0.002354,-0.051239,-0.005828,0.108013,-2.302681,325.578850,20.645399,0.998714,0.982947,0.005562,0.460236,0.000440,0.000285,-0.000058,0.000460,0.000265,-18.454423,0.000734,
2056,3028,-4.46080055859918,8.2730539454845,0.012496390936974,0.002953,-0.048739,0.010455,0.090548,-2.173504,315.399140,22.032955,0.999424,0.991333,0.003768,0.467610,0.000001,-0.000006,-0.000014,0.000012,-0.000017,-37.423128,0.000017,
2176,2083,-1.70438980190411,-12.3338986486973,0.00470978306333336,-0.003212,-0.053765,-0.014357,-0.121558,-2.491688,329.876222,21.380814,0.999408,0.984931,0.005103,0.338519,0.000853,0.000840,0.000042,0.000888,0.000804,40.654110,0.001693,
2416,3268,3.30988318569996,13.5058644377126,0.0171150197523957,0.004339,-0.050417,0.014365,0.126367,-2.224929,310.727430,23.816389,0.999562,0.991498,0.003657,0.494361,0.000016,-0.000013,-0.000005,0.000017,-0.000014,-9.982843,0.000018,
2461,2293,4.48192370075005,-7.73401894793292,0.00464128788775042,0.001455,-0.052105,-0.005607,0.065605,-2.366671,326.540406,20.389109,0.999115,0.979200,0.005599,0.480569,0.000535,0.000368,-0.000068,0.000559,0.000344,-19.493070,0.000912,
2071,3043,-4.13688747485254,8.59948402014461,0.0206884082419379,0.003580,-0.048753,0.011338,0.116492,-2.150992,315.164968,22.107468,0.999560,0.993072,0.003366,0.458228,0.000003,-0.000008,-0.000021,0.000019,-0.000024,-37.173457,0.000025,
2446,2158,4.1821080192869,-10.6938638696287,0.00448556618704288,0.001685,-0.053528,-0.011836,0.098628,-2.475061,328.724107,19.942324,0.999235,0.978669,0.005637,0.389363,0.000824,0.000755,-0.000101,0.000896,0.000683,-35.620546,0.001584,
2251,2443,-0.129140590087705,-4.45087399635875,-0.00993094259860072,0.000666,-0.050963,-0.000832,0.014445,-2.296212,323.894054,21.700771,0.999398,0.989329,0.004263,0.364372,0.000208,0.000168,0.000004,0.000209,0.000168,6.337893,0.000377,
2491,2503,5.09283492814474,-3.13659915547331,-0.00726381582103386,0.001687,-0.050825,-0.000624,0.057822,-2.296203,323.101704,21.253182,0.999415,0.986380,0.004580,0.408701,0.000273,0.000094,-0.000028,0.000277,0.000090,-8.563762,0.000383,
2206,2203,-1.06964990465943,-9.70147902403275,-0.00281872096104507,-0.001819,-0.051596,-0.009579,-0.071517,-2.346153,327.843458,21.445872,0.998789,0.981008,0.005490,0.390256,0.000584,0.000602,0.000041,0.000635,0.000551,51.416692,0.001187,
2326,2773,1.44446242943701,2.74904195252945,-0.0170247761295741,0.002410,-0.050022,0.004761,0.074819,-2.232648,318.451829,22.331126,0.999715,0.994533,0.003324,0.370499,0.000034,0.000048,0.000013,0.000056,0.000026,59.078657,0.000084,
2371,2968,2.38798087251702,6.99218961129573,-0.00129036343236066,0.003146,-0.050280,0.008869,0.092963,-2.230092,315.419305,22.890588,0.999542,0.989325,0.004197,0.369304,-0.000011,-0.000011,0.000010,-0.000001,-0.000021,44.057630,0.000024,
2236,2443,-0.456229677827952,-4.45033691716777,-0.0106222009802082,0.000422,-0.050817,0.000453,-0.000668,-2.288052,323.902649,21.795621,0.999596,0.991443,0.003996,0.317889,0.000202,0.000160,0.000001,0.000202,0.000160,1.648371,0.000364,
2041,3013,-4.78344322656961,7.94851332068345,0.00774030367682599,0.003220,-0.048078,0.006750,0.114019,-2.147692,315.714100,22.110203,0.999390,0.990962,0.003906,0.378117,-0.000002,-0.000013,-0.000006,0.000001,-0.000015,-23.366786,0.000017,
2131,3253,-2.86880587300321,13.1542784705318,0.0412246171334232,0.004195,-0.048959,0.012609,0.138580,-2.178879,311.636077,22.340990,0.999690,0.994799,0.002906,0.454935,-0.000005,0.000016,-0.000036,0.000043,-0.000032,-53.032234,0.000045,
2401,3208,2.99775996739995,12.2013517545567,0.0455148885711765,0.004004,-0.050413,0.013868,0.113263,-2.250416,311.922971,23.576483,0.999410,0.991808,0.003733,0.450189,0.000019,0.000006,-0.000003,0.000020,0.000005,-10.040942,0.000027,
2506,2653,5.38736340804988,0.140130664531476,-0.019640215722859,0.001708,-0.051450,0.007349,0.027615,-2.275930,320.571103,21.844483,0.999484,0.988184,0.004476,0.425597,0.000133,0.000044,-0.000012,0.000134,0.000042,-7.568951,0.000185,
2341,2878,1.75097604983457,5.03271410962988,-0.0167458167758241,0.002541,-0.050244,0.008296,0.068132,-2.233414,316.732475,22.418608,0.999590,0.990807,0.003875,0.546330,0.000005,0.000021,0.000010,0.000026,0.000000,64.060657,0.000030,
2011,3013,-5.43361415573473,7.94513107960797,0.0151836960768037,0.003037,-0.048230,0.008995,0.100311,-2.139495,315.952089,21.932981,0.999560,0.992849,0.003466,0.474685,0.000017,-0.000022,0.000014,0.000021,-0.000027,17.762367,0.000028,
2146,3298,-2.55222049950474,14.1306759164531,0.0243577526958916,0.004368,-0.049076,0.011744,0.148399,-2.211661,310.704842,22.426915,0.999608,0.995097,0.002912,0.435032,-0.000005,0.000038,-0.000041,0.000063,-0.000029,-59.091247,0.000063,
2221,2263,-0.752388958807636,-8.38789259477558,-0.00839007245417633,-0.000868,-0.051546,-0.008424,-0.031472,-2.347378,326.832517,21.427617,0.998898,0.982185,0.005305,0.417492,0.000467,0.000440,0.000029,0.000486,0.000421,32.554072,0.000908,
2026,2968,-5.10150348978021,6.96952497351472,0.0101826915320657,0.003168,-0.048429,0.005443,0.115462,-2.178311,316.561574,22.001195,0.999484,0.992423,0.003426,0.443682,0.000015,-0.000023,-0.000002,0.000015,-0.000023,-3.363567,0.000023,
2176,2098,-1.70716467076614,-12.0044138247605,-0.00895367747045839,-0.002615,-0.053039,-0.014701,-0.092880,-2.464502,329.550243,21.276784,0.999256,0.983614,0.005267,0.485711,0.000820,0.000813,0.000048,0.000864,0.000769,43.062622,0.001634,
2416,3283,3.30664845188096,13.8319836456295,0.0107906723115434,0.004630,-0.050359,0.015216,0.136667,-2.228691,310.437772,23.914895,0.999713,0.991532,0.003628,0.438231,0.000022,-0.000013,-0.000010,0.000025,-0.000016,-14.760219,0.000025,
2086,3043,-3.81134582978905,8.59882586592527,0.0297392264242831,0.003292,-0.049171,0.011109,0.103053,-2.195336,315.148775,22.103996,0.999636,0.992203,0.003472,0.466043,0.000004,-0.000007,-0.000015,0.000015,-0.000018,-34.554575,0.000019,
2191,2113,-1.38150708273463,-11.676423339657,0.00616462026346198,-0.002502,-0.053258,-0.012031,-0.095805,-2.465966,329.385808,21.319933,0.998874,0.982404,0.005378,0.367656,0.000768,0.000796,0.000045,0.000829,0.000735,53.679125,0.001565,
2281,2608,0.494203291523149,-0.847968767240431,-0.0213552041270759,0.001466,-0.050591,0.004766,0.032321,-2.247109,321.095200,21.937879,0.999004,0.987929,0.004531,0.413662,0.000088,0.000065,0.000008,0.000091,0.000063,17.260917,0.000154,
2461,2308,4.47857373709624,-7.40331173734113,-0.00522482349776965,0.001755,-0.052001,-0.008200,0.089143,-2.371857,326.237878,20.558261,0.998756,0.976008,0.005984,0.362862,0.000518,0.000335,-0.000067,0.000540,0.000313,-18.066041,0.000863,
2476,2368,4.7933565687277,-6.08869260281413,-0.00593436886197196,0.001768,-0.051484,-0.001754,0.065664,-2.298037,325.271446,20.768888,0.999440,0.986190,0.005068,0.399942,0.000416,0.000278,-0.000054,0.000435,0.000260,-18.883574,0.000702,
2266,2563,0.176453678445117,-1.83193251981972,-0.0156260196554285,0.001270,-0.050112,-0.001519,0.044591,-2.252273,321.907845,21.730274,0.999474,0.990150,0.004084,0.552766,0.000118,0.000084,0.000006,0.000119,0.000083,10.371588,0.000203,
2311,2698,1.13170413282591,1.11320169081154,-0.0163462510515728,0.001892,-0.050072,0.002226,0.060016,-2.228857,319.672807,21.996859,0.999789,0.992153,0.003619,0.537932,0.000055,0.000081,0.000006,0.000082,0.000053,78.125386,0.000137,
2386,3103,2.69059278307796,9.92234478215421,0.0268213348449535,0.003586,-0.050381,0.010435,0.107054,-2.249175,313.469503,23.188404,0.999125,0.989185,0.004076,0.471857,0.000002,0.000004,0.000013,0.000016,-0.000010,47.350177,0.000016,
2296,2638,0.816091812886594,-0.194826942768984,-0.014763886716139,0.001550,-0.049906,0.001241,0.047924,-2.236552,320.661975,21.903495,0.999256,0.987764,0.004226,0.504083,0.000073,0.000067,0.000010,0.000081,0.000059,36.183267,0.000141,
2116,3193,-3.18384304215335,11.8526727633856,0.0464499167954386,0.003863,-0.048955,0.011691,0.126529,-2.193346,312.716695,22.257611,0.999532,0.992678,0.003600,0.435800,0.000000,0.000028,-0.000025,0.000043,-0.000015,-59.354294,0.000043,
2056,3043,-4.4629381973804,8.59848166487625,0.0163415320541276,0.003147,-0.048963,0.013739,0.090226,-2.163011,315.186389,22.044964,0.999705,0.994459,0.003170,0.459876,-0.000004,-0.000012,-0.000021,0.000013,-0.000029,-40.072676,0.000029,
2356,2908,2.07259431426444,5.68653728010082,-0.00750650317996815,0.002954,-0.050119,0.008686,0.085344,-2.223037,316.336267,22.622952,0.999393,0.990486,0.003895,0.453389,-0.000003,-0.000006,0.000010,0.000006,-0.000015,40.739699,0.000015,
2071,3058,-4.13892220829959,8.92404558169333,0.0200908803359425,0.003831,-0.048899,0.009055,0.134454,-2.179918,314.933872,22.053673,0.999309,0.992503,0.003483,0.479274,0.000005,-0.000007,-0.000020,0.000020,-0.000022,-36.386889,0.000024,
2101,3088,-3.49279520116338,9.57602941915321,0.0327731313944923,0.003606,-0.049046,0.009818,0.120762,-2.196669,314.382569,22.177450,0.999399,0.988281,0.004133,0.441046,0.000009,0.000008,-0.000008,0.000017,0.000000,-44.141349,0.000020,
2251,2458,-0.132071236928549,-4.1235726094354,-0.00774975408762657,0.000384,-0.050730,0.001456,-0.005858,-2.259294,323.649224,21.683970,0.999716,0.991000,0.004065,0.442884,0.000195,0.000155,0.000010,0.000197,0.000153,13.352685,0.000351,
2416,3298,3.30252692845072,14.1573212549116,-0.0048214512278264,0.004673,-0.050303,0.014784,0.140234,-2.232257,310.063755,23.895728,0.999738,0.991994,0.003512,0.500105,0.000028,-0.000009,-0.000019,0.000035,-0.000017,-22.692695,0.000035,
2236,2458,-0.459029680981526,-4.12370484440023,-0.0050417772006881,-0.000004,-0.050789,0.002672,-0.027385,-2.262925,323.680133,21.760726,0.999426,0.989419,0.004315,0.400063,0.000189,0.000149,0.000007,0.000190,0.000148,9.380177,0.000339,
2131,3268,-2.87185249195743,13.4796794825643,0.0327539795896996,0.004239,-0.048992,0.012966,0.139521,-2.179438,311.320312,22.347426,0.999717,0.995030,0.002865,0.452072,-0.000006,0.000016,-0.000042,0.000048,-0.000038,-52.554514,0.000051,
2041,3028,-4.78551385924877,8.27241462184076,0.0148027798353496,0.003173,-0.048170,0.008656,0.106458,-2.149260,315.521907,22.011440,0.999548,0.991542,0.003811,0.466924,0.000004,-0.000010,-0.000009,0.000008,-0.000014,-25.820029,0.000014,
2446,2173,4.17966658426159,-10.3642484340222,0.010509293566372,0.001789,-0.053062,-0.011533,0.102497,-2.436179,328.535228,20.082728,0.999535,0.983763,0.004903,0.342315,0.000779,0.000720,-0.000103,0.000857,0.000642,-37.062301,0.001505,
2011,3028,-5.4349205723547,8.26964667609476,0.0266758430769869,0.003529,-0.048906,0.012156,0.114222,-2.152520,315.817987,21.930170,0.999510,0.992864,0.003584,0.451463,0.000021,-0.000021,0.000012,0.000024,-0.000024,14.664683,0.000028,
2161,1993,-2.01771101716119,-14.308411788049,0.00595456126944782,-0.004523,-0.054280,-0.021079,-0.161447,-2.549358,331.341642,21.417131,0.998753,0.982356,0.005434,0.256197,0.001090,0.000886,0.000042,0.001098,0.000878,11.238256,0.001980,
2491,2518,5.08934545841403,-2.80909216775723,-0.0139161154671683,0.001877,-0.050914,-0.000149,0.064707,-2.293535,322.809491,21.231261,0.999396,0.986725,0.004458,0.493522,0.000243,0.000078,-0.000032,0.000249,0.000072,-10.502331,0.000337,
2506,2668,5.38507974839732,0.46619697386538,-0.0161448946522,0.002058,-0.051188,0.005376,0.051466,-2.264468,320.380411,21.818861,0.999426,0.986602,0.004629,0.524344,0.000122,0.000021,-0.000015,0.000125,0.000019,-8.185299,0.000156,
2326,2788,1.44119041527068,3.0741811421704,-0.021871987273073,0.002280,-0.050104,0.004653,0.069171,-2.244463,318.162274,22.211034,0.999609,0.993692,0.003488,0.513286,0.000033,0.000044,0.000013,0.000053,0.000024,55.621839,0.000079,
2371,2983,2.38588410936309,7.31696323994876,0.00380367882070232,0.003360,-0.050098,0.006798,0.110227,-2.235739,315.234701,22.858342,0.999499,0.989579,0.004099,0.436403,-0.000010,-0.000006,0.000011,0.000003,-0.000019,49.858089,0.000020,
2086,3058,-3.81324880390744,8.9241084979606,0.0279358716082925,0.003679,-0.048924,0.007308,0.131928,-2.199122,314.917957,22.083325,0.999523,0.992457,0.003454,0.481351,0.000008,-0.000007,-0.000015,0.000017,-0.000016,-32.162690,0.000019,
2206,2218,-1.07227043948237,-9.37320138025789,-0.00206811334925305,-0.001863,-0.051569,-0.008353,-0.077400,-2.341285,327.602311,21.455279,0.998811,0.982004,0.005417,0.405090,0.000555,0.000569,0.000044,0.000607,0.000518,49.593445,0.001126,
2401,3223,2.99436327649545,12.5267657515028,0.0413339946480278,0.003863,-0.050636,0.013837,0.106796,-2.262762,311.635328,23.611796,0.999429,0.991924,0.003628,0.446661,0.000017,0.000006,-0.000003,0.000018,0.000005,-14.763869,0.000024,
2026,2983,-5.10391449508201,7.29518637174246,0.00825070423928764,0.003259,-0.048403,0.006743,0.116094,-2.177819,316.301947,21.989275,0.999296,0.991954,0.003675,0.445625,-0.000004,-0.000036,-0.000001,-0.000004,-0.000036,-2.060063,0.000044,
2476,2383,4.7897288884267,-5.76067838662646,-0.0111882517046524,0.001736,-0.051703,-0.000559,0.059579,-2.287025,324.978449,20.749813,0.999537,0.984958,0.005075,0.488727,0.000396,0.000238,-0.000067,0.000421,0.000214,-20.113022,0.000646,
2341,2893,1.7492192987154,5.35949803675001,-0.00631356574467645,0.002745,-0.049821,0.007392,0.080861,-2.201714,316.587224,22.550400,0.999472,0.990713,0.003842,0.482211,-0.000001,0.000012,0.000009,0.000017,-0.000006,62.287627,0.000017,
2281,2623,0.49152158991448,-0.52132677937022,-0.0230884229068238,0.001443,-0.050362,0.002405,0.039196,-2.251313,320.844411,21.920530,0.999199,0.987788,0.004363,0.455292,0.000078,0.000064,0.000005,0.000080,0.000063,19.364919,0.000143,
2176,2113,-1.70949747224724,-11.6759919656889,0.000479909075124851,-0.002901,-0.053352,-0.011695,-0.115392,-2.465420,329.365108,21.362647,0.998991,0.979896,0.005608,0.414098,0.000787,0.000792,0.000051,0.000840,0.000738,46.593980,0.001580,
2461,2323,4.47532058205054,-7.07569682900004,-0.00698923374875449,0.001689,-0.051819,-0.007996,0.085437,-2.366697,325.976964,20.521148,0.998891,0.977923,0.005696,0.461734,0.000485,0.000315,-0.000058,0.000503,0.000297,-17.150356,0.000808,
2056,3058,-4.46489095426293,8.92402426819317,0.0165523654399635,0.003422,-0.048853,0.011665,0.108773,-2.169278,314.962038,22.064061,0.999560,0.993295,0.003377,0.428362,-0.000004,-0.000008,-0.000020,0.000014,-0.000026,-42.163343,0.000026,
2116,3208,-3.18525952886441,12.1772237840995,0.0531357215492108,0.004443,-0.048980,0.010866,0.155822,-2.180537,312.556580,22.242073,0.999622,0.993738,0.003297,0.466432,-0.000001,0.000028,-0.000027,0.000045,-0.000017,-59.061763,0.000045,
2296,2653,0.812444088655536,0.133027786745771,-0.0240582184287064,0.001301,-0.049965,0.000875,0.037708,-2.248218,320.330288,21.950835,0.999236,0.987930,0.004199,0.475985,0.000064,0.000063,0.000006,0.000069,0.000058,40.840980,0.000127,
2161,2008,-2.02024852076132,-13.9797940876478,0.00507814626706704,-0.004448,-0.054143,-0.019280,-0.163517,-2.529670,331.092029,21.348097,0.998824,0.984171,0.005192,0.358754,0.001038,0.000916,0.000050,0.001056,0.000897,19.752446,0.001955,
2431,1993,3.88854005389442,-14.3204132221572,0.0166296683920564,0.001822,-0.057556,-0.016241,0.119154,-2.669490,331.481468,19.359962,0.998999,0.976624,0.005960,0.273200,0.001203,0.001046,-0.000107,0.001257,0.000992,-26.789278,0.002254,
2191,2128,-1.38385145895542,-11.3475122228087,0.00504101193115503,-0.002271,-0.052899,-0.012160,-0.084691,-2.450728,329.146297,21.323976,0.998464,0.981083,0.005570,0.396316,0.000738,0.000769,0.000046,0.000802,0.000704,54.297992,0.001508,
2311,2713,1.1287040452461,1.44067057511215,-0.0192892108139517,0.001783,-0.049859,0.000946,0.059402,-2.246237,319.403482,22.087298,0.999572,0.990280,0.003923,0.462548,0.000046,0.000076,0.000008,0.000078,0.000044,75.745978,0.000123,
2041,3043,-4.78742422966819,8.597101070998,0.0209443908917137,0.003247,-0.048478,0.008931,0.109076,-2.150162,315.331691,21.981177,0.999742,0.994670,0.003054,0.487859,-0.000003,-0.000014,-0.000017,0.000010,-0.000027,-35.554105,0.000027,
2356,2923,2.06968578569844,6.01285094319981,-0.00573227478713534,0.002722,-0.049899,0.008240,0.076320,-2.220995,316.097127,22.686094,0.999288,0.990396,0.003956,0.430689,-0.000006,-0.000010,0.000006,-0.000002,-0.000015,36.470153,0.000018,
2266,2578,0.173356939589791,-1.50330255003792,-0.0207770206097848,0.001387,-0.049964,0.000636,0.042929,-2.226920,321.619200,21.820738,0.999231,0.988254,0.004398,0.514135,0.000110,0.000083,0.000010,0.000113,0.000079,18.824977,0.000193,
2506,2683,5.38082536878234,0.795168373602991,-0.0280878565359899,0.001959,-0.051070,0.005707,0.045652,-2.279094,320.029513,21.963090,0.999605,0.990127,0.003946,0.427084,0.000105,0.000028,-0.000011,0.000107,0.000026,-8.122297,0.000141,
2131,3283,-2.87450170246328,13.8048730232252,0.0261087814049574,0.004515,-0.048762,0.012605,0.153457,-2.164519,311.032657,22.334109,0.999704,0.995118,0.002949,0.484543,-0.000005,0.000018,-0.000037,0.000045,-0.000032,-53.465558,0.000047,
2401,3238,2.99167273991816,12.8528695487795,0.0334162128533535,0.004560,-0.050335,0.011719,0.146735,-2.247981,311.362222,23.666755,0.999363,0.992013,0.003597,0.450910,0.000016,-0.000004,-0.000005,0.000017,-0.000005,-13.939068,0.000017,
2251,2473,-0.134171390085019,-3.79737230482295,0.000211190395077665,0.000406,-0.050520,0.002209,-0.007273,-2.255405,323.471971,21.657095,0.999631,0.990823,0.004002,0.498048,0.000182,0.000146,0.000009,0.000184,0.000144,13.086039,0.000329,
2491,2533,5.0862972449683,-2.48104621092372,-0.0130691151612154,0.001961,-0.050752,0.001244,0.063266,-2.290262,322.571091,21.331102,0.999644,0.989415,0.003962,0.456662,0.000227,0.000073,-0.000021,0.000230,0.000071,-7.503872,0.000314,
2011,3043,-5.43705954354353,8.59460773615145,0.0248050271854936,0.003547,-0.048620,0.008002,0.126381,-2.160622,315.570408,21.878147,0.999385,0.992848,0.003740,0.482772,0.000013,-0.000020,0.000005,0.000014,-0.000021,8.149797,0.000021,
2026,2998,-5.10582015188292,7.62086431605882,0.014100497873244,0.003326,-0.048170,0.006940,0.118742,-2.154179,316.108969,22.012938,0.999360,0.992300,0.003579,0.434958,-0.000005,-0.000029,0.000003,-0.000005,-0.000029,6.509475,0.000037,
2326,2803,1.43850858555841,3.40106038033155,-0.0185691344579482,0.002166,-0.050063,0.004931,0.063027,-2.226732,317.939122,22.289127,0.999408,0.992999,0.003709,0.487183,0.000033,0.000030,0.000012,0.000043,0.000020,41.596680,0.000064,
2446,2188,4.17633224146395,-10.0353377629263,0.010387415629566,0.001521,-0.052769,-0.010915,0.088034,-2.413494,328.277282,20.114693,0.999571,0.985914,0.004753,0.388111,0.000747,0.000696,-0.000094,0.000819,0.000624,-37.391202,0.001447,
2101,3103,-3.49486259951393,9.90186712439043,0.035578584774612,0.003816,-0.048940,0.009961,0.130069,-2.188482,314.170133,22.237441,0.999667,0.993021,0.003329,0.389359,0.000008,0.000012,-0.000009,0.000019,0.000001,-51.718571,0.000022,
2071,3073,-4.14174813254409,9.2493791853603,0.0219381218194599,0.003183,-0.048691,0.007442,0.109346,-2.156889,314.679580,22.039100,0.999406,0.991589,0.003646,0.512553,0.000003,0.000001,-0.000019,0.000021,-0.000017,-43.717634,0.000022,
2371,2998,2.38356976164772,7.6427482023709,0.0113687785076309,0.003173,-0.049761,0.004777,0.108976,-2.225100,315.051568,22.923197,0.999559,0.991033,0.003813,0.422422,-0.000011,0.000002,0.000010,0.000007,-0.000016,61.140676,0.000016,
2386,3118,2.68786155551675,10.2486326158087,0.0286941577630273,0.003708,-0.050201,0.011678,0.108307,-2.232797,313.240310,23.285169,0.999567,0.992446,0.003497,0.433693,0.000007,0.000011,0.000013,0.000022,-0.000004,49.255037,0.000024,
2476,2398,4.78717478117488,-5.43293060677975,-0.00493862943159229,0.001681,-0.051851,-0.001057,0.058914,-2.310376,324.786905,20.856588,0.999510,0.985720,0.004876,0.416630,0.000373,0.000223,-0.000057,0.000393,0.000204,-18.609009,0.000606,
2221,2278,-0.754165735954263,-8.06001437698102,-0.000322394729778352,-0.000373,-0.051692,-0.004739,-0.020605,-2.332878,326.668570,21.486158,0.998849,0.982026,0.005279,0.394392,0.000445,0.000407,0.000024,0.000457,0.000396,26.016702,0.000853,
2461,2338,4.47218196133521,-6.74709088660227,-0.00436294885383859,0.001554,-0.052145,-0.005807,0.070899,-2.367363,325.741149,20.629222,0.998836,0.977216,0.005675,0.409340,0.000457,0.000294,-0.000060,0.000477,0.000274,-18.232351,0.000760,
2431,2008,3.8854508047838,-13.9916474854248,0.0172554423641031,0.001454,-0.056974,-0.018678,0.111532,-2.660691,331.237838,19.335127,0.998877,0.975299,0.006255,0.360537,0.001185,0.001018,-0.000095,0.001228,0.000975,-24.403486,0.002207,
2506,2698,5.3785618634964,1.12124927688141,-0.0193524212775742,0.002028,-0.051035,0.005375,0.050087,-2.282534,319.863019,22.005975,0.999595,0.990988,0.003794,0.442305,0.000094,0.000062,-0.000009,0.000096,0.000060,-15.417732,0.000158,
2116,3223,-3.18790613307673,12.5016115246498,0.0544211488309543,0.004377,-0.049332,0.013639,0.144363,-2.196445,312.310935,22.212136,0.999659,0.994482,0.003163,0.482450,-0.000002,0.000025,-0.000034,0.000048,-0.000025,-55.555890,0.000048,
2041,3058,-4.78890822244326,8.9215027893775,0.0325527058338935,0.003596,-0.048762,0.012148,0.116077,-2.163306,315.191566,21.975555,0.999724,0.994354,0.003125,0.471846,-0.000003,-0.000009,-0.000016,0.000010,-0.000022,-39.753656,0.000022,
2131,3298,-2.87677571249026,14.1292559562821,0.027329634618809,0.004621,-0.048884,0.011760,0.160814,-2.182660,310.804744,22.325881,0.999614,0.993444,0.003314,0.478682,0.000001,0.000040,-0.000043,0.000068,-0.000027,-56.856949,0.000068,
2236,2473,-0.461456547431162,-3.79754436533652,-0.00307893707622497,-0.000032,-0.050440,0.001681,-0.025360,-2.253644,323.456463,21.669096,0.999459,0.990932,0.004061,0.523480,0.000179,0.000143,0.000008,0.000180,0.000142,11.691617,0.000323,
2161,2023,-2.02301783686667,-13.6511028226041,0.0065370413796586,-0.004655,-0.054554,-0.016000,-0.183172,-2.524373,330.844138,21.332188,0.998477,0.983283,0.005347,0.393724,0.000995,0.000895,0.000045,0.001012,0.000878,21.114605,0.001892,
2011,3058,-5.43875149859142,8.91924338887639,0.0364991924984679,0.003519,-0.048503,0.009041,0.122242,-2.164184,315.419800,21.884098,0.999225,0.992262,0.003640,0.460226,0.000008,-0.000011,0.000005,0.000009,-0.000012,13.091989,0.000013,
2086,3073,-3.81613033459194,9.25025214175529,0.0257128421712878,0.003351,-0.048882,0.007205,0.117185,-2.184102,314.639623,22.124850,0.999469,0.991228,0.003592,0.452709,0.000005,0.000002,-0.000014,0.000017,-0.000011,-41.557956,0.000018,
2026,3013,-5.10826975330543,7.94735135778357,0.0129083899719262,0.003230,-0.047781,0.006401,0.115952,-2.134565,315.851427,22.071088,0.999548,0.992918,0.003536,0.385884,-0.000003,-0.000016,0.000004,-0.000002,-0.000017,14.846266,0.000021,
2356,2938,2.06695120272364,6.33876623429921,-0.00584304697991911,0.002884,-0.050205,0.008751,0.081837,-2.233362,315.856971,22.717587,0.999187,0.989295,0.004104,0.424926,-0.000005,-0.000011,0.000005,-0.000003,-0.000013,29.981082,0.000017,
2491,2548,5.08288055200608,-2.1530941712631,-0.0154643051697008,0.001736,-0.050655,0.000118,0.057311,-2.297692,322.301136,21.408958,0.999670,0.988895,0.004117,0.431469,0.000213,0.000046,-0.000019,0.000215,0.000044,-6.387489,0.000277,
2401,3253,2.98731786539296,13.1792141415209,0.0201276778187207,0.004205,-0.050111,0.011955,0.129633,-2.244026,310.986829,23.729845,0.999470,0.991448,0.003641,0.435737,0.000014,-0.000004,-0.000002,0.000014,-0.000005,-6.859877,0.000014,
2206,2233,-1.07415790666116,-9.04623763996532,0.00117467126580095,-0.001343,-0.051940,-0.007024,-0.057927,-2.368324,327.407877,21.407299,0.998989,0.983364,0.005367,0.444950,0.000522,0.000531,0.000040,0.000567,0.000486,47.986946,0.001054,
2341,2908,1.7468480727787,5.68558289093623,-0.00723506347469538,0.003176,-0.050096,0.006201,0.104696,-2.230952,316.358809,22.599758,0.999319,0.990043,0.003984,0.439954,-0.000004,-0.000001,0.000010,0.000007,-0.000013,49.893320,0.000013,
2056,3073,-4.46700097356143,9.24817621539039,0.022301057658467,0.003263,-0.048886,0.010634,0.104356,-2.165374,314.761594,21.984735,0.999501,0.991866,0.003729,0.505407,-0.000005,0.000000,-0.000019,0.000017,-0.000022,-48.471124,0.000023,
2281,2638,0.489152431395524,-0.194475289517648,-0.0190092738114345,0.001494,-0.050067,0.002568,0.041116,-2.235710,320.636813,21.956705,0.999204,0.985956,0.004464,0.463181,0.000071,0.000061,0.000008,0.000075,0.000057,29.410327,0.000133,
2506,2713,5.37586485805971,1.44952071837118,-0.021243802076242,0.002223,-0.050227,0.000933,0.076606,-2.254211,319.628511,22.135476,0.999583,0.990386,0.003896,0.402541,0.000073,0.000051,0.000003,0.000074,0.000050,6.891352,0.000125,
2296,2668,0.810267853692835,0.459990714960078,-0.0152729084034604,0.001425,-0.050183,0.003721,0.033725,-2.243199,320.155821,22.055958,0.999590,0.990374,0.003888,0.405873,0.000060,0.000074,0.000000,0.000074,0.000060,-89.524061,0.000134,
2191,2143,-1.38650994732159,-11.0174681005944,0.00189553224652173,-0.002302,-0.051995,-0.013656,-0.081184,-2.403509,328.881606,21.383303,0.998734,0.983031,0.005295,0.401612,0.000707,0.000717,0.000052,0.000764,0.000660,47.853143,0.001425,
2386,3133,2.68564702230134,10.5740196185605,0.0344868604111639,0.003837,-0.050022,0.010375,0.118943,-2.236864,313.053819,23.347049,0.999680,0.993070,0.003427,0.409744,0.000011,0.000010,0.000009,0.000020,0.000002,43.810407,0.000024,
2461,2353,4.46834138576333,-6.41740267247759,-0.0110168909192225,0.001506,-0.051708,-0.003304,0.059529,-2.320057,325.430377,20.702334,0.999087,0.982162,0.005392,0.440022,0.000432,0.000288,-0.000055,0.000450,0.000270,-18.617798,0.000728,
2311,2728,1.12603011417535,1.76725656375352,-0.0181770023995114,0.001919,-0.049901,0.002677,0.059749,-2.242959,319.169211,22.113599,0.999489,0.989551,0.004053,0.471993,0.000040,0.000068,0.000015,0.000075,0.000033,66.244419,0.000111,
2251,2488,-0.136755910402865,-3.46940320706958,-0.0101488581325953,0.000934,-0.050342,-0.001642,0.029641,-2.264267,323.179633,21.640883,0.999605,0.989747,0.003972,0.530186,0.000166,0.000132,0.000003,0.000166,0.000131,4.188115,0.000298,
2041,3073,-4.79117085710569,9.24635625098993,0.0335300868765671,0.003631,-0.048874,0.012336,0.117169,-2.158850,314.956490,21.928060,0.999517,0.992460,0.003597,0.515322,-0.000002,-0.000001,-0.000014,0.000012,-0.000016,-46.033819,0.000016,
2101,3118,-3.4977564382115,10.2267258499543,0.0327346185146098,0.003607,-0.049073,0.010841,0.117815,-2.188623,313.889505,22.184132,0.999742,0.994484,0.003012,0.442815,0.000004,0.000012,-0.000013,0.000022,-0.000005,-53.523459,0.000023,
2476,2413,4.78489885588744,-5.10515301866143,-0.00337094060506615,0.001908,-0.050702,-0.006075,0.088791,-2.300877,324.586741,20.892736,0.999443,0.986691,0.004756,0.447954,0.000350,0.000219,-0.000042,0.000362,0.000206,-16.508985,0.000576,
2071,3088,-4.14408999507276,9.57425839842601,0.0242292323574702,0.003273,-0.048924,0.010308,0.105187,-2.164931,314.450146,22.020136,0.999346,0.990759,0.003779,0.519347,-0.000006,0.000012,-0.000018,0.000023,-0.000017,-57.863131,0.000024,
2176,2128,-1.7123970867568,-11.3466724578369,0.000210470264164542,-0.003162,-0.053584,-0.009710,-0.133569,-2.475151,329.103402,21.438320,0.998766,0.980683,0.005560,0.343975,0.000754,0.000764,0.000052,0.000811,0.000707,47.678841,0.001519,
2266,2593,0.170496843533169,-1.17636248864839,-0.0213010392290585,0.001446,-0.050255,0.003420,0.036309,-2.231333,321.365072,21.831545,0.998997,0.986934,0.004657,0.525164,0.000099,0.000068,0.000009,0.000102,0.000066,14.730493,0.000169,
2146,1993,-2.3455304835753,-14.3105178947137,0.01178580159592,-0.005026,-0.055481,-0.015549,-0.202119,-2.581886,331.405059,21.392674,0.998858,0.981865,0.005337,0.353987,0.001076,0.000879,0.000053,0.001089,0.000866,14.149472,0.001959,
2431,2023,3.88191956630913,-13.6605525958354,0.0118516178202981,0.001454,-0.056768,-0.017404,0.106941,-2.640722,330.945836,19.448759,0.998752,0.976753,0.006018,0.320686,0.001155,0.001013,-0.000101,0.001207,0.000960,-27.507284,0.002173,
2161,2038,-2.02547354189369,-13.3206839629877,-0.00141468458605232,-0.004217,-0.054319,-0.017307,-0.159018,-2.537555,330.561080,21.391542,0.998811,0.983736,0.005199,0.334877,0.000957,0.000868,0.000043,0.000974,0.000851,22.167168,0.001826,
2446,2203,4.17253665536192,-9.70601834827351,0.0050985261420351,0.001252,-0.052309,-0.009814,0.071842,-2.383898,327.974319,20.128287,0.999542,0.985124,0.004871,0.459612,0.000703,0.000652,-0.000085,0.000766,0.000588,-36.686904,0.001359,
2491,2563,5.07955463037289,-1.82532429933413,-0.0191273771302463,0.001916,-0.050849,0.001462,0.060320,-2.298441,322.029568,21.457346,0.999470,0.989127,0.004378,0.442132,0.000202,0.000055,-0.000012,0.000203,0.000054,-4.720971,0.000272,
2116,3238,-3.19080754058316,12.8270931088749,0.0478152029203329,0.004462,-0.049322,0.014779,0.144886,-2.204374,312.010594,22.233956,0.999686,0.994749,0.002973,0.454728,-0.000004,0.000017,-0.000037,0.000045,-0.000032,-52.753686,0.000047,
2326,2818,1.43617229028598,3.72708581709028,-0.0114093980971006,0.002220,-0.050044,0.006772,0.059192,-2.225081,317.750924,22.338121,0.999520,0.991265,0.003791,0.474031,0.000026,0.000029,0.000010,0.000038,0.000017,49.835171,0.000056,
2011,3073,-5.44118874587821,9.24470597905405,0.0314805636232904,0.003672,-0.048534,0.008941,0.129610,-2.152597,315.140683,21.845996,0.999243,0.993180,0.003588,0.497229,0.000006,0.000000,0.000008,0.000011,-0.000006,34.322294,0.000011,
2221,2293,-0.756406044935591,-7.73183809955169,-0.00206368946953717,-0.000293,-0.050485,-0.010061,0.000507,-2.317659,326.433186,21.476620,0.998989,0.984529,0.004902,0.440200,0.000417,0.000387,0.000028,0.000433,0.000371,31.047422,0.000805,
2026,3028,-5.1099649419252,8.2707782674976,0.0232407688522471,0.003411,-0.048494,0.009451,0.115690,-2.151142,315.694101,21.964601,0.999502,0.991561,0.003824,0.465262,0.000000,-0.000014,0.000001,0.000000,-0.000014,2.281200,0.000016,
2401,3268,2.98297719486297,13.5055183132142,0.00320603113868856,0.004109,-0.050164,0.011626,0.126414,-2.243702,310.594791,23.778373,0.999648,0.991554,0.003650,0.431379,0.000013,-0.000012,-0.000002,0.000013,-0.000012,-3.766086,0.000014,
2341,2923,1.74356209458407,6.01211678414379,-0.00682015786145485,0.002799,-0.050020,0.007733,0.082087,-2.214645,316.094576,22.659053,0.999104,0.989015,0.004169,0.433006,-0.000006,-0.000005,0.000006,0.000001,-0.000012,47.696460,0.000014,
2371,3013,2.38056132772997,7.96807893933874,0.0168993288845627,0.003017,-0.050100,0.010037,0.082975,-2.218785,314.826839,22.940034,0.999542,0.990771,0.003855,0.452171,-0.000010,0.000000,0.000010,0.000006,-0.000016,58.449876,0.000016,
2281,2653,0.48670316358832,0.132601373981942,-0.020248574618563,0.001683,-0.049781,0.000365,0.057241,-2.239278,320.398976,21.992093,0.999402,0.988784,0.004152,0.452337,0.000063,0.000059,0.000005,0.000067,0.000055,34.206956,0.000122,
2431,2038,3.87967051729595,-13.3311660558475,0.0163650706031717,0.001993,-0.056088,-0.015204,0.123744,-2.582413,330.758201,19.485961,0.998485,0.976671,0.006145,0.395081,0.001110,0.001006,-0.000091,0.001162,0.000953,-30.108652,0.002119,
2461,2368,4.46632428137811,-6.08943871456751,-0.000596458463292038,0.001682,-0.051308,-0.003059,0.066843,-2.295690,325.281415,20.812338,0.999541,0.987214,0.004916,0.410266,0.000409,0.000280,-0.000051,0.000427,0.000262,-19.152936,0.000696,
2056,3088,-4.46905204011144,9.57336794031681,0.0258115387950397,0.003403,-0.049173,0.011192,0.109129,-2.182064,314.551147,22.010480,0.999488,0.992223,0.003551,0.456486,-0.000012,0.000012,-0.000018,0.000022,-0.000022,-61.963846,0.000025,
2356,2953,2.06431384492189,6.66465276935872,-0.00795558466552393,0.003057,-0.050171,0.006154,0.098941,-2.240820,315.611571,22.731726,0.999302,0.989631,0.004009,0.441721,-0.000007,-0.000018,0.000007,-0.000004,-0.000021,25.534186,0.000027,
2086,3088,-3.81832063764744,9.57553633474116,0.0273494593936903,0.003546,-0.048675,0.008300,0.123075,-2.173473,314.414390,22.120445,0.999478,0.990977,0.003683,0.465967,-0.000002,0.000010,-0.000014,0.000019,-0.000011,-57.238413,0.000019,
2236,2488,-0.464165529246323,-3.46834757945678,-0.0157304330239754,0.000735,-0.050607,0.000995,0.012011,-2.272968,323.144963,21.754768,0.999453,0.988959,0.004191,0.441032,0.000163,0.000129,0.000003,0.000164,0.000129,4.527555,0.000293,
2491,2578,5.07785959714658,-1.4977140674585,-0.014524595039461,0.002777,-0.050412,-0.000196,0.106404,-2.259402,321.869974,21.528672,0.998729,0.981534,0.005343,0.469392,0.000188,0.000057,-0.000011,0.000189,0.000056,-4.871982,0.000257,
2296,2683,0.807606707030533,0.786063064868699,-0.0153818813221847,0.001670,-0.050352,0.005959,0.037369,-2.238079,319.915213,22.009243,0.999687,0.989932,0.003867,0.488273,0.000059,0.000079,0.000002,0.000080,0.000059,84.690402,0.000139,
2071,3103,-4.14540976985304,9.89897814984355,0.0356809161647789,0.003663,-0.048922,0.010733,0.122002,-2.164390,314.317983,22.039096,0.999567,0.992608,0.003402,0.496697,-0.000005,0.000018,-0.000016,0.000026,-0.000013,-62.606172,0.000026,
2311,2743,1.12381043441845,2.0936904389155,-0.011304471072151,0.002129,-0.049783,0.005074,0.061312,-2.219025,318.984105,22.155569,0.999534,0.990459,0.003931,0.486041,0.000036,0.000064,0.000017,0.000072,0.000028,64.542498,0.000103,
2041,3088,-4.79381314898531,9.57321012447526,0.0225227866446289,0.003713,-0.048591,0.007473,0.134575,-2.165935,314.636644,22.003723,0.999631,0.994210,0.003150,0.424004,-0.000009,0.000012,-0.000014,0.000019,-0.000016,-63.686195,0.000020,
2191,2158,-1.38833334639851,-10.6902755628439,0.0128098831966099,-0.002456,-0.051670,-0.014908,-0.084204,-2.408953,328.728584,21.390912,0.998937,0.985388,0.005046,0.405472,0.000677,0.000683,0.000053,0.000733,0.000628,46.536098,0.001362,
2476,2428,4.78113280249726,-4.77693605163176,-0.00388811275678336,0.001498,-0.050784,-0.003042,0.058507,-2.273301,324.308494,20.936402,0.999243,0.986518,0.004781,0.490316,0.000336,0.000202,-0.000032,0.000344,0.000195,-12.804769,0.000546,
2506,2728,5.37331154256718,1.77571172019832,-0.0167676934601104,0.002451,-0.050331,0.001650,0.084316,-2.244595,319.429445,22.148566,0.999401,0.989525,0.004061,0.460293,0.000055,0.000054,0.000005,0.000059,0.000050,41.015386,0.000110,
2011,3088,-5.44315454572857,9.56973691789793,0.0379304515735726,0.003641,-0.048519,0.009217,0.127386,-2.163304,314.947938,21.867958,0.999583,0.994899,0.003077,0.451375,-0.000007,0.000015,0.000003,0.000015,-0.000007,83.313890,0.000015,
2251,2503,-0.13999629036984,-3.14012839368657,-0.0145550900716103,0.000780,-0.050107,-0.000046,0.017452,-2.241096,322.886867,21.772890,0.999474,0.988954,0.004213,0.446059,0.000155,0.000115,0.000002,0.000156,0.000115,3.369676,0.000272,
2101,3133,-3.49933093794888,10.5521936377617,0.0367580120474145,0.004060,-0.048784,0.008256,0.146401,-2.182984,313.706455,22.227525,0.999798,0.995396,0.002844,0.405202,0.000005,0.000013,-0.000018,0.000027,-0.000009,-51.368231,0.000027,
2401,3283,2.98009993097957,13.8307852702307,-0.0039744718668544,0.004737,-0.050207,0.011744,0.154875,-2.248763,310.316588,23.795554,0.999673,0.991099,0.003758,0.453441,0.000016,-0.000010,-0.000007,0.000018,-0.000012,-13.932557,0.000018,
2176,2143,-1.71409234230975,-11.0176549707419,0.00249335585954213,-0.002615,-0.052627,-0.010921,-0.104470,-2.430023,328.909800,21.464377,0.998336,0.980834,0.005639,0.378018,0.000723,0.000713,0.000055,0.000774,0.000663,42.471901,0.001438,
2146,2008,-2.34664501322905,-13.9817785628152,0.0128285013889808,-0.004211,-0.054096,-0.021600,-0.146107,-2.550821,331.229132,21.344204,0.998238,0.981677,0.005653,0.444658,0.001030,0.000902,0.000062,0.001055,0.000877,22.178136,0.001935,
2386,3148,2.68349542448461,10.8987889721522,0.0398289916506656,0.004063,-0.050081,0.009074,0.133946,-2.253923,312.868235,23.365292,0.999643,0.992600,0.003443,0.416649,0.000012,0.000006,0.000010,0.000019,-0.000001,36.611245,0.000021,
2446,2218,4.16890344617758,-9.37616223336386,-0.00362703466305447,0.001156,-0.051906,-0.012096,0.076102,-2.385766,327.663032,20.192560,0.999221,0.983838,0.005180,0.448457,0.000669,0.000604,-0.000076,0.000719,0.000554,-33.489916,0.001276,
2161,2053,-2.02695205024859,-12.9924110369059,0.00621452526218036,-0.003770,-0.053775,-0.017329,-0.138311,-2.508245,330.404413,21.393469,0.998849,0.983971,0.005144,0.375339,0.000918,0.000857,0.000045,0.000942,0.000833,27.905016,0.001776,
2026,3043,-5.11201570301329,8.59496245238825,0.0260193972162597,0.003503,-0.048812,0.009342,0.120124,-2.164722,315.477993,21.877737,0.999447,0.991693,0.003845,0.527843,-0.000009,-0.000017,-0.000009,-0.000003,-0.000022,-33.217132,0.000028,
2056,3103,-4.47059670740771,9.89813550852437,0.0322282619959537,0.003669,-0.048888,0.008462,0.129203,-2.173949,314.380151,21.994196,0.999474,0.992058,0.003548,0.474475,-0.000010,0.000020,-0.000015,0.000027,-0.000016,-67.529157,0.000027,
2341,2938,1.74132977986692,6.3370853334107,-0.00284159871262091,0.002977,-0.050145,0.006346,0.095041,-2.227473,315.896556,22.632584,0.998996,0.988049,0.004281,0.482918,-0.000004,-0.000007,0.000005,-0.000001,-0.000011,36.709282,0.000013,
2266,2608,0.167512220951988,-0.848751249536718,-0.022794532260491,0.001259,-0.050303,0.003506,0.027405,-2.245636,321.100195,21.910228,0.999080,0.987272,0.004578,0.458563,0.000087,0.000057,0.000010,0.000091,0.000054,17.341254,0.000146,
2071,3118,-4.14696125151324,10.2235347656023,0.0505112285601967,0.003810,-0.049045,0.014298,0.118527,-2.160589,314.193835,22.063182,0.999747,0.993978,0.003057,0.472177,-0.000009,0.000019,-0.000020,0.000030,-0.000020,-62.875435,0.000030,
2491,2593,5.07423767039913,-1.17072331758875,-0.0129169516330307,0.002080,-0.050864,-0.000471,0.075303,-2.286252,321.608547,21.587459,0.999786,0.994301,0.003564,0.443565,0.000176,0.000058,0.000006,0.000176,0.000058,2.777261,0.000244,
2431,2053,3.87669516798375,-13.0007877225465,0.0103167200766165,0.002420,-0.055873,-0.016090,0.146657,-2.573717,330.488642,19.550112,0.998278,0.975526,0.006319,0.393170,0.001072,0.001000,-0.000093,0.001136,0.000936,-34.471865,0.002075,
2086,3103,-3.82049996635323,9.900729189822,0.0284291916476604,0.003669,-0.048628,0.007481,0.131151,-2.168018,314.186672,22.113017,0.999699,0.993639,0.003226,0.476756,-0.000002,0.000015,-0.000013,0.000022,-0.000009,-61.861442,0.000022,
2011,3103,-5.44522025705663,9.89487519479832,0.040625730262434,0.003715,-0.048499,0.009161,0.131035,-2.152192,314.729452,21.857530,0.999541,0.994661,0.003117,0.460038,-0.000007,0.000026,0.000005,0.000027,-0.000008,82.278006,0.000028,
2206,2248,-1.07733441009298,-8.71600556569819,-0.00977696604974199,-0.001233,-0.051641,-0.007416,-0.051512,-2.349901,327.080633,21.471632,0.998875,0.982631,0.005299,0.418387,0.000497,0.000486,0.000040,0.000532,0.000451,40.983224,0.000984,
2221,2308,-0.759331253006799,-7.40370591119116,-0.00545095248696725,-0.000432,-0.050619,-0.010517,-0.004495,-2.319264,326.158091,21.468888,0.998905,0.986118,0.004660,0.467368,0.000390,0.000350,0.000026,0.000403,0.000338,26.178222,0.000742,
2116,3253,-3.19378389928972,13.1529093214964,0.0452130134580671,0.004121,-0.049172,0.014430,0.130269,-2.188810,311.728257,22.290297,0.999738,0.996202,0.002637,0.415731,-0.000004,0.000019,-0.000039,0.000048,-0.000033,-53.521852,0.000049,
2476,2443,4.77756642847133,-4.44836248949202,-0.00830901456589572,0.001563,-0.051227,-0.000662,0.052274,-2.297095,324.021790,21.032481,0.999092,0.985482,0.004901,0.428517,0.000332,0.000157,-0.000019,0.000334,0.000155,-6.093473,0.000499,
2041,3103,-4.79589887711895,9.89786945862208,0.0274511864849956,0.003599,-0.048220,0.006193,0.132987,-2.155736,314.431753,21.966008,0.999656,0.994530,0.003078,0.463231,-0.000007,0.000021,-0.000009,0.000024,-0.000010,-73.014967,0.000024,
2326,2833,1.43283386303743,4.05557649155862,-0.02488656593016,0.002518,-0.049940,0.004340,0.081297,-2.237478,317.415060,22.475287,0.999831,0.993045,0.003518,0.358759,0.000018,0.000032,0.000011,0.000038,0.000011,61.212154,0.000051,
2401,3298,2.9766942177502,14.1557898149228,-0.00998936969648412,0.004840,-0.050219,0.013077,0.154784,-2.244683,310.019567,23.790434,0.999708,0.992338,0.003579,0.506597,0.000019,-0.000007,-0.000014,0.000025,-0.000013,-24.027676,0.000025,
2371,3028,2.37738671339905,8.29468015121287,0.0108618041224986,0.002896,-0.049650,0.006291,0.090909,-2.217220,314.538577,23.005042,0.999416,0.990068,0.004047,0.428993,-0.000009,0.000003,0.000006,0.000006,-0.000011,67.267004,0.000011,
2191,2173,-1.39170162606021,-10.3605154041997,-8.51375085630934E-06,-0.002262,-0.052027,-0.012488,-0.083009,-2.401023,328.381555,21.371575,0.999080,0.969049,0.006139,0.450458,0.000647,0.000654,0.000048,0.000699,0.000602,47.337768,0.001302,
2311,2758,1.12070603372947,2.42063821842454,-0.0153162034079628,0.002028,-0.049644,0.004227,0.059593,-2.214162,318.704662,22.181365,0.999609,0.991931,0.003780,0.497735,0.000030,0.000058,0.000017,0.000066,0.000022,65.039185,0.000092,
2506,2743,5.36850484491633,2.1043709441164,-0.0265148223323308,0.002038,-0.050678,0.006992,0.044547,-2.239669,319.062528,22.283963,0.999584,0.989910,0.003991,0.391365,0.000048,0.000062,0.000005,0.000064,0.000046,71.773030,0.000111,
2281,2668,0.484253335544913,0.460773328975499,-0.019501020374264,0.002026,-0.049674,0.002157,0.067080,-2.221479,320.170664,22.128029,0.999666,0.991374,0.003875,0.362571,0.000058,0.000071,0.000001,0.000071,0.000058,86.084311,0.000130,
2461,2383,4.46269836545479,-5.76117516862163,-0.00551535228134981,0.001611,-0.051641,-0.001655,0.058207,-2.297892,324.988634,20.832036,0.999593,0.986519,0.004853,0.444799,0.000388,0.000241,-0.000064,0.000412,0.000217,-20.503784,0.000639,
2146,2023,-2.3502386137758,-13.6509274361314,0.00869849213592033,-0.004639,-0.054571,-0.014534,-0.187221,-2.515409,330.912394,21.431095,0.998017,0.981449,0.005607,0.405209,0.000990,0.000877,0.000053,0.001011,0.000856,21.676516,0.001869,
2446,2233,4.16635365460453,-9.04847183121744,0.0074790778020315,0.000938,-0.052220,-0.009229,0.055361,-2.395341,327.492662,20.278209,0.998723,0.979100,0.005729,0.407524,0.000639,0.000556,-0.000066,0.000675,0.000520,-28.986033,0.001198,
2356,2968,2.06180470739113,6.99126588079227,-0.00540993833266157,0.003100,-0.049896,0.004830,0.105773,-2.221209,315.394250,22.822486,0.999542,0.991210,0.003744,0.408758,-0.000012,-0.000014,0.000011,-0.000002,-0.000024,43.244421,0.000029,
2011,3118,-5.44760381506235,10.2204603851283,0.0345489371161989,0.003986,-0.048389,0.008970,0.144083,-2.149592,314.446870,21.845717,0.999609,0.995262,0.002985,0.461432,-0.000010,0.000037,-0.000001,0.000037,-0.000010,-88.655465,0.000039,
2101,3148,-3.50157177873415,10.8759797001627,0.0440485017856531,0.004013,-0.048860,0.011553,0.134535,-2.180697,313.511190,22.142727,0.999881,0.996516,0.002655,0.492462,0.000003,0.000016,-0.000017,0.000027,-0.000009,-55.078798,0.000028,
2236,2503,-0.466906324848498,-3.14059030341979,-0.019764543829865,0.000860,-0.050197,0.000434,0.019677,-2.254385,322.875968,21.755815,0.999418,0.987986,0.004299,0.481043,0.000154,0.000116,0.000005,0.000154,0.000116,6.808346,0.000271,
2491,2608,5.07128262532756,-0.844525453223895,-0.00506253142600599,0.001775,-0.051055,0.002316,0.050606,-2.271784,321.405824,21.590336,0.999802,0.994076,0.003616,0.514713,0.000170,0.000046,0.000004,0.000170,0.000045,1.801337,0.000227,
2026,3058,-5.11432208236433,8.92048211895253,0.030492866885993,0.003339,-0.048991,0.010836,0.108343,-2.178138,315.259176,21.928200,0.999238,0.990366,0.003944,0.453297,-0.000014,-0.000010,-0.000010,-0.000002,-0.000022,-51.134689,0.000027,
2176,2158,-1.71987039569859,-10.6824858543273,-0.0421178229619272,-0.002795,-0.052146,-0.009933,-0.115599,-2.406402,328.284191,21.577832,0.999213,0.960248,0.006944,0.305555,0.000691,0.000676,0.000056,0.000740,0.000627,41.111013,0.001369,
2296,2698,0.804571732167943,1.11334236324643,-0.0201743199597786,0.001735,-0.050409,0.006041,0.040066,-2.235144,319.633906,22.041798,0.999754,0.992118,0.003629,0.488966,0.000051,0.000081,0.000002,0.000081,0.000051,85.793483,0.000133,
2161,2068,-2.02933396966076,-12.6642175012298,0.0123956807140644,-0.003716,-0.054276,-0.011271,-0.154544,-2.485881,330.198943,21.383597,0.999107,0.984815,0.005098,0.420822,0.000884,0.000856,0.000053,0.000925,0.000816,37.566063,0.001742,
2251,2518,-0.142923415693193,-2.81248852751617,-0.0155184311643097,0.000585,-0.049742,0.000167,0.007933,-2.210839,322.626142,21.784567,0.999204,0.986391,0.004627,0.489092,0.000146,0.000110,0.000006,0.000147,0.000109,9.058563,0.000257,
2386,3163,2.68014943871978,11.2244547699712,0.0357691414257033,0.003929,-0.050100,0.008969,0.128241,-2.243248,312.582499,23.385242,0.999451,0.991437,0.003736,0.449480,0.000011,0.000010,0.000009,0.000020,0.000002,43.259711,0.000023,
2416,1993,3.56092326370956,-14.3216515685841,0.0269456470883824,0.001349,-0.057069,-0.017929,0.103531,-2.658021,331.527964,19.419746,0.998994,0.974527,0.006227,0.331576,0.001176,0.001043,-0.000110,0.001237,0.000981,-29.356155,0.002223,
2476,2458,4.77428933615059,-4.12109268136928,-0.00265870355036668,0.001187,-0.051517,0.003124,0.020604,-2.289438,323.793970,21.076936,0.999157,0.986351,0.004752,0.449601,0.000318,0.000135,-0.000020,0.000320,0.000132,-6.136308,0.000465,
2056,3118,-4.47282531774844,10.2232196156427,0.0384643348086229,0.003697,-0.049014,0.012756,0.118328,-2.174450,314.176698,22.017621,0.999474,0.993282,0.003291,0.443912,-0.000014,0.000025,-0.000018,0.000032,-0.000021,-68.123105,0.000033,
2041,3118,-4.79812486906332,10.2224497520387,0.0311212981669087,0.003749,-0.048579,0.010257,0.128423,-2.171229,314.213512,21.942016,0.999614,0.994509,0.003104,0.463055,-0.000011,0.000029,-0.000014,0.000033,-0.000015,-72.665021,0.000033,
2266,2623,0.164992491448739,-0.522256741244099,-0.0206996369710168,0.001348,-0.050594,0.004617,0.027714,-2.252235,320.874868,21.914264,0.999262,0.988460,0.004351,0.473954,0.000077,0.000056,0.000007,0.000079,0.000054,16.694444,0.000134,
2071,3133,-4.14967408121101,10.5488042100164,0.0441906462618249,0.003780,-0.049016,0.012486,0.122216,-2.189729,313.900017,22.057523,0.999562,0.993948,0.003103,0.444300,-0.000009,0.000020,-0.000026,0.000036,-0.000024,-59.592650,0.000037,
2221,2323,-0.762630430661407,-7.07467626221849,-0.0146410641935404,-0.000220,-0.050790,-0.006480,-0.007730,-2.314198,325.835970,21.484595,0.999072,0.986575,0.004609,0.477979,0.000366,0.000321,0.000019,0.000373,0.000314,20.302280,0.000688,
2026,3073,-5.11644255395191,9.24524655698412,0.0319446475231189,0.003484,-0.049128,0.011364,0.113629,-2.168731,315.032268,21.870412,0.999231,0.992235,0.003704,0.509804,-0.000015,-0.000002,-0.000008,0.000001,-0.000019,-64.594794,0.000021,
2116,3268,-3.19615791815003,13.4777463846418,0.0407208859336379,0.004356,-0.049135,0.011794,0.148975,-2.192269,311.463778,22.268917,0.999747,0.995630,0.002817,0.436018,-0.000007,0.000020,-0.000044,0.000053,-0.000040,-53.363064,0.000055,
2506,2758,5.36508944820486,2.4300086060356,-0.0250224070972536,0.001977,-0.051126,0.011520,0.024038,-2.248218,318.810433,22.249643,0.999627,0.990489,0.003864,0.478221,0.000054,0.000061,0.000005,0.000063,0.000051,61.875273,0.000115,
2086,3118,-3.82302928584857,10.2258648329125,0.0331088169641589,0.003467,-0.048716,0.010632,0.112718,-2.160686,313.962572,22.124700,0.999727,0.993910,0.003095,0.470311,-0.000006,0.000015,-0.000016,0.000024,-0.000015,-61.382085,0.000024,
2191,2188,-1.39424626770872,-10.0314587813857,0.00451447028149232,-0.002179,-0.052464,-0.006422,-0.098331,-2.386384,328.162038,21.471185,0.998491,0.977284,0.005835,0.382565,0.000613,0.000629,0.000044,0.000666,0.000577,50.214112,0.001244,
2311,2773,1.11891186117465,2.7465684280246,-0.00650770546394597,0.002405,-0.049891,0.005071,0.073934,-2.227052,318.548770,22.236731,0.999575,0.992338,0.003697,0.461366,0.000029,0.000044,0.000011,0.000050,0.000023,62.512241,0.000075,
2371,3043,2.37501792380896,8.61976203281067,0.0178130023634822,0.003265,-0.050024,0.011494,0.089267,-2.208597,314.350062,23.013322,0.999571,0.991863,0.003677,0.469499,-0.000011,0.000007,0.000009,0.000011,-0.000014,68.101383,0.000015,
2341,2953,1.73876619804699,6.66318511499269,0.00202290192055443,0.002925,-0.050015,0.007116,0.090017,-2.220700,315.687211,22.700560,0.999323,0.990944,0.003825,0.457626,-0.000007,-0.000016,0.000006,-0.000004,-0.000019,26.033522,0.000024,
2146,2038,-2.352686053886,-13.3206254653567,0.00118313899150735,-0.004404,-0.053932,-0.018038,-0.165706,-2.515866,330.630383,21.471603,0.998656,0.982842,0.005376,0.375732,0.000955,0.000850,0.000051,0.000976,0.000829,22.009605,0.001807,
2461,2398,4.45930940265237,-5.43385776780784,-0.00421201249184833,0.001159,-0.051935,-0.001466,0.036670,-2.315028,324.735217,20.845351,0.999594,0.985786,0.004829,0.470215,0.000364,0.000225,-0.000055,0.000383,0.000206,-19.226370,0.000598,
2011,3133,-5.45014205309455,10.545815677152,0.0326470038473872,0.003883,-0.048332,0.009213,0.138686,-2.146397,314.180807,21.842635,0.999614,0.994392,0.003121,0.454718,-0.000010,0.000040,-0.000013,0.000043,-0.000014,-76.394963,0.000044,
2416,2008,3.55824147890199,-13.993676948305,0.0307168889308969,0.001537,-0.057037,-0.014968,0.101361,-2.629659,331.316288,19.338122,0.998950,0.972385,0.006398,0.492913,0.001158,0.001024,-0.000094,0.001206,0.000975,-27.377032,0.002186,
2206,2263,-1.07954013706498,-8.38903473481173,-0.000224093401072878,-0.001411,-0.051869,-0.005311,-0.066424,-2.339989,326.903915,21.462345,0.998900,0.981524,0.005319,0.456498,0.000474,0.000437,0.000037,0.000497,0.000414,31.954680,0.000912,
2326,2848,1.43029951721246,4.38009519067133,-0.0150283467542067,0.002195,-0.049708,0.006586,0.058761,-2.223131,317.231256,22.401523,0.999744,0.992141,0.003651,0.481035,0.000015,0.000025,0.000013,0.000033,0.000006,55.818378,0.000043,
2431,2068,3.87244319766119,-12.6710463966956,0.0106605699369879,0.001475,-0.055955,-0.011744,0.087433,-2.558872,330.190069,19.627674,0.998095,0.972360,0.006708,0.384250,0.001031,0.000978,-0.000088,0.001097,0.000912,-36.549397,0.002012,
2101,3163,-3.50429785312636,11.2016903189027,0.0380629384661688,0.004044,-0.048801,0.010304,0.139629,-2.182038,313.220918,22.161816,0.999771,0.995219,0.002930,0.472092,0.000001,0.000032,-0.000018,0.000040,-0.000008,-65.026157,0.000043,
2041,3133,-4.79973029525756,10.54758848876,0.0370947408347888,0.004010,-0.048445,0.008186,0.146330,-2.162642,314.036342,21.962932,0.999305,0.992921,0.003485,0.442035,-0.000011,0.000032,-0.000020,0.000040,-0.000019,-68.650421,0.000040,
2491,2623,5.06774014669637,-0.517517653543699,-0.00861794378931791,0.001796,-0.051239,0.004529,0.042989,-2.280327,321.124601,21.596755,0.999817,0.994227,0.003459,0.559208,0.000160,0.000008,-0.000003,0.000160,0.000008,-1.118389,0.000189,
2071,3148,-4.15186300231563,10.8742932980439,0.0441052674779598,0.003893,-0.048459,0.010756,0.132568,-2.165765,313.664371,22.061858,0.999718,0.995689,0.002817,0.459720,-0.000007,0.000024,-0.000027,0.000039,-0.000023,-59.915283,0.000040,
2161,2083,-2.0317188272715,-12.3334593874331,0.0102385549903374,-0.003810,-0.053202,-0.015873,-0.144411,-2.489305,329.949365,21.545735,0.999142,0.983845,0.005208,0.268673,0.000852,0.000840,0.000053,0.000900,0.000792,41.836468,0.001693,
2446,2248,4.16375584614121,-8.71900906404417,0.00153512297413272,0.001629,-0.052111,-0.011781,0.096538,-2.400676,327.241531,20.349970,0.998798,0.978962,0.005699,0.384892,0.000608,0.000510,-0.000071,0.000645,0.000473,-27.746388,0.001123,
2281,2683,0.481526078624228,0.786348777190099,-0.0194150000380091,0.002109,-0.049973,0.003686,0.065690,-2.218649,319.926953,22.039708,0.999648,0.991647,0.003750,0.481806,0.000057,0.000076,0.000002,0.000076,0.000057,83.645158,0.000133,
2296,2713,0.800965711694612,1.44108219100656,-0.0331337380117134,0.001785,-0.050199,0.005475,0.044332,-2.237607,319.285745,22.061054,0.999748,0.992978,0.003538,0.497977,0.000043,0.000075,0.000004,0.000076,0.000042,82.319654,0.000119,
2236,2518,-0.469801448032907,-2.81188238306302,-0.0245436010683875,0.000774,-0.049521,-0.001742,0.023027,-2.228996,322.595839,21.835877,0.999382,0.988088,0.004284,0.448792,0.000144,0.000113,0.000010,0.000147,0.000110,16.991232,0.000258,
2116,3283,-3.19887080077445,13.8024568391699,0.0393190714569869,0.004412,-0.048977,0.014690,0.143047,-2.173729,311.200454,22.235172,0.999758,0.995377,0.002933,0.490182,-0.000006,0.000020,-0.000040,0.000050,-0.000035,-53.925804,0.000051,
2176,2173,-1.72515882028059,-10.3489154768739,-0.0769095580826615,-0.003314,-0.052013,-0.011331,-0.135078,-2.396843,327.732320,21.675295,0.999794,0.927258,0.008839,0.234093,0.000659,0.000647,0.000052,0.000705,0.000601,41.798729,0.001307,
2356,2983,2.05939242143095,7.31631747913539,0.00110394407630565,0.003179,-0.050092,0.006725,0.102614,-2.228521,315.200982,22.827388,0.999416,0.988208,0.004226,0.434812,-0.000012,-0.000008,0.000011,0.000002,-0.000021,50.543108,0.000024,
2506,2773,5.36300306974147,2.75664939182369,-0.0247547330176303,0.002532,-0.050686,0.006380,0.069536,-2.268693,318.613757,22.313907,0.999614,0.990876,0.003867,0.454559,0.000050,0.000045,0.000001,0.000050,0.000045,11.076515,0.000095,
2056,3133,-4.47519414675955,10.5482935548599,0.0343629865956245,0.003751,-0.048856,0.009371,0.130365,-2.183346,313.909707,21.987927,0.999062,0.992584,0.003454,0.458293,-0.000014,0.000027,-0.000025,0.000039,-0.000026,-65.070156,0.000039,
2026,3088,-5.11859885965783,9.57150934770475,0.0364262602849408,0.003407,-0.048791,0.011718,0.109146,-2.160311,314.820128,21.974487,0.999570,0.994471,0.003210,0.403287,-0.000024,0.000012,-0.000010,0.000014,-0.000027,-75.222057,0.000027,
2476,2473,4.77057264594391,-3.79198230758873,-0.0190163507048737,0.001839,-0.051553,0.002444,0.053004,-2.305536,323.446003,21.114623,0.999435,0.989544,0.004261,0.454249,0.000294,0.000124,-0.000020,0.000296,0.000122,-6.673277,0.000430,
2011,3148,-5.45228576024441,10.8698430164242,0.0363120731428239,0.003779,-0.048452,0.008325,0.136170,-2.167039,313.964751,21.779031,0.999644,0.994046,0.003246,0.484446,-0.000009,0.000038,-0.000014,0.000042,-0.000013,-74.698980,0.000043,
2461,2413,4.45729855845144,-5.10609209090115,-0.00190620950417042,0.001826,-0.051208,-0.003381,0.074702,-2.306420,324.549416,20.888082,0.999489,0.986153,0.004818,0.492159,0.000339,0.000218,-0.000043,0.000353,0.000204,-17.720284,0.000563,
2491,2638,5.06353507607922,-0.187464355529947,-0.0244660277448929,0.001965,-0.050977,0.003918,0.053238,-2.267837,320.756857,21.762929,0.999436,0.989364,0.004132,0.465513,0.000148,0.000032,-0.000016,0.000150,0.000030,-7.605389,0.000193,
2071,3163,-4.15415213053397,11.19978711438,0.0466145089217207,0.003888,-0.048630,0.011278,0.130769,-2.174239,313.438413,22.118428,0.999732,0.995036,0.002941,0.390167,-0.000010,0.000044,-0.000031,0.000058,-0.000024,-65.702994,0.000059,
2416,2023,3.55350951840937,-13.6590311467918,0.0134098157084281,0.000928,-0.055892,-0.018047,0.085238,-2.605831,330.912145,19.636001,0.998636,0.974437,0.006223,0.271247,0.001127,0.001013,-0.000096,0.001182,0.000958,-29.685659,0.002143,
2506,2788,5.36033351323951,3.08376974171895,-0.0243083011061458,0.002723,-0.050357,0.003968,0.087799,-2.261379,318.390789,22.400420,0.999498,0.990411,0.004010,0.436561,0.000041,0.000036,-0.000002,0.000042,0.000036,-21.645542,0.000078,
2041,3148,-4.80200188266237,10.871757162345,0.0469878197063167,0.003694,-0.048601,0.011471,0.122529,-2.154537,313.850825,21.922029,0.999584,0.994182,0.003228,0.482385,-0.000010,0.000033,-0.000021,0.000042,-0.000019,-67.699654,0.000042,
2251,2533,-0.146143292616376,-2.48416377777516,-0.0246678161655609,0.000791,-0.050184,0.001777,0.011962,-2.232872,322.310614,21.842873,0.999551,0.991679,0.003784,0.433431,0.000136,0.000102,0.000001,0.000136,0.000102,2.009900,0.000240,
2386,3178,2.67736604299347,11.5501115906801,0.038661778194637,0.004102,-0.050089,0.012544,0.123356,-2.231492,312.355733,23.449006,0.999512,0.992045,0.003547,0.439634,0.000013,0.000014,0.000006,0.000019,0.000007,46.639063,0.000027,
2311,2788,1.11587438921737,3.07220866610568,-0.00346014318870402,0.002021,-0.049971,0.006654,0.050859,-2.224484,318.307417,22.208677,0.999665,0.994186,0.003424,0.524173,0.000031,0.000040,0.000011,0.000048,0.000023,55.700678,0.000072,
2266,2638,0.162480682159391,-0.194851010558907,-0.0215588046723383,0.001462,-0.049996,0.002990,0.038546,-2.230181,320.634739,21.952654,0.999169,0.987670,0.004367,0.483856,0.000070,0.000052,0.000007,0.000072,0.000050,18.046067,0.000123,
2431,2083,3.86928820639637,-12.339504768836,0.00193384255567253,0.002121,-0.055505,-0.010480,0.112534,-2.545704,329.899625,19.776203,0.998336,0.976053,0.006477,0.302365,0.000991,0.000960,-0.000084,0.001061,0.000890,-39.818069,0.001954,
2086,3133,-3.82484336840744,10.5509583752485,0.0367037406924737,0.003800,-0.048527,0.009810,0.130427,-2.172071,313.765423,22.147633,0.999721,0.993540,0.003086,0.433919,-0.000005,0.000016,-0.000022,0.000030,-0.000018,-57.880737,0.000030,
2146,2053,-2.3543725370343,-12.9918322255276,0.00382609626552721,-0.003984,-0.053244,-0.019966,-0.140404,-2.489320,330.436798,21.467602,0.998676,0.982617,0.005285,0.417344,0.000919,0.000842,0.000052,0.000945,0.000816,26.731018,0.001763,
2341,2968,1.73595105282032,6.99030029499264,-0.000573105410296648,0.003072,-0.049654,0.006294,0.099827,-2.202084,315.429668,22.802029,0.999908,0.997676,0.002544,0.410773,-0.000011,-0.000014,0.000008,-0.000004,-0.000021,40.229067,0.000027,
2281,2698,0.479129401184753,1.11276379798905,-0.0150583455952642,0.002078,-0.050112,0.003333,0.065416,-2.233596,319.719532,22.085646,0.999792,0.993410,0.003491,0.448691,0.000047,0.000077,0.000004,0.000077,0.000047,82.932776,0.000125,
2446,2263,4.16092497782956,-8.39021177359816,0.00383954747888993,0.001709,-0.052280,-0.010708,0.096124,-2.378435,327.017454,20.423689,0.998909,0.978315,0.005782,0.387998,0.000572,0.000462,-0.000079,0.000613,0.000421,-27.533892,0.001040,
2476,2488,4.76808206006936,-3.46387606053808,-0.018721642055425,0.001484,-0.049853,-0.008257,0.078042,-2.285608,323.229720,21.183991,0.999412,0.987051,0.004458,0.462536,0.000282,0.000105,-0.000027,0.000286,0.000101,-8.494788,0.000401,
2056,3148,-4.47673716758533,10.8735013663452,0.0406925009447718,0.003975,-0.048149,0.005734,0.151242,-2.153026,313.738203,21.999326,0.999494,0.993781,0.003215,0.470805,-0.000012,0.000029,-0.000026,0.000042,-0.000025,-64.218734,0.000042,
2191,2203,-1.39652493065498,-9.70183033324744,-0.00531990111136338,-0.001688,-0.051308,-0.012522,-0.056377,-2.352737,327.880121,21.458226,0.998534,0.978725,0.005757,0.446660,0.000588,0.000599,0.000045,0.000638,0.000548,48.510432,0.001188,
2221,2338,-0.766416528374499,-6.74410337027431,-0.0293146129899355,-0.000430,-0.050449,-0.007129,-0.015193,-2.322061,325.463217,21.606726,0.999635,0.989434,0.004256,0.369268,0.000341,0.000299,0.000011,0.000344,0.000296,14.046736,0.000640,
2371,3058,2.37227570380727,8.94575677004783,0.0189368895534017,0.003539,-0.050440,0.014393,0.091380,-2.219925,314.116107,23.090819,0.999625,0.993388,0.003369,0.420796,-0.000013,0.000001,0.000014,0.000010,-0.000021,58.500234,0.000021,
2101,3178,-3.5070529235006,11.5260355083361,0.0349997776645523,0.003982,-0.049088,0.010984,0.134634,-2.202411,312.945697,22.096185,0.999801,0.995643,0.002810,0.517370,-0.000001,0.000035,-0.000020,0.000044,-0.000011,-65.870023,0.000046,
2416,2038,3.54997689945224,-13.3302277214092,0.00807303655091118,0.001041,-0.056047,-0.014584,0.077716,-2.578440,330.618915,19.540101,0.998316,0.974398,0.006375,0.446283,0.001084,0.000999,-0.000087,0.001138,0.000945,-31.947445,0.002086,
2116,3298,-3.20143031859946,14.1275875946219,0.0339792512258441,0.004601,-0.048864,0.013303,0.155897,-2.181146,310.922752,22.248670,0.999650,0.993122,0.003438,0.471224,0.000001,0.000045,-0.000046,0.000074,-0.000028,-57.735109,0.000075,
2296,2728,0.799099165927757,1.76731475940373,-0.0230627147995506,0.002073,-0.050268,0.007647,0.050208,-2.228809,319.131900,22.122133,0.999584,0.991145,0.003802,0.475425,0.000038,0.000068,0.000011,0.000072,0.000035,72.552692,0.000109,
2461,2428,4.45290860826908,-4.77741597531188,-0.0101227685162826,0.001200,-0.051115,-0.002734,0.043651,-2.293819,324.206138,20.915879,0.999258,0.984290,0.005001,0.533259,0.000325,0.000198,-0.000034,0.000334,0.000189,-14.185579,0.000530,
2026,3103,-5.12079665461745,9.89636193036482,0.0362851155825865,0.003475,-0.048499,0.010592,0.115534,-2.144963,314.580780,21.916210,0.999539,0.993954,0.003331,0.466200,-0.000024,0.000023,-0.000007,0.000024,-0.000024,-82.126743,0.000028,
2326,2863,1.42827235027564,4.70583360575628,-0.0106932085787435,0.002668,-0.050130,0.007005,0.078872,-2.245880,317.043446,22.438801,0.999706,0.991751,0.003720,0.455227,0.000013,0.000023,0.000012,0.000031,0.000005,56.321513,0.000039,
2236,2533,-0.471651741505656,-2.486098115204,-0.0106261974286781,0.000730,-0.050087,0.000698,0.012912,-2.245532,322.459487,21.862616,0.999663,0.991431,0.003738,0.427249,0.000134,0.000106,0.000007,0.000136,0.000104,13.582789,0.000241,
2206,2278,-1.08143287061225,-8.06123805719879,0.00696945612861555,-0.000804,-0.052406,0.001142,-0.059159,-2.339309,326.729265,21.517554,0.998914,0.982497,0.005220,0.420357,0.000449,0.000404,0.000031,0.000465,0.000388,26.866311,0.000854,
2506,2803,5.35665210782767,3.41059467607207,-0.0245815674570053,0.002534,-0.050790,0.008270,0.062308,-2.257715,318.118006,22.462434,0.999058,0.986371,0.004896,0.439400,0.000039,0.000014,-0.000002,0.000039,0.000014,-4.677873,0.000056,
2011,3163,-5.45406845262542,11.1946524782249,0.0461607222000566,0.003707,-0.048500,0.007998,0.133712,-2.168641,313.799794,21.808928,0.999552,0.994063,0.003295,0.439616,-0.000014,0.000073,-0.000020,0.000077,-0.000018,-77.656227,0.000081,
2176,2188,-1.72201413855172,-10.0293926299643,-0.00940857915190918,-0.002334,-0.051535,-0.011844,-0.088410,-2.377614,328.101755,21.568654,0.999074,0.948912,0.007535,0.371744,0.000622,0.000619,0.000048,0.000668,0.000573,44.036417,0.001242,
2161,2098,-2.0333341569832,-12.005017626943,0.0101014712570304,-0.002877,-0.052919,-0.014432,-0.105999,-2.460038,329.745701,21.491947,0.999385,0.984129,0.005160,0.364737,0.000818,0.000812,0.000060,0.000875,0.000755,43.692022,0.001632,
2071,3178,-4.15629773069594,11.5244898817451,0.0485577416910701,0.004104,-0.048508,0.012491,0.137417,-2.151231,313.216237,22.070945,0.999797,0.996336,0.002701,0.456540,-0.000010,0.000049,-0.000034,0.000065,-0.000025,-65.697483,0.000065,
2041,3163,-4.80436748543679,11.1969123089319,0.0428278455726172,0.003920,-0.048615,0.011130,0.133892,-2.159704,313.582477,21.903130,0.999632,0.993829,0.003288,0.487392,-0.000014,0.000060,-0.000027,0.000069,-0.000023,-72.084676,0.000070,
2356,2998,2.05679352412718,7.64225701263459,0.00816878067638527,0.003123,-0.049996,0.009808,0.089196,-2.222227,315.001466,22.907459,0.999611,0.991903,0.003642,0.398838,-0.000014,0.000000,0.000009,0.000005,-0.000019,63.733178,0.000019,
2491,2653,5.0604448983257,0.13937707434728,-0.0172779719034111,0.001743,-0.051350,0.008569,0.025062,-2.275124,320.544609,21.854285,0.999414,0.988348,0.004315,0.425981,0.000141,0.000050,-0.000012,0.000143,0.000048,-7.318710,0.000199,
2386,3193,2.67510245395568,11.8750897210834,0.0454961289047446,0.004304,-0.050136,0.013833,0.128036,-2.226607,312.171864,23.483558,0.999460,0.992257,0.003433,0.451831,0.000015,0.000010,0.000004,0.000017,0.000008,31.306742,0.000025,
2266,2653,0.15967827621995,0.133316596904002,-0.025281295434354,0.001566,-0.049809,0.002286,0.045723,-2.231992,320.366736,22.065540,0.999503,0.989878,0.004069,0.395182,0.000065,0.000051,0.000004,0.000066,0.000050,14.545808,0.000116,
2476,2503,4.76534778052235,-3.13688349649593,-0.0116480596565793,0.001630,-0.050323,-0.003295,0.065730,-2.290464,323.033134,21.242621,0.999434,0.988310,0.004348,0.456667,0.000264,0.000091,-0.000031,0.000270,0.000086,-9.780156,0.000371,
2251,2548,-0.148259276126183,-2.15818957890649,-0.0198296604826282,0.001044,-0.050464,0.002764,0.020239,-2.248535,322.116846,21.809588,0.999667,0.993595,0.003490,0.475201,0.000125,0.000087,0.000003,0.000126,0.000087,3.966354,0.000213,
2026,3118,-5.1228695876711,10.221854873331,0.0329560030883727,0.003842,-0.048564,0.009088,0.136558,-2.153226,314.329119,21.924448,0.999626,0.994485,0.003184,0.438788,-0.000024,0.000032,-0.000010,0.000034,-0.000026,-80.179164,0.000035,
2446,2278,4.15793187527892,-8.06067209563768,0.000140132424064632,0.001862,-0.051603,-0.012721,0.110923,-2.357408,326.758211,20.510516,0.999049,0.978764,0.005725,0.376822,0.000539,0.000428,-0.000061,0.000566,0.000402,-23.734794,0.000972,
2431,2098,3.86610490234155,-12.0102848487157,0.00642537744590754,0.001636,-0.055154,-0.009451,0.086723,-2.514861,329.668982,19.847017,0.999222,0.981554,0.005864,0.315580,0.000947,0.000918,-0.000089,0.001023,0.000842,-40.319019,0.001868,
2146,2068,-2.35662002153539,-12.6622852874015,0.00549767367772347,-0.003757,-0.053191,-0.017486,-0.137512,-2.461300,330.212346,21.525225,0.998628,0.981117,0.005494,0.398802,0.000887,0.000846,0.000059,0.000929,0.000804,35.497566,0.001734,
2461,2443,4.4510476308974,-4.44950700448054,-0.0051067136245706,0.001874,-0.051066,-0.003767,0.078404,-2.320852,324.039543,21.042809,0.999042,0.984610,0.004961,0.434812,0.000319,0.000154,-0.000021,0.000321,0.000151,-6.988054,0.000482,
2131,1993,-2.67358243151974,-14.309631724223,0.0100643856355873,-0.005714,-0.055289,-0.016443,-0.231282,-2.580796,331.420062,21.520817,0.998566,0.979721,0.005715,0.332966,0.001069,0.000878,0.000070,0.001092,0.000854,18.182250,0.001951,
2506,2818,5.35398124479916,3.73743869403512,-0.0219476298253198,0.002697,-0.050676,0.007739,0.071914,-2.254363,317.904649,22.553007,0.999261,0.988197,0.004429,0.412887,0.000031,0.000001,0.000008,0.000032,-0.000001,13.586517,0.000037,
2416,2053,3.54819654422887,-13.0010262206684,0.0141858262525147,0.001665,-0.055953,-0.015316,0.108951,-2.574561,330.459283,19.637950,0.998014,0.974165,0.006532,0.402989,0.001049,0.000992,-0.000086,0.001111,0.000930,-35.967747,0.002044,
2311,2803,1.11245504080448,3.40044729770871,-0.0153757421923615,0.002257,-0.049950,0.006530,0.062186,-2.214529,317.974086,22.300870,0.999468,0.991724,0.003778,0.474365,0.000032,0.000027,0.000010,0.000040,0.000019,38.206146,0.000060,
2056,3163,-4.47901315359187,11.198468094854,0.0425440247148003,0.004132,-0.048365,0.008395,0.150912,-2.155031,313.508454,21.996868,0.999611,0.992669,0.003360,0.464696,-0.000016,0.000052,-0.000031,0.000064,-0.000028,-68.906708,0.000064,
2341,2983,1.73374840686023,7.31458469576001,0.00643145969792158,0.003216,-0.050244,0.007090,0.103402,-2.242329,315.247831,22.771960,0.999781,0.995027,0.003038,0.436407,-0.000010,-0.000009,0.000009,-0.000001,-0.000018,45.675503,0.000022,
2281,2713,0.476467634768213,1.43894437447332,-0.0117149208940646,0.001980,-0.049947,0.004699,0.056410,-2.219511,319.494843,22.076859,0.999718,0.992827,0.003568,0.499816,0.000040,0.000073,0.000005,0.000073,0.000039,81.660266,0.000114,
2101,3193,-3.5092450319938,11.8512197065584,0.0466885152577561,0.003670,-0.048989,0.013624,0.112561,-2.187748,312.776038,22.163753,0.999588,0.993994,0.003213,0.464254,-0.000002,0.000033,-0.000024,0.000045,-0.000014,-63.302797,0.000046,
2236,2548,-0.475242295478445,-2.15782979913245,-0.0232336153635515,0.000735,-0.050162,0.001781,0.009621,-2.248119,322.107773,21.870556,0.999666,0.992158,0.003616,0.439015,0.000123,0.000090,0.000007,0.000124,0.000088,12.089129,0.000213,
2086,3148,-3.82679611106673,10.875766019843,0.0439150385089988,0.003801,-0.048379,0.009507,0.131424,-2.158328,313.581760,22.144636,0.999781,0.995299,0.002861,0.448491,-0.000005,0.000019,-0.000022,0.000032,-0.000018,-59.586990,0.000032,
2476,2518,4.76225150212843,-2.80985003873843,-0.00770939690460182,0.001577,-0.051265,0.000439,0.048743,-2.299254,322.805647,21.284526,0.999257,0.984817,0.004655,0.463691,0.000239,0.000075,-0.000032,0.000246,0.000069,-10.787132,0.000331,
2011,3178,-5.45579963374354,11.5191008163037,0.0495626765875841,0.004094,-0.048606,0.008083,0.151324,-2.171721,313.601074,21.771207,0.999777,0.995372,0.002746,0.461083,-0.000012,0.000084,-0.000023,0.000089,-0.000017,-77.106063,0.000095,
2296,2743,0.797301512952469,2.09354267306348,-0.0170030639551442,0.002416,-0.049940,0.005648,0.072883,-2.220515,318.961314,22.154366,0.999423,0.989941,0.004018,0.481705,0.000034,0.000062,0.000012,0.000066,0.000030,69.452965,0.000098,
2326,2878,1.42592072572917,5.03188822765927,-0.00878558953928632,0.002834,-0.049979,0.005242,0.092689,-2.236915,316.828665,22.459421,0.999556,0.990901,0.003835,0.477661,0.000010,0.000020,0.000014,0.000030,0.000000,55.056767,0.000035,
2071,3193,-4.15883049136673,11.8495960858533,0.0484996852534891,0.004035,-0.048714,0.013270,0.131922,-2.158006,312.965171,22.082110,0.999568,0.994440,0.003089,0.433948,-0.000008,0.000047,-0.000038,0.000067,-0.000028,-62.924951,0.000067,
2386,3208,2.67164938280682,12.2004900904982,0.0416930471757837,0.003984,-0.050080,0.012974,0.116361,-2.240346,311.882317,23.516923,0.999433,0.992419,0.003549,0.446711,0.000015,0.000008,0.000001,0.000015,0.000008,8.171396,0.000023,
2041,3178,-4.80641332414345,11.5216167084771,0.0440082950267993,0.004140,-0.048392,0.010747,0.145171,-2.155311,313.358699,21.869346,0.999702,0.994000,0.003220,0.516721,-0.000014,0.000070,-0.000029,0.000079,-0.000023,-72.471956,0.000081,
2491,2668,5.0581950857648,0.466178540480463,-0.0202072944019278,0.002284,-0.050692,0.002269,0.074279,-2.272172,320.325382,21.850847,0.999390,0.986990,0.004432,0.491923,0.000131,0.000033,-0.000014,0.000134,0.000031,-8.105777,0.000175,
2176,2203,-1.72373332508286,-9.7016243653346,-0.00601266176852278,-0.001870,-0.051340,-0.012858,-0.063947,-2.379746,327.913266,21.560845,0.998299,0.975868,0.006013,0.391899,0.000594,0.000589,0.000048,0.000639,0.000544,43.466553,0.001184,
2206,2293,-1.08309677952278,-7.73217217601876,0.00220105832676154,-0.000026,-0.051333,-0.005201,-0.003081,-2.332231,326.503244,21.566076,0.999014,0.984755,0.004956,0.397856,0.000421,0.000385,0.000033,0.000441,0.000365,30.818309,0.000807,
2506,2833,5.35155098759192,4.06298263241926,-0.0147373312621539,0.002605,-0.050645,0.006007,0.074386,-2.261488,317.723068,22.573045,0.999508,0.989678,0.004083,0.446580,0.000029,0.000012,0.000016,0.000038,0.000002,30.507420,0.000046,
2026,3133,-5.1249627439731,10.5464578215554,0.0385418025232411,0.003834,-0.048672,0.010588,0.132048,-2.155475,314.126780,21.904039,0.999540,0.994006,0.003284,0.446214,-0.000023,0.000035,-0.000018,0.000040,-0.000028,-74.134474,0.000041,
2431,2113,3.86357464230302,-11.6824819940709,0.0109696156590644,0.001534,-0.054601,-0.011545,0.089981,-2.499353,329.468642,19.809056,0.999200,0.979431,0.005940,0.421977,0.000910,0.000894,-0.000087,0.000990,0.000814,-42.457207,0.001807,
2371,3073,2.36998414217559,9.27107096058712,0.0214623443274036,0.003672,-0.050122,0.011155,0.109101,-2.232810,313.909771,23.119991,0.999556,0.992084,0.003600,0.418908,-0.000010,0.000006,0.000014,0.000014,-0.000018,59.661385,0.000019,
2251,2563,-0.15059139653442,-1.83117186811813,-0.0209116043686208,0.001218,-0.050008,-0.000300,0.038385,-2.243891,321.882927,21.803610,0.999561,0.991224,0.003819,0.509872,0.000112,0.000086,0.000004,0.000113,0.000085,9.075212,0.000198,
2221,2353,-0.768494030277889,-6.41812036857792,-0.0210701067140349,-0.000325,-0.050938,-0.004473,-0.019013,-2.305213,325.286664,21.515675,0.999339,0.988051,0.004523,0.497812,0.000318,0.000278,0.000013,0.000322,0.000274,16.483923,0.000596,
2056,3178,-4.48103046290146,11.5228168222434,0.051802208206027,0.004104,-0.048469,0.011234,0.141565,-2.154995,313.331790,21.983046,0.999648,0.994185,0.003141,0.471951,-0.000016,0.000059,-0.000033,0.000071,-0.000028,-69.058058,0.000072,
2236,2563,-0.47648778655422,-1.83294398702289,-0.0119679686853829,0.001213,-0.049936,0.000500,0.035770,-2.248806,321.985787,21.783162,0.999663,0.992076,0.003574,0.547488,0.000112,0.000088,0.000009,0.000115,0.000085,18.170640,0.000201,
2191,2218,-1.39851190270619,-9.37334011526044,-0.00418630497989625,-0.001259,-0.050968,-0.012839,-0.035603,-2.336403,327.668608,21.479385,0.998556,0.980738,0.005688,0.458626,0.000556,0.000565,0.000046,0.000607,0.000514,47.903631,0.001123,
2416,2068,3.54428850663394,-12.6719206781584,0.0123840238127286,0.001097,-0.056371,-0.012254,0.071644,-2.583620,330.165364,19.657062,0.998259,0.975014,0.006570,0.426093,0.001010,0.000970,-0.000080,0.001073,0.000907,-37.878250,0.001982,
2461,2458,4.44799918910936,-4.12106557971424,-0.00340343548310784,0.001556,-0.050323,-0.005704,0.071464,-2.288454,323.802929,21.132742,0.999352,0.986279,0.004672,0.433080,0.000305,0.000131,-0.000020,0.000307,0.000129,-6.481070,0.000448,
2101,3208,-3.51082789450647,12.1768184213452,0.0510457562400006,0.004120,-0.048783,0.011286,0.140293,-2.175718,312.594428,22.231668,0.999614,0.993859,0.003229,0.408411,-0.000003,0.000032,-0.000026,0.000046,-0.000016,-62.025870,0.000046,
2131,2008,-2.67398106889609,-13.9816392445314,0.0156529987647218,-0.004058,-0.055142,-0.015698,-0.157580,-2.552738,331.299793,21.458764,0.998784,0.983484,0.005532,0.431692,0.001023,0.000897,0.000078,0.001060,0.000860,25.489377,0.001924,
2146,2083,-2.36017639744327,-12.3322387511501,0.000441580399865416,-0.004191,-0.053712,-0.012029,-0.174062,-2.475251,329.892732,21.601523,0.998668,0.981506,0.005471,0.320129,0.000853,0.000830,0.000060,0.000903,0.000780,39.661517,0.001685,
2266,2668,0.157012886698961,0.45953753186469,-0.0265602275208039,0.001649,-0.049873,0.001952,0.050617,-2.232016,320.117724,22.023518,0.999513,0.990964,0.003916,0.463154,0.000060,0.000063,-0.000001,0.000063,0.000060,-65.765784,0.000123,
2446,2293,4.15413674763844,-7.73390994440141,0.00339188096171483,0.001318,-0.052075,-0.006316,0.062015,-2.359786,326.494453,20.442572,0.999093,0.979713,0.005625,0.496851,0.000515,0.000377,-0.000053,0.000533,0.000359,-18.833519,0.000898,
2161,2113,-2.03619740110752,-11.6753868984842,0.00641231894110206,-0.002981,-0.052618,-0.013522,-0.113429,-2.438971,329.466243,21.521692,0.999225,0.982324,0.005320,0.369520,0.000786,0.000790,0.000063,0.000851,0.000725,45.883182,0.001577,
2311,2818,1.10991590109698,3.72734586450907,-0.015517702565603,0.002433,-0.049779,0.005655,0.073293,-2.225411,317.739511,22.386505,0.999538,0.990207,0.003902,0.410012,0.000026,0.000027,0.000009,0.000036,0.000017,45.733193,0.000054,
2356,3013,2.05400210477338,7.96746016585667,0.0117774133223065,0.003108,-0.050192,0.012495,0.078992,-2.221841,314.776588,22.905542,0.999579,0.991194,0.003758,0.439286,-0.000014,-0.000001,0.000009,0.000004,-0.000018,64.141927,0.000019,
2476,2533,4.75903555454876,-2.48103988429932,-0.0135888018027117,0.001791,-0.050732,-0.000995,0.064233,-2.291793,322.527746,21.389433,0.999602,0.988130,0.004100,0.424244,0.000224,0.000073,-0.000022,0.000227,0.000070,-8.237649,0.000311,
2041,3193,-4.80864182807241,11.8467364909293,0.0508834825184863,0.003908,-0.048706,0.011558,0.132180,-2.154875,313.158090,21.914860,0.999589,0.993641,0.003318,0.462784,-0.000014,0.000067,-0.000035,0.000080,-0.000027,-69.384651,0.000082,
2071,3208,-4.16076261224498,12.1736785660991,0.0499262166077301,0.004130,-0.048772,0.008526,0.149770,-2.187084,312.750259,22.033542,0.999590,0.993893,0.003159,0.449037,-0.000004,0.000044,-0.000041,0.000068,-0.000027,-60.396079,0.000068,
2206,2308,-1.08572405982689,-7.40401237638914,-0.00137503122192584,-0.000278,-0.050463,-0.011253,0.004785,-2.314365,326.239367,21.538965,0.998872,0.984794,0.004899,0.461792,0.000396,0.000346,0.000029,0.000410,0.000333,24.643025,0.000744,
2281,2728,0.473435941441373,1.76609968965962,-0.0154811517998041,0.002247,-0.050283,0.008894,0.054481,-2.226782,319.217455,22.125777,0.999679,0.992108,0.003600,0.471584,0.000037,0.000067,0.000011,0.000071,0.000034,72.397063,0.000107,
2011,3193,-5.45818999823769,11.8442228297484,0.0506278805429474,0.004122,-0.048461,0.010851,0.145152,-2.156960,313.358712,21.767453,0.999743,0.995196,0.002767,0.466646,-0.000010,0.000086,-0.000028,0.000094,-0.000017,-74.837093,0.000100,
2026,3148,-5.12716506725495,10.870853615925,0.0457451475115818,0.003588,-0.048410,0.011507,0.118157,-2.150294,313.928598,21.870123,0.999647,0.995142,0.003008,0.474225,-0.000018,0.000035,-0.000018,0.000041,-0.000023,-72.666421,0.000041,
2506,2848,5.34844169243965,4.39005936427837,-0.012187203006647,0.002519,-0.050909,0.007591,0.064239,-2.259063,317.488928,22.693132,0.999657,0.992083,0.003587,0.390027,0.000020,0.000013,0.000012,0.000029,0.000004,36.315882,0.000036,
2491,2683,5.05418176285551,0.794022023193961,-0.0242309550818618,0.001956,-0.050900,0.005407,0.047148,-2.269423,320.019814,21.939653,0.999626,0.990020,0.003927,0.465048,0.000118,0.000043,-0.000011,0.000119,0.000041,-8.106611,0.000167,
2386,3223,2.66827380524353,12.5263950470723,0.0378287843805651,0.003829,-0.050136,0.013129,0.108653,-2.239004,311.595798,23.585763,0.999477,0.993228,0.003381,0.421294,0.000012,0.000010,0.000000,0.000013,0.000010,-7.803888,0.000022,
2056,3193,-4.48377513203049,11.847752462923,0.0519614895342784,0.003982,-0.049030,0.015199,0.124608,-2.157312,313.071234,21.974789,0.999480,0.993737,0.003282,0.471061,-0.000015,0.000056,-0.000038,0.000073,-0.000032,-66.424047,0.000073,
2341,2998,1.73112152897983,7.64063683617459,0.00763308160486531,0.003347,-0.050031,0.007417,0.108375,-2.234474,315.017640,22.820436,0.999889,0.997177,0.002769,0.431932,-0.000012,-0.000001,0.000007,0.000002,-0.000015,65.025686,0.000017,
2101,3223,-3.51302549447896,12.5009708645403,0.0568238030156181,0.004119,-0.048915,0.012927,0.135368,-2.177101,312.392888,22.191113,0.999606,0.993821,0.003260,0.447324,-0.000003,0.000028,-0.000033,0.000048,-0.000024,-57.632410,0.000048,
2416,2083,3.54192490660251,-12.3409264985879,0.0146536190833331,0.001661,-0.055337,-0.010362,0.091001,-2.539492,329.960643,19.845721,0.997950,0.975413,0.006709,0.332476,0.000973,0.000952,-0.000076,0.001039,0.000886,-41.114798,0.001927,
2236,2578,-0.479976005639532,-1.50444712466283,-0.0190949246713217,0.000991,-0.050146,0.002321,0.019605,-2.249563,321.666517,21.869516,0.999386,0.989141,0.004121,0.482407,0.000104,0.000086,0.000013,0.000111,0.000079,27.422463,0.000191,
2041,3208,-4.81064641473022,12.1712976909958,0.0511548832911899,0.004134,-0.048644,0.009607,0.147984,-2.174388,312.931267,21.893290,0.999550,0.993233,0.003290,0.456087,-0.000011,0.000063,-0.000039,0.000080,-0.000028,-66.742368,0.000081,
2431,2128,3.86096332590738,-11.3537047917371,0.0192233958251791,0.001071,-0.053810,-0.013510,0.076366,-2.491510,329.281637,19.912672,0.999435,0.979994,0.006013,0.378983,0.000875,0.000870,-0.000083,0.000955,0.000790,-44.204818,0.001748,
2296,2758,0.794074012069967,2.42027632865442,-0.0218387226819345,0.002248,-0.050047,0.005125,0.066862,-2.233938,318.670937,22.172429,0.999410,0.989908,0.004046,0.480450,0.000029,0.000060,0.000012,0.000065,0.000025,71.027955,0.000092,
2071,3223,-4.16285654513775,12.4986571261717,0.0548233877718758,0.004392,-0.048700,0.012474,0.150653,-2.163506,312.546642,22.038571,0.999555,0.993367,0.003280,0.463309,0.000000,0.000040,-0.000047,0.000071,-0.000031,-56.532613,0.000071,
2086,3163,-3.8299140607527,11.2012358971558,0.0348822403246913,0.003716,-0.048906,0.010014,0.125894,-2.174687,313.255712,22.137926,0.999802,0.995452,0.002884,0.436788,-0.000008,0.000038,-0.000025,0.000049,-0.000019,-66.055424,0.000049,
2131,2023,-2.67791281529801,-13.648509227627,0.000703400408610833,-0.004591,-0.054311,-0.015391,-0.182658,-2.517062,330.908370,21.630188,0.998776,0.983199,0.005529,0.306151,0.000985,0.000868,0.000066,0.001015,0.000838,24.293537,0.001855,
2026,3163,-5.129237134543,11.1959295486808,0.0481829023566434,0.003698,-0.048432,0.011378,0.123629,-2.146317,313.709486,21.874187,0.999613,0.994363,0.003195,0.463159,-0.000021,0.000065,-0.000025,0.000072,-0.000027,-75.160431,0.000072,
2461,2473,4.4443504604206,-3.79260864165011,-0.0102089897941937,0.001637,-0.050545,-0.004079,0.068989,-2.290400,323.499948,21.184587,0.999446,0.987393,0.004494,0.435079,0.000282,0.000118,-0.000020,0.000285,0.000116,-6.741507,0.000412,
2326,2893,1.42283765038712,5.3582358981741,-0.00855007244950912,0.002549,-0.050144,0.005486,0.078736,-2.235498,316.571965,22.506509,0.999376,0.990493,0.003864,0.465843,0.000005,0.000012,0.000014,0.000023,-0.000005,51.855554,0.000024,
2191,2233,-1.40077217890635,-9.04449870013222,-0.0034698780010558,-0.001023,-0.050790,-0.012479,-0.025857,-2.329381,327.442403,21.542716,0.998736,0.982371,0.005395,0.419122,0.000524,0.000526,0.000041,0.000566,0.000485,45.569654,0.001051,
2146,2098,-2.36229903004947,-12.0038572748861,0.00482329655585545,-0.004008,-0.053377,-0.009262,-0.173883,-2.447457,329.688456,21.593758,0.999016,0.983479,0.005217,0.366593,0.000819,0.000802,0.000066,0.000877,0.000744,41.317645,0.001623,
2476,2548,4.75584837499842,-2.15348724130986,-0.0162248946774071,0.001659,-0.050188,-0.003597,0.068289,-2.272766,322.265949,21.401917,0.999583,0.987532,0.004265,0.488474,0.000211,0.000052,-0.000017,0.000213,0.000050,-6.151241,0.000279,
2371,3088,2.36713358851607,9.5959256380853,0.0281522360536428,0.003373,-0.050390,0.013689,0.086167,-2.244607,313.697769,23.135996,0.999420,0.990126,0.003951,0.430913,-0.000009,0.000000,0.000006,0.000003,-0.000012,63.101543,0.000012,
2446,2308,4.15064414072845,-7.40275569490658,-0.0040584680944562,0.001361,-0.051800,-0.007513,0.068573,-2.348172,326.194742,20.659983,0.998976,0.979616,0.005549,0.345407,0.000497,0.000344,-0.000053,0.000514,0.000327,-17.436089,0.000848,
2491,2698,5.05084676126828,1.12220864112096,-0.0278700526565672,0.001760,-0.050514,0.002421,0.049754,-2.268601,319.747015,22.070132,0.999682,0.989847,0.003951,0.394842,0.000105,0.000074,-0.000010,0.000108,0.000071,-15.947924,0.000180,
2251,2578,-0.152848790090953,-1.50389454571263,-0.0180533312371836,0.001415,-0.049785,-0.000195,0.047208,-2.228076,321.672228,21.849633,0.999440,0.989076,0.004128,0.504026,0.000103,0.000085,0.000009,0.000107,0.000081,21.748840,0.000189,
2221,2368,-0.770324945616228,-6.08992714594986,-0.0115784204130591,-0.000185,-0.050911,-0.003814,-0.014684,-2.283834,325.127333,21.638153,0.999495,0.989047,0.004392,0.416904,0.000292,0.000260,0.000006,0.000293,0.000259,11.095729,0.000552,
2176,2218,-1.72626344438499,-9.37279590497723,-0.00469351455768674,-0.001738,-0.051342,-0.008999,-0.069824,-2.344935,327.676503,21.596286,0.998478,0.979581,0.005665,0.406135,0.000560,0.000555,0.000049,0.000606,0.000508,43.433928,0.001116,
2266,2683,0.154119807304827,0.786197357811638,-0.0275379531570934,0.001523,-0.050131,0.002120,0.044184,-2.247331,319.859673,22.044322,0.999450,0.991874,0.003768,0.453001,0.000057,0.000066,-0.000002,0.000067,0.000057,-76.995626,0.000124,
2056,3208,-4.48591458383723,12.1726294580425,0.0503795788673642,0.003949,-0.048636,0.009027,0.140516,-2.178899,312.828870,21.973909,0.999553,0.993571,0.003224,0.444004,-0.000012,0.000052,-0.000041,0.000073,-0.000032,-63.915493,0.000073,
2311,2833,1.10809338110007,4.05317592561035,-0.00748881677168356,0.002611,-0.049880,0.003398,0.089140,-2.234973,317.578352,22.438675,0.999727,0.992191,0.003636,0.380138,0.000018,0.000027,0.000011,0.000034,0.000011,56.040853,0.000047,
2506,2863,5.34461858815918,4.71649243460664,-0.0180295967043094,0.002664,-0.051048,0.012015,0.053693,-2.258848,317.184445,22.697980,0.999700,0.992730,0.003482,0.446017,0.000013,0.000013,0.000008,0.000021,0.000005,44.293357,0.000028,
2011,3208,-5.46016810656707,12.169254070712,0.0514071052851364,0.004405,-0.048339,0.010633,0.158875,-2.147720,313.133718,21.762777,0.999581,0.993247,0.003284,0.467284,-0.000005,0.000082,-0.000032,0.000092,-0.000015,-72.078256,0.000099,
2071,3238,-4.16501784412491,12.8233814304627,0.055020687096885,0.004575,-0.048825,0.011503,0.161803,-2.176421,312.314231,22.032976,0.999558,0.993353,0.003273,0.451465,0.000003,0.000031,-0.000052,0.000071,-0.000037,-52.668460,0.000071,
2206,2323,-1.08859365879662,-7.07624070076873,0.000154043742782051,-0.000356,-0.050872,-0.006278,-0.014677,-2.321239,325.990839,21.557371,0.998994,0.985155,0.004684,0.454964,0.000371,0.000313,0.000021,0.000378,0.000306,17.608068,0.000686,
2386,3238,2.66482815269301,12.8522345099481,0.0240774172082183,0.004224,-0.050131,0.011312,0.133429,-2.237579,311.258857,23.596785,0.999543,0.992949,0.003356,0.453591,0.000012,0.000000,-0.000003,0.000012,-0.000001,-12.702286,0.000014,
2101,3238,-3.5155623263127,12.8259647961339,0.0523300645464246,0.004326,-0.048911,0.012836,0.145174,-2.181844,312.119697,22.176247,0.999674,0.994144,0.003121,0.457645,-0.000005,0.000019,-0.000037,0.000046,-0.000032,-54.065244,0.000047,
2041,3223,-4.81312848810917,12.4965440046584,0.0520267867877919,0.004146,-0.048436,0.012534,0.140456,-2.152646,312.685605,21.900994,0.999511,0.993265,0.003239,0.461136,-0.000008,0.000056,-0.000046,0.000080,-0.000032,-62.293666,0.000081,
2131,2038,-2.68069607667627,-13.3206863696668,-0.000403867329623608,-0.004726,-0.054626,-0.012314,-0.198214,-2.503905,330.643782,21.503747,0.999121,0.983567,0.005413,0.454933,0.000952,0.000842,0.000064,0.000982,0.000813,24.833338,0.001797,
2416,2098,3.53796184857248,-12.0115733511782,0.00900724579219059,0.001120,-0.055135,-0.010068,0.065288,-2.522040,329.645992,19.829893,0.998545,0.976981,0.006347,0.417148,0.000932,0.000910,-0.000081,0.001002,0.000840,-41.134745,0.001844,
2281,2743,0.470852920655354,2.09267769080374,-0.0164904054146859,0.002352,-0.050256,0.007543,0.063831,-2.233877,318.974530,22.148481,0.999408,0.989677,0.004003,0.469838,0.000034,0.000061,0.000012,0.000066,0.000029,69.232199,0.000097,
2356,3028,2.05150380193598,8.29320169238331,0.015135582426808,0.003009,-0.050165,0.009993,0.083245,-2.233509,314.563787,22.967116,0.999564,0.991772,0.003713,0.404004,-0.000013,0.000002,0.000004,0.000004,-0.000014,75.890993,0.000014,
2026,3178,-5.13094740537182,11.5204765080437,0.0511018638714518,0.004034,-0.048370,0.009437,0.144495,-2.150763,313.509907,21.844258,0.999686,0.993665,0.003211,0.477824,-0.000018,0.000075,-0.000027,0.000082,-0.000026,-75.056897,0.000084,
2161,2128,-2.03931951148814,-11.3457818185417,-0.001941946230545,-0.002993,-0.052428,-0.012050,-0.118442,-2.417705,329.150465,21.504395,0.999273,0.980917,0.005423,0.421576,0.000752,0.000762,0.000063,0.000821,0.000694,47.254133,0.001516,
2476,2563,4.75232382138702,-1.82514291110434,-0.01553196490147,0.001907,-0.050685,0.005614,0.044532,-2.240740,322.003468,21.508658,0.998382,0.981903,0.005347,0.471502,0.000200,0.000060,-0.000009,0.000201,0.000060,-3.716832,0.000273,
2056,3223,-4.48816155426477,12.4975114012025,0.0520057499903146,0.004092,-0.048461,0.010637,0.142682,-2.161655,312.599314,21.957236,0.999591,0.993423,0.003164,0.471190,-0.000009,0.000046,-0.000048,0.000074,-0.000037,-59.865998,0.000074,
2341,3013,1.72859805093183,7.96610988213946,0.0129378743417305,0.003292,-0.049863,0.008063,0.103683,-2.219861,314.812279,22.840356,0.999617,0.992896,0.003482,0.462427,-0.000014,0.000000,0.000006,0.000003,-0.000016,68.843368,0.000018,
2461,2488,4.44157865618295,-3.46498940852555,-0.00772901163225015,0.001741,-0.050110,-0.003429,0.071515,-2.256726,323.279554,21.214908,0.999448,0.986025,0.004649,0.494252,0.000271,0.000103,-0.000027,0.000275,0.000099,-8.891919,0.000387,
2506,2878,5.34334772597617,5.04142992244677,-0.00670573247066386,0.003049,-0.050790,0.006404,0.093212,-2.274014,317.074577,22.711526,0.999652,0.992986,0.003479,0.478135,0.000002,0.000039,0.000017,0.000045,-0.000005,69.088832,0.000050,
2446,2323,4.14774271637096,-7.07550622482601,-0.00481409313954373,0.001510,-0.051325,-0.007554,0.075724,-2.336622,325.953313,20.592796,0.999117,0.979702,0.005417,0.478573,0.000465,0.000322,-0.000045,0.000477,0.000310,-16.110132,0.000793,
2236,2593,-0.482404190926029,-1.17782706756694,-0.0143409139989785,0.000863,-0.050050,0.002510,0.013160,-2.242086,321.456701,21.884241,0.999331,0.986727,0.004566,0.496998,0.000097,0.000074,0.000011,0.000102,0.000070,22.349187,0.000172,
2176,2233,-1.72872608588198,-9.04419475607507,-0.00727824800242161,-0.001616,-0.050934,-0.010137,-0.060562,-2.286420,327.422388,21.552042,0.998606,0.982396,0.005278,0.524037,0.000530,0.000518,0.000043,0.000568,0.000480,41.152272,0.001049,
2266,2698,0.152492187500872,1.11270221323065,-0.0222884004769526,0.002123,-0.049826,0.001076,0.075340,-2.236880,319.690929,22.080686,0.999563,0.992202,0.003674,0.452931,0.000046,0.000067,-0.000001,0.000067,0.000046,-86.215958,0.000114,
2041,3238,-4.8153063583148,12.8210279962828,0.0512080839791906,0.004306,-0.048734,0.011167,0.151524,-2.172919,312.444837,21.874327,0.999596,0.994541,0.003007,0.458666,-0.000005,0.000050,-0.000054,0.000083,-0.000038,-58.313088,0.000083,
2296,2773,0.791648721744973,2.74689298304403,-0.0187381637754811,0.002290,-0.049916,0.004515,0.070858,-2.239821,318.456715,22.239460,0.999311,0.988702,0.004260,0.437344,0.000028,0.000050,0.000008,0.000052,0.000025,72.151895,0.000079,
2491,2713,5.04750503184666,1.44873367804307,-0.0294525862158252,0.001795,-0.050446,0.004449,0.043668,-2.246537,319.483363,22.048485,0.999628,0.989526,0.004210,0.497670,0.000085,0.000065,0.000002,0.000085,0.000065,5.994912,0.000151,
2191,2248,-1.40334939203057,-8.71664853237544,-0.00671336023964386,-0.001141,-0.050728,-0.016535,-0.018563,-2.369742,327.181557,21.527308,0.998793,0.982987,0.005244,0.411157,0.000500,0.000480,0.000039,0.000530,0.000450,37.680360,0.000981,
2071,3253,-4.16766871206845,13.1489519043586,0.0494958930803477,0.004688,-0.048696,0.011505,0.167075,-2.169755,312.027548,22.057617,0.999697,0.994752,0.003038,0.428969,0.000006,0.000036,-0.000057,0.000080,-0.000037,-52.451328,0.000080,
2371,3103,2.36480669463817,9.92210727585615,0.0274826563882016,0.003782,-0.050233,0.011189,0.113940,-2.247330,313.474095,23.221830,0.999438,0.990725,0.003845,0.382598,-0.000004,0.000003,0.000007,0.000007,-0.000008,58.433510,0.000009,
2011,3223,-5.46279268245399,12.4949757770088,0.0499221384018256,0.004368,-0.048261,0.013616,0.149191,-2.121808,312.866051,21.795869,0.999325,0.992418,0.003606,0.446530,0.000000,0.000071,-0.000039,0.000088,-0.000017,-66.281197,0.000094,
2326,2908,1.42016730275169,5.68411643764482,-0.00401491981057234,0.002517,-0.050519,0.007909,0.068757,-2.246161,316.355382,22.557867,0.999267,0.990093,0.003990,0.437928,0.000004,0.000002,0.000014,0.000016,-0.000011,43.000605,0.000017,
2251,2593,-0.155766606962345,-1.17657650858986,-0.0218583466914879,0.001478,-0.049829,0.000569,0.047546,-2.237741,321.397595,21.871453,0.999206,0.987125,0.004531,0.496658,0.000094,0.000071,0.000007,0.000096,0.000069,15.292992,0.000166,
2431,2143,3.85637092359299,-11.0226563733525,0.00479169282101566,0.000928,-0.054052,-0.009919,0.056534,-2.505680,328.898801,20.005976,0.999263,0.979177,0.005749,0.324895,0.000832,0.000818,-0.000081,0.000906,0.000744,-42.582076,0.001653,
2221,2383,-0.773043622968952,-5.76315435910308,-0.0106814646187559,-0.000270,-0.050962,-0.002111,-0.024050,-2.298242,324.883782,21.587372,0.999382,0.988646,0.004382,0.473915,0.000273,0.000243,0.000008,0.000275,0.000241,14.390577,0.000517,
2386,3253,2.66111266813288,13.1781546270152,0.0159778516280085,0.004144,-0.050048,0.012529,0.125419,-2.233104,310.936312,23.649588,0.999663,0.992451,0.003324,0.447021,0.000010,0.000001,0.000000,0.000010,0.000001,-0.783546,0.000012,
2146,2113,-2.36333946126209,-11.6766970304614,0.0179183701925467,-0.003594,-0.052902,-0.010629,-0.150679,-2.427936,329.579871,21.582371,0.999251,0.984354,0.005089,0.407893,0.000787,0.000779,0.000069,0.000852,0.000714,43.164259,0.001568,
2131,2053,-2.68242961646224,-12.9909006442106,0.00345414090179474,-0.004358,-0.054030,-0.012847,-0.179542,-2.484569,330.453174,21.610729,0.998592,0.980213,0.005609,0.376204,0.000917,0.000836,0.000065,0.000953,0.000800,29.010405,0.001755,
2506,2893,5.34094406220506,5.36846891719167,-0.00100329209311667,0.003240,-0.050681,0.006100,0.103218,-2.261676,316.886767,22.852988,0.999490,0.990399,0.004038,0.409570,0.000005,0.000033,0.000022,0.000045,-0.000007,60.855088,0.000048,
2086,3178,-3.8311395645797,11.5245194181155,0.0484218637162144,0.004141,-0.048927,0.011213,0.141972,-2.183962,313.140623,22.061845,0.999701,0.995306,0.002902,0.501577,-0.000009,0.000042,-0.000027,0.000054,-0.000021,-66.357952,0.000054,
2071,3268,-4.17095657528944,13.4742790856301,0.0365301859968667,0.004464,-0.048377,0.008853,0.164402,-2.163992,311.670793,22.024234,0.999753,0.995852,0.002854,0.463332,0.000004,0.000034,-0.000062,0.000083,-0.000045,-51.720536,0.000083,
2026,3193,-5.13331539862728,11.8454257030083,0.0537071767177508,0.003892,-0.048363,0.010121,0.136069,-2.144562,313.278266,21.842416,0.999591,0.992972,0.003342,0.474626,-0.000017,0.000076,-0.000032,0.000086,-0.000027,-72.996290,0.000087,
2416,2113,3.53620373469804,-11.68242251724,0.0139469113785822,0.001403,-0.053722,-0.016391,0.101834,-2.469807,329.481431,19.882087,0.998768,0.977028,0.006161,0.467536,0.000897,0.000888,-0.000078,0.000971,0.000814,-43.452839,0.001787,
2101,3253,-3.51812976179354,13.1518200293552,0.050143109916803,0.004403,-0.048610,0.013451,0.147086,-2.160925,311.857274,22.232470,0.999729,0.995204,0.002913,0.422138,-0.000005,0.000022,-0.000040,0.000050,-0.000034,-54.235441,0.000051,
2011,3238,-5.46473097075469,12.8185665919161,0.0574657651557118,0.004128,-0.048266,0.010599,0.146241,-2.141973,312.681666,21.733569,0.999505,0.993101,0.003467,0.475580,0.000005,0.000061,-0.000049,0.000089,-0.000023,-59.792218,0.000093,
2041,3253,-4.81771912331338,13.1457568798425,0.0529402202935785,0.004248,-0.048445,0.012605,0.144895,-2.163361,312.207403,21.858662,0.999673,0.994432,0.002956,0.474904,0.000000,0.000056,-0.000060,0.000094,-0.000039,-57.464214,0.000095,
2446,2338,4.14498941595926,-6.7478638095433,0.00503440091586072,0.001254,-0.052171,-0.003973,0.050377,-2.345349,325.767366,20.691652,0.999048,0.980291,0.005358,0.424569,0.000439,0.000302,-0.000045,0.000453,0.000289,-16.563928,0.000748,
2311,2848,1.10520264647439,4.37777100532109,-0.00147202340110653,0.002232,-0.049873,0.006081,0.062576,-2.224261,317.358470,22.345406,0.999821,0.992592,0.003591,0.515888,0.000017,0.000020,0.000013,0.000032,0.000006,49.059877,0.000040,
2281,2758,0.467419042289094,2.41970923294294,-0.023300235294073,0.002069,-0.050413,0.006685,0.053640,-2.253479,318.663445,22.184223,0.999298,0.989057,0.004127,0.442600,0.000028,0.000062,0.000013,0.000066,0.000024,71.716031,0.000093,
2356,3043,2.04878606677022,8.61867755259298,0.0118408523946982,0.003405,-0.050121,0.010135,0.101055,-2.211530,314.308762,22.930483,0.999584,0.991922,0.003645,0.500948,-0.000013,0.000006,0.000005,0.000008,-0.000015,75.784826,0.000015,
2206,2338,-1.09187964129542,-6.74653172743203,-0.00563682852293823,-0.000628,-0.050559,-0.005534,-0.029375,-2.308578,325.685082,21.666200,0.999466,0.988264,0.004404,0.377785,0.000344,0.000289,0.000010,0.000346,0.000287,9.918009,0.000634,
2491,2728,5.04489592461187,1.77648615848251,-0.0306622481380714,0.002228,-0.050324,0.002748,0.070102,-2.244360,319.254799,22.167194,0.999550,0.991794,0.003663,0.440329,0.000067,0.000064,0.000008,0.000073,0.000057,40.501481,0.000131,
2056,3238,-4.48991143362436,12.8219996911845,0.0577715924156337,0.004439,-0.048825,0.011567,0.155959,-2.172873,312.415667,21.959534,0.999623,0.994141,0.003103,0.450776,-0.000006,0.000039,-0.000055,0.000076,-0.000043,-56.108380,0.000076,
2236,2608,-0.484856470275229,-0.850666342217153,-0.0167308478056043,0.001103,-0.049819,0.001047,0.028962,-2.246907,321.209301,21.903369,0.999106,0.985145,0.004773,0.495087,0.000091,0.000062,0.000010,0.000095,0.000059,17.605942,0.000155,
2266,2713,0.150343128237136,1.43934132706703,-0.0157973411494368,0.002087,-0.049291,-0.000329,0.078512,-2.220232,319.504421,22.137183,0.999655,0.992813,0.003643,0.438845,0.000040,0.000063,-0.000001,0.000063,0.000040,-88.090414,0.000104,
2161,2143,-2.04157167913676,-11.0165904473738,-0.00822959929575973,-0.002635,-0.051801,-0.015954,-0.089903,-2.425691,328.885475,21.507122,0.999188,0.972711,0.006158,0.423908,0.000720,0.000716,0.000066,0.000785,0.000652,44.120382,0.001438,
2071,3283,-4.17386027621122,13.7992342646658,0.0308258168563498,0.004518,-0.048438,0.011732,0.158686,-2.154895,311.371754,21.998302,0.999708,0.996073,0.002832,0.493734,0.000003,0.000032,-0.000059,0.000079,-0.000043,-51.890395,0.000079,
2176,2248,-1.73080397079109,-8.71640214691136,-0.00678343875534893,-0.001343,-0.051088,-0.011685,-0.043337,-2.331117,327.202535,21.574003,0.998748,0.981439,0.005343,0.471780,0.000507,0.000475,0.000042,0.000536,0.000446,34.579511,0.000983,
2461,2503,4.43852548381061,-3.13781352278195,-0.00353295531039066,0.001680,-0.050627,0.000300,0.054478,-2.266834,323.054216,21.268543,0.999323,0.986669,0.004525,0.486009,0.000253,0.000090,-0.000030,0.000258,0.000085,-10.276418,0.000358,
2326,2923,1.41763917520771,6.00953575213505,-0.000352605385785409,0.002538,-0.050138,0.008334,0.068349,-2.236777,316.141128,22.544137,0.998811,0.987570,0.004455,0.494939,0.000001,-0.000002,0.000009,0.000009,-0.000009,39.054317,0.000010,
2386,3268,2.65801770233844,13.5036100131785,0.0133970387523732,0.004144,-0.050027,0.012375,0.126002,-2.227564,310.668763,23.693720,0.999679,0.992248,0.003446,0.450286,0.000009,-0.000005,-0.000001,0.000009,-0.000005,-3.769000,0.000010,
2146,2128,-2.36507290068255,-11.3471920094962,0.0145673371060298,-0.002822,-0.052623,-0.012771,-0.108725,-2.435920,329.352568,21.637880,0.999133,0.981745,0.005350,0.354857,0.000754,0.000751,0.000068,0.000821,0.000684,44.471467,0.001507,
2431,2158,3.85491764983483,-10.6956513378094,0.0121830332171271,0.001297,-0.053461,-0.016620,0.098333,-2.516491,328.761010,19.966977,0.999369,0.978661,0.005623,0.405348,0.000800,0.000752,-0.000088,0.000867,0.000685,-37.427172,0.001555,
2251,2608,-0.158642491173758,-0.850051771277357,-0.0192506248305904,0.001110,-0.050096,0.001164,0.028611,-2.250289,321.157465,21.883832,0.999056,0.985764,0.004772,0.495618,0.000085,0.000060,0.000007,0.000087,0.000058,14.190381,0.000146,
2476,2578,4.74894906316844,-1.49738180882431,-0.01885572505239,0.001687,-0.050770,0.003455,0.042625,-2.253745,321.729819,21.576391,0.997965,0.983101,0.005397,0.448275,0.000186,0.000063,-0.000008,0.000187,0.000063,-3.922207,0.000259,
2296,2788,0.788779283140141,3.07323029422482,-0.0153724860021498,0.002125,-0.049991,0.007389,0.053619,-2.207821,318.223366,22.249180,0.999334,0.989770,0.004062,0.489704,0.000029,0.000044,0.000007,0.000047,0.000026,69.170425,0.000075,
2371,3118,2.36167129577158,10.247801613699,0.0238022588569038,0.003720,-0.050088,0.010054,0.115259,-2.238224,313.198845,23.236377,0.999614,0.991783,0.003668,0.417185,0.000001,0.000011,0.000007,0.000014,-0.000003,62.860566,0.000015,
2101,3268,-3.52035770803033,13.4764652070551,0.0461248196378961,0.004762,-0.048715,0.011313,0.169819,-2.180428,311.600989,22.211306,0.999774,0.995911,0.002834,0.423616,-0.000008,0.000021,-0.000047,0.000055,-0.000043,-53.478730,0.000058,
2131,2068,-2.68405460784542,-12.6622965698314,0.0117184475734007,-0.004127,-0.053501,-0.012657,-0.169390,-2.447070,330.291023,21.645795,0.998060,0.975531,0.006123,0.387169,0.000885,0.000840,0.000072,0.000938,0.000787,36.252912,0.001727,
2011,3253,-5.46707221898096,13.1436947223393,0.0563753825638287,0.004171,-0.048207,0.010455,0.148610,-2.140893,312.429532,21.746147,0.999832,0.995710,0.002775,0.450391,0.000014,0.000066,-0.000057,0.000103,-0.000022,-57.178351,0.000108,
2506,2908,5.33668631615065,5.69516831652191,-0.00688847198102849,0.002911,-0.050855,0.010010,0.072884,-2.274973,316.561754,22.909015,0.999477,0.988951,0.004160,0.400913,0.000006,-0.000003,0.000026,0.000028,-0.000024,39.916090,0.000030,
2341,3028,1.72629634122252,8.29172387644596,0.0201013074379262,0.003350,-0.050190,0.009092,0.102604,-2.238578,314.626108,22.922200,0.999678,0.993905,0.003404,0.397411,-0.000013,0.000002,0.000002,0.000002,-0.000013,80.863945,0.000014,
2071,3298,-4.17634913408148,14.124096495885,0.0289016302722871,0.004529,-0.048506,0.010997,0.161216,-2.168009,311.112602,22.010673,0.999439,0.994655,0.003143,0.463571,0.000009,0.000060,-0.000067,0.000106,-0.000037,-55.428836,0.000107,
2491,2743,5.04157507695298,2.10295783364491,-0.0306719323879747,0.002254,-0.050827,0.005947,0.058820,-2.258256,318.999108,22.198653,0.999611,0.991464,0.003757,0.454188,0.000060,0.000071,0.000010,0.000077,0.000054,59.392492,0.000132,
2191,2263,-1.40693764169004,-8.38728950312478,-0.00997016921542127,-0.001647,-0.050674,-0.011655,-0.057015,-2.330315,326.873734,21.575834,0.998881,0.981770,0.005345,0.419195,0.000477,0.000432,0.000036,0.000497,0.000412,28.774432,0.000910,
2026,3208,-5.13523162146391,12.170037545439,0.057189529791458,0.004178,-0.048375,0.011256,0.146095,-2.150097,313.072433,21.829654,0.999487,0.992867,0.003402,0.470925,-0.000014,0.000072,-0.000035,0.000085,-0.000026,-70.378892,0.000087,
2386,3283,2.65543158048175,13.8284601782881,0.014562770679504,0.004429,-0.050008,0.013145,0.136387,-2.227206,310.442682,23.711593,0.999677,0.991386,0.003599,0.474748,0.000010,-0.000004,-0.000006,0.000012,-0.000006,-20.522627,0.000012,
2461,2518,4.43550547776736,-2.8110106449856,0.000106099439904028,0.001388,-0.051218,0.000288,0.040886,-2.305592,322.827943,21.315826,0.998993,0.984318,0.004729,0.455256,0.000231,0.000076,-0.000031,0.000237,0.000069,-10.976954,0.000322,
2086,3193,-3.83351421209358,11.8499754184722,0.0500344287167422,0.004165,-0.048923,0.012248,0.140074,-2.181813,312.906836,22.106471,0.999405,0.993794,0.003214,0.456768,-0.000008,0.000040,-0.000031,0.000055,-0.000023,-63.813820,0.000055,
2416,2128,3.53155342006633,-11.3503726765204,-0.00247119638538607,0.001032,-0.053490,-0.016444,0.085160,-2.477122,329.084854,20.032252,0.999139,0.979381,0.005749,0.361891,0.000864,0.000865,-0.000073,0.000938,0.000791,-45.199655,0.001731,
2056,3253,-4.49253727608908,13.147555790084,0.0552325727657035,0.004283,-0.048613,0.010210,0.152637,-2.168820,312.145452,22.001594,0.999747,0.995246,0.002968,0.406026,-0.000002,0.000045,-0.000060,0.000086,-0.000042,-55.731850,0.000086,
2041,3268,-4.82047939539241,13.4715145097698,0.0471206566100477,0.004216,-0.048471,0.012572,0.143529,-2.159221,311.911570,21.904978,0.999661,0.994205,0.002992,0.423494,-0.000003,0.000046,-0.000060,0.000086,-0.000044,-56.260389,0.000086,
2236,2623,-0.487202310829648,-0.523146642968001,-0.015607195774578,0.001390,-0.049807,0.002204,0.038433,-2.244538,320.984530,21.983243,0.999090,0.985166,0.004799,0.439118,0.000082,0.000060,0.000005,0.000083,0.000059,11.343726,0.000143,
2011,3268,-5.46936701473389,13.4679696614388,0.058072608345924,0.004148,-0.048024,0.011193,0.145591,-2.137175,312.195622,21.696759,0.999841,0.995839,0.002732,0.490211,0.000015,0.000050,-0.000050,0.000085,-0.000021,-54.721052,0.000089,
2311,2863,1.10275436671747,4.70494743705446,-0.0033901840810131,0.002699,-0.049801,0.006048,0.084160,-2.225682,317.119099,22.446110,0.999677,0.991878,0.003694,0.445841,0.000017,0.000021,0.000012,0.000031,0.000007,50.025041,0.000040,
2446,2353,4.14256089214939,-6.41991104371019,0.00142082293979229,0.001759,-0.051702,-0.008391,0.090129,-2.353864,325.534367,20.690418,0.999260,0.981271,0.005416,0.471446,0.000414,0.000292,-0.000040,0.000426,0.000281,-16.562320,0.000712,
2266,2728,0.146829450290301,1.76623923680658,-0.0185945278024064,0.002028,-0.049834,0.007452,0.049841,-2.217319,319.208534,22.160255,0.999455,0.990656,0.003866,0.444677,0.000039,0.000059,0.000002,0.000059,0.000039,83.594055,0.000099,
2161,2158,-2.04643123601276,-10.6804476202856,-0.0489016227017487,-0.002166,-0.051664,-0.014285,-0.073471,-2.413690,328.319585,21.763372,0.999785,0.947512,0.008251,0.194357,0.000692,0.000675,0.000066,0.000750,0.000617,41.464298,0.001369,
2281,2773,0.465236437066846,2.74588653794353,-0.0163287354804993,0.002027,-0.050296,0.005819,0.054667,-2.245823,318.478742,22.227564,0.999217,0.987915,0.004305,0.434414,0.000026,0.000052,0.000009,0.000055,0.000023,73.182651,0.000080,
2221,2398,-0.774844028830184,-5.43365100867413,-0.0097658379734753,0.000289,-0.050149,-0.004556,0.009689,-2.253826,324.681585,21.732573,0.999608,0.991395,0.003852,0.393484,0.000259,0.000226,0.000006,0.000260,0.000225,9.939583,0.000486,
2086,1993,-3.65558658229006,-14.30811328521,0.0106830683677686,-0.006287,-0.054817,-0.019796,-0.248924,-2.561195,331.608973,21.851617,0.998786,0.983532,0.005294,0.338771,0.001151,0.000879,0.000128,0.001201,0.000828,21.610264,0.002041,
2101,3283,-3.52361649261502,13.801270198684,0.0373373966946247,0.004633,-0.048828,0.012891,0.159250,-2.178295,311.271385,22.161708,0.999693,0.996085,0.002847,0.474849,-0.000008,0.000021,-0.000045,0.000054,-0.000041,-54.095025,0.000056,
2431,2173,3.851501740741,-10.3651894175486,0.00959323498886988,0.001262,-0.053307,-0.014370,0.088544,-2.490435,328.486536,20.105428,0.999341,0.982699,0.005057,0.346123,0.000758,0.000717,-0.000089,0.000829,0.000646,-38.420209,0.001479,
2506,2923,5.33238789804093,6.02317708914349,-0.0213371256796222,0.002947,-0.050718,0.010073,0.074415,-2.249108,316.196044,22.990384,0.999345,0.986404,0.004349,0.406457,0.000002,-0.000014,0.000019,0.000015,-0.000026,33.158168,0.000026,
2026,3223,-5.13762629304118,12.4956782692687,0.0540347713552478,0.004248,-0.048181,0.010079,0.152663,-2.141663,312.807086,21.863044,0.999452,0.993187,0.003334,0.434857,-0.000009,0.000064,-0.000043,0.000084,-0.000029,-65.363856,0.000085,
2206,2353,-1.09461908381453,-6.41965356475598,-0.00434073742599139,-0.000706,-0.050925,-0.002624,-0.042292,-2.300056,325.441371,21.595515,0.999587,0.989187,0.004332,0.475461,0.000321,0.000271,0.000010,0.000323,0.000269,11.134350,0.000593,
2326,2938,1.41555007175689,6.33537466334504,0.00381404131991303,0.002951,-0.050346,0.008569,0.086427,-2.251586,315.949400,22.600365,0.998964,0.988137,0.004373,0.457646,0.000003,-0.000005,0.000006,0.000006,-0.000008,27.026300,0.000009,
2356,3058,2.04648198006224,8.94420530552562,0.0177665366339852,0.003589,-0.050337,0.011350,0.105165,-2.226131,314.117264,22.999628,0.999602,0.993009,0.003428,0.455206,-0.000016,0.000002,0.000011,0.000007,-0.000021,64.930372,0.000021,
2251,2623,-0.160786735752009,-0.523288031713903,-0.0154053119360924,0.001402,-0.050073,0.001966,0.039424,-2.231289,320.956978,21.901408,0.999029,0.986444,0.004626,0.521017,0.000076,0.000059,0.000002,0.000076,0.000058,6.287949,0.000135,
2476,2593,4.74624671663782,-1.17033298998808,-0.0169713434327718,0.001820,-0.050646,0.002730,0.051527,-2.255575,321.510697,21.617905,0.998252,0.982474,0.005163,0.462316,0.000175,0.000064,0.000004,0.000175,0.000064,2.184704,0.000247,
2011,3283,-5.47159527902134,13.7925314396276,0.0523909522910913,0.004545,-0.048465,0.010444,0.165797,-2.158204,311.923080,21.661623,0.999818,0.996031,0.002722,0.491004,0.000015,0.000048,-0.000046,0.000080,-0.000017,-54.872062,0.000084,
2146,2143,-2.36861154338574,-11.0170988193754,-0.00279580061624074,-0.002942,-0.051931,-0.015071,-0.107071,-2.409788,328.968504,21.568588,0.999357,0.981579,0.005320,0.462004,0.000721,0.000710,0.000072,0.000788,0.000643,42.751799,0.001433,
2386,3298,2.65136934458198,14.1546745805842,-0.00243651878867013,0.004710,-0.049992,0.014447,0.144594,-2.232163,310.061345,23.766640,0.999709,0.992560,0.003523,0.456585,0.000011,0.000000,-0.000013,0.000019,-0.000009,-33.378543,0.000019,
2041,3283,-4.82300202828265,13.7958454941788,0.0425642750385578,0.004311,-0.048611,0.011975,0.149525,-2.170391,311.634276,21.846454,0.999614,0.994133,0.003041,0.461913,-0.000007,0.000040,-0.000055,0.000076,-0.000044,-56.565440,0.000076,
2371,3133,2.35927172519625,10.5732966579404,0.0293767040781745,0.003856,-0.050108,0.011230,0.117351,-2.229972,313.001879,23.294753,0.999611,0.991840,0.003632,0.406994,0.000004,0.000010,0.000004,0.000012,0.000002,65.606128,0.000015,
2056,3268,-4.49538786529649,13.4722475459319,0.0502420530305585,0.004086,-0.048478,0.009374,0.145886,-2.174366,311.851716,21.964143,0.999715,0.995196,0.002927,0.431203,-0.000004,0.000040,-0.000062,0.000084,-0.000048,-54.906319,0.000084,
2296,2803,0.785613100264786,3.40080769336647,-0.0224931190664392,0.002147,-0.049811,0.006251,0.058554,-2.201437,317.924061,22.321682,0.999260,0.989502,0.004078,0.453445,0.000030,0.000032,0.000005,0.000036,0.000026,49.619139,0.000062,
2461,2533,4.43265100908615,-2.48190267758639,-0.00660506502930502,0.001944,-0.050556,-0.001864,0.074743,-2.290936,322.561376,21.432635,0.999375,0.988201,0.004222,0.408777,0.000217,0.000075,-0.000024,0.000221,0.000071,-9.395762,0.000304,
2131,2083,-2.68784894746114,-12.3322769674913,-0.00140359788224487,-0.004512,-0.053727,-0.010213,-0.194391,-2.473822,329.916296,21.642806,0.998448,0.979453,0.005747,0.373110,0.000853,0.000824,0.000074,0.000914,0.000763,39.519086,0.001679,
2341,3043,1.72313374733629,8.61684841323769,0.0151741179299734,0.003390,-0.050150,0.009142,0.104290,-2.233207,314.341611,22.858558,0.999623,0.992914,0.003495,0.502410,-0.000013,0.000004,0.000002,0.000004,-0.000014,82.093205,0.000014,
2026,3238,-5.13946175756447,12.8192455640621,0.0640454618089166,0.004142,-0.048446,0.009801,0.148451,-2.156374,312.642010,21.807180,0.999609,0.994466,0.003075,0.465018,-0.000004,0.000058,-0.000052,0.000088,-0.000034,-60.348957,0.000088,
2191,2278,-1.4086265110637,-8.0590912266747,-0.00750267660521331,-0.000823,-0.050876,-0.009343,-0.026532,-2.325812,326.682815,21.616442,0.998894,0.981684,0.005328,0.399575,0.000452,0.000396,0.000030,0.000465,0.000383,23.421956,0.000850,
2416,2143,3.52829808419756,-11.0218245074824,-0.000594688222975037,0.000891,-0.053445,-0.012438,0.064157,-2.463156,328.837534,20.045915,0.999225,0.980973,0.005246,0.412882,0.000824,0.000811,-0.000072,0.000890,0.000745,-42.447008,0.001637,
2176,2263,-1.73349939727814,-8.38741844088407,-0.00334070567930667,-0.001726,-0.050831,-0.010963,-0.063068,-2.317689,326.969319,21.682083,0.998937,0.980886,0.005488,0.391552,0.000484,0.000431,0.000040,0.000505,0.000410,28.222670,0.000916,
2491,2758,5.03904614201184,2.42847617124039,-0.0233805935657756,0.002349,-0.051071,0.007911,0.055528,-2.271217,318.812867,22.203686,0.999420,0.988284,0.004191,0.494694,0.000065,0.000068,0.000009,0.000075,0.000057,49.910197,0.000132,
2086,2008,-3.65764800595911,-13.9793084915862,0.0140625089031801,-0.006123,-0.054646,-0.017389,-0.248291,-2.530606,331.397351,21.835330,0.998842,0.986171,0.005172,0.388132,0.001094,0.000889,0.000125,0.001153,0.000830,25.272182,0.001992,
2041,3298,-4.82525342527907,14.1211588693512,0.0406227311279963,0.004562,-0.048400,0.012037,0.160983,-2.164172,311.383602,21.879485,0.999520,0.994652,0.003169,0.426045,-0.000008,0.000068,-0.000064,0.000105,-0.000045,-60.297089,0.000105,
2101,3298,-3.52673089652874,14.1262652970001,0.0318519794771532,0.004414,-0.048743,0.014053,0.145812,-2.161966,310.966258,22.138150,0.999521,0.994272,0.003242,0.514538,-0.000001,0.000048,-0.000052,0.000081,-0.000034,-57.715296,0.000081,
2401,1993,3.23188249654996,-14.3210123882528,0.0190069968202238,0.000829,-0.057106,-0.020347,0.088096,-2.670442,331.426754,19.465723,0.998283,0.966873,0.007015,0.380625,0.001188,0.001032,-0.000114,0.001249,0.000972,-27.807390,0.002226,
2011,3298,-5.47417511902399,14.1178108052518,0.0502191455552179,0.004509,-0.048026,0.011808,0.160500,-2.149421,311.653908,21.686321,0.999423,0.992730,0.003541,0.461530,0.000020,0.000069,-0.000053,0.000103,-0.000013,-57.520858,0.000112,
2446,2368,4.13909297338562,-6.09038386526925,-0.00314584273775154,0.001644,-0.051110,-0.008754,0.086469,-2.336480,325.248885,20.803930,0.999398,0.984843,0.004989,0.429541,0.000392,0.000280,-0.000038,0.000403,0.000268,-17.078278,0.000676,
2056,3283,-4.49805245506001,13.7969416490413,0.0450349745085532,0.004314,-0.048476,0.012176,0.148542,-2.163278,311.565324,21.913532,0.999699,0.995481,0.002892,0.485988,-0.000008,0.000036,-0.000058,0.000076,-0.000048,-55.312422,0.000077,
2236,2638,-0.489322477836286,-0.196523278064419,-0.0146967762855184,0.002006,-0.050088,0.004628,0.058761,-2.251649,320.769245,21.993043,0.999042,0.986597,0.004622,0.443881,0.000078,0.000054,0.000004,0.000078,0.000054,8.539171,0.000133,
2431,2188,3.84912088537258,-10.0359242878662,0.0152967337827477,0.001267,-0.052818,-0.016043,0.095113,-2.463423,328.297900,20.226703,0.999637,0.987698,0.004444,0.304120,0.000728,0.000693,-0.000079,0.000791,0.000629,-38.804807,0.001423,
2266,2743,0.144493946380113,2.09237742593383,-0.0164423251204084,0.002273,-0.049969,0.008147,0.058730,-2.229929,318.991802,22.173250,0.999231,0.987601,0.004266,0.444659,0.000034,0.000053,0.000003,0.000054,0.000033,80.379075,0.000087,
2506,2938,5.33070397964173,6.34839688020274,-0.00610072882079749,0.003025,-0.050507,0.009609,0.079901,-2.244983,316.084261,23.052524,0.999558,0.989516,0.003978,0.408712,-0.000002,-0.000016,0.000020,0.000012,-0.000030,35.385310,0.000030,
2311,2878,1.09943239364464,5.03204981660541,-0.0135257129462047,0.002710,-0.049817,0.003403,0.093706,-2.237181,316.799069,22.494417,0.999553,0.990552,0.003879,0.418154,0.000015,0.000018,0.000013,0.000030,0.000003,47.727339,0.000036,
2086,3208,-3.83531394299997,12.1746745732412,0.0529507151824191,0.004391,-0.048856,0.008677,0.160857,-2.195062,312.706877,22.107792,0.999522,0.993586,0.003282,0.439902,-0.000006,0.000038,-0.000033,0.000055,-0.000024,-61.864008,0.000055,
2146,2158,-2.3712736638453,-10.6865257500464,-0.00486897695395783,-0.002952,-0.051900,-0.013917,-0.111011,-2.392662,328.705167,21.722963,0.999639,0.966923,0.006433,0.335469,0.000694,0.000668,0.000070,0.000752,0.000610,39.771694,0.001364,
2281,2788,0.462957356252964,3.07228805351136,-0.0114438149936973,0.002254,-0.050237,0.007838,0.058430,-2.214946,318.279055,22.255611,0.999098,0.986690,0.004487,0.465051,0.000026,0.000048,0.000008,0.000050,0.000024,72.264096,0.000075,
2206,2368,-1.09714553950145,-6.0904899049676,-0.00986021212520427,-0.000356,-0.050433,-0.003594,-0.023024,-2.266419,325.171738,21.647352,0.999396,0.988075,0.004500,0.475918,0.000295,0.000255,0.000003,0.000295,0.000255,4.223617,0.000550,
2326,2953,1.41281116138811,6.66250736405664,0.00326673110930642,0.003059,-0.049863,0.008629,0.091442,-2.219032,315.704230,22.699124,0.999087,0.988419,0.004465,0.425293,0.000001,-0.000014,0.000006,0.000003,-0.000016,20.006206,0.000017,
2056,3298,-4.50056991381484,14.122420715655,0.0358385767442542,0.004659,-0.048123,0.010457,0.169388,-2.165617,311.263285,21.931530,0.999491,0.994046,0.003173,0.458840,-0.000007,0.000064,-0.000066,0.000103,-0.000047,-58.987645,0.000104,
2161,2173,-2.04968120383828,-10.3545046085201,-0.0547444544069435,-0.002176,-0.051810,-0.008025,-0.093104,-2.395739,328.011641,21.463739,0.999760,0.934313,0.008627,0.525036,0.000660,0.000646,0.000061,0.000715,0.000591,41.792569,0.001308,
2221,2413,-0.777329493738193,-5.10624497945988,-0.0075500139537894,0.000318,-0.049969,-0.003320,0.007172,-2.238307,324.455179,21.732103,0.999603,0.991027,0.003926,0.430088,0.000243,0.000197,-0.000001,0.000243,0.000197,-1.278420,0.000442,
2461,2548,4.42966158754406,-2.15321145549616,-0.00971636165326117,0.001954,-0.050043,-0.005392,0.088728,-2.270531,322.305007,21.543306,0.999722,0.992233,0.003631,0.374190,0.000205,0.000055,-0.000020,0.000207,0.000053,-7.326589,0.000275,
2056,1993,-4.31091648750561,-14.3071523516532,0.00780385904835157,-0.007053,-0.054275,-0.017688,-0.290760,-2.548512,331.699429,22.030954,0.998181,0.978789,0.005962,0.383374,0.001149,0.000895,0.000159,0.001226,0.000819,25.702365,0.002058,
2086,2023,-3.66122131471292,-13.647692894342,0.0012614382370657,-0.006460,-0.053957,-0.015361,-0.269418,-2.494132,331.028668,21.891577,0.998304,0.982867,0.005732,0.371837,0.001042,0.000825,0.000106,0.001085,0.000782,22.237914,0.001875,
2251,2638,-0.163642495452752,-0.195446183659811,-0.0180997002642584,0.001671,-0.050415,0.005754,0.039276,-2.241224,320.690574,21.995619,0.998706,0.986386,0.004582,0.440765,0.000071,0.000052,0.000001,0.000071,0.000052,1.769197,0.000124,
2026,1993,-4.96525420513348,-14.3051752332872,0.009354386728603,-0.007604,-0.052939,-0.021391,-0.306394,-2.490588,331.869075,22.308589,0.998674,0.981660,0.005557,0.374330,0.001106,0.000923,0.000189,0.001224,0.000805,32.107336,0.002044,
2476,2608,4.7424292685616,-0.842817148706892,-0.021640140464342,0.001340,-0.050706,0.001443,0.034361,-2.261986,321.210446,21.655070,0.998800,0.983898,0.004805,0.476095,0.000165,0.000054,0.000003,0.000166,0.000054,1.306421,0.000229,
2116,1993,-3.00171376822683,-14.3047963230512,-0.0114311751478908,-0.005327,-0.054777,-0.018915,-0.206479,-2.546892,331.327372,21.749602,0.999348,0.989837,0.004562,0.244738,0.001096,0.000881,0.000070,0.001117,0.000860,16.477585,0.001983,
2401,2008,3.22891620909002,-13.9897128839129,0.00875571071401282,0.001409,-0.056513,-0.022808,0.123740,-2.653525,331.134944,19.539346,0.998148,0.964597,0.007148,0.373438,0.001163,0.001020,-0.000096,0.001212,0.000972,-26.697014,0.002188,
2506,2953,5.32854688164972,6.67332703080792,0.00542041798485116,0.003059,-0.050855,0.010477,0.077881,-2.273153,315.934100,23.096381,0.999574,0.990183,0.003960,0.396955,0.000005,-0.000016,0.000024,0.000020,-0.000032,32.666906,0.000032,
2026,3253,-5.14266698388916,13.1447695159693,0.052520001452308,0.004034,-0.048359,0.010716,0.140862,-2.166927,312.292676,21.809462,0.999844,0.996011,0.002676,0.440623,0.000005,0.000062,-0.000060,0.000100,-0.000033,-57.826124,0.000102,
2416,2158,3.52556069635738,-10.6928701864508,-0.00543196718848549,0.001011,-0.053144,-0.018404,0.091543,-2.504195,328.582846,20.084785,0.999154,0.979911,0.005381,0.383416,0.000790,0.000749,-0.000075,0.000847,0.000692,-37.256821,0.001542,
2356,3073,2.04405305923561,9.26984704110453,0.0202775008497724,0.003619,-0.050027,0.008769,0.115688,-2.234237,313.903440,23.054015,0.999574,0.993041,0.003408,0.430336,-0.000012,0.000009,0.000011,0.000014,-0.000017,66.731889,0.000018,
2131,2098,-2.68953332164246,-12.0015062315579,-0.00792108463485874,-0.003607,-0.052745,-0.013786,-0.141974,-2.432313,329.672520,21.719436,0.998760,0.983929,0.005149,0.346867,0.000820,0.000796,0.000081,0.000890,0.000726,40.825827,0.001619,
2296,2818,0.783614769129546,3.72636530547321,-0.0182979441653401,0.002419,-0.049775,0.004104,0.078271,-2.229349,317.735092,22.334350,0.999461,0.990586,0.003864,0.442788,0.000027,0.000031,0.000003,0.000032,0.000025,62.575697,0.000058,
2371,3148,2.3568861279308,10.8983444046918,0.0355141788797368,0.003924,-0.050162,0.011927,0.117962,-2.233171,312.808361,23.329878,0.999637,0.990959,0.003663,0.408616,0.000005,0.000006,0.000003,0.000009,0.000002,48.708058,0.000011,
2341,3058,1.72024558740361,8.94227479572133,0.0130814958390033,0.003522,-0.050322,0.009594,0.108716,-2.240515,314.083388,22.858520,0.999623,0.993683,0.003291,0.531046,-0.000016,0.000000,0.000008,0.000003,-0.000019,68.454257,0.000021,
2071,1993,-3.98343635449597,-14.3067597244998,0.00533931206734906,-0.006554,-0.054447,-0.018221,-0.266002,-2.540149,331.623060,21.961407,0.998137,0.978579,0.005982,0.355930,0.001170,0.000887,0.000152,0.001236,0.000820,23.548933,0.002070,
2176,2278,-1.73550803011053,-8.06068202085173,0.00147203059680123,-0.001282,-0.051328,-0.006644,-0.056225,-2.337318,326.775218,21.636328,0.998647,0.980916,0.005537,0.431986,0.000461,0.000395,0.000034,0.000475,0.000380,23.056554,0.000857,
2056,2008,-4.31234336695275,-13.9792093105163,0.0162683036485873,-0.006489,-0.055176,-0.013120,-0.277962,-2.584600,331.542754,22.059927,0.998168,0.980643,0.005892,0.316205,0.001113,0.000892,0.000153,0.001191,0.000814,27.088491,0.002016,
2266,2758,0.141105200495442,2.42005775747164,-0.0264067274629838,0.002256,-0.049767,0.007594,0.059937,-2.205815,318.665279,22.199777,0.999205,0.988020,0.004270,0.467945,0.000028,0.000056,0.000004,0.000056,0.000027,82.900652,0.000085,
2431,2203,3.84572688884362,-9.70749479116631,0.0102483913413494,0.001445,-0.052394,-0.013622,0.094521,-2.433191,328.013097,20.160302,0.999391,0.984961,0.004934,0.453614,0.000686,0.000650,-0.000070,0.000741,0.000595,-37.798998,0.001339,
2446,2383,4.13581497226746,-5.76140669321961,-0.00262778765926441,0.001533,-0.050890,-0.006304,0.072381,-2.305746,324.995425,20.908541,0.999699,0.988116,0.004591,0.409806,0.000373,0.000242,-0.000050,0.000390,0.000225,-18.597039,0.000622,
2086,2038,-3.66267033868152,-13.3193975235183,0.000645031900489812,-0.005905,-0.053621,-0.020478,-0.229185,-2.491913,330.823611,21.823426,0.998592,0.982816,0.005552,0.444620,0.000999,0.000795,0.000104,0.001043,0.000751,22.757587,0.001802,
2026,2008,-4.96846951684778,-13.9752020403621,0.00172467538726551,-0.007639,-0.054067,-0.012326,-0.333198,-2.483297,331.538883,22.295845,0.998028,0.982686,0.005750,0.388817,0.001080,0.000902,0.000184,0.001196,0.000786,32.071266,0.001996,
2191,2293,-1.41089762721598,-7.73102031727225,-0.00407627254645604,-0.000567,-0.050817,-0.005828,-0.025733,-2.304474,326.470165,21.643199,0.998770,0.983117,0.005229,0.410648,0.000424,0.000378,0.000032,0.000441,0.000361,27.212308,0.000804,
2491,2773,5.03587383946654,2.75657856503487,-0.0237093039805245,0.002081,-0.050299,0.005478,0.052884,-2.246521,318.561968,22.352464,0.999041,0.986146,0.004544,0.429890,0.000058,0.000047,0.000005,0.000060,0.000045,20.917150,0.000106,
2461,2563,4.42517205765181,-1.82515973240172,-0.0224332732810808,0.002116,-0.050466,0.001556,0.069864,-2.259092,321.935882,21.525024,0.999268,0.988607,0.004391,0.459448,0.000189,0.000062,-0.000012,0.000191,0.000061,-5.143341,0.000262,
2401,2023,3.22476610060305,-13.6588494302903,0.00526869231765659,0.000750,-0.055500,-0.019103,0.080675,-2.602676,330.820408,19.623159,0.998251,0.970137,0.006740,0.390276,0.001126,0.001005,-0.000094,0.001177,0.000953,-28.616481,0.002134,
2146,2173,-2.37128571855609,-10.3631211246379,0.0293101631251034,-0.002612,-0.052048,-0.010697,-0.105189,-2.384275,328.755676,21.622073,0.999751,0.947244,0.007968,0.453849,0.000666,0.000641,0.000065,0.000721,0.000587,39.589143,0.001310,
2476,2623,4.73984722858786,-0.515222956973638,-0.0205953425871144,0.001736,-0.050777,0.001536,0.052151,-2.268772,320.992795,21.753774,0.999511,0.990607,0.003894,0.427811,0.000158,0.000024,-0.000002,0.000158,0.000024,-0.984446,0.000198,
2206,2383,-1.10033202327634,-5.76250443731574,-0.0124549835489347,-0.000667,-0.050509,-0.001588,-0.043649,-2.263667,324.887278,21.656404,0.999099,0.986548,0.004636,0.488376,0.000276,0.000237,0.000004,0.000276,0.000237,5.579585,0.000514,
2026,3268,-5.14559004384376,13.4698450038607,0.0417073496914213,0.004233,-0.048428,0.012735,0.144545,-2.155131,311.960457,21.757432,0.999838,0.996513,0.002598,0.493433,0.000007,0.000045,-0.000056,0.000086,-0.000033,-54.399875,0.000086,
2116,2008,-3.00434895811577,-13.9791608246048,-0.000978999728317831,-0.005948,-0.055375,-0.013335,-0.251613,-2.561312,331.130457,21.572388,0.999373,0.990871,0.004665,0.414352,0.001046,0.000899,0.000075,0.001077,0.000867,22.918631,0.001949,
2086,3223,-3.83764519516666,12.4995676318283,0.0566969670198887,0.004360,-0.048754,0.010236,0.154933,-2.186658,312.486981,22.113613,0.999479,0.992799,0.003526,0.440303,-0.000005,0.000033,-0.000040,0.000059,-0.000030,-57.803293,0.000059,
2236,2653,-0.49155906712399,0.130923441109779,-0.00529389683384807,0.001898,-0.049877,0.006912,0.046545,-2.220104,320.591529,22.115650,0.999338,0.989161,0.004303,0.374264,0.000076,0.000054,0.000003,0.000076,0.000053,8.171608,0.000130,
2281,2803,0.459799483733516,3.40006474897451,-0.0187953626000876,0.002345,-0.049804,0.007721,0.063160,-2.201635,317.977532,22.337226,0.999212,0.988442,0.004282,0.424730,0.000025,0.000035,0.000005,0.000037,0.000023,66.212844,0.000060,
2311,2893,1.09633958066848,5.35882272390532,-0.016347438063633,0.002646,-0.049980,0.003988,0.088694,-2.245604,316.525635,22.568307,0.999538,0.991319,0.003732,0.367632,0.000010,0.000009,0.000013,0.000022,-0.000004,43.457800,0.000024,
2296,2833,0.781302089382283,4.05257217046346,-0.0141562376780939,0.002394,-0.049696,0.002087,0.083980,-2.235953,317.531165,22.388867,0.999717,0.992918,0.003531,0.411501,0.000022,0.000027,0.000005,0.000030,0.000019,58.699065,0.000049,
2026,2023,-4.96990244087592,-13.6463320037413,0.00650100874810278,-0.007196,-0.053038,-0.012387,-0.312406,-2.438639,331.358832,22.291854,0.997912,0.981865,0.005922,0.430896,0.001035,0.000780,0.000156,0.001109,0.000706,25.372332,0.001830,
2326,2968,1.40998959040795,6.98976818888332,0.000153960011061827,0.003112,-0.049352,0.006477,0.101559,-2.197023,315.442621,22.806731,0.999701,0.995131,0.003045,0.373400,-0.000006,-0.000013,0.000007,-0.000001,-0.000017,31.854759,0.000021,
2506,2968,5.32550436195771,6.99987058752674,0.00410213558410533,0.003037,-0.050471,0.008268,0.085634,-2.260406,315.685130,23.161630,0.999519,0.989699,0.004136,0.405133,0.000009,-0.000009,0.000031,0.000032,-0.000032,36.701741,0.000037,
2071,2008,-3.98563766141343,-13.97703239963,0.00342471327786598,-0.006154,-0.054855,-0.014757,-0.257625,-2.549479,331.375091,22.008777,0.998326,0.982474,0.005558,0.299735,0.001123,0.000891,0.000145,0.001193,0.000821,25.672460,0.002026,
2371,3163,2.35412043063269,11.223093794603,0.0375149071859369,0.003821,-0.050343,0.011185,0.115839,-2.236769,312.577541,23.316070,0.999542,0.991483,0.003696,0.458818,0.000005,0.000010,0.000003,0.000011,0.000004,66.076682,0.000015,
2161,2188,-2.04920578761701,-10.0327238067162,-0.00866381639298197,-0.002517,-0.051371,-0.010306,-0.101644,-2.360357,328.147207,21.319820,0.999710,0.915239,0.009451,0.715117,0.000623,0.000618,0.000058,0.000679,0.000562,43.679838,0.001243,
2251,2653,-0.166255280090315,0.131176363080371,-0.0143222940765781,0.001491,-0.050326,0.006426,0.028829,-2.231527,320.468255,22.017737,0.999246,0.989039,0.004227,0.452136,0.000069,0.000052,-0.000001,0.000069,0.000052,-3.026497,0.000121,
2416,2173,3.52209972028237,-10.3632453056851,-0.00990198316725355,0.001175,-0.053244,-0.014491,0.084752,-2.478672,328.296231,20.128443,0.998825,0.980674,0.005258,0.416113,0.000750,0.000714,-0.000075,0.000808,0.000655,-38.240974,0.001466,
2056,2023,-4.314764505376,-13.6472485439428,0.00444790805710227,-0.006182,-0.053661,-0.017025,-0.252576,-2.505699,331.228224,22.115407,0.998331,0.983136,0.005540,0.338169,0.001066,0.000799,0.000131,0.001119,0.000745,22.252729,0.001877,
2026,3283,-5.14715083566705,13.794377632711,0.0481160987415592,0.004578,-0.048575,0.011644,0.163429,-2.162782,311.787501,21.773649,0.999793,0.996108,0.002703,0.458318,0.000011,0.000038,-0.000050,0.000077,-0.000028,-52.467816,0.000078,
2401,2038,3.22181816105779,-13.329729901376,0.00899904453791578,0.000679,-0.055343,-0.015885,0.065832,-2.560286,330.594874,19.643436,0.998127,0.972318,0.006599,0.461608,0.001079,0.000984,-0.000086,0.001130,0.000933,-30.523086,0.002067,
2221,2428,-0.779133950150861,-4.78240494690054,0.00270757098206786,0.000247,-0.049749,-0.004931,0.009056,-2.272494,324.302037,21.535320,0.999626,0.990181,0.004069,0.612748,0.000227,0.000161,0.000000,0.000227,0.000161,0.176985,0.000390,
2086,2053,-3.66328152286203,-12.9901535895916,0.0104255403363709,-0.004692,-0.053218,-0.018231,-0.179904,-2.464517,330.712818,21.937966,0.998239,0.979594,0.005791,0.359093,0.000957,0.000795,0.000103,0.001007,0.000745,25.791361,0.001759,
2356,3088,2.04143439948171,9.59535771991655,0.0256109239065268,0.003585,-0.050085,0.010633,0.107539,-2.233179,313.694504,23.108845,0.999551,0.992232,0.003555,0.414344,-0.000010,0.000002,0.000003,0.000003,-0.000011,78.438144,0.000011,
2116,2023,-3.00643055380359,-13.6489348303714,0.00295955473694676,-0.005840,-0.054438,-0.011954,-0.250417,-2.514774,330.922985,21.682579,0.999182,0.984297,0.005565,0.357615,0.001002,0.000861,0.000064,0.001026,0.000837,21.108320,0.001866,
2131,2113,-2.69164623672712,-11.6740622672962,-0.00126981098975421,-0.003598,-0.053175,-0.011168,-0.149516,-2.440566,329.479949,21.692286,0.998917,0.983412,0.005210,0.374193,0.000790,0.000773,0.000084,0.000866,0.000697,42.156631,0.001566,
2461,2578,4.42069903365826,-1.49735900354129,-0.0297827804747044,0.001653,-0.050686,0.006100,0.031450,-2.253672,321.591987,21.543275,0.999457,0.991448,0.004205,0.502337,0.000176,0.000064,-0.000013,0.000177,0.000062,-6.457533,0.000249,
2176,2293,-1.73737767881972,-7.73140339424631,-0.000172875113662485,-0.000627,-0.050865,-0.007903,-0.022091,-2.320599,326.553145,21.726013,0.998600,0.982881,0.005337,0.373259,0.000435,0.000376,0.000036,0.000452,0.000359,25.600057,0.000813,
2026,2038,-4.97183083520357,-13.3186750443484,0.0127079765402414,-0.007286,-0.052958,-0.011673,-0.318495,-2.448359,331.164678,22.252611,0.998143,0.980079,0.005816,0.453816,0.001000,0.000728,0.000149,0.001066,0.000663,23.813455,0.001744,
2086,3238,-3.84064726673386,12.8248449373745,0.0511937112295868,0.004347,-0.048942,0.013433,0.145061,-2.181687,312.185618,22.109199,0.999611,0.993713,0.003245,0.447181,-0.000004,0.000025,-0.000045,0.000058,-0.000037,-53.837266,0.000059,
2476,2638,4.73674570824432,-0.18824916192699,-0.023699790367516,0.001824,-0.050573,0.000112,0.061724,-2.258556,320.732435,21.747974,0.999634,0.990505,0.003784,0.501220,0.000146,0.000045,-0.000013,0.000148,0.000043,-7.154258,0.000200,
2431,2218,3.84330381889088,-9.37906567143996,0.0143638556577912,0.001691,-0.052286,-0.013306,0.104687,-2.431754,327.815262,20.223945,0.999288,0.985391,0.004998,0.443816,0.000654,0.000606,-0.000062,0.000697,0.000564,-34.462560,0.001263,
2341,3073,1.71743064599613,9.26894536736277,0.0155132742426076,0.003360,-0.050263,0.009687,0.100960,-2.241294,313.850089,23.000052,0.999629,0.993872,0.003211,0.424124,-0.000013,0.000007,0.000009,0.000010,-0.000017,68.693051,0.000017,
2446,2398,4.13187763685167,-5.4336431712663,-0.0082317412844759,0.001405,-0.051469,-0.002030,0.050387,-2.315456,324.683812,20.888808,0.999649,0.987279,0.004698,0.473752,0.000349,0.000226,-0.000041,0.000362,0.000213,-16.877714,0.000581,
2491,2788,5.03316027725144,3.08369207543988,-0.0261372805738347,0.002441,-0.050281,0.002997,0.078929,-2.266320,318.322943,22.442908,0.999197,0.987246,0.004381,0.378540,0.000051,0.000036,0.000001,0.000051,0.000036,5.050401,0.000087,
2506,2983,5.32229255146077,7.32603416961027,0.00157646755673113,0.003121,-0.050475,0.008091,0.090205,-2.245894,315.422961,23.186212,0.999285,0.988476,0.004260,0.455663,0.000007,-0.000005,0.000034,0.000035,-0.000033,39.700630,0.000039,
2236,2668,-0.494173155018931,0.45771099561621,-0.00826914919673527,0.001673,-0.049213,0.000560,0.056983,-2.207969,320.333663,22.097474,0.999392,0.990340,0.004051,0.426203,0.000073,0.000061,-0.000002,0.000074,0.000061,-8.590272,0.000135,
2056,2038,-4.31729448382241,-13.3168935521757,-0.00222365920956236,-0.006208,-0.052293,-0.019281,-0.247043,-2.445634,330.937331,22.108547,0.998085,0.980471,0.005779,0.403614,0.001024,0.000759,0.000129,0.001076,0.000706,22.163997,0.001795,
2026,3298,-5.14999467044175,14.1193933963102,0.0435730718594414,0.004339,-0.048244,0.011223,0.153543,-2.165407,311.494109,21.773367,0.999411,0.993659,0.003341,0.444532,0.000018,0.000065,-0.000058,0.000104,-0.000021,-56.099283,0.000110,
2146,2188,-2.37429037201499,-10.0337157287853,0.0211282887482866,-0.002714,-0.051396,-0.011697,-0.106696,-2.350048,328.444556,21.597242,0.999220,0.955155,0.007172,0.524019,0.000634,0.000616,0.000065,0.000690,0.000560,41.056992,0.001252,
2206,2398,-1.10184068202941,-5.434425827266,-0.0104422858794919,0.000059,-0.050246,-0.004284,-0.001712,-2.247956,324.703286,21.710237,0.999365,0.988929,0.004315,0.468156,0.000261,0.000219,0.000000,0.000261,0.000219,0.296073,0.000481,
2326,2983,1.4074500722065,7.31400198725176,0.00582962042290092,0.003075,-0.049902,0.008265,0.093426,-2.219654,315.237927,22.745104,0.999910,0.997046,0.002612,0.446271,-0.000003,-0.000009,0.000008,0.000003,-0.000015,35.221783,0.000015,
2161,2203,-2.05158727367047,-9.70090142773044,-0.00865228495013071,-0.002372,-0.051802,-0.009730,-0.096944,-2.367108,327.908827,21.650868,0.998700,0.961494,0.006791,0.389788,0.000593,0.000588,0.000057,0.000647,0.000533,43.920160,0.001183,
2401,2053,3.21866984518427,-12.9981943236431,0.00388055918267582,0.001060,-0.055628,-0.013581,0.074871,-2.549697,330.318588,19.821906,0.998469,0.975745,0.006392,0.342889,0.001042,0.000977,-0.000083,0.001098,0.000921,-34.240727,0.002022,
2296,2848,0.778536272621363,4.37780619751277,-0.010576667700434,0.002399,-0.049753,0.006093,0.070637,-2.222447,317.303832,22.333529,0.999701,0.992759,0.003593,0.509990,0.000022,0.000020,0.000008,0.000029,0.000012,41.722740,0.000043,
2071,2023,-3.98833780123138,-13.6472879276937,-0.000458180028658717,-0.006384,-0.053928,-0.015266,-0.266542,-2.488825,331.093249,21.971678,0.998401,0.982992,0.005533,0.398103,0.001075,0.000813,0.000124,0.001124,0.000763,21.766286,0.001899,
2311,2908,1.09422517130378,5.68372824848822,-0.00281960809576276,0.002452,-0.050056,0.006161,0.072300,-2.242690,316.378225,22.581518,0.999561,0.992265,0.003654,0.388742,0.000008,0.000002,0.000012,0.000017,-0.000007,37.644759,0.000017,
2026,2053,-4.97366574577675,-12.9878480736975,0.0136960595517053,-0.006948,-0.053286,-0.011072,-0.304786,-2.458881,330.945273,22.449045,0.999576,0.992386,0.003814,0.240299,0.000969,0.000750,0.000144,0.001040,0.000679,26.279548,0.001732,
2191,2308,-1.41365516687435,-7.4034430972669,-0.00520334148927759,-0.000902,-0.050620,-0.008368,-0.033126,-2.306972,326.211841,21.607862,0.998574,0.983146,0.005297,0.460126,0.000401,0.000337,0.000027,0.000411,0.000328,20.081806,0.000740,
2086,2068,-3.66687508828535,-12.660170253288,-0.00192141984570071,-0.005159,-0.053037,-0.017455,-0.203517,-2.469430,330.346139,21.911353,0.998273,0.960210,0.007808,0.383727,0.000919,0.000803,0.000110,0.000985,0.000737,30.972698,0.001728,
2266,2773,0.13871971809683,2.74604822788797,-0.0177079199130503,0.002070,-0.050009,0.009520,0.044883,-2.212321,318.479123,22.253654,0.999162,0.987213,0.004345,0.432994,0.000023,0.000051,0.000001,0.000051,0.000023,87.690928,0.000076,
2116,2038,-3.00841623507346,-13.3203307090331,-0.00337862041880044,-0.005362,-0.054253,-0.016503,-0.215122,-2.507787,330.665421,21.574071,0.998999,0.983079,0.005494,0.480018,0.000964,0.000838,0.000065,0.000992,0.000810,22.806244,0.001805,
2461,2593,4.41915773254457,-1.17153285537,-0.0172124283906783,0.001942,-0.051076,0.004193,0.051724,-2.284216,321.474224,21.594501,0.999014,0.987520,0.004584,0.475219,0.000166,0.000064,-0.000003,0.000166,0.000064,-1.904324,0.000237,
2251,2668,-0.168944572833322,0.457944314564052,-0.0157681724706435,0.001461,-0.050166,0.005036,0.032076,-2.229462,320.215965,22.021419,0.999435,0.990732,0.003952,0.474431,0.000066,0.000062,-0.000007,0.000071,0.000057,-36.297903,0.000128,
2371,3178,2.35116296169962,11.5486575534975,0.0364143891802655,0.004006,-0.050305,0.013478,0.116152,-2.237852,312.322677,23.360018,0.999591,0.991792,0.003530,0.453584,0.000007,0.000013,0.000000,0.000013,0.000007,-89.577588,0.000020,
2416,2188,3.520385363016,-10.0343489304592,0.00595321757020884,0.000958,-0.052301,-0.016788,0.083553,-2.432189,328.184289,20.304892,0.999176,0.983185,0.005088,0.336204,0.000717,0.000691,-0.000066,0.000772,0.000636,-39.385684,0.001410,
2086,3253,-3.84284372997764,13.1494482504325,0.0569300866158073,0.004374,-0.048803,0.015704,0.139765,-2.169190,311.982925,22.102453,0.999732,0.994558,0.003059,0.464112,-0.000002,0.000028,-0.000049,0.000065,-0.000038,-53.374879,0.000065,
2281,2818,0.45796481277722,3.7251597723121,-0.0105116883028131,0.002408,-0.049755,0.004861,0.075576,-2.223849,317.815631,22.332376,0.999330,0.989716,0.003943,0.434606,0.000022,0.000035,0.000003,0.000035,0.000021,75.909011,0.000057,
2491,2803,5.02995651140673,3.40996426401433,-0.0248566235990211,0.002366,-0.050471,0.004925,0.068053,-2.256144,318.078107,22.459458,0.999155,0.986623,0.004639,0.431073,0.000045,0.000014,0.000003,0.000045,0.000014,4.940580,0.000062,
2041,1993,-4.63887458590451,-14.3059671369634,0.00498669520487738,-0.007779,-0.053900,-0.017853,-0.323928,-2.518363,331.727107,22.145519,0.998255,0.980654,0.005821,0.404761,0.001117,0.000913,0.000178,0.001220,0.000810,30.112992,0.002044,
2056,2053,-4.31843464599518,-12.9870985471174,-0.00787230154878671,-0.005040,-0.051537,-0.023783,-0.180606,-2.458617,330.715956,22.141030,0.997231,0.975153,0.006441,0.356179,0.000981,0.000770,0.000125,0.001039,0.000712,24.882544,0.001761,
2476,2653,4.73395249972908,0.138630060379157,-0.0188712552121615,0.001956,-0.050721,0.003407,0.055209,-2.261586,320.522200,21.818459,0.999606,0.990288,0.003839,0.484834,0.000137,0.000059,-0.000009,0.000138,0.000058,-6.378660,0.000201,
2131,2128,-2.69325561851629,-11.3458521720529,-0.00141648526027893,-0.002747,-0.053259,-0.010229,-0.113330,-2.468287,329.274233,21.685153,0.998651,0.980132,0.005567,0.361920,0.000758,0.000746,0.000084,0.000836,0.000668,42.939922,0.001507,
2341,3088,1.71436212696652,9.59432867006632,0.0141422763990704,0.003420,-0.050494,0.012277,0.094599,-2.250960,313.586982,23.011337,0.999619,0.993953,0.003178,0.438903,-0.000011,-0.000001,0.000000,-0.000001,-0.000011,-88.515799,0.000013,
2071,2038,-3.99004531438019,-13.3174889900885,-0.00133899111904157,-0.006141,-0.052279,-0.021118,-0.238284,-2.438954,330.873118,21.989843,0.998642,0.983489,0.005301,0.430052,0.001030,0.000777,0.000121,0.001079,0.000728,21.842193,0.001819,
2176,2308,-1.74049544210298,-7.40360065393321,0.00145637652798314,-0.001305,-0.050599,-0.007053,-0.055789,-2.292762,326.291271,21.708117,0.998543,0.982384,0.005377,0.433562,0.000410,0.000335,0.000027,0.000418,0.000327,18.081809,0.000747,
2506,2998,5.31945149109086,7.65220581490353,0.00448348119505226,0.003132,-0.050496,0.008123,0.090631,-2.246981,315.202121,23.268501,0.999424,0.989956,0.003938,0.432469,0.000007,-0.000017,0.000038,0.000035,-0.000045,36.312088,0.000047,
2221,2443,-0.782051287848855,-4.45262243857928,-0.00315894912978365,0.000647,-0.050791,-0.000660,0.013443,-2.293356,324.014085,21.721648,0.999165,0.987345,0.004629,0.425917,0.000213,0.000159,0.000005,0.000214,0.000159,5.035435,0.000374,
2401,2068,3.21481458794337,-12.668604977005,-0.00943855536041838,0.000889,-0.055149,-0.017192,0.080270,-2.564530,329.971666,19.763499,0.998977,0.978119,0.006330,0.435694,0.001003,0.000955,-0.000074,0.001057,0.000901,-36.167375,0.001960,
2356,3103,2.03873447729645,9.92145168761592,0.0229624601581122,0.003859,-0.049946,0.009539,0.123979,-2.241719,313.443032,23.179977,0.999592,0.991808,0.003683,0.372606,-0.000006,0.000005,0.000003,0.000006,-0.000006,74.631623,0.000007,
2116,2053,-3.00991976370363,-12.990258033987,-0.000755889859476611,-0.004560,-0.053436,-0.014707,-0.183400,-2.474282,330.477408,21.679150,0.998510,0.979138,0.005616,0.415076,0.000927,0.000832,0.000067,0.000962,0.000798,27.340905,0.001762,
2041,2008,-4.64193248061675,-13.9747254192252,0.00191732550717916,-0.008146,-0.053455,-0.013031,-0.354026,-2.482370,331.430435,22.271995,0.997033,0.979878,0.006255,0.310644,0.001088,0.000902,0.000171,0.001190,0.000800,30.781056,0.002003,
2086,3268,-3.84561362726074,13.4752278310041,0.0434074006200831,0.004586,-0.048472,0.010705,0.164151,-2.166762,311.648202,22.110754,0.999700,0.995300,0.002951,0.455918,-0.000002,0.000026,-0.000056,0.000070,-0.000046,-52.151585,0.000071,
2446,2413,4.12997931273654,-5.10551189961741,-0.00361668007451499,0.002052,-0.051089,-0.003046,0.083946,-2.293539,324.512526,20.973838,0.999660,0.987844,0.004685,0.464226,0.000328,0.000216,-0.000032,0.000336,0.000208,-14.873576,0.000549,
2326,2998,1.40496806694057,7.63926949176056,0.0110806851103007,0.003056,-0.049947,0.009071,0.089754,-2.219636,315.033426,22.756467,0.999748,0.994987,0.003068,0.468575,-0.000004,0.000000,0.000006,0.000005,-0.000009,52.807783,0.000009,
2461,2608,4.41643658941603,-0.844145284900428,-0.0146697205045143,0.001882,-0.050927,0.002272,0.056287,-2.265014,321.255922,21.656087,0.998750,0.984098,0.004978,0.487975,0.000157,0.000056,-0.000005,0.000157,0.000056,-2.758287,0.000220,
2236,2683,-0.497307637821898,0.784341224835259,-0.0137479989931535,0.001713,-0.049564,0.002758,0.051576,-2.224164,320.039254,22.077550,0.999319,0.988857,0.004183,0.451610,0.000068,0.000063,-0.000002,0.000069,0.000063,-19.958782,0.000131,
2371,3193,2.34887459503928,11.8739476731285,0.0410834298925806,0.004090,-0.050102,0.011648,0.126608,-2.240687,312.126354,23.418292,0.999502,0.992050,0.003565,0.432173,0.000009,0.000010,-0.000001,0.000011,0.000008,-50.357519,0.000019,
2146,2203,-2.37858874080246,-9.70096630463375,-0.00970145603747596,-0.002478,-0.051792,-0.011048,-0.097947,-2.383374,327.954348,21.714332,0.998341,0.975547,0.006019,0.385134,0.000604,0.000588,0.000062,0.000658,0.000533,41.349910,0.001193,
2491,2818,5.0276360468851,3.73593822339818,-0.0193731685951661,0.002803,-0.050450,0.006658,0.081492,-2.241210,317.892850,22.479988,0.999249,0.987851,0.004539,0.483930,0.000035,-0.000001,0.000009,0.000037,-0.000003,13.018900,0.000041,
2431,2233,3.83921544226271,-9.04839954815242,0.00867222189691574,0.001298,-0.052200,-0.010297,0.075672,-2.414139,327.495313,20.379355,0.999016,0.982343,0.005376,0.358911,0.000623,0.000559,-0.000055,0.000654,0.000527,-29.846074,0.001184,
2086,2083,-3.6716031933733,-12.326337557718,-0.0354425347178449,-0.005137,-0.052659,-0.012418,-0.216935,-2.421450,329.811989,21.956695,0.998466,0.947352,0.009248,0.390506,0.000880,0.000794,0.000112,0.000957,0.000717,34.528556,0.001680,
2056,2068,-4.32127833150218,-12.6584684310055,-0.000762347061368018,-0.005487,-0.052235,-0.014149,-0.228414,-2.425501,330.486795,22.169634,0.998236,0.978058,0.005816,0.358567,0.000941,0.000788,0.000129,0.001014,0.000714,29.661132,0.001737,
2416,2203,3.51704397939066,-9.70668872179678,0.00388833661173749,0.001057,-0.052621,-0.012599,0.072682,-2.432138,327.914567,20.230185,0.999095,0.981632,0.005425,0.461270,0.000677,0.000650,-0.000059,0.000724,0.000602,-38.559767,0.001328,
2071,2053,-3.99153173565748,-12.988931322815,0.00339051536025181,-0.005497,-0.052314,-0.018543,-0.216055,-2.448998,330.694200,22.022866,0.997973,0.975814,0.006207,0.386859,0.000986,0.000782,0.000116,0.001039,0.000729,24.386631,0.001776,
2266,2788,0.136635109756071,3.0723173885271,-0.0173936548305278,0.002410,-0.049658,0.006201,0.071649,-2.207003,318.264498,22.259370,0.999230,0.987608,0.004387,0.458261,0.000022,0.000047,0.000001,0.000047,0.000022,87.433688,0.000071,
2071,2083,-3.99807073173628,-12.3290794989847,-0.00887991055083148,-0.006166,-0.052901,-0.009628,-0.272345,-2.418282,330.054474,22.063174,0.998272,0.967343,0.006993,0.378305,0.000901,0.000787,0.000120,0.000977,0.000711,32.300887,0.001695,
2191,2323,-1.41622155617673,-7.07537614580603,-0.00486099081962266,-0.000948,-0.050333,-0.008055,-0.036093,-2.290497,325.969689,21.618160,0.998913,0.984811,0.004944,0.482757,0.000379,0.000304,0.000018,0.000383,0.000300,12.496203,0.000685,
2206,2413,-1.10290357906239,-5.106848819898,0.00997284885482941,0.000405,-0.049549,-0.000477,0.002375,-2.204332,324.634503,21.869934,0.999628,0.991725,0.003869,0.369912,0.000248,0.000189,-0.000005,0.000248,0.000188,-4.915063,0.000438,
2311,2923,1.09162019443337,6.00949185307927,-0.00668164453304598,0.002846,-0.049683,0.005394,0.093204,-2.236713,316.122270,22.548853,0.999197,0.990302,0.003976,0.459337,0.000005,-0.000002,0.000007,0.000009,-0.000006,31.333663,0.000009,
2041,2023,-4.64268409602819,-13.6463158545148,0.00194996460021457,-0.006995,-0.052984,-0.017832,-0.287804,-2.477141,331.256723,22.211964,0.997202,0.979574,0.006234,0.371450,0.001045,0.000794,0.000145,0.001111,0.000727,24.550912,0.001851,
2506,3013,5.31666467357308,7.97823330768711,0.00727157138692291,0.003179,-0.050303,0.007832,0.093952,-2.251368,314.983202,23.343721,0.999500,0.990893,0.003694,0.413279,0.000009,-0.000025,0.000033,0.000029,-0.000045,31.534708,0.000046,
2461,2623,4.41273959862716,-0.515195276108869,-0.0228462998272789,0.001893,-0.050510,0.002263,0.056973,-2.261645,320.943447,21.789878,0.999298,0.988060,0.004300,0.412859,0.000151,0.000033,-0.000007,0.000151,0.000032,-3.616808,0.000196,
2296,2863,0.775709906030833,4.7051309280652,-0.0129545783884737,0.002443,-0.049924,0.005339,0.075191,-2.224747,317.043562,22.445818,0.999628,0.992616,0.003586,0.425049,0.000022,0.000020,0.000009,0.000030,0.000012,41.921631,0.000044,
2086,3283,-3.84846212152805,13.7999068227797,0.0443932706361352,0.004249,-0.048757,0.012724,0.142671,-2.171569,311.389597,22.109538,0.999543,0.994878,0.003056,0.449733,-0.000002,0.000026,-0.000054,0.000068,-0.000044,-52.386740,0.000069,
2476,2668,4.73094080314489,0.465684787179612,-0.0252301155787791,0.002346,-0.050324,0.001282,0.081320,-2.251389,320.251031,21.802567,0.999421,0.987380,0.004281,0.568217,0.000128,0.000045,-0.000009,0.000129,0.000044,-5.985667,0.000179,
2161,2218,-2.0534173893171,-9.37248744470198,-0.00425271186924192,-0.002001,-0.051349,-0.009151,-0.081515,-2.362881,327.719232,21.710815,0.998449,0.979323,0.005680,0.346639,0.000558,0.000550,0.000058,0.000612,0.000496,43.004785,0.001110,
2116,2068,-3.01204220062283,-12.6612998286148,0.000296864922404438,-0.004404,-0.053283,-0.014869,-0.175731,-2.481517,330.253145,21.711168,0.998370,0.970097,0.006720,0.382465,0.000894,0.000836,0.000077,0.000947,0.000783,34.771253,0.001732,
2251,2683,-0.17140000903321,0.784317902541865,-0.0170832415136033,0.001492,-0.050078,0.001358,0.045556,-2.243555,319.975176,22.010871,0.999390,0.990544,0.003924,0.494471,0.000061,0.000064,-0.000008,0.000071,0.000055,-51.681151,0.000126,
2176,2323,-1.74342657486667,-7.07462582887634,-0.0120748262655752,-0.001141,-0.049996,-0.011730,-0.033588,-2.280690,325.958652,21.667461,0.998439,0.981667,0.005451,0.500751,0.000387,0.000300,0.000016,0.000390,0.000297,9.938583,0.000689,
2131,2143,-2.69633540049191,-11.0159142393978,-0.00707880301831665,-0.003330,-0.051884,-0.014288,-0.127507,-2.407680,328.971281,21.693893,0.998849,0.982306,0.005381,0.422789,0.000726,0.000705,0.000087,0.000803,0.000628,41.623980,0.001434,
2086,2098,-3.67269670022147,-11.9975180144167,-0.0197482630886157,-0.004897,-0.051921,-0.012101,-0.206627,-2.375695,329.711229,22.096080,0.998580,0.965694,0.007248,0.298165,0.000842,0.000770,0.000120,0.000932,0.000680,36.592719,0.001619,
2491,2833,5.02449924322844,4.06226019792785,-0.0198535078279747,0.002635,-0.050504,0.004922,0.080365,-2.265556,317.643050,22.530444,0.999242,0.988684,0.004313,0.467910,0.000033,0.000005,0.000013,0.000038,0.000000,21.949064,0.000044,
2056,2083,-4.32434727777444,-12.3287592309043,-0.00648107790277663,-0.005685,-0.052574,-0.009712,-0.250103,-2.428126,330.177002,22.195233,0.998549,0.980625,0.005482,0.328572,0.000901,0.000783,0.000130,0.000984,0.000699,32.753175,0.001692,
2401,2083,3.21340224917171,-12.3397018541008,0.00525292884361761,0.001163,-0.054433,-0.018051,0.096196,-2.541495,329.867826,19.920876,0.998446,0.975359,0.006487,0.349387,0.000965,0.000938,-0.000069,0.001022,0.000881,-39.534149,0.001904,
2071,2068,-3.99263325842755,-12.6608766192743,0.0184841898310424,-0.005093,-0.052429,-0.015706,-0.205641,-2.447091,330.589375,22.117841,0.997782,0.965019,0.007295,0.293399,0.000944,0.000793,0.000120,0.001010,0.000727,28.928784,0.001745,
2086,3298,-3.85177467382974,14.1250572577135,0.0331593270792041,0.004121,-0.048768,0.013169,0.135450,-2.175817,311.042690,22.089037,0.999523,0.994328,0.003133,0.463426,0.000005,0.000054,-0.000062,0.000097,-0.000037,-55.681630,0.000098,
2326,3013,1.40252736791572,7.96511293393029,0.0115968020841137,0.003325,-0.050063,0.008367,0.104473,-2.236564,314.807435,22.809320,0.999324,0.989309,0.003998,0.432410,-0.000005,0.000002,0.000007,0.000006,-0.000010,58.303528,0.000010,
2356,3118,2.03636350470036,10.2459794790264,0.0296918540520323,0.003824,-0.049902,0.009601,0.122177,-2.239005,313.252460,23.158222,0.999582,0.992024,0.003648,0.435030,-0.000002,0.000013,0.000003,0.000014,-0.000003,79.718391,0.000014,
2266,2803,0.1337732167074,3.39972010297953,-0.021263241664883,0.002446,-0.049150,0.005170,0.076909,-2.191996,317.992777,22.331876,0.999161,0.987861,0.004621,0.426375,0.000020,0.000036,-0.000001,0.000036,0.000020,-88.091167,0.000056,
2236,2698,-0.500311261483208,1.1112755283126,-0.0177353496067099,0.001810,-0.049866,0.005353,0.047513,-2.226566,319.758292,22.089305,0.999384,0.990683,0.003812,0.458872,0.000058,0.000059,-0.000001,0.000060,0.000057,-58.968940,0.000117,
2281,2833,0.454963560549125,4.05150968289509,-0.0155993221806625,0.002429,-0.049818,0.003948,0.079575,-2.239132,317.532968,22.338261,0.999482,0.991325,0.003802,0.441178,0.000018,0.000028,0.000006,0.000031,0.000015,65.798233,0.000046,
2341,3103,1.71323230074464,9.91932357355474,0.0262767364516208,0.003991,-0.050190,0.009639,0.130221,-2.240228,313.478882,23.055413,0.999589,0.993093,0.003421,0.441295,-0.000006,0.000002,0.000001,0.000002,-0.000006,85.857458,0.000006,
2446,2428,4.12533889682748,-4.77645522073158,-0.0130294450491988,0.001513,-0.051615,0.000884,0.044438,-2.297940,324.150741,21.042229,0.999193,0.985210,0.004933,0.445660,0.000316,0.000194,-0.000024,0.000321,0.000189,-10.663666,0.000516,
2371,3208,2.34576992583686,12.199289160688,0.0363307119172873,0.004129,-0.049867,0.010309,0.133245,-2.235826,311.847133,23.422194,0.999385,0.992383,0.003651,0.473150,0.000011,0.000009,-0.000004,0.000014,0.000006,-38.415105,0.000020,
2071,2098,-3.99846006754401,-12.0019912992317,0.0136480016061,-0.005776,-0.052380,-0.010973,-0.250494,-2.406392,330.022840,22.151073,0.998289,0.976377,0.005948,0.301477,0.000861,0.000761,0.000127,0.000948,0.000675,34.246629,0.001630,
2416,2218,3.51339905415237,-9.3764764144949,-0.00312275799331019,0.000858,-0.052721,-0.013553,0.067048,-2.421817,327.607477,20.332480,0.999124,0.983699,0.005278,0.419864,0.000648,0.000608,-0.000053,0.000685,0.000571,-34.586782,0.001258,
2506,3028,5.3140830586997,8.30343117026784,0.0137308181967342,0.003334,-0.050419,0.010093,0.092277,-2.243670,314.790317,23.358494,0.999617,0.992661,0.003485,0.466536,0.000010,-0.000021,0.000031,0.000029,-0.000041,31.837589,0.000042,
2491,2848,5.02167977487882,4.3896821366452,-0.0165585019001924,0.002554,-0.050434,0.004148,0.079693,-2.258774,317.424472,22.683700,0.999555,0.991994,0.003675,0.380157,0.000024,0.000007,0.000009,0.000028,0.000003,21.940380,0.000034,
2161,2233,-2.05543202171449,-9.0450187872497,-2.1964072288938E-05,-0.001976,-0.051046,-0.011115,-0.074295,-2.344243,327.520415,21.673027,0.998592,0.980236,0.005444,0.415324,0.000529,0.000511,0.000051,0.000572,0.000469,40.075477,0.001042,
2461,2638,4.40959031131703,-0.188271954494923,-0.0231944404773117,0.001716,-0.050609,0.001268,0.052594,-2.266912,320.692246,21.818320,0.999552,0.989195,0.004070,0.434183,0.000139,0.000050,-0.000015,0.000141,0.000048,-9.387833,0.000197,
2431,2248,3.83576228841349,-8.71848596900455,-0.00200141834284295,0.001502,-0.051705,-0.012619,0.093769,-2.379019,327.181356,20.403194,0.998847,0.979969,0.005635,0.422866,0.000591,0.000512,-0.000060,0.000624,0.000480,-28.455120,0.001106,
2116,2083,-3.01437381174071,-12.3318414446664,0.00121074072723104,-0.004313,-0.053378,-0.013040,-0.176976,-2.478838,330.018456,21.782685,0.998302,0.976844,0.006245,0.320565,0.000860,0.000822,0.000081,0.000924,0.000757,38.392055,0.001684,
2041,2038,-4.64513701873261,-13.3185921121022,0.00843093697852737,-0.007405,-0.053163,-0.013906,-0.317586,-2.464576,331.041102,22.160428,0.998137,0.980107,0.005832,0.431362,0.001008,0.000746,0.000140,0.001068,0.000686,23.458091,0.001768,
2191,2338,-1.41783812785492,-6.74746326846395,0.00773690819022477,-0.000661,-0.050811,-0.004646,-0.033781,-2.313917,325.834721,21.779775,0.999647,0.989278,0.004344,0.313752,0.000352,0.000281,0.000006,0.000353,0.000281,4.710869,0.000635,
2101,1993,-3.32744019858749,-14.3089069618717,0.0172340739269998,-0.005868,-0.054675,-0.021658,-0.223745,-2.565971,331.616895,21.790428,0.999406,0.990595,0.004497,0.289052,0.001139,0.000876,0.000105,0.001176,0.000839,19.339400,0.002024,
2056,2098,-4.32590161990497,-12.0009978954306,-0.000531923203197948,-0.005355,-0.052293,-0.009469,-0.235590,-2.404275,330.000552,22.150743,0.998655,0.980145,0.005543,0.394323,0.000863,0.000753,0.000138,0.000957,0.000660,34.171542,0.001626,
2311,2938,1.08879135546989,6.33528325132065,-0.00598352363027743,0.002751,-0.049942,0.005561,0.088138,-2.252369,315.878480,22.577384,0.998964,0.988509,0.004291,0.446750,0.000008,-0.000004,0.000004,0.000009,-0.000006,17.233887,0.000009,
2296,2878,0.772931318607103,5.03071296663579,-0.0115916710971646,0.002364,-0.049769,0.006133,0.068891,-2.228321,316.804500,22.431289,0.999648,0.992032,0.003632,0.465640,0.000021,0.000016,0.000010,0.000029,0.000008,38.774492,0.000039,
2206,2428,-1.10585097789033,-4.78250643239146,0.00583418585853224,0.000417,-0.051196,0.001345,-0.003399,-2.263904,324.353988,21.607320,0.999081,0.987704,0.004590,0.591035,0.000231,0.000151,-0.000002,0.000231,0.000151,-1.331786,0.000385,
2221,2458,-0.785242861869296,-4.12440389818448,-0.00639503553645682,0.000069,-0.050042,-0.003560,-0.003571,-2.256776,323.727116,21.737846,0.998933,0.984299,0.005136,0.466802,0.000200,0.000147,0.000008,0.000201,0.000146,8.181440,0.000348,
2476,2683,4.72734324301341,0.794132935422269,-0.0287392700269038,0.002093,-0.050241,0.001182,0.070164,-2.243076,319.965471,21.945759,0.999577,0.988988,0.004079,0.490588,0.000117,0.000055,-0.000004,0.000117,0.000055,-4.062102,0.000176,
2146,2218,-2.38034972970977,-9.37277843092538,-0.000454875074126448,-0.002316,-0.051091,-0.009427,-0.095215,-2.348452,327.792301,21.773267,0.998366,0.978031,0.005753,0.371205,0.000569,0.000550,0.000062,0.000622,0.000497,40.524295,0.001121,
2401,2098,3.20948335594951,-12.0102120237572,0.00492041827305911,0.000622,-0.054630,-0.012642,0.051850,-2.505803,329.578519,19.958133,0.998239,0.973927,0.006653,0.396896,0.000924,0.000897,-0.000072,0.000984,0.000837,-39.807381,0.001823,
2086,2113,-3.67323893181239,-11.672113516661,-0.00324085885529257,-0.004313,-0.052081,-0.013988,-0.174419,-2.423056,329.641154,22.029020,0.998508,0.982714,0.005429,0.319037,0.000810,0.000746,0.000123,0.000905,0.000651,37.700954,0.001563,
2176,2338,-1.74621389496128,-6.7453194869344,-0.0159044170926563,-0.000823,-0.050222,-0.006711,-0.034593,-2.279790,325.683184,21.770797,0.998893,0.984789,0.004988,0.412862,0.000357,0.000276,0.000004,0.000357,0.000276,2.497620,0.000635,
2251,2698,-0.173556080122179,1.11156242398178,-0.0201695931922359,0.002141,-0.049544,0.000313,0.078961,-2.232135,319.738842,22.045010,0.999355,0.990712,0.003794,0.495533,0.000049,0.000063,-0.000008,0.000067,0.000045,-64.067076,0.000113,
2071,2113,-4.00030008938165,-11.6730108316012,0.00951212630502596,-0.005089,-0.052423,-0.011060,-0.218791,-2.403258,329.779379,22.132456,0.998640,0.981286,0.005496,0.322956,0.000826,0.000738,0.000127,0.000916,0.000647,35.361589,0.001572,
2236,2713,-0.503364576552645,1.43831876118448,-0.0244236663622814,0.001724,-0.049904,0.003362,0.049970,-2.247985,319.461268,22.113228,0.999227,0.989714,0.003912,0.435261,0.000054,0.000053,-0.000001,0.000054,0.000053,-36.675607,0.000107,
2341,3118,1.71083719838937,10.2445659161679,0.0354390336125903,0.003748,-0.049973,0.009932,0.118112,-2.226230,313.297975,23.102967,0.999609,0.992957,0.003472,0.443125,-0.000003,0.000012,0.000002,0.000012,-0.000003,83.279595,0.000012,
2086,2158,-3.68000507358795,-10.6861817808476,-0.00438010641744313,-0.003741,-0.052101,-0.008472,-0.164129,-2.402737,328.919346,22.030064,0.998793,0.983505,0.005268,0.344259,0.000712,0.000648,0.000111,0.000795,0.000565,37.030571,0.001367,
2326,3028,1.39994830572758,8.29074347808376,0.0162117688690273,0.003270,-0.050005,0.009323,0.098685,-2.236187,314.595160,22.856604,0.999536,0.991515,0.003715,0.419143,-0.000004,0.000004,0.000004,0.000005,-0.000005,67.611947,0.000006,
2131,2158,-2.69700396299101,-10.6892550264619,0.0151941274512524,-0.003103,-0.051973,-0.014906,-0.115328,-2.420338,328.927917,21.780707,0.999661,0.991357,0.004194,0.330735,0.000700,0.000663,0.000083,0.000767,0.000596,38.706861,0.001366,
2356,3133,2.03361704292045,10.571625193253,0.034293449524796,0.003810,-0.050050,0.012629,0.110898,-2.226604,313.033909,23.219785,0.999512,0.991548,0.003768,0.423232,-0.000001,0.000013,0.000000,0.000013,-0.000001,-88.865591,0.000015,
2266,2818,0.131516726074508,3.72519949225847,-0.0177907536045154,0.002388,-0.049161,0.001876,0.085140,-2.207221,317.786339,22.318684,0.999327,0.989408,0.004191,0.449741,0.000017,0.000039,-0.000002,0.000039,0.000017,-85.400846,0.000058,
2491,2863,5.01868396688772,4.71540444600686,-0.0151039385247032,0.002577,-0.050462,0.004994,0.077511,-2.254282,317.189806,22.673083,0.999520,0.991744,0.003706,0.453783,0.000020,0.000008,0.000005,0.000022,0.000006,19.784677,0.000029,
2416,2233,3.51075448180293,-9.04775574757353,0.00309706764778639,0.001015,-0.052302,-0.009155,0.058365,-2.385460,327.407886,20.415483,0.999204,0.984912,0.005141,0.423309,0.000618,0.000560,-0.000047,0.000644,0.000533,-29.173277,0.001179,
2101,2008,-3.32922639314288,-13.9820823250811,0.0224056145640361,-0.005411,-0.054660,-0.017387,-0.215224,-2.538039,331.428990,21.616727,0.999400,0.990528,0.004710,0.495416,0.001080,0.000891,0.000106,0.001128,0.000843,24.129942,0.001978,
2461,2653,4.40692978771939,0.138609928243291,-0.0192598715454437,0.001885,-0.050768,0.002808,0.054482,-2.274558,320.483027,21.885951,0.999552,0.989298,0.004034,0.413718,0.000129,0.000063,-0.000012,0.000131,0.000061,-9.955505,0.000195,
2281,2848,0.451816634875986,4.37914994305754,-0.0166550657742164,0.002430,-0.049729,0.008684,0.063825,-2.211074,317.263264,22.454825,0.999637,0.992909,0.003664,0.380290,0.000018,0.000022,0.000010,0.000030,0.000010,50.704387,0.000041,
2446,2443,4.12316804431304,-4.44986926830997,-0.000793245389161257,0.001326,-0.051108,0.000754,0.036523,-2.311531,324.002208,21.102359,0.998464,0.982388,0.005271,0.425107,0.000310,0.000152,-0.000012,0.000310,0.000151,-4.172666,0.000470,
2431,2263,3.83147163116459,-8.38871394934186,-0.00701164899078321,0.001290,-0.052363,-0.004150,0.052628,-2.373325,326.855249,20.508251,0.998902,0.979579,0.005671,0.376224,0.000554,0.000463,-0.000069,0.000591,0.000427,-28.244022,0.001022,
2056,2113,-4.32763236524509,-11.6726559526358,-0.0058433807166125,-0.004891,-0.052068,-0.015524,-0.197257,-2.427707,329.754442,22.088281,0.998813,0.982164,0.005438,0.430963,0.000830,0.000728,0.000139,0.000927,0.000631,34.929353,0.001568,
2041,2053,-4.64860125865052,-12.9832720564294,-0.0335219348095279,-0.006363,-0.052163,-0.018433,-0.257007,-2.459847,330.510771,22.272591,0.999477,0.991553,0.004037,0.321415,0.000968,0.000759,0.000133,0.001033,0.000694,25.849951,0.001738,
2371,3223,2.34271114363583,12.5245906299786,0.0380503146344608,0.004056,-0.050388,0.013388,0.118744,-2.254058,311.601052,23.487061,0.999511,0.993029,0.003405,0.429481,0.000009,0.000011,-0.000006,0.000016,0.000004,-47.660469,0.000021,
2506,3043,5.31081744267346,8.63031652676502,0.0144158517351229,0.003315,-0.050609,0.012514,0.081983,-2.242046,314.539497,23.500177,0.999736,0.992531,0.003689,0.386536,0.000004,-0.000016,0.000044,0.000039,-0.000052,38.571325,0.000054,
2206,2443,-1.11056576951293,-4.45123901039776,-0.0205735063224211,-0.000140,-0.050665,-0.002228,-0.017533,-2.287368,323.876121,21.739540,0.998504,0.983455,0.005313,0.454356,0.000217,0.000151,0.000003,0.000217,0.000150,2.625565,0.000369,
2296,2893,0.770618050249229,5.35691834461993,-0.0101821731269069,0.002562,-0.049762,0.004357,0.084000,-2.237583,316.586844,22.484123,0.999662,0.991968,0.003529,0.433164,0.000016,0.000007,0.000010,0.000023,0.000001,32.190286,0.000027,
2311,2953,1.08667149692726,6.66149206199769,-0.000898145645578552,0.002998,-0.049635,0.005183,0.100931,-2.227591,315.688694,22.638685,0.999265,0.990718,0.003881,0.441848,0.000004,-0.000012,0.000005,0.000006,-0.000013,15.198876,0.000013,
2116,2098,-3.01588533671338,-12.0016998074514,0.0015335489652557,-0.003711,-0.052259,-0.016596,-0.138562,-2.437226,329.817739,21.876335,0.998781,0.975585,0.006198,0.274764,0.000827,0.000794,0.000090,0.000902,0.000719,39.871869,0.001625,
2476,2698,4.72443189696691,1.12107615673713,-0.0242118764759311,0.001929,-0.050322,0.002022,0.059383,-2.249936,319.748189,22.036708,0.999645,0.988675,0.004209,0.449713,0.000106,0.000081,-0.000004,0.000107,0.000081,-9.656777,0.000188,
2101,2023,-3.33291405765148,-13.6502373260574,0.0151200311739785,-0.005840,-0.054798,-0.010282,-0.255641,-2.523580,331.086613,21.777802,0.999017,0.985751,0.005348,0.354157,0.001030,0.000840,0.000092,0.001067,0.000803,22.028723,0.001876,
2221,2473,-0.788367255320342,-3.79636387544148,-0.0113589285996341,-0.000120,-0.049591,-0.003593,-0.011989,-2.247361,323.434479,21.754200,0.999246,0.986522,0.004700,0.480337,0.000188,0.000142,0.000008,0.000189,0.000141,9.220793,0.000332,
2161,2248,-2.05800714294312,-8.71612581950173,-0.00668013017349267,-0.001564,-0.051160,-0.009958,-0.058966,-2.330630,327.238565,21.663194,0.998656,0.979485,0.005360,0.451420,0.000508,0.000470,0.000048,0.000541,0.000437,34.484580,0.000980,
2071,2128,-4.00270971421964,-11.3431554934813,0.000780460586270237,-0.004685,-0.051877,-0.011172,-0.199783,-2.376803,329.484585,22.126709,0.998949,0.983888,0.005169,0.355394,0.000781,0.000714,0.000125,0.000877,0.000618,37.551042,0.001503,
2401,2113,3.20703349890535,-11.6806858613281,0.00783132347856963,0.000665,-0.053832,-0.015118,0.063088,-2.488408,329.371754,20.057555,0.998681,0.974828,0.006233,0.363467,0.000887,0.000876,-0.000069,0.000951,0.000813,-42.630008,0.001765,
2191,2353,-1.42024856263964,-6.4203963247889,0.000342442578585178,-0.000139,-0.050498,-0.005969,-0.005585,-2.309697,325.559820,21.644364,0.999234,0.986647,0.004738,0.469882,0.000329,0.000265,0.000006,0.000330,0.000264,5.250611,0.000595,
2086,2173,-3.68173826707419,-10.3577416502732,-0.00413586484239659,-0.003473,-0.051429,-0.013084,-0.138404,-2.374402,328.705921,22.007636,0.998733,0.983371,0.005198,0.396710,0.000681,0.000619,0.000106,0.000760,0.000539,36.817366,0.001306,
2491,2878,5.01624591674459,5.04049045286988,-0.00890874880167303,0.002565,-0.050282,0.003563,0.082476,-2.265087,317.002297,22.658076,0.999432,0.992855,0.003575,0.516531,0.000011,0.000029,0.000013,0.000035,0.000004,62.733376,0.000043,
2041,2068,-4.65034292724871,-12.6561834701039,-0.0230481859085216,-0.006197,-0.052125,-0.012727,-0.265220,-2.424469,330.349647,22.197167,0.999383,0.991436,0.004047,0.427613,0.000932,0.000787,0.000137,0.001014,0.000705,31.009312,0.001728,
2236,2728,-0.505860830235637,1.76493588855826,-0.0174126468297118,0.001610,-0.049732,0.006807,0.033657,-2.212222,319.259544,22.156635,0.999124,0.988998,0.004145,0.448811,0.000049,0.000050,0.000000,0.000050,0.000049,-76.907521,0.000098,
2431,2278,3.82837467022474,-8.06146463723039,-0.00660834176409253,0.001088,-0.052253,-0.004630,0.045178,-2.372307,326.609182,20.447879,0.998893,0.977355,0.005975,0.489807,0.000522,0.000433,-0.000052,0.000546,0.000409,-24.727158,0.000958,
2176,2353,-1.74839752511068,-6.41806154234374,-0.0156918037258151,-0.000386,-0.050586,-0.004668,-0.020988,-2.284011,325.456850,21.737061,0.998302,0.980606,0.005637,0.456328,0.000333,0.000260,0.000003,0.000333,0.000260,2.480120,0.000594,
2146,2233,-2.38275807746676,-9.04434511195929,-0.00285026181734338,-0.002145,-0.050995,-0.009580,-0.086889,-2.338094,327.539220,21.762838,0.998656,0.979739,0.005458,0.402522,0.000540,0.000511,0.000054,0.000581,0.000470,37.548354,0.001053,
2086,2128,-3.67603053558477,-11.3425110555642,-0.00783813134580669,-0.004281,-0.052031,-0.010416,-0.183267,-2.381111,329.352857,22.030779,0.998771,0.984393,0.005218,0.361591,0.000769,0.000721,0.000120,0.000868,0.000622,39.339444,0.001497,
2251,2713,-0.176886218532179,1.43881205808137,-0.0247224254097773,0.001815,-0.049587,0.000543,0.063222,-2.234178,319.441205,22.086349,0.999373,0.990835,0.003826,0.475858,0.000044,0.000057,-0.000007,0.000061,0.000041,-66.379072,0.000102,
2056,2128,-4.32999762450046,-11.3419809375758,-0.00876000969708457,-0.004562,-0.051614,-0.011312,-0.193882,-2.376590,329.491700,22.196286,0.998743,0.982107,0.005523,0.371856,0.000784,0.000707,0.000140,0.000891,0.000600,37.237920,0.001500,
2131,2173,-2.70021769847796,-10.3593138719211,-0.00655211160142244,-0.002494,-0.051479,-0.014810,-0.087532,-2.384340,328.533462,21.653950,0.999247,0.976247,0.005704,0.502754,0.000672,0.000636,0.000078,0.000734,0.000574,38.508434,0.001311,
2326,3043,1.39745312895989,8.61633516122948,0.0207582471707042,0.003222,-0.049753,0.009180,0.097139,-2.209722,314.386355,22.877234,0.999607,0.992144,0.003642,0.458576,-0.000004,0.000006,0.000004,0.000007,-0.000006,73.122638,0.000008,
2461,2668,4.40404235066766,0.465256501416278,-0.0222083559712587,0.002197,-0.050557,0.002013,0.071846,-2.277261,320.231875,21.873768,0.999443,0.986890,0.004340,0.478073,0.000120,0.000052,-0.000010,0.000121,0.000050,-8.157785,0.000176,
2341,3133,1.70746888719218,10.5702073233906,0.0325502425183117,0.003591,-0.050039,0.012050,0.103456,-2.226697,313.013455,23.130323,0.999461,0.992325,0.003625,0.450751,-0.000004,0.000013,0.000000,0.000013,-0.000004,-88.391634,0.000014,
2506,3058,5.30824292735037,8.9544690527174,0.0205678125594204,0.003337,-0.051004,0.012870,0.081419,-2.268708,314.345722,23.457640,0.999708,0.992434,0.003824,0.462545,0.000006,-0.000027,0.000046,0.000038,-0.000059,35.359841,0.000060,
2446,2458,4.11988921358061,-4.12112014388523,-0.00513516677654025,0.001054,-0.050328,-0.003562,0.040466,-2.270455,323.725974,21.155119,0.999196,0.985657,0.004756,0.467066,0.000295,0.000130,-0.000010,0.000296,0.000129,-3.602667,0.000436,
2266,2833,0.128664153728945,4.05157977082565,-0.01991483501007,0.002632,-0.049621,0.005305,0.084830,-2.212303,317.524073,22.339844,0.999243,0.989760,0.004069,0.448778,0.000014,0.000033,0.000001,0.000033,0.000014,86.029480,0.000049,
2356,3148,2.03104867729085,10.8967118384366,0.0386643257805872,0.003841,-0.050231,0.013694,0.108462,-2.234608,312.822587,23.252011,0.999530,0.991900,0.003708,0.420676,0.000000,0.000007,0.000000,0.000007,0.000000,88.357053,0.000008,
2296,2908,0.768658234547214,5.68269628457003,-0.00160044586124286,0.002819,-0.049691,0.005774,0.091058,-2.226487,316.421085,22.533064,0.999584,0.992502,0.003509,0.424851,0.000014,0.000001,0.000009,0.000019,-0.000004,27.306980,0.000020,
2086,2188,-3.68396376530521,-10.0291294579002,-0.00195336562796911,-0.003354,-0.051144,-0.010367,-0.140684,-2.343990,328.480487,22.024614,0.998519,0.982903,0.005399,0.411595,0.000645,0.000606,0.000104,0.000731,0.000520,39.715957,0.001258,
2476,2713,4.72147033919925,1.44686311102936,-0.0226990127839031,0.001988,-0.050486,0.003247,0.057413,-2.253268,319.515078,21.997312,0.999574,0.989334,0.004248,0.542523,0.000089,0.000076,0.000005,0.000091,0.000074,18.770101,0.000165,
2206,2458,-1.11223599415139,-4.12403703827234,-0.0101681182036373,0.000014,-0.049880,-0.002428,-0.009556,-2.237780,323.727980,21.777283,0.998941,0.984390,0.005122,0.483904,0.000202,0.000140,0.000007,0.000203,0.000139,6.598929,0.000344,
2071,2143,-4.00438766133894,-11.0140617122784,0.000315642100360947,-0.004185,-0.050938,-0.013188,-0.170820,-2.340184,329.268360,22.136707,0.998892,0.983993,0.005230,0.381629,0.000748,0.000693,0.000123,0.000846,0.000594,38.689896,0.001448,
2086,2143,-3.67766751030091,-11.0158918348538,-0.00480277726006761,-0.003964,-0.051822,-0.012750,-0.161986,-2.381011,329.159401,21.890114,0.998837,0.984407,0.005149,0.504104,0.000737,0.000694,0.000119,0.000836,0.000594,39.890375,0.001437,
2281,2863,0.449257514123012,4.70529194655328,-0.0165872029935485,0.002645,-0.049955,0.009494,0.070920,-2.219616,317.026623,22.482918,0.999689,0.993126,0.003550,0.371062,0.000019,0.000022,0.000009,0.000030,0.000011,50.202386,0.000043,
2101,2038,-3.33560180909176,-13.3209074299153,-0.00196848669219207,-0.005486,-0.054423,-0.016029,-0.222650,-2.507169,330.737490,21.604262,0.999183,0.985312,0.005384,0.549621,0.000988,0.000815,0.000091,0.001027,0.000776,23.225980,0.001808,
2041,2083,-4.65047727473722,-12.3294200090027,0.00370449075262513,-0.005916,-0.051411,-0.015420,-0.244665,-2.400873,330.351874,22.286854,0.998994,0.987124,0.004675,0.355888,0.000893,0.000784,0.000136,0.000985,0.000692,34.170132,0.001686,
2401,2128,3.20553446463921,-11.3517829508922,0.016398634909649,0.001537,-0.053647,-0.013493,0.097197,-2.476019,329.235120,20.171212,0.999129,0.979528,0.005577,0.310106,0.000853,0.000855,-0.000063,0.000917,0.000790,-45.389684,0.001709,
2371,3238,2.33983736359771,12.8503308859755,0.0363731997397849,0.004148,-0.050013,0.012810,0.125213,-2.232948,311.346966,23.537394,0.999669,0.994105,0.003121,0.439984,0.000010,0.000001,-0.000008,0.000015,-0.000004,-30.568836,0.000015,
2416,2248,3.50810699693244,-8.71878096601301,0.00163496554040421,0.001056,-0.051464,-0.013846,0.077684,-2.348920,327.172269,20.446905,0.998983,0.982776,0.005357,0.478539,0.000586,0.000511,-0.000052,0.000612,0.000484,-26.942808,0.001099,
2311,2968,1.08488809484798,6.98757530945402,0.0127563909728678,0.003105,-0.049556,0.006989,0.099764,-2.218543,315.556654,22.766941,0.999899,0.997383,0.002559,0.353952,-0.000001,-0.000010,0.000006,0.000002,-0.000013,27.241389,0.000014,
2506,3073,5.30485369549876,9.28089583854279,0.00957166698896117,0.003817,-0.050891,0.011017,0.110713,-2.269215,314.036816,23.491447,0.999619,0.992074,0.003905,0.488744,0.000010,-0.000023,0.000042,0.000039,-0.000052,34.332512,0.000054,
2221,2488,-0.790687596448645,-3.46875481638601,-0.0138845546510424,0.000453,-0.050154,-0.001877,0.008615,-2.261668,323.191311,21.782526,0.999329,0.987171,0.004433,0.457772,0.000173,0.000129,0.000003,0.000174,0.000129,4.173756,0.000304,
2116,2113,-3.01881278734992,-11.6745206949353,0.00346329897683972,-0.004094,-0.052462,-0.011656,-0.170789,-2.436233,329.561661,21.763665,0.999006,0.985232,0.005033,0.395046,0.000796,0.000771,0.000095,0.000880,0.000688,41.234986,0.001571,
2161,2263,-2.06205136981658,-8.38620007121304,-0.01114735566847,-0.002375,-0.051201,-0.003062,-0.117312,-2.300208,326.900737,21.759673,0.998600,0.980163,0.005575,0.398243,0.000484,0.000427,0.000046,0.000510,0.000401,29.015573,0.000913,
2431,2293,3.82544490796755,-7.73309214455547,0.000337788742967859,0.000689,-0.052396,-0.003245,0.021767,-2.360934,326.400816,20.550877,0.998900,0.980042,0.005603,0.450236,0.000496,0.000387,-0.000045,0.000512,0.000371,-19.808705,0.000887,
2176,2368,-1.75066570479386,-6.0899349190063,-0.0143166349379271,-0.000149,-0.050381,-0.003223,-0.014485,-2.261140,325.232418,21.772045,0.998901,0.986351,0.004808,0.458352,0.000309,0.000247,-0.000004,0.000309,0.000247,-3.834886,0.000557,
2236,2743,-0.508541581333834,2.09132633387298,-0.0175357938190359,0.001662,-0.050155,0.008052,0.031910,-2.221032,319.013146,22.170338,0.998876,0.986142,0.004747,0.447448,0.000042,0.000042,-0.000002,0.000044,0.000040,-50.414617,0.000084,
2056,2143,-4.33153184289896,-11.0144138602855,-0.00754759393100812,-0.004194,-0.051071,-0.015566,-0.164869,-2.384471,329.290447,22.129824,0.998763,0.983749,0.005416,0.427808,0.000753,0.000690,0.000141,0.000865,0.000577,38.663282,0.001452,
2491,2893,5.01267619564405,5.36904639695398,-0.0179025970591624,0.003004,-0.050338,0.005577,0.094943,-2.251132,316.693214,22.830714,0.998674,0.987433,0.004426,0.416408,0.000012,0.000024,0.000018,0.000037,-0.000001,53.983774,0.000042,
2131,2188,-2.70198266465649,-10.0308998816487,0.00908434520943047,-0.002586,-0.051513,-0.010349,-0.105098,-2.359461,328.404256,21.801115,0.999079,0.982590,0.005251,0.388225,0.000639,0.000611,0.000077,0.000703,0.000546,39.777194,0.001253,
2146,2248,-2.38496160276313,-8.71568106108868,-0.00560665492565704,-0.001752,-0.050695,-0.009865,-0.067906,-2.314099,327.293482,21.761684,0.998654,0.980696,0.005432,0.437788,0.000516,0.000474,0.000050,0.000549,0.000441,33.566521,0.000992,
2461,2683,4.40075856403613,0.793292326598262,-0.0264697435505354,0.002303,-0.050512,0.002093,0.076482,-2.255698,319.956066,21.959200,0.999466,0.987942,0.004275,0.469349,0.000112,0.000061,-0.000005,0.000112,0.000061,-5.183271,0.000175,
2446,2473,4.11716626506864,-3.79309187234693,-0.00300228857435059,0.001182,-0.050385,-0.003330,0.045448,-2.281140,323.505260,21.258830,0.999548,0.987723,0.004392,0.406327,0.000273,0.000115,-0.000012,0.000274,0.000114,-4.416007,0.000400,
2341,3148,1.70526591765857,10.8955959431226,0.0376001906828947,0.003805,-0.050018,0.011677,0.114589,-2.232680,312.821249,23.192359,0.999481,0.993352,0.003545,0.418232,-0.000003,0.000007,0.000001,0.000007,-0.000003,85.364384,0.000007,
2191,2368,-1.42315766943547,-6.09074372551387,-0.00644756619755071,-0.000052,-0.049775,-0.006007,-0.001222,-2.271959,325.264550,21.723958,0.999401,0.987519,0.004641,0.444537,0.000304,0.000248,0.000000,0.000304,0.000248,-0.416764,0.000553,
2086,2203,-3.68608493816742,-9.69989717121393,-0.00659636398665953,-0.002957,-0.050604,-0.011777,-0.118226,-2.329787,328.222787,22.047796,0.998273,0.981285,0.005499,0.404529,0.000616,0.000584,0.000102,0.000703,0.000497,40.546785,0.001206,
2101,2278,-3.36995677707726,-8.05923179529296,-0.00845241888680448,-0.001657,-0.050187,-0.010509,-0.061973,-2.299545,326.984491,21.944510,0.998489,0.983266,0.005258,0.481168,0.000490,0.000407,0.000079,0.000537,0.000359,31.131748,0.000902,
2101,2323,-3.37607997398273,-7.0746317657785,-0.000958629336821559,-0.001094,-0.049162,-0.008898,-0.040517,-2.248553,326.342736,22.054554,0.998985,0.986614,0.004881,0.431681,0.000411,0.000295,0.000044,0.000426,0.000280,18.750404,0.000711,
2431,2308,3.82323942636138,-7.40379949018877,0.00283941507365171,0.000944,-0.051711,-0.007195,0.048285,-2.342982,326.204898,20.691051,0.998938,0.983042,0.005172,0.379946,0.000475,0.000353,-0.000043,0.000489,0.000339,-17.634673,0.000833,
2101,2248,-3.36576539249606,-8.71522981421633,-0.00987916362907981,-0.002156,-0.050387,-0.011845,-0.081050,-2.327490,327.436482,21.962412,0.998542,0.984851,0.005174,0.428561,0.000533,0.000492,0.000082,0.000597,0.000428,37.926773,0.001029,
2206,2518,-1.12243032568398,-2.81404700878966,-0.0211939439289495,0.000801,-0.049729,-0.003039,0.028577,-2.237837,322.703389,21.794309,0.999376,0.987937,0.004387,0.538734,0.000152,0.000111,0.000012,0.000156,0.000108,14.895493,0.000265,
2176,2383,-1.75309282390824,-5.76267364982021,-0.016536293875788,0.000047,-0.050203,-0.003565,-0.004379,-2.270532,324.982243,21.730264,0.998933,0.988355,0.004611,0.504786,0.000287,0.000229,-0.000004,0.000288,0.000228,-3.977393,0.000517,
2296,2923,0.766343735991942,6.00678656855037,0.00429473474338238,0.002991,-0.050132,0.008227,0.090502,-2.241072,316.226203,22.436293,0.999451,0.992865,0.003502,0.536443,0.000012,-0.000002,0.000005,0.000013,-0.000004,18.258606,0.000014,
2236,2908,-0.535026515490834,5.67983009247787,0.000141142325276178,0.002775,-0.049199,0.005166,0.092813,-2.185374,316.536175,22.453738,0.999642,0.992249,0.003645,0.430292,0.000012,0.000013,0.000006,0.000019,0.000006,46.671453,0.000026,
2071,2158,-4.00661214424806,-10.6865107446953,-0.000461557827463821,-0.004004,-0.051433,-0.011880,-0.166439,-2.371567,329.026122,22.075988,0.999021,0.983927,0.005184,0.410752,0.000721,0.000644,0.000109,0.000799,0.000567,35.290686,0.001372,
2401,2143,3.20154753001874,-11.0233022987391,0.0104166415364375,0.000990,-0.053460,-0.012795,0.069744,-2.449070,328.916140,20.079779,0.999065,0.978266,0.005588,0.477290,0.000813,0.000800,-0.000061,0.000868,0.000746,-42.019610,0.001615,
2206,2473,-1.11508449705924,-3.79585195545641,-0.0198668227121743,0.000144,-0.049297,-0.006115,0.008295,-2.242122,323.422209,21.776905,0.999264,0.983684,0.005172,0.498310,0.000190,0.000138,0.000007,0.000191,0.000137,7.441871,0.000330,
2161,2293,-2.06440448283598,-7.73081083236053,-0.00963783773318028,-0.000514,-0.050109,-0.012083,-0.003957,-2.317936,326.543384,21.744822,0.998409,0.981647,0.005513,0.419405,0.000438,0.000368,0.000042,0.000457,0.000349,25.065279,0.000809,
2146,2458,-2.41876022150804,-4.12268969395029,-0.0221399964748343,0.000244,-0.049225,-0.002552,0.002025,-2.215913,323.836591,22.005888,0.999130,0.987237,0.004771,0.427452,0.000215,0.000112,-0.000008,0.000215,0.000111,-4.203527,0.000332,
2236,2758,-0.511101470079755,2.41842129381698,-0.0213676638482525,0.001871,-0.049695,0.006088,0.048053,-2.209730,318.753127,22.203836,0.999193,0.987899,0.004315,0.446573,0.000036,0.000045,-0.000002,0.000046,0.000035,-77.172365,0.000081,
2251,2728,-0.179676490906569,1.76565750235889,-0.0236562352348528,0.001730,-0.049490,0.002222,0.053860,-2.216803,319.196796,22.121530,0.999256,0.990100,0.003956,0.481629,0.000042,0.000054,-0.000005,0.000056,0.000040,-71.564362,0.000096,
2296,2968,0.758418478184911,6.98679665442911,0.00126167444352632,0.003280,-0.049543,0.004660,0.116161,-2.213178,315.490952,22.663401,0.999359,0.991199,0.003714,0.425603,0.000007,-0.000008,0.000006,0.000009,-0.000010,20.140288,0.000011,
2101,2263,-3.3681851061045,-8.38821219218731,-0.00212919854601523,-0.002151,-0.051272,-0.002865,-0.107268,-2.321792,327.233825,21.941383,0.998564,0.983939,0.005208,0.458509,0.000510,0.000449,0.000085,0.000570,0.000390,35.064710,0.000965,
2461,2698,4.39851005738577,1.12043393523173,-0.0184681511730673,0.002607,-0.050314,0.004336,0.082087,-2.241451,319.784053,22.075330,0.999624,0.988271,0.004341,0.421973,0.000103,0.000084,-0.000004,0.000104,0.000083,-11.094637,0.000188,
2176,2608,-1.79073430849125,-0.850244537830974,-0.0270874332675817,0.000935,-0.049158,-0.001544,0.030467,-2.197985,321.288412,22.033094,0.999075,0.987706,0.004444,0.476065,0.000092,0.000059,0.000009,0.000094,0.000056,14.043351,0.000152,
2161,2278,-2.06319469804161,-8.05920574603734,-0.00467967904990019,-0.001573,-0.051286,-0.004272,-0.076845,-2.319264,326.753758,21.753792,0.998156,0.978213,0.005995,0.396799,0.000461,0.000388,0.000041,0.000479,0.000370,23.966076,0.000851,
2326,3058,1.39442911209016,8.94185843697934,0.0171348162573395,0.003291,-0.049960,0.009409,0.099465,-2.214023,314.113204,22.872578,0.999655,0.993383,0.003328,0.492564,-0.000006,0.000002,0.000008,0.000007,-0.000011,57.510055,0.000011,
2266,2848,0.126708534074734,4.37709932799952,-0.0131412234036929,0.002912,-0.049752,0.005790,0.096051,-2.227426,317.347991,22.363056,0.999524,0.992166,0.003713,0.435520,0.000015,0.000027,0.000005,0.000029,0.000013,70.697797,0.000042,
2101,2293,-3.37278317234302,-7.72924860992858,-0.0141119267892691,-0.001888,-0.049022,-0.012430,-0.066620,-2.250011,326.690187,22.024949,0.998873,0.986080,0.004953,0.453929,0.000468,0.000385,0.000075,0.000512,0.000341,30.424140,0.000858,
2476,2728,4.71920893392626,1.77505688662454,-0.0200960774923828,0.002543,-0.050260,0.002920,0.084187,-2.253204,319.318522,22.188722,0.999565,0.990885,0.003758,0.407913,0.000072,0.000069,0.000013,0.000084,0.000057,42.241573,0.000142,
2101,2233,-3.36316407351963,-9.04327364014465,-0.00715430649427162,-0.002058,-0.050319,-0.011589,-0.077262,-2.310494,327.703983,21.979465,0.998427,0.983196,0.005301,0.424639,0.000560,0.000513,0.000086,0.000626,0.000447,37.346995,0.001077,
2341,3163,1.7028903383642,11.2209663521148,0.040658074313626,0.003978,-0.049798,0.011046,0.124874,-2.221567,312.611356,23.226871,0.999580,0.993207,0.003582,0.430253,-0.000001,0.000008,0.000003,0.000009,-0.000003,72.107885,0.000009,
2056,2158,-4.33399412659882,-10.6847981269757,-0.00568519999205819,-0.004203,-0.051213,-0.010539,-0.179488,-2.348975,329.049802,22.219160,0.999007,0.985452,0.005043,0.371474,0.000725,0.000638,0.000127,0.000816,0.000548,35.442093,0.001372,
2101,2053,-3.33643088387448,-12.9901364444691,0.00629768262848529,-0.004588,-0.053325,-0.017310,-0.177378,-2.471108,330.609286,21.832828,0.998635,0.973230,0.006422,0.361070,0.000947,0.000812,0.000092,0.000994,0.000766,26.804133,0.001764,
2221,2593,-0.808671768315087,-1.17696584966135,-0.0234467612040135,0.001428,-0.049638,-0.000235,0.048354,-2.225721,321.449987,21.925557,0.999067,0.986371,0.004569,0.489975,0.000099,0.000071,0.000015,0.000105,0.000065,24.018854,0.000172,
2116,2323,-3.05030344710102,-7.0736852348273,-0.0105686302550794,-0.001221,-0.049741,-0.008257,-0.048319,-2.282767,326.186481,22.018119,0.999039,0.986558,0.004794,0.377229,0.000407,0.000291,0.000037,0.000418,0.000280,16.297732,0.000703,
2221,2503,-0.793434794440746,-3.14119981819954,-0.0143438831553908,0.000649,-0.050231,0.002661,0.003062,-2.257513,322.939083,21.811568,0.999373,0.987571,0.004369,0.453017,0.000162,0.000119,0.000006,0.000163,0.000118,7.613547,0.000282,
2506,3088,5.30269816891161,9.6068825988806,0.0188230311296707,0.003851,-0.050608,0.009599,0.117939,-2.256989,313.875522,23.606369,0.999682,0.992866,0.003472,0.446166,0.000020,-0.000007,0.000043,0.000052,-0.000039,36.090378,0.000054,
2356,3163,2.02840958365825,11.221462494409,0.0442730394938735,0.003698,-0.050272,0.014686,0.098429,-2.229362,312.614054,23.250761,0.999490,0.991742,0.003853,0.464843,0.000000,0.000009,0.000001,0.000009,0.000000,81.652977,0.000011,
2251,2743,-0.181833993556211,2.09174331157548,-0.0160376551825152,0.002044,-0.050004,0.007177,0.051893,-2.219893,319.014814,22.163916,0.999123,0.988013,0.004328,0.459510,0.000036,0.000048,-0.000005,0.000050,0.000034,-69.284812,0.000085,
2311,2983,1.08262124626789,7.31211985437219,0.0147595464901542,0.003382,-0.049810,0.005951,0.115936,-2.236070,315.345404,22.702478,0.999719,0.994947,0.003033,0.432537,0.000002,-0.000005,0.000008,0.000008,-0.000010,32.646533,0.000011,
2491,2908,5.01004926121399,5.69522452785943,-0.00827843211283152,0.002883,-0.050482,0.008440,0.078352,-2.254940,316.512024,22.941962,0.999010,0.986373,0.004575,0.359714,0.000010,-0.000008,0.000023,0.000026,-0.000023,34.368947,0.000029,
2116,2353,-3.05543366406281,-6.41700245040067,-0.0157173791393461,-0.000722,-0.050043,-0.000207,-0.049266,-2.252189,325.658632,22.047426,0.999197,0.984428,0.004959,0.389260,0.000354,0.000247,0.000022,0.000358,0.000242,11.031359,0.000604,
2116,2308,-3.0479425113169,-7.402363785846,-0.0107837530993606,-0.001403,-0.049788,-0.010870,-0.048960,-2.282656,326.426126,21.937677,0.998813,0.985022,0.005108,0.452425,0.000434,0.000330,0.000050,0.000454,0.000310,21.990622,0.000768,
2266,2863,0.125128663401025,4.70199288058959,0.000443866917805735,0.002989,-0.049761,0.005095,0.101892,-2.228938,317.223573,22.368993,0.999740,0.993990,0.003413,0.453502,0.000014,0.000029,0.000004,0.000030,0.000013,75.466830,0.000045,
2176,2398,-1.75528737188703,-5.43469440475394,-0.0154033308055546,0.000035,-0.049819,-0.007181,0.006346,-2.272441,324.760020,21.784044,0.998830,0.986419,0.004831,0.462808,0.000269,0.000212,-0.000008,0.000270,0.000211,-7.344603,0.000483,
2281,2878,0.446923794325745,5.02954443057361,-0.0110616448885708,0.002381,-0.049676,0.006255,0.069670,-2.233793,316.828128,22.387271,0.999750,0.992991,0.003535,0.480023,0.000018,0.000017,0.000009,0.000027,0.000009,43.362845,0.000037,
2206,2533,-1.12435409087275,-2.48628110685903,-0.0135602764268015,0.000931,-0.049322,-0.002874,0.034169,-2.212080,322.529244,21.903412,0.999478,0.988684,0.004225,0.472797,0.000140,0.000103,0.000012,0.000144,0.000100,16.810185,0.000245,
2281,2893,0.444328007222833,5.35694676990792,-0.0166856465525029,0.002810,-0.049571,0.004712,0.094594,-2.233295,316.560904,22.489014,0.999648,0.992093,0.003564,0.406338,0.000015,0.000007,0.000008,0.000019,0.000003,31.592423,0.000024,
2146,2263,-2.38827301945555,-8.38690400692304,-0.00534616952018041,-0.002207,-0.051128,-0.003303,-0.108756,-2.287375,327.012986,21.804692,0.998652,0.982068,0.005458,0.431926,0.000491,0.000433,0.000048,0.000518,0.000406,29.198014,0.000926,
2296,2938,0.7633467892738,6.33463715802003,0.00279946651426144,0.002781,-0.049801,0.007169,0.084618,-2.217339,315.962061,22.598487,0.999241,0.990451,0.003935,0.427417,0.000015,-0.000004,0.000003,0.000015,-0.000005,10.074178,0.000015,
2116,2413,-3.06394668346646,-5.1065771348638,-0.0131244757831155,-0.000283,-0.049223,-0.007010,-0.008798,-2.238999,324.752737,22.071942,0.999153,0.987295,0.004665,0.398169,0.000275,0.000140,-0.000002,0.000275,0.000140,-1.020345,0.000422,
2266,3058,0.0913708453093278,8.93757342405298,0.0201709840816875,0.003240,-0.049837,0.009712,0.098190,-2.216003,314.203481,22.705851,0.999382,0.992210,0.003683,0.453513,0.000003,-0.000004,-0.000003,0.000004,-0.000005,-19.460258,0.000005,
2131,2203,-2.70536007383017,-9.70176618193157,-0.00382099166102989,-0.002582,-0.052007,-0.008285,-0.111225,-2.394409,328.049768,21.778081,0.998235,0.978190,0.005783,0.385097,0.000608,0.000582,0.000073,0.000669,0.000521,40.117804,0.001193,
2236,2923,-0.53816683441897,6.00488882649367,-0.00598841999635624,0.003004,-0.049583,0.009280,0.089843,-2.199591,316.238105,22.358912,0.999596,0.992674,0.003619,0.531544,0.000010,0.000007,0.000004,0.000013,0.000004,33.694087,0.000018,
2191,2443,-1.43670549771683,-4.45205378387737,-0.010400203325446,-0.000320,-0.050473,-0.000943,-0.029629,-2.263025,323.991724,21.795912,0.998825,0.985224,0.005025,0.461774,0.000218,0.000149,-0.000003,0.000218,0.000149,-2.471268,0.000369,
2131,2383,-2.73294338995336,-5.76270705237359,-0.0119870557355171,-0.000672,-0.049566,-0.007613,-0.024883,-2.240589,325.166361,21.923749,0.998872,0.985031,0.004851,0.486478,0.000310,0.000210,0.000005,0.000310,0.000210,3.012390,0.000523,
2101,2308,-3.37495384800541,-7.40188818960056,-0.0128664760759989,-0.001912,-0.049112,-0.014396,-0.062046,-2.266742,326.463906,22.006666,0.998744,0.983978,0.005417,0.458635,0.000438,0.000337,0.000057,0.000464,0.000311,24.200794,0.000780,
2161,2308,-2.06724588664471,-7.40222174393406,-0.00621150317988395,-0.000942,-0.050485,-0.009565,-0.031436,-2.302396,326.302299,21.829327,0.998558,0.981844,0.005424,0.362403,0.000413,0.000329,0.000030,0.000422,0.000319,17.712673,0.000744,
2476,2743,4.71556130288701,2.10175371959219,-0.0256711779638863,0.002384,-0.050436,0.002612,0.078009,-2.254867,319.021320,22.183372,0.999674,0.992176,0.003624,0.468716,0.000067,0.000073,0.000016,0.000087,0.000053,49.919543,0.000141,
2041,2098,-4.65167621592026,-12.0013467340923,0.0105633349742789,-0.005186,-0.051415,-0.013188,-0.217376,-2.375554,330.195522,22.278175,0.998971,0.981412,0.005304,0.384772,0.000854,0.000751,0.000143,0.000955,0.000650,35.117487,0.001615,
2146,2473,-2.42076601303496,-3.79701950105506,-0.0115054699847974,0.000096,-0.049431,-0.000824,-0.010086,-2.220695,323.671430,21.963047,0.999165,0.986539,0.004973,0.474384,0.000201,0.000114,-0.000006,0.000201,0.000113,-3.963977,0.000319,
2071,2173,-4.00903258031425,-10.3580745353554,0.00404696069034571,-0.004151,-0.051563,-0.007512,-0.185684,-2.344648,328.803318,22.099403,0.998839,0.984798,0.005118,0.413659,0.000689,0.000614,0.000102,0.000761,0.000543,34.898997,0.001310,
2086,2218,-3.68854487273754,-9.37173249358297,0.00022426034018963,-0.003198,-0.050631,-0.006493,-0.144568,-2.282229,328.011811,22.065571,0.998238,0.982292,0.005380,0.435614,0.000587,0.000551,0.000102,0.000673,0.000465,40.062049,0.001144,
2251,2758,-0.185243856252821,2.41990049652949,-0.0291947233935161,0.002225,-0.049687,0.006929,0.061145,-2.210388,318.669575,22.223294,0.999128,0.988211,0.004343,0.433370,0.000032,0.000051,-0.000005,0.000052,0.000031,-77.425942,0.000084,
2506,3103,5.30006616354447,9.93203919330301,0.0199220872856358,0.004109,-0.050585,0.008334,0.134646,-2.271192,313.655910,23.622526,0.999657,0.992596,0.003469,0.475858,0.000018,-0.000010,0.000039,0.000046,-0.000037,35.297042,0.000049,
2191,2383,-1.42642683067921,-5.76317789460455,-0.0077894237987266,-0.000519,-0.049993,-0.003350,-0.031063,-2.258489,324.981538,21.695557,0.999140,0.987118,0.004698,0.502725,0.000284,0.000230,0.000000,0.000284,0.000230,0.092573,0.000515,
2401,2158,3.19897551053527,-10.6939197952936,0.0103189592831541,0.001442,-0.053394,-0.011638,0.086276,-2.461080,328.689644,20.178479,0.999196,0.979338,0.005399,0.414817,0.000780,0.000743,-0.000061,0.000825,0.000698,-36.663235,0.001525,
2371,3253,2.33656699713382,13.1755561972751,0.0300916104071689,0.004273,-0.050184,0.013160,0.129688,-2.238047,311.052610,23.544662,0.999678,0.993150,0.003254,0.467428,0.000010,0.000002,-0.000006,0.000013,-0.000001,-27.129292,0.000014,
2116,2128,-3.0209970347447,-11.3460731833541,0.002880009785315,-0.003919,-0.052457,-0.012262,-0.160971,-2.426993,329.325835,21.736118,0.998544,0.982021,0.005542,0.438280,0.000762,0.000743,0.000095,0.000848,0.000657,42.198690,0.001509,
2056,2173,-4.33603833566809,-10.3560054496574,-0.0110038045500005,-0.003737,-0.050923,-0.011645,-0.154930,-2.353117,328.789201,22.201783,0.999057,0.987636,0.004682,0.382264,0.000694,0.000608,0.000119,0.000777,0.000524,34.980737,0.001310,
2461,2713,4.39524108890874,1.44690791067805,-0.0189063342508575,0.002599,-0.050744,0.006761,0.072433,-2.248420,319.526641,22.086368,0.999612,0.990347,0.004005,0.458775,0.000090,0.000081,0.000003,0.000091,0.000080,15.217639,0.000171,
2341,3178,1.69970541495876,11.5465072540525,0.0390472578743584,0.003864,-0.049741,0.012582,0.114274,-2.218746,312.341371,23.261179,0.999680,0.993884,0.003567,0.434104,0.000002,0.000011,0.000002,0.000011,0.000001,77.373385,0.000014,
2116,2383,-3.05955477663516,-5.76345520499584,-0.0116788906131546,-0.000660,-0.049759,-0.005211,-0.031617,-2.269045,325.227032,21.947406,0.999116,0.983962,0.004956,0.482573,0.000316,0.000203,0.000012,0.000317,0.000201,6.057959,0.000523,
2116,2443,-3.06904996080965,-4.45411408920714,-0.00755855207870582,-0.000432,-0.049876,0.001284,-0.040373,-2.244015,324.284633,21.913676,0.999121,0.988632,0.004594,0.561210,0.000233,0.000102,0.000000,0.000233,0.000102,0.151362,0.000343,
2431,2323,3.82016124023122,-7.07530825859462,-0.00524260469643423,0.001092,-0.050736,-0.012097,0.073521,-2.333708,325.920025,20.666363,0.998962,0.982147,0.005158,0.465901,0.000443,0.000328,-0.000036,0.000454,0.000318,-16.079766,0.000776,
2221,2608,-0.811356397539701,-0.850131822757277,-0.0233664490825731,0.001541,-0.049816,0.002670,0.044163,-2.228473,321.203397,21.934369,0.998947,0.982924,0.004957,0.498033,0.000093,0.000060,0.000015,0.000098,0.000054,20.752737,0.000155,
2131,2398,-2.73458082300717,-5.43677193427502,0.000811023001460853,-0.000617,-0.050106,-0.005876,-0.027777,-2.265975,325.028725,21.924436,0.998530,0.984317,0.005040,0.467149,0.000288,0.000187,0.000002,0.000288,0.000187,1.321348,0.000479,
2101,2338,-3.37882523784749,-6.74714250532871,-0.00823354059036774,-0.001084,-0.049755,-0.009939,-0.037260,-2.286468,326.044336,21.994415,0.999135,0.988112,0.004587,0.457312,0.000379,0.000265,0.000034,0.000389,0.000256,15.328111,0.000649,
2206,2488,-1.11782625173555,-3.46740663567866,-0.0246810001775088,0.000393,-0.049637,-0.004897,0.015715,-2.251016,323.146425,21.855865,0.999252,0.985648,0.004801,0.428464,0.000176,0.000126,0.000003,0.000177,0.000125,3.681419,0.000303,
2236,2938,-0.541000439621516,6.33093089864116,-7.40923847502017E-05,0.002585,-0.049838,0.011861,0.062076,-2.209546,316.015245,22.440430,0.999536,0.992923,0.003536,0.460384,0.000009,0.000002,-0.000001,0.000009,0.000002,-10.758454,0.000012,
2446,2488,4.11459831901609,-3.46684870146944,0.000672260055978313,0.001485,-0.050580,-0.001156,0.051149,-2.289358,323.298970,21.215145,0.999387,0.986230,0.004576,0.494927,0.000260,0.000103,-0.000022,0.000263,0.000100,-7.737204,0.000375,
2161,2338,-2.07260445361239,-6.74596533273419,-0.0134461554132486,-0.000807,-0.050117,-0.008463,-0.028527,-2.272734,325.761117,21.790597,0.999184,0.987605,0.004521,0.455101,0.000361,0.000268,0.000008,0.000361,0.000267,5.039333,0.000631,
2296,2983,0.75645485041284,7.31255781956488,0.00811613771844577,0.003568,-0.049437,0.004774,0.129139,-2.198482,315.316290,22.712587,0.999198,0.988941,0.004068,0.420465,0.000010,-0.000003,0.000008,0.000014,-0.000006,24.720975,0.000014,
2131,2218,-2.70802091235875,-9.37261122924169,-0.00332582007786186,-0.002855,-0.051245,-0.008017,-0.124352,-2.346235,327.798864,21.820485,0.998019,0.977515,0.005855,0.399158,0.000575,0.000547,0.000071,0.000633,0.000488,39.478775,0.001125,
2251,2998,-0.223964858369808,7.63405644807093,0.0124711532591846,0.003375,-0.049735,0.008894,0.107635,-2.214928,315.155748,22.542678,0.999549,0.991585,0.003719,0.476687,0.000006,0.000001,-0.000007,0.000011,-0.000004,-34.634234,0.000011,
2476,2758,4.71336634716812,2.42595984691647,-0.0104474797077501,0.002519,-0.051271,0.009287,0.058527,-2.265000,318.885845,22.127182,0.999536,0.989984,0.003963,0.571314,0.000069,0.000065,0.000016,0.000083,0.000051,41.438023,0.000136,
2116,2368,-3.05668490454336,-6.09075906027914,-0.00869876598699193,-0.000369,-0.049819,-0.005215,-0.018235,-2.257073,325.506733,21.991462,0.999045,0.984458,0.004963,0.445293,0.000335,0.000230,0.000014,0.000336,0.000228,7.466064,0.000568,
2491,2923,5.00578101657144,6.02252219197981,-0.0211562477180109,0.002808,-0.050434,0.008861,0.073348,-2.234783,316.153357,22.974744,0.999380,0.986357,0.004367,0.405728,0.000005,-0.000016,0.000018,0.000015,-0.000027,30.081034,0.000027,
2146,2278,-2.38995059360764,-8.05917743247648,-0.0123816638665062,-0.001367,-0.050633,-0.009000,-0.052854,-2.310253,326.769053,21.732150,0.998437,0.981804,0.005526,0.491696,0.000468,0.000391,0.000042,0.000487,0.000372,23.953523,0.000862,
2131,2428,-2.74116303435263,-4.77769215208361,-0.0206734632288885,-0.000445,-0.049533,0.001665,-0.042212,-2.195141,324.349339,22.029947,0.999047,0.987949,0.004613,0.447506,0.000252,0.000121,0.000000,0.000252,0.000121,-0.059583,0.000381,
2221,2518,-0.79568006874187,-2.81433713846241,-0.0127872712237718,0.000711,-0.049947,0.000182,0.013975,-2.244789,322.720285,21.791652,0.999243,0.986544,0.004473,0.505482,0.000149,0.000114,0.000012,0.000153,0.000111,16.980591,0.000265,
2161,2323,-2.06959415602776,-7.07482930183703,-0.0107691589424803,-0.000787,-0.049861,-0.013468,-0.012201,-2.307372,326.042152,21.750288,0.998846,0.983592,0.005142,0.448405,0.000390,0.000293,0.000019,0.000394,0.000289,10.613100,0.000685,
2101,2068,-3.33828951449287,-12.6618288772769,0.00378236016592837,-0.004134,-0.053033,-0.019945,-0.148808,-2.478391,330.376717,21.765228,0.998607,0.948874,0.008898,0.426000,0.000911,0.000817,0.000100,0.000975,0.000754,32.446053,0.001734,
2236,2773,-0.513549609384977,2.7443584228082,-0.0201256346776404,0.001922,-0.049613,0.005415,0.052563,-2.223577,318.524439,22.200850,0.999335,0.987778,0.004156,0.456945,0.000031,0.000045,-0.000003,0.000045,0.000030,-79.820758,0.000076,
2176,2413,-1.75797585151387,-5.10702357890506,-0.012292987172259,-0.000330,-0.049622,-0.006719,-0.011743,-2.251230,324.525476,21.810286,0.998525,0.984836,0.005040,0.471502,0.000255,0.000182,-0.000015,0.000258,0.000179,-11.031242,0.000439,
2416,2263,3.50502110690435,-8.39079588882753,0.00744681205202369,0.001054,-0.052409,-0.006389,0.050018,-2.382253,326.950823,20.537473,0.998960,0.982679,0.005290,0.404737,0.000551,0.000462,-0.000057,0.000579,0.000434,-25.927490,0.001017,
2176,2623,-1.79283357493007,-0.523939677223254,-0.0244683603888802,0.001326,-0.049446,0.000635,0.041569,-2.212145,321.078558,22.030486,0.999365,0.987544,0.004390,0.477404,0.000088,0.000052,0.000004,0.000088,0.000051,6.869639,0.000141,
2116,2473,-3.07378607042491,-3.79665292528172,-0.0188366560230975,-0.000032,-0.049359,-0.004942,-0.003457,-2.244168,323.741819,22.070409,0.999260,0.988153,0.004435,0.413842,0.000202,0.000094,0.000000,0.000202,0.000094,0.167463,0.000303,
2086,2233,-3.69071945788721,-9.04237470293308,-0.00880949652656682,-0.002537,-0.050471,-0.007361,-0.111679,-2.284769,327.727926,22.082542,0.998654,0.985456,0.004856,0.417889,0.000562,0.000516,0.000090,0.000632,0.000446,37.896641,0.001083,
2326,3073,1.39164261975068,9.26828904532226,0.021244645114848,0.003129,-0.049870,0.011117,0.086121,-2.215964,313.888526,23.003459,0.999701,0.994810,0.002966,0.392918,-0.000004,0.000007,0.000010,0.000013,-0.000010,59.132654,0.000014,
2461,2728,4.39259001925665,1.77441286473751,-0.0150761220291429,0.002665,-0.050269,0.006825,0.075413,-2.233956,319.316817,22.209621,0.999591,0.991820,0.003678,0.404609,0.000074,0.000073,0.000011,0.000084,0.000063,43.565315,0.000147,
2071,2188,-4.01124988852875,-10.0297049145049,-0.000781175438703485,-0.003663,-0.051583,-0.005517,-0.168988,-2.354936,328.539075,22.060048,0.998546,0.984259,0.005408,0.442183,0.000651,0.000605,0.000100,0.000731,0.000526,38.471343,0.001262,
2056,2188,-4.33792733100285,-10.02794424981,-0.00459190312938063,-0.003622,-0.050299,-0.009213,-0.156314,-2.306181,328.599980,22.196451,0.998823,0.984617,0.005118,0.431534,0.000655,0.000601,0.000117,0.000748,0.000508,38.525450,0.001264,
2506,3118,5.29684537046624,10.2585004074473,0.0205293578992496,0.003922,-0.050688,0.008202,0.126544,-2.272155,313.406467,23.746645,0.999492,0.992222,0.003624,0.410474,0.000020,0.000006,0.000028,0.000041,-0.000016,37.985757,0.000042,
2356,3178,2.0259513861639,11.547112794893,0.04391091967085,0.004054,-0.050060,0.013792,0.118011,-2.229280,312.384636,23.305155,0.999583,0.992296,0.003649,0.448325,0.000004,0.000012,-0.000001,0.000012,0.000003,-86.436775,0.000016,
2206,2503,-1.1200330912651,-3.14170254496438,-0.0121106864050944,0.000424,-0.050168,0.003029,-0.008123,-2.247181,322.985327,21.834601,0.999503,0.988582,0.004272,0.471187,0.000165,0.000115,0.000005,0.000166,0.000115,6.131730,0.000282,
2281,2908,0.441699215435563,5.68301770674198,-0.0138678037224054,0.002839,-0.049467,0.006671,0.089493,-2.209911,316.334666,22.511432,0.999663,0.992911,0.003352,0.434587,0.000013,0.000002,0.000007,0.000016,-0.000001,24.774947,0.000018,
2236,2953,-0.542580898250623,6.65729195136935,0.00116868636638401,0.003082,-0.049076,0.005031,0.107418,-2.193349,315.825946,22.495699,0.999381,0.992019,0.003754,0.441991,0.000006,-0.000005,-0.000004,0.000007,-0.000006,-17.311185,0.000008,
2446,2503,4.1111814022555,-3.13896320543873,0.000730695798552006,0.001399,-0.051109,0.002872,0.032044,-2.277830,323.036646,21.273867,0.999416,0.988023,0.004372,0.501194,0.000242,0.000092,-0.000027,0.000247,0.000087,-9.787927,0.000346,
2206,2548,-1.12725175341371,-2.15835138994525,-0.0206613241389846,0.001053,-0.049340,-0.003504,0.041786,-2.218704,322.234528,21.932855,0.999524,0.990188,0.003992,0.454755,0.000127,0.000088,0.000012,0.000130,0.000085,15.793152,0.000217,
2146,2488,-2.42311285431036,-3.46962964675842,-0.0186220222526003,0.000694,-0.049936,-0.000568,0.016446,-2.239674,323.396348,21.932619,0.999079,0.985797,0.004913,0.495108,0.000188,0.000107,-0.000011,0.000189,0.000106,-7.563255,0.000299,
2266,3073,0.0895498214184336,9.26264204594136,0.0306694880508189,0.003357,-0.049584,0.009609,0.103992,-2.209920,314.052110,22.743090,0.999184,0.991095,0.003967,0.446889,0.000003,0.000003,0.000000,0.000003,0.000003,-26.132144,0.000006,
2131,2413,-2.73764498989319,-5.10644070824448,-0.0156135232813881,-0.000026,-0.049666,-0.003567,-0.007369,-2.221531,324.668962,21.983268,0.998771,0.986497,0.004870,0.460473,0.000272,0.000152,-0.000005,0.000272,0.000151,-2.335459,0.000429,
2041,2113,-4.65345639509547,-11.673010613784,0.0055881555687165,-0.004685,-0.051580,-0.017063,-0.183770,-2.395146,329.947540,22.213949,0.998814,0.980942,0.005553,0.424925,0.000822,0.000725,0.000141,0.000923,0.000624,35.551152,0.001556,
2371,3268,2.33294204168483,13.5012113713649,0.023702534375218,0.004167,-0.050296,0.014972,0.118365,-2.232411,310.741177,23.584966,0.999728,0.993601,0.003210,0.472253,0.000011,-0.000003,-0.000007,0.000013,-0.000006,-21.789124,0.000014,
2131,2233,-2.70949523634169,-9.04425573715894,0.00154913065978235,-0.002253,-0.051109,-0.008156,-0.096266,-2.319132,327.625735,21.861145,0.998433,0.979879,0.005582,0.393540,0.000547,0.000511,0.000063,0.000594,0.000464,36.886447,0.001061,
2116,2503,-3.07787794101674,-3.14233295764991,-0.0232429435585004,0.000798,-0.048749,-0.007439,0.042262,-2.213189,323.265956,21.993714,0.998966,0.984983,0.004763,0.530841,0.000182,0.000083,0.000000,0.000182,0.000083,0.016254,0.000271,
2191,2398,-1.42790791486256,-5.4359793410245,-0.00176654041672464,-0.000084,-0.049721,-0.006259,-0.001903,-2.263236,324.818710,21.727103,0.999126,0.986048,0.004902,0.482154,0.000266,0.000214,-0.000004,0.000267,0.000214,-4.333409,0.000481,
2056,2203,-4.34011394875903,-9.6983432003648,-0.0107811346642279,-0.003343,-0.049798,-0.012059,-0.135378,-2.259417,328.327715,22.204252,0.998534,0.980454,0.005588,0.467900,0.000622,0.000579,0.000115,0.000717,0.000484,39.655766,0.001209,
2431,2338,3.81696428743462,-6.74645195383452,-0.00672776538527842,0.001271,-0.051311,-0.008749,0.069166,-2.339959,325.660176,20.761962,0.998979,0.982976,0.004924,0.416205,0.000421,0.000308,-0.000036,0.000431,0.000297,-16.313996,0.000733,
2401,2173,3.19545911181322,-10.364141177915,0.0044902632407684,0.001313,-0.053121,-0.011614,0.080433,-2.444087,328.392720,20.229009,0.999160,0.981262,0.005273,0.430074,0.000740,0.000709,-0.000059,0.000786,0.000663,-37.729367,0.001451,
2161,2578,-2.11177796442774,-1.50598419403423,-0.0193687131380784,0.000876,-0.049683,0.003016,0.013723,-2.225448,321.874864,21.990468,0.999142,0.986732,0.004408,0.484732,0.000116,0.000078,0.000006,0.000117,0.000077,8.967017,0.000195,
2116,2428,-3.06642095293419,-4.78003466146199,-0.0081846095660012,-0.000391,-0.049557,-0.002449,-0.027362,-2.243097,324.533715,22.040907,0.999144,0.987906,0.004579,0.430085,0.000254,0.000110,0.000002,0.000254,0.000110,0.955827,0.000374,
2311,2998,1.07992893981338,7.63772780588511,0.0187035585002491,0.003319,-0.049769,0.007947,0.106277,-2.218062,315.123761,22.717535,0.999871,0.996417,0.002893,0.467036,0.000002,0.000004,0.000006,0.000010,-0.000003,49.976858,0.000010,
2086,2248,-3.69338491566522,-8.71492573253929,-0.00920891226343201,-0.002835,-0.050549,-0.006904,-0.126712,-2.283632,327.468792,22.016850,0.998662,0.984829,0.004979,0.486188,0.000533,0.000498,0.000086,0.000603,0.000428,39.334965,0.001036,
2476,2773,4.70897099168091,2.7554507893944,-0.0207687173194131,0.001909,-0.050795,0.007643,0.036994,-2.249605,318.531864,22.333673,0.999129,0.986161,0.004488,0.437130,0.000062,0.000043,0.000012,0.000068,0.000038,25.594095,0.000107,
2116,2338,-3.05321053397711,-6.74632991270221,-0.0155326185968079,-0.001261,-0.050233,-0.005717,-0.057811,-2.288163,325.894418,21.937099,0.999167,0.986348,0.004762,0.458346,0.000378,0.000264,0.000026,0.000383,0.000258,12.207212,0.000645,
2296,2998,0.753352640031938,7.63756602174204,0.0126899303879782,0.003119,-0.049479,0.008060,0.097284,-2.201165,315.078179,22.697677,0.999351,0.990508,0.003839,0.461785,0.000010,0.000006,0.000005,0.000014,0.000003,33.621569,0.000018,
2281,3148,0.402270064636898,10.8903812157686,0.0363181577798173,0.003896,-0.050083,0.013578,0.114825,-2.226901,312.860586,22.900571,0.999554,0.992779,0.003736,0.459061,0.000002,0.000008,0.000000,0.000008,0.000002,89.831189,0.000011,
2506,3133,5.29362613554497,10.5843400083564,0.0198475519654835,0.003987,-0.050513,0.009798,0.123515,-2.244933,313.151399,23.781166,0.999535,0.992033,0.003596,0.463354,0.000031,0.000000,0.000018,0.000039,-0.000008,24.036903,0.000042,
2116,2398,-3.06207914800323,-5.43588073079469,-0.0111887290317441,-0.000821,-0.049977,-0.005175,-0.039198,-2.269650,324.981620,21.955320,0.998938,0.984955,0.004871,0.479016,0.000292,0.000178,0.000007,0.000292,0.000178,3.511621,0.000474,
2251,3013,-0.22681817397687,7.95978255957818,0.016556913213094,0.003164,-0.049788,0.012471,0.086189,-2.204724,314.923556,22.580426,0.999397,0.990055,0.003895,0.471827,0.000004,-0.000002,-0.000009,0.000010,-0.000009,-35.655582,0.000011,
2296,2953,0.761061271737681,6.66101671719525,0.00332733624384218,0.003174,-0.049614,0.006731,0.104297,-2.202716,315.741070,22.652916,0.999110,0.988561,0.004208,0.417158,0.000011,-0.000010,0.000005,0.000012,-0.000011,11.887668,0.000013,
2221,2623,-0.814272868677254,-0.523332575891075,-0.0208949449419151,0.001307,-0.050338,0.006274,0.021677,-2.239884,320.958441,21.973747,0.999091,0.984717,0.004831,0.466629,0.000084,0.000056,0.000009,0.000087,0.000054,17.036449,0.000142,
2071,2203,-4.01278464735899,-9.70049963729781,-0.00352249746185862,-0.003108,-0.050485,-0.011380,-0.126505,-2.332105,328.317068,22.091569,0.998317,0.981679,0.005513,0.433059,0.000620,0.000583,0.000098,0.000701,0.000502,39.585037,0.001208,
2131,2518,-2.75449042997171,-2.8150079734915,-0.0159316103176934,0.000392,-0.049211,0.000420,0.000017,-2.205016,322.977407,22.013327,0.999044,0.985459,0.004796,0.495393,0.000171,0.000084,0.000004,0.000172,0.000084,2.588895,0.000261,
2266,2878,0.121890873182831,5.02807248774663,-0.00167723787490104,0.002703,-0.049590,0.006542,0.083935,-2.233599,316.943624,22.374350,0.999642,0.992007,0.003647,0.468469,0.000013,0.000024,0.000003,0.000025,0.000012,74.182829,0.000038,
2191,2458,-1.43935881913044,-4.12389491958513,-0.0148467084210893,-0.000180,-0.049760,-0.001602,-0.020908,-2.234718,323.720515,21.803558,0.999062,0.986121,0.004868,0.498610,0.000204,0.000139,0.000001,0.000204,0.000139,0.878158,0.000345,
2461,2743,4.38833172875215,2.10092712875917,-0.0227115530196329,0.002200,-0.050790,0.008517,0.047489,-2.252624,318.980837,22.187648,0.999606,0.990949,0.003802,0.462414,0.000068,0.000073,0.000014,0.000085,0.000057,50.361094,0.000143,
2251,2773,-0.187250313737188,2.74469954633567,-0.0155293177747353,0.001953,-0.049736,0.007710,0.046056,-2.215087,318.525439,22.204762,0.999281,0.987968,0.004234,0.470417,0.000027,0.000048,-0.000006,0.000050,0.000026,-74.901571,0.000077,
2266,3088,0.0867202079768497,9.58795266587485,0.032261449979103,0.003232,-0.050066,0.011145,0.092981,-2.223207,313.809396,22.767899,0.999516,0.992265,0.003642,0.433145,0.000005,-0.000005,-0.000007,0.000009,-0.000009,-27.877199,0.000010,
2176,2638,-1.79485376916539,-0.19761909210218,-0.0218737483576206,0.001843,-0.049725,0.003466,0.056453,-2.230268,320.872199,22.037331,0.999545,0.989697,0.004079,0.465162,0.000080,0.000042,0.000003,0.000080,0.000042,5.082809,0.000124,
2101,2353,-3.38174449759908,-6.41744274155786,-0.0175819161955246,-0.000786,-0.049436,-0.005940,-0.035133,-2.247834,325.725982,22.045816,0.998869,0.984369,0.005059,0.447856,0.000355,0.000247,0.000029,0.000362,0.000239,14.268021,0.000606,
2131,2443,-2.74280346187457,-4.45237626468568,-0.0139285247498719,-0.000143,-0.049512,0.001234,-0.027063,-2.216859,324.179476,21.926418,0.999099,0.987901,0.004681,0.535998,0.000233,0.000114,-0.000001,0.000233,0.000114,-0.400067,0.000354,
2161,2593,-2.11410461280829,-1.17889315330687,-0.0205673292032884,0.001124,-0.050067,0.003008,0.024998,-2.247224,321.633260,22.024595,0.999161,0.988139,0.004384,0.439704,0.000107,0.000069,0.000010,0.000110,0.000067,13.868444,0.000178,
2161,2353,-2.07483885871877,-6.41833611542361,-0.0148916561608416,-0.000282,-0.050456,-0.005588,-0.013332,-2.277190,325.522451,21.774379,0.998915,0.985678,0.004814,0.478796,0.000335,0.000253,0.000006,0.000335,0.000253,4.490104,0.000590,
2356,3193,2.02278487027347,11.873149627335,0.0380790418856236,0.004082,-0.050062,0.012340,0.124411,-2.233695,312.095968,23.371555,0.999573,0.991766,0.003647,0.415083,0.000005,0.000007,-0.000002,0.000008,0.000004,-58.093457,0.000013,
2116,2143,-3.02350948331992,-11.015582417278,-0.00417019183623779,-0.003764,-0.051553,-0.014729,-0.146360,-2.385357,329.039903,21.798549,0.997729,0.976157,0.006442,0.424224,0.000729,0.000704,0.000098,0.000816,0.000617,41.471082,0.001438,
2176,2428,-1.75996073813819,-4.77844725437588,-0.0175308395947695,0.000499,-0.049433,-0.007456,0.028684,-2.235239,324.279362,21.850195,0.998829,0.985534,0.004933,0.461525,0.000235,0.000148,-0.000013,0.000237,0.000146,-8.314168,0.000386,
2131,2248,-2.71216274500925,-8.71577254118215,-0.00635745593820047,-0.002014,-0.051027,-0.008362,-0.084681,-2.325366,327.330215,21.820250,0.998653,0.981493,0.005451,0.436241,0.000523,0.000480,0.000058,0.000564,0.000439,34.759763,0.001005,
2491,2938,5.00324026203897,6.34843708914323,-0.0128089902101465,0.002749,-0.050576,0.010175,0.065584,-2.227989,315.970265,23.049495,0.999481,0.989167,0.003924,0.395851,0.000001,-0.000017,0.000020,0.000014,-0.000030,33.479390,0.000030,
2116,2458,-3.07103064388549,-4.12470349085208,-0.0151125730490094,0.000097,-0.049608,-0.004707,0.001691,-2.258192,324.020582,22.047575,0.999211,0.988424,0.004504,0.417835,0.000216,0.000091,-0.000004,0.000216,0.000091,-1.625388,0.000316,
2401,2188,3.19222887636611,-10.0346419931417,0.00665313133282552,0.000698,-0.052456,-0.013329,0.058757,-2.431383,328.146398,20.348794,0.999145,0.982737,0.005226,0.371304,0.000706,0.000686,-0.000054,0.000751,0.000641,-39.752130,0.001393,
2146,2293,-2.39184291417221,-7.73138618553619,-0.00782210895016533,-0.001145,-0.050860,-0.009336,-0.041713,-2.342556,326.576609,21.797693,0.998320,0.983649,0.005297,0.403378,0.000445,0.000369,0.000043,0.000464,0.000350,24.310524,0.000816,
2476,2788,4.70661941288425,3.08249500648871,-0.0225426869580474,0.002441,-0.050410,0.003864,0.075923,-2.255022,318.311221,22.408035,0.999160,0.985382,0.004536,0.413784,0.000056,0.000031,0.000008,0.000059,0.000029,17.068857,0.000089,
2206,2563,-1.12968361002962,-1.83231760251964,-0.0128379890595625,0.001073,-0.049838,0.002658,0.023020,-2.217008,322.038533,21.917491,0.999561,0.991120,0.003827,0.489189,0.000120,0.000086,0.000012,0.000123,0.000083,17.242573,0.000207,
2326,3088,1.38986924479977,9.59195958566121,0.0257753112433079,0.003735,-0.050286,0.010089,0.117359,-2.245317,313.713392,22.913348,0.999641,0.994369,0.003139,0.487287,-0.000002,-0.000003,0.000000,-0.000002,-0.000003,-24.868724,0.000005,
2131,2458,-2.74531115594639,-4.12255192376155,-0.0216702499741928,0.000104,-0.049457,-0.001670,-0.006999,-2.217324,323.891629,22.083630,0.999135,0.988573,0.004640,0.385777,0.000218,0.000102,-0.000004,0.000218,0.000102,-1.768484,0.000327,
2041,2128,-4.65619205754802,-11.3437675447492,0.00330864825667732,-0.004777,-0.051636,-0.012344,-0.201080,-2.376443,329.670480,22.229612,0.998448,0.978626,0.006067,0.423888,0.000776,0.000705,0.000141,0.000886,0.000595,38.010218,0.001490,
2431,2353,3.8137671069653,-6.4181756798576,-0.00932825238550095,0.001183,-0.051369,-0.009728,0.068690,-2.353150,325.395181,20.805785,0.998914,0.982049,0.005185,0.411171,0.000397,0.000295,-0.000032,0.000406,0.000286,-15.866696,0.000696,
2146,2503,-2.42559936290309,-3.14090518542766,-0.0299417625111573,0.001042,-0.049055,-0.006203,0.049793,-2.231513,323.092183,21.964993,0.998820,0.984179,0.005109,0.480238,0.000181,0.000097,-0.000009,0.000182,0.000096,-6.124235,0.000282,
2251,3028,-0.229408724400233,8.2858024896944,0.0148202300829894,0.003255,-0.049640,0.010757,0.096067,-2.204028,314.673794,22.619477,0.999225,0.989175,0.004024,0.456097,0.000002,-0.000005,-0.000010,0.000009,-0.000012,-35.763284,0.000013,
2236,2968,-0.544990004134224,6.98278363103322,0.00340018978397438,0.003197,-0.049071,0.005494,0.111211,-2.196373,315.603907,22.501152,0.999456,0.991809,0.003712,0.454140,0.000005,-0.000005,-0.000003,0.000006,-0.000006,-17.430759,0.000007,
2341,3193,1.69711200446966,11.8715409763816,0.0418716295135368,0.004080,-0.050237,0.015112,0.115160,-2.245113,312.120342,23.307898,0.999650,0.993353,0.003452,0.396390,0.000002,0.000007,0.000001,0.000007,0.000002,74.656045,0.000010,
2236,2788,-0.515655955000909,3.07088084963888,-0.0179547750187226,0.002190,-0.049328,0.003848,0.070053,-2.210942,318.315932,22.236637,0.999455,0.988986,0.004096,0.454777,0.000027,0.000045,-0.000001,0.000045,0.000027,-88.049972,0.000073,
2371,3283,2.32992506826568,13.8264829282592,0.0177993494800717,0.004391,-0.050283,0.013701,0.133170,-2.244202,310.460147,23.614429,0.999651,0.992901,0.003383,0.470562,0.000011,-0.000003,-0.000010,0.000016,-0.000007,-26.930794,0.000016,
2446,2518,4.10759266509634,-2.81100097882788,-0.00495251994971113,0.001265,-0.051278,0.002693,0.026458,-2.297716,322.740026,21.324039,0.999158,0.986389,0.004571,0.484453,0.000224,0.000078,-0.000028,0.000229,0.000073,-10.553014,0.000315,
2296,3013,0.750212131715948,7.96330128042464,0.00892298891375276,0.003103,-0.050015,0.009317,0.092080,-2.225328,314.796635,22.718556,0.999083,0.987149,0.004361,0.446006,0.000007,0.000005,0.000005,0.000011,0.000001,39.822807,0.000013,
2281,3163,0.399648202010109,11.216385593839,0.0384000394137729,0.003992,-0.049965,0.015389,0.113299,-2.204182,312.630455,22.975278,0.999559,0.992249,0.003609,0.433698,0.000004,0.000008,0.000004,0.000011,0.000001,56.544536,0.000013,
2296,3073,0.741193876378542,9.26499496016408,0.0293826905049741,0.003397,-0.049922,0.006763,0.114337,-2.225196,314.009826,22.864832,0.999601,0.994116,0.003385,0.415940,0.000002,0.000010,0.000010,0.000017,-0.000005,55.217486,0.000017,
2161,2638,-2.12203870923728,-0.197073669997536,-0.0213094512271823,0.001097,-0.049881,0.008510,0.006999,-2.199764,320.879187,22.118137,0.999758,0.993068,0.003569,0.425879,0.000086,0.000038,0.000000,0.000086,0.000038,0.531240,0.000127,
2281,2923,0.439598467407681,6.00835128467497,-0.00690473824158744,0.003120,-0.049798,0.008980,0.094557,-2.213822,316.153645,22.526621,0.999549,0.992564,0.003571,0.442470,0.000012,-0.000002,0.000003,0.000013,-0.000002,11.802186,0.000013,
2086,2263,-3.69488176465937,-8.38758772898232,-0.00758605008735458,-0.002253,-0.050371,-0.009032,-0.093831,-2.304850,327.274155,21.988903,0.998754,0.984302,0.004992,0.493979,0.000510,0.000458,0.000090,0.000577,0.000391,36.966640,0.000974,
2191,2413,-1.43138674480071,-5.10647288360924,-0.0146898100501289,-0.000254,-0.049477,-0.007936,-0.004360,-2.250340,324.465584,21.776570,0.998961,0.987015,0.004730,0.462074,0.000252,0.000186,-0.000010,0.000254,0.000184,-8.306484,0.000440,
2101,2083,-3.34271068715338,-12.3307828178241,-0.0126164407581655,-0.004851,-0.052780,-0.014888,-0.196362,-2.442570,329.951747,21.757388,0.998608,0.957351,0.008189,0.475075,0.000874,0.000805,0.000103,0.000948,0.000731,35.670879,0.001684,
2116,2488,-3.07576655164484,-3.47049641416278,-0.0151637684347747,0.000326,-0.049672,-0.002173,0.004674,-2.248191,323.538706,22.010876,0.999154,0.987084,0.004569,0.474025,0.000189,0.000091,-0.000002,0.000189,0.000091,-1.225083,0.000286,
2071,2218,-4.01491773953139,-9.37169705768295,0.00448327248301439,-0.003013,-0.050522,-0.004381,-0.142066,-2.297183,328.126394,22.191852,0.997914,0.980719,0.005559,0.366624,0.000589,0.000553,0.000100,0.000673,0.000470,39.936325,0.001148,
2356,3208,2.02034201787986,12.1978988133698,0.0415020397912258,0.004195,-0.049984,0.011894,0.131248,-2.227086,311.885755,23.366466,0.999522,0.992420,0.003548,0.464409,0.000008,0.000006,-0.000003,0.000011,0.000003,-38.586885,0.000015,
2101,2368,-3.38311162402615,-6.09125741726893,-0.009117666255122,-0.000489,-0.049422,-0.008267,-0.014683,-2.253326,325.575607,21.999044,0.998796,0.983584,0.005219,0.491775,0.000337,0.000229,0.000022,0.000341,0.000224,10.985412,0.000570,
2506,3148,5.29107403295077,10.9095787242753,0.0296326193021059,0.003939,-0.050728,0.012655,0.110064,-2.267973,312.974125,23.878170,0.999497,0.990702,0.003783,0.403208,0.000031,-0.000014,0.000011,0.000034,-0.000016,13.489056,0.000034,
2311,3013,1.07612417519244,7.96466957743809,0.00822804667853916,0.003201,-0.050157,0.009603,0.095040,-2.235835,314.779419,22.797951,0.999453,0.990894,0.003767,0.400234,-0.000001,0.000006,0.000007,0.000010,-0.000005,57.527793,0.000010,
2161,2698,-2.13095704351884,1.1089387900725,-0.0197018921326162,0.001857,-0.049301,0.005414,0.051578,-2.197327,319.964372,22.107420,0.999253,0.987781,0.004205,0.480781,0.000058,0.000042,-0.000008,0.000061,0.000038,-23.382357,0.000100,
2371,3298,2.32662286596427,14.1523918302969,0.00624006040857239,0.004788,-0.050187,0.012645,0.155275,-2.240316,310.138489,23.661180,0.999652,0.993175,0.003393,0.467492,0.000011,0.000001,-0.000015,0.000022,-0.000010,-36.116932,0.000022,
2176,2653,-1.79809222374562,0.130949577863866,-0.035554804143203,0.001839,-0.049189,0.000204,0.066568,-2.210185,320.524147,22.080118,0.999587,0.989713,0.004088,0.455478,0.000073,0.000042,0.000000,0.000073,0.000042,0.807888,0.000116,
2206,2803,-1.17071463080224,3.39576423045845,-0.0195666980266083,0.002083,-0.049628,0.006951,0.055867,-2.210114,318.119527,22.216968,0.998742,0.984202,0.004940,0.469891,0.000018,0.000034,-0.000002,0.000035,0.000018,-83.440920,0.000054,
2266,2893,0.11904692529782,5.35511010103185,-0.00665543959939896,0.002791,-0.049637,0.004770,0.093889,-2.226529,316.667045,22.439830,0.999517,0.990502,0.003840,0.435541,0.000011,0.000014,0.000003,0.000016,0.000009,55.428727,0.000025,
2266,3103,0.0844220953405639,9.914003551089,0.0291249349771761,0.003741,-0.049558,0.009371,0.122544,-2.196926,313.566974,22.795328,0.999707,0.993878,0.003313,0.456832,0.000006,-0.000001,-0.000008,0.000011,-0.000006,-33.977201,0.000011,
2161,2368,-2.07701129694002,-6.08978041191238,-0.0138699947989949,-0.000174,-0.049652,-0.007436,-0.002438,-2.247593,325.299242,21.838108,0.998969,0.988925,0.004344,0.456365,0.000312,0.000240,-0.000001,0.000312,0.000240,-1.112740,0.000553,
2146,2308,-2.39386254986865,-7.40377977213269,-0.00224676533105139,-0.001013,-0.050553,-0.008055,-0.039456,-2.313924,326.383486,21.800281,0.998708,0.983253,0.005273,0.439235,0.000418,0.000327,0.000030,0.000427,0.000318,16.646084,0.000748,
2221,2533,-0.798148060910901,-2.48567590738797,-0.0157467241535301,0.000948,-0.049768,-0.001323,0.029724,-2.234648,322.467725,21.903277,0.999514,0.989548,0.004024,0.424121,0.000137,0.000106,0.000011,0.000141,0.000102,17.488899,0.000244,
2221,2638,-0.816877373039318,-0.195981225382653,-0.0334214131777344,0.001759,-0.049868,0.000263,0.061902,-2.236507,320.650697,21.926312,0.999034,0.985678,0.004802,0.537421,0.000078,0.000050,0.000009,0.000081,0.000047,15.681087,0.000129,
2461,2758,4.38523934108497,2.42778148105092,-0.0237120189840425,0.002245,-0.050816,0.008873,0.048204,-2.252732,318.728630,22.236278,0.999603,0.989310,0.004013,0.468463,0.000071,0.000067,0.000015,0.000083,0.000054,40.804892,0.000138,
2476,2803,4.70336677519709,3.4090922510218,-0.0200076956677435,0.002347,-0.050718,0.007680,0.056951,-2.257256,318.068689,22.476174,0.999175,0.984884,0.004728,0.399980,0.000050,0.000013,0.000008,0.000052,0.000011,11.106736,0.000067,
2086,2278,-3.69734844943809,-8.05802268783042,-0.0102068942630353,-0.002224,-0.050111,-0.009022,-0.092449,-2.292149,327.011578,22.092619,0.999151,0.988460,0.004524,0.404381,0.000490,0.000414,0.000085,0.000545,0.000359,32.895911,0.000910,
2131,2473,-2.74759673897797,-3.79587771722035,-0.0182087117813694,-0.000036,-0.049348,-0.002456,-0.011079,-2.215265,323.674347,22.059417,0.999222,0.987439,0.004691,0.418955,0.000204,0.000104,-0.000001,0.000204,0.000104,-0.614771,0.000314,
2131,2578,-2.76494842827882,-1.50407118737619,-0.0290291281915529,0.000792,-0.049175,0.004249,0.006987,-2.164921,321.903225,22.135370,0.999445,0.991749,0.004119,0.439986,0.000124,0.000072,0.000002,0.000124,0.000071,2.151962,0.000198,
2131,2263,-2.71439245567149,-8.38857224573746,0.00173304241985761,-0.002291,-0.051034,-0.007125,-0.101073,-2.321448,327.139994,21.821431,0.998599,0.982546,0.005417,0.446780,0.000499,0.000438,0.000058,0.000534,0.000403,31.232262,0.000941,
2431,2368,3.81125293241841,-6.09011037464084,-0.00701602072280139,0.001279,-0.050958,-0.011918,0.081337,-2.344875,325.184146,20.861937,0.999094,0.982771,0.005034,0.414787,0.000377,0.000281,-0.000030,0.000386,0.000272,-16.037478,0.000661,
2341,3208,1.6946965156595,12.1959679828016,0.045191489668241,0.004097,-0.049913,0.013233,0.122681,-2.227057,311.910076,23.260583,0.999618,0.993131,0.003427,0.497188,0.000003,0.000007,0.000000,0.000007,0.000003,-86.076163,0.000011,
2446,2533,4.10502830431689,-2.48116036767243,-0.00535162284842272,0.001667,-0.050468,0.001722,0.048901,-2.251911,322.514147,21.533652,0.999185,0.988122,0.004428,0.373956,0.000212,0.000077,-0.000023,0.000216,0.000074,-9.321852,0.000300,
2296,3028,0.748569342962529,8.28893888922603,0.0142998828944769,0.003788,-0.049825,0.008947,0.124935,-2.214872,314.629333,22.761088,0.999246,0.988961,0.004077,0.443099,0.000006,0.000004,0.000003,0.000008,0.000002,36.336550,0.000010,
2191,2548,-1.45416415262305,-2.16036883296523,-0.0116183683328472,0.000421,-0.050224,0.004117,-0.011411,-2.233800,322.300919,21.901653,0.999386,0.989415,0.004255,0.494749,0.000131,0.000088,0.000010,0.000133,0.000086,13.132874,0.000220,
2146,2518,-2.42865319854445,-2.81308416801645,-0.031534881023731,0.000927,-0.049308,-0.000595,0.027434,-2.213535,322.813697,21.999128,0.998950,0.985563,0.004835,0.473030,0.000169,0.000095,-0.000002,0.000169,0.000095,-1.611988,0.000267,
2161,2608,-2.11610603976721,-0.851664345403719,-0.0164484366137003,0.001195,-0.049325,0.000849,0.035166,-2.196739,321.434283,22.049886,0.999406,0.990782,0.004055,0.475626,0.000101,0.000055,0.000007,0.000102,0.000054,8.425920,0.000159,
2206,2578,-1.13217913699344,-1.50499111837592,-0.0151879259792622,0.001242,-0.049515,0.001653,0.034035,-2.209852,321.786804,21.929852,0.999236,0.989391,0.004125,0.501449,0.000111,0.000082,0.000016,0.000117,0.000075,23.510665,0.000194,
2491,2953,5.0010347348209,6.67339450136932,-0.00609243084295485,0.003040,-0.050811,0.010098,0.079075,-2.265591,315.795490,23.071986,0.999367,0.989049,0.004048,0.393967,0.000006,-0.000020,0.000024,0.000021,-0.000034,30.997922,0.000034,
2296,3088,0.738598090076884,9.58981987233261,0.0273518930899286,0.003830,-0.050068,0.008467,0.128402,-2.240912,313.762044,22.824785,0.999553,0.993414,0.003493,0.469540,0.000002,-0.000001,0.000000,0.000002,-0.000001,-2.672210,0.000002,
2116,2158,-3.02584950461236,-10.6867486081003,-0.00381205725136624,-0.003262,-0.052200,-0.007076,-0.146123,-2.381171,328.801950,21.832670,0.998617,0.983407,0.005396,0.400377,0.000705,0.000660,0.000096,0.000781,0.000584,38.424712,0.001370,
2146,2563,-2.43526113940692,-1.83357611727541,-0.0124246969709816,0.000524,-0.049154,0.000821,0.004691,-2.194119,322.222748,22.013853,0.999000,0.985577,0.004647,0.503615,0.000137,0.000080,-0.000002,0.000137,0.000080,-2.097836,0.000220,
2191,2488,-1.44457498012653,-3.46818767514943,-0.0227065751732312,0.000134,-0.049808,-0.002850,-0.002593,-2.246783,323.187902,21.857467,0.998911,0.983155,0.005328,0.464151,0.000179,0.000126,-0.000002,0.000179,0.000126,-2.114649,0.000306,
2176,2713,-1.80720454154919,1.4368760769103,-0.0246885078664718,0.002035,-0.048970,-0.000710,0.078506,-2.204998,319.653411,22.157284,0.999213,0.989704,0.004079,0.433827,0.000047,0.000041,-0.000006,0.000050,0.000037,-31.901367,0.000088,
2191,2788,-1.49453608259793,3.06898570093283,-0.0220653776727318,0.001943,-0.049720,0.009055,0.043218,-2.205985,318.373909,22.188500,0.999049,0.986523,0.004632,0.474781,0.000027,0.000042,-0.000003,0.000042,0.000027,-79.513701,0.000070,
2401,2203,3.19001083110749,-9.70695287713691,0.00651748136539254,0.001432,-0.052825,-0.012989,0.090979,-2.441061,327.935923,20.306271,0.998919,0.981635,0.005470,0.451962,0.000666,0.000645,-0.000047,0.000704,0.000607,-38.518977,0.001312,
2356,3223,2.01716933973898,12.5235318957912,0.0387209540442086,0.004110,-0.050116,0.012117,0.126537,-2.234476,311.611571,23.424723,0.999512,0.992402,0.003467,0.436216,0.000008,0.000008,-0.000006,0.000013,0.000002,-44.877862,0.000017,
2236,2983,-0.546997384791347,7.30794142962457,0.0135692884982745,0.003298,-0.049470,0.007986,0.107653,-2.201725,315.440937,22.536421,0.999511,0.992022,0.003674,0.433828,0.000008,-0.000004,-0.000003,0.000009,-0.000004,-15.126102,0.000009,
2191,2428,-1.43320063942832,-4.78037117209345,-0.00868172213682783,0.000320,-0.050199,-0.003971,0.009347,-2.271463,324.287712,21.733605,0.998566,0.985453,0.005110,0.499610,0.000234,0.000151,-0.000008,0.000235,0.000150,-5.470740,0.000388,
2281,3178,0.397505125796432,11.5409139382517,0.0429952114262164,0.004126,-0.050153,0.013708,0.124952,-2.229598,312.435442,22.980395,0.999638,0.992784,0.003361,0.429536,0.000006,0.000007,0.000004,0.000011,0.000002,49.403439,0.000014,
2221,2653,-0.819016624940293,0.130458848528164,-0.0272911801759506,0.001949,-0.049829,0.002497,0.063475,-2.227051,320.460123,21.952187,0.999289,0.988417,0.004389,0.540198,0.000075,0.000050,0.000007,0.000077,0.000048,15.010647,0.000126,
2386,1993,2.90359210448463,-14.3202981581978,0.018298775141659,0.000687,-0.057089,-0.019650,0.078619,-2.663994,331.395726,19.582519,0.998318,0.944189,0.008642,0.377443,0.001197,0.001031,-0.000085,0.001233,0.000995,-22.830072,0.002232,
2281,2938,0.436826740429321,6.33378330139784,-0.00444269045141255,0.002883,-0.049738,0.008893,0.083968,-2.208581,315.919219,22.513264,0.999441,0.991867,0.003737,0.488503,0.000015,-0.000005,0.000001,0.000015,-0.000005,2.642825,0.000015,
2191,2473,-1.44212816732674,-3.79578747046435,-0.0195037311960391,-0.000054,-0.049793,-0.001065,-0.016816,-2.219630,323.442931,21.823292,0.999090,0.984492,0.005117,0.509684,0.000193,0.000138,0.000002,0.000193,0.000138,1.669774,0.000332,
2161,2653,-2.12460153789833,0.130313893940766,-0.0315168329960898,0.001373,-0.049190,0.003418,0.035470,-2.206042,320.579138,22.107627,0.999685,0.991780,0.003706,0.440819,0.000080,0.000039,-0.000002,0.000080,0.000039,-3.414124,0.000121,
2161,2713,-2.13354401173448,1.43660032636491,-0.0244142656062536,0.001819,-0.048955,0.001345,0.062449,-2.199155,319.692003,22.183306,0.999352,0.989532,0.004098,0.413587,0.000054,0.000040,-0.000009,0.000058,0.000036,-25.251722,0.000094,
2251,2788,-0.189734692052504,3.07105925014064,-0.0142366891017787,0.001981,-0.049852,0.006870,0.050019,-2.230235,318.296305,22.246477,0.999498,0.988669,0.004093,0.436734,0.000025,0.000047,-0.000004,0.000048,0.000024,-79.201758,0.000073,
2131,2533,-2.75698181756211,-2.48816287308404,-0.0143593931685473,0.000356,-0.049639,0.002331,-0.007490,-2.212301,322.740628,22.015147,0.998964,0.985340,0.004792,0.492894,0.000154,0.000081,0.000007,0.000154,0.000080,5.327081,0.000238,
2506,3163,5.28808543487517,11.2345883954876,0.0287664743945015,0.003984,-0.050888,0.011132,0.117921,-2.289862,312.728956,23.891335,0.999589,0.991769,0.003573,0.427799,0.000025,0.000008,0.000005,0.000026,0.000006,15.632889,0.000034,
2416,2278,3.50163644644757,-8.0623693257174,0.00424352288649743,0.001127,-0.052908,-0.003257,0.041745,-2.399764,326.673457,20.565568,0.999067,0.983570,0.005085,0.409177,0.000521,0.000433,-0.000041,0.000537,0.000417,-21.370228,0.000957,
2296,3103,0.736013334825639,9.91583512422082,0.0315041881697198,0.003769,-0.049752,0.009455,0.122389,-2.219780,313.545043,22.900844,0.999269,0.991437,0.003923,0.443598,0.000001,0.000001,-0.000001,0.000002,0.000001,-45.396002,0.000003,
2176,2773,-1.81786995996094,2.74252816484518,-0.0270861916283138,0.002119,-0.049434,0.006032,0.061310,-2.194774,318.641908,22.166983,0.999326,0.989733,0.004232,0.484196,0.000034,0.000040,-0.000008,0.000045,0.000028,-55.020193,0.000074,
2176,2443,-1.76300481357289,-4.45154313834939,-0.0159916438141181,0.000088,-0.049906,-0.004026,-0.000996,-2.249843,324.020605,21.836965,0.999169,0.985868,0.004809,0.473682,0.000216,0.000145,-0.000007,0.000216,0.000144,-5.934336,0.000363,
2461,2773,4.38199639773268,2.75504791450889,-0.0267930045336016,0.001995,-0.050464,0.005388,0.049998,-2.247494,318.459789,22.305788,0.999368,0.987548,0.004310,0.458649,0.000067,0.000045,0.000014,0.000074,0.000039,25.518253,0.000114,
2326,3103,1.38757331369081,9.91771380056837,0.0300298158330747,0.003891,-0.050060,0.009669,0.126093,-2.236677,313.512123,22.978987,0.999537,0.993654,0.003349,0.463610,0.000001,0.000001,0.000000,0.000001,0.000000,45.575924,0.000001,
2101,2383,-3.3861832571995,-5.76248374951776,-0.0128857043064272,-0.000674,-0.049644,-0.003925,-0.035968,-2.259744,325.280752,22.075977,0.998753,0.983053,0.005151,0.411655,0.000320,0.000199,0.000019,0.000323,0.000196,8.689168,0.000524,
2161,2383,-2.08044360894005,-5.76174758576595,-0.0173737961014808,-0.000713,-0.049765,-0.004683,-0.035673,-2.252695,324.994832,21.850112,0.998852,0.987426,0.004604,0.451350,0.000293,0.000220,-0.000002,0.000293,0.000220,-1.307319,0.000514,
2296,3043,0.746491831481645,8.61435057958679,0.0216403274067716,0.003959,-0.049894,0.009467,0.131020,-2.225506,314.451861,22.820166,0.999332,0.989640,0.003978,0.402588,0.000004,0.000007,0.000004,0.000010,0.000001,57.173101,0.000012,
2491,2968,4.99861643936994,6.99899898271966,-0.00203780094187778,0.002905,-0.050435,0.004799,0.093369,-2.260596,315.598610,23.096309,0.999348,0.987479,0.004325,0.432891,0.000007,-0.000013,0.000031,0.000029,-0.000036,35.742573,0.000038,
2341,3223,1.69166120159167,12.5221741589518,0.0404095953975343,0.004181,-0.050102,0.012162,0.130176,-2.243090,311.631138,23.368351,0.999503,0.992458,0.003450,0.408656,0.000002,0.000009,-0.000003,0.000010,0.000001,-68.649709,0.000013,
2476,2818,4.70046134759184,3.73523363225873,-0.0156817842783425,0.002204,-0.050495,0.008601,0.047052,-2.230826,317.850243,22.491403,0.999271,0.986542,0.004631,0.467888,0.000040,-0.000003,0.000011,0.000043,-0.000005,13.270488,0.000047,
2251,3043,-0.231715712407428,8.61150424621026,0.01938605951932,0.003316,-0.049797,0.010931,0.098246,-2.205827,314.469111,22.677459,0.999447,0.991465,0.003688,0.418796,0.000002,-0.000004,-0.000011,0.000010,-0.000013,-36.790730,0.000013,
2131,2548,-2.7593558378684,-2.16116635069639,-0.0150719163090116,0.000333,-0.049488,0.000369,-0.002610,-2.206456,322.496964,22.002007,0.998764,0.983351,0.005009,0.518443,0.000144,0.000070,0.000007,0.000145,0.000069,5.697788,0.000219,
2266,2908,0.116613806023107,5.68112525987119,-0.0025949196094075,0.002794,-0.049522,0.005231,0.092580,-2.209341,316.455075,22.471274,0.999637,0.992250,0.003569,0.446278,0.000009,0.000008,0.000003,0.000011,0.000005,39.543986,0.000017,
2311,3028,1.07448753539116,8.28922131850939,0.0176753108768821,0.003625,-0.050377,0.009497,0.114836,-2.245990,314.633745,22.788403,0.999535,0.990703,0.003817,0.431033,-0.000001,0.000006,0.000004,0.000008,-0.000003,63.795452,0.000008,
2116,2173,-3.02767287964585,-10.3583295536409,0.00203509772268262,-0.003251,-0.051736,-0.009479,-0.138411,-2.351856,328.616923,21.867339,0.998497,0.983799,0.005404,0.400997,0.000677,0.000632,0.000091,0.000748,0.000560,38.059295,0.001313,
2386,2008,2.90046462133186,-13.988967142092,0.00931858663744833,0.001084,-0.056942,-0.020717,0.100669,-2.665371,331.100958,19.691704,0.998185,0.968368,0.006819,0.314133,0.001167,0.001025,-0.000067,0.001193,0.000998,-21.665105,0.002194,
2221,2548,-0.800291342633297,-2.15916522130183,-0.0113087303584507,0.001087,-0.049672,-0.001305,0.036109,-2.226011,322.268415,21.890255,0.999671,0.991531,0.003661,0.465343,0.000124,0.000089,0.000011,0.000127,0.000086,16.210106,0.000215,
2356,3238,2.01383374880566,12.8487496615269,0.0380806500635344,0.003831,-0.050117,0.014071,0.106763,-2.231135,311.340322,23.450281,0.999573,0.992602,0.003375,0.451442,0.000009,-0.000002,-0.000007,0.000012,-0.000005,-24.564896,0.000012,
2236,2803,-0.518455610910774,3.39723683030041,-0.0212721799773021,0.002360,-0.049495,0.005203,0.073463,-2.211823,318.047670,22.232608,0.999527,0.988847,0.004163,0.479212,0.000025,0.000035,-0.000001,0.000036,0.000025,-81.975577,0.000061,
2236,2998,-0.54971007368081,7.63280272306814,0.0140265134360789,0.003354,-0.049895,0.010098,0.103179,-2.220708,315.196075,22.494880,0.999471,0.990723,0.003845,0.476852,0.000007,0.000000,-0.000005,0.000010,-0.000003,-27.772685,0.000010,
2506,3178,5.28577724847657,11.5603731647306,0.0361481568747877,0.004015,-0.050581,0.009643,0.125375,-2.262993,312.551812,23.980254,0.999609,0.992461,0.003521,0.425735,0.000020,0.000018,0.000005,0.000024,0.000014,40.309241,0.000038,
2191,2563,-1.45592636581294,-1.8339203085073,-0.00459905266808391,0.000769,-0.049946,0.004883,0.002316,-2.213910,322.130370,21.898039,0.999369,0.989327,0.004136,0.533444,0.000125,0.000088,0.000010,0.000128,0.000086,13.772318,0.000215,
2176,2728,-1.8100068253813,1.76273572475391,-0.0281256346345913,0.002124,-0.049243,0.001224,0.076487,-2.219686,319.379669,22.096439,0.999327,0.989649,0.004128,0.492626,0.000042,0.000041,-0.000006,0.000047,0.000035,-41.974654,0.000083,
2086,2293,-3.70029529135557,-7.72965925162741,-0.0145980831057386,-0.002635,-0.049805,-0.010044,-0.108316,-2.285088,326.717729,22.080085,0.999540,0.991793,0.004113,0.425243,0.000470,0.000392,0.000081,0.000521,0.000341,32.229242,0.000869,
2146,2323,-2.39668968788375,-7.07547630110328,-0.00069895783803986,-0.001187,-0.050668,-0.003314,-0.061797,-2.294211,326.132035,21.839968,0.999201,0.983252,0.005173,0.429088,0.000394,0.000289,0.000018,0.000397,0.000286,9.684201,0.000686,
2131,2278,-2.71630238102714,-8.05971714866683,-0.00680483678610244,-0.001396,-0.050923,-0.009635,-0.052516,-2.330426,326.875672,21.822129,0.998620,0.983286,0.005354,0.444961,0.000476,0.000396,0.000054,0.000504,0.000369,26.776849,0.000876,
2446,2548,4.10145515033921,-2.15325880603046,-0.0138666735110746,0.001610,-0.050191,-0.000485,0.054626,-2.244634,322.204960,21.536831,0.999526,0.989873,0.004084,0.431420,0.000201,0.000060,-0.000018,0.000203,0.000058,-7.184231,0.000274,
2131,2488,-2.74980499393116,-3.46996012945122,-0.0191935094748032,0.000320,-0.049827,-0.001259,0.001544,-2.239529,323.437194,21.955829,0.999329,0.986491,0.004715,0.504930,0.000192,0.000098,-0.000005,0.000192,0.000097,-2.984829,0.000295,
2191,2848,-1.50289421281111,4.37264291198314,-0.00610229985693422,0.002787,-0.049751,0.009651,0.080161,-2.218909,317.568774,22.264960,0.999254,0.990163,0.003918,0.442283,0.000020,0.000028,0.000007,0.000032,0.000016,59.590121,0.000049,
2461,2788,4.380249764517,3.08097190860769,-0.0185956411354482,0.002347,-0.050137,0.002407,0.077496,-2.255614,318.311649,22.357547,0.999250,0.986376,0.004427,0.453026,0.000064,0.000034,0.000011,0.000067,0.000031,18.188630,0.000100,
2146,2533,-2.4306209092994,-2.48725818309427,-0.0192357387652464,0.000759,-0.049554,0.001797,0.012396,-2.222073,322.659081,22.006164,0.999189,0.987122,0.004439,0.465988,0.000153,0.000090,0.000002,0.000153,0.000090,1.589736,0.000246,
2401,2218,3.18648734974216,-9.37619453721229,0.00437252068104499,0.001020,-0.052450,-0.012913,0.071994,-2.422428,327.655633,20.500504,0.998910,0.982860,0.005550,0.324572,0.000639,0.000605,-0.000041,0.000666,0.000578,-33.550478,0.001245,
2191,2503,-1.44676753718412,-3.14178270927712,-0.0146961490801232,0.000125,-0.050152,0.000002,-0.012094,-2.256493,323.002913,21.872034,0.999137,0.986079,0.004824,0.455297,0.000170,0.000114,0.000001,0.000170,0.000114,0.604516,0.000285,
2146,2578,-2.43816510737916,-1.50515429836016,-0.0236799098804568,0.000800,-0.048919,0.000320,0.018982,-2.179966,321.899773,22.040727,0.999144,0.987876,0.004466,0.499968,0.000126,0.000079,0.000001,0.000126,0.000079,0.800906,0.000206,
2176,2668,-1.80007750515514,0.456051994845502,-0.0179271911567298,0.001313,-0.049296,0.002163,0.036264,-2.208058,320.398277,22.089851,0.999595,0.992073,0.003663,0.460371,0.000067,0.000050,-0.000004,0.000068,0.000049,-13.173844,0.000117,
2296,3118,0.733117934066197,10.2411507944021,0.0335598722433019,0.003699,-0.050034,0.012429,0.109045,-2.214408,313.303539,22.918539,0.999492,0.993196,0.003526,0.460133,0.000003,0.000005,0.000001,0.000006,0.000003,58.331562,0.000008,
2191,2803,-1.49695879426816,3.39549858886301,-0.0180194410696686,0.001803,-0.049538,0.009009,0.037039,-2.187775,318.157419,22.235965,0.999003,0.986261,0.004643,0.459907,0.000023,0.000031,-0.000004,0.000033,0.000021,-68.977680,0.000055,
2161,2623,-2.11946122672601,-0.523630351931615,-0.0227099576762839,0.001003,-0.049382,0.004505,0.015145,-2.180701,321.118515,22.099107,0.999536,0.990700,0.003991,0.453192,0.000095,0.000047,0.000001,0.000095,0.000047,1.330342,0.000145,
2431,2383,3.80772622543929,-5.7610816407522,-0.0083494162460056,0.001202,-0.050842,-0.007456,0.061434,-2.317109,324.909475,20.956525,0.999521,0.986388,0.004699,0.399860,0.000361,0.000244,-0.000041,0.000374,0.000232,-17.426283,0.000611,
2416,2293,3.49869650733428,-7.73289070790205,-0.00294471509153027,0.001341,-0.052216,-0.007911,0.068827,-2.399297,326.397618,20.637300,0.998677,0.980060,0.005641,0.387939,0.000495,0.000392,-0.000033,0.000505,0.000382,-16.461214,0.000890,
2101,2098,-3.34286678478646,-11.9998547804637,0.0030599648396219,-0.003784,-0.051770,-0.016841,-0.141414,-2.410762,329.894185,22.101041,0.999057,0.956334,0.008366,0.166752,0.000838,0.000779,0.000110,0.000923,0.000694,37.490043,0.001623,
2161,2668,-2.12542012023841,0.454593213572082,-0.00928295164482051,0.001415,-0.049158,0.001307,0.043904,-2.207247,320.530680,22.082773,0.999706,0.993388,0.003385,0.474391,0.000072,0.000046,-0.000007,0.000073,0.000044,-13.807548,0.000119,
2176,2458,-1.76503087578594,-4.12415896853783,-0.014379009842628,0.000350,-0.049374,-0.005615,0.016111,-2.237203,323.808628,21.845692,0.999120,0.986096,0.004842,0.491223,0.000201,0.000134,-0.000004,0.000201,0.000134,-3.345598,0.000337,
2491,2983,4.99529439439829,7.3258310619625,-0.00118601590537537,0.002833,-0.050526,0.007743,0.078758,-2.260319,315.345242,23.220228,0.999226,0.988131,0.004202,0.367379,0.000006,-0.000008,0.000031,0.000031,-0.000033,38.890349,0.000037,
2071,2233,-4.01722839460203,-9.04304866831276,-0.00262128508927617,-0.002780,-0.050721,-0.007434,-0.122774,-2.317426,327.845477,22.181092,0.998585,0.984439,0.005035,0.356801,0.000563,0.000519,0.000089,0.000632,0.000449,38.024775,0.001087,
2266,3118,0.0820915945167755,10.2386351693113,0.0382915954303371,0.003667,-0.049771,0.012305,0.109274,-2.216399,313.385566,22.818667,0.999671,0.993887,0.003307,0.438212,0.000005,0.000003,-0.000007,0.000011,-0.000003,-40.497923,0.000012,
2221,2698,-0.826806266975581,1.11054931287025,-0.0210790466999811,0.001698,-0.049830,0.004739,0.044735,-2.220083,319.762782,22.044831,0.999633,0.993447,0.003357,0.512344,0.000051,0.000057,0.000002,0.000058,0.000051,75.996501,0.000109,
2281,3193,0.395137837030941,11.8661108179708,0.0423643582708451,0.004359,-0.049961,0.011209,0.144150,-2.227769,312.203660,22.992473,0.999668,0.993038,0.003306,0.445993,0.000005,0.000006,0.000006,0.000011,-0.000001,47.420157,0.000013,
2476,2833,4.69836485909527,4.06138733467215,-0.0112186636566207,0.002503,-0.050040,0.005251,0.073690,-2.232450,317.669630,22.540485,0.999393,0.988144,0.004157,0.473662,0.000035,0.000001,0.000012,0.000039,-0.000003,17.793517,0.000044,
2251,3058,-0.232731414424229,8.93553589056549,0.0360696113636436,0.003534,-0.049214,0.007471,0.119878,-2.185889,314.385774,22.642051,0.999507,0.992730,0.003510,0.496554,0.000005,-0.000006,-0.000008,0.000009,-0.000010,-27.775697,0.000011,
2296,3058,0.743403815962782,8.93953889215915,0.0176751667117401,0.003693,-0.049692,0.006449,0.129060,-2.221305,314.171769,22.773453,0.999498,0.992392,0.003599,0.482406,0.000002,0.000004,0.000008,0.000011,-0.000005,47.980054,0.000011,
2206,2863,-1.17961883441235,4.6996905930517,-0.00396333913317903,0.002414,-0.049059,0.006302,0.073400,-2.175739,317.291213,22.285155,0.999348,0.991679,0.003605,0.501641,0.000014,0.000026,0.000008,0.000029,0.000010,63.723201,0.000041,
2356,3253,2.01096517956594,13.1736918200694,0.0384188991972678,0.003914,-0.050262,0.015648,0.104981,-2.234608,311.095356,23.466455,0.999652,0.992443,0.003359,0.469189,0.000009,-0.000002,-0.000003,0.000010,-0.000003,-15.378615,0.000011,
2161,2728,-2.13600764729636,1.76215196058612,-0.0257785036228029,0.001979,-0.049292,0.001806,0.068245,-2.219806,319.443546,22.116467,0.999467,0.989349,0.004157,0.469957,0.000048,0.000039,-0.000009,0.000054,0.000033,-32.416772,0.000088,
2281,2953,0.434850250917208,6.66012873421011,-0.00426409260273886,0.003322,-0.049388,0.004842,0.117874,-2.205164,315.709617,22.573512,0.999223,0.989556,0.004079,0.458900,0.000012,-0.000012,0.000001,0.000012,-0.000012,3.028690,0.000014,
2206,2593,-1.13467631280506,-1.17773071154514,-0.0125089404114647,0.001246,-0.049712,0.003271,0.029080,-2.196715,321.560918,21.978873,0.998881,0.987145,0.004539,0.482945,0.000100,0.000070,0.000017,0.000108,0.000063,23.899193,0.000173,
2221,2563,-0.803277996234602,-1.8316324399898,-0.018947543827835,0.001367,-0.049949,0.000595,0.042787,-2.239158,321.968386,21.890472,0.999501,0.990853,0.003819,0.471988,0.000116,0.000086,0.000011,0.000120,0.000083,18.855226,0.000203,
2131,2563,-2.76194635558394,-1.83205682088025,-0.0254401677016176,0.000826,-0.049089,-0.000216,0.021905,-2.192074,322.191335,22.093749,0.999071,0.987036,0.004611,0.447958,0.000136,0.000073,0.000000,0.000136,0.000073,-0.180199,0.000212,
2386,2023,2.89675356451798,-13.6582912253046,0.00299900820596122,0.000728,-0.056037,-0.021119,0.086223,-2.633314,330.791820,19.744853,0.998094,0.969197,0.006990,0.340471,0.001125,0.001009,-0.000064,0.001154,0.000981,-23.884580,0.002137,
2251,2803,-0.192798770317978,3.39836925310266,-0.0217330044639539,0.002060,-0.049417,0.006028,0.056580,-2.207072,317.995676,22.273968,0.999440,0.988918,0.004252,0.455775,0.000023,0.000036,-0.000005,0.000037,0.000022,-70.303920,0.000060,
2506,3193,5.28285477425409,11.8852746477661,0.0398617998744726,0.004105,-0.050820,0.012456,0.118499,-2.269557,312.330092,24.002416,0.999594,0.992613,0.003528,0.456730,0.000021,0.000020,0.000000,0.000021,0.000020,12.850523,0.000042,
2446,2563,4.09854138562996,-1.82594160726581,-0.0168974487827995,0.001930,-0.050542,-0.000677,0.069903,-2.260959,321.951398,21.564244,0.999510,0.988845,0.004383,0.440911,0.000186,0.000064,-0.000009,0.000186,0.000063,-4.340333,0.000259,
2101,2398,-3.38851221570652,-5.43607407868531,-0.00306021191721584,-0.000957,-0.049836,0.001001,-0.063422,-2.250638,325.093648,22.056847,0.998953,0.984246,0.004823,0.442469,0.000296,0.000171,0.000015,0.000298,0.000169,6.615191,0.000472,
2176,2473,-1.76805534769862,-3.79593561603582,-0.0157590836282679,0.000206,-0.049630,-0.001581,-0.003050,-2.219447,323.535077,21.903367,0.999122,0.985009,0.005098,0.465139,0.000189,0.000134,-0.000002,0.000190,0.000134,-2.155133,0.000325,
2326,3118,1.38470946295795,10.2437532885255,0.0313203715103327,0.003829,-0.049876,0.010902,0.119062,-2.224724,313.270054,23.052606,0.999409,0.992548,0.003576,0.435180,0.000003,0.000008,0.000002,0.000009,0.000002,70.202340,0.000012,
2191,2818,-1.49921208421029,3.72108023102854,-0.0179051235980978,0.001880,-0.049580,0.005737,0.050693,-2.231182,317.928633,22.233141,0.998718,0.984802,0.004782,0.433484,0.000023,0.000038,-0.000004,0.000039,0.000022,-76.247184,0.000061,
2086,2308,-3.70235920314666,-7.40198358053889,-0.0128784216948361,-0.002148,-0.050128,-0.004741,-0.101351,-2.280921,326.497541,22.074220,0.999266,0.989081,0.004570,0.436344,0.000439,0.000342,0.000064,0.000471,0.000311,26.326552,0.000787,
2206,2818,-1.17292547780201,3.72118152683075,-0.0158343774296554,0.002139,-0.049791,0.006055,0.061161,-2.233126,317.912521,22.206675,0.999068,0.987202,0.004442,0.473713,0.000018,0.000041,-0.000001,0.000041,0.000018,-87.261327,0.000061,
2311,3043,1.07197338796558,8.61516808717299,0.0214348409154468,0.003600,-0.050032,0.009386,0.114181,-2.230722,314.419161,22.847407,0.999540,0.991346,0.003713,0.418679,-0.000003,0.000008,0.000005,0.000010,-0.000004,70.292021,0.000010,
2161,2398,-2.0818822457529,-5.43606527760808,-0.0075737188549283,-0.000404,-0.050031,-0.005617,-0.018724,-2.282950,324.852170,21.804736,0.998734,0.986436,0.004770,0.477888,0.000273,0.000202,-0.000004,0.000274,0.000201,-2.856700,0.000477,
2176,2683,-1.80241021225374,0.782030778456907,-0.0221736575711589,0.001793,-0.049846,0.002172,0.058136,-2.234054,320.141882,22.029613,0.999317,0.990977,0.003934,0.507264,0.000059,0.000053,-0.000005,0.000062,0.000050,-29.923667,0.000112,
2176,2788,-1.81972861819842,3.06895009791235,-0.0252794470396225,0.002447,-0.049108,0.002693,0.086859,-2.201021,318.438659,22.208928,0.999357,0.988985,0.004277,0.448189,0.000031,0.000041,-0.000004,0.000043,0.000030,-70.975335,0.000073,
2266,2923,0.114257301277025,6.00650913082573,0.000206148364270575,0.003082,-0.049627,0.007332,0.098786,-2.223315,316.240497,22.470416,0.999642,0.992611,0.003694,0.458101,0.000008,0.000004,0.000001,0.000008,0.000004,8.851879,0.000012,
2116,2188,-3.03043063033808,-10.0295687556802,-0.00169296792125806,-0.003262,-0.051794,-0.007377,-0.145152,-2.350231,328.338049,21.864510,0.998401,0.981549,0.005538,0.411741,0.000643,0.000610,0.000091,0.000719,0.000534,39.959140,0.001257,
2191,2518,-1.44846439810746,-2.81598233383986,-0.00789849846592006,0.000571,-0.050311,0.001111,0.004900,-2.251110,322.834427,21.808849,0.999278,0.987940,0.004577,0.539376,0.000157,0.000109,0.000008,0.000158,0.000107,8.936990,0.000267,
2221,2878,-0.856656969356965,5.02612857189017,-0.00457791324356549,0.002370,-0.049698,0.009317,0.061015,-2.211066,316.989979,22.311676,0.999399,0.992720,0.003438,0.480579,0.000011,0.000026,0.000009,0.000030,0.000006,64.837364,0.000039,
2461,2803,4.37604397969301,3.40889561244028,-0.025448877729275,0.002069,-0.050662,0.006403,0.049484,-2.260492,317.980946,22.477716,0.999330,0.986915,0.004399,0.382498,0.000057,0.000017,0.000010,0.000059,0.000015,13.813576,0.000078,
2416,2308,3.49588038905299,-7.40543839296404,0.00619081460598636,0.000880,-0.052068,-0.006124,0.041225,-2.369169,326.203637,20.663522,0.999051,0.984955,0.004860,0.441500,0.000474,0.000356,-0.000031,0.000481,0.000349,-13.790596,0.000833,
2431,2398,3.80471231185847,-5.4339463209183,-0.0058925228711928,0.001424,-0.051434,-0.001739,0.050314,-2.318525,324.676211,20.948363,0.999640,0.987368,0.004688,0.458193,0.000339,0.000228,-0.000034,0.000349,0.000219,-15.601623,0.000572,
2356,3268,2.00657014397906,13.5007402964634,0.0175802153095788,0.003996,-0.050113,0.015807,0.108304,-2.222834,310.676783,23.548684,0.999645,0.992620,0.003340,0.436031,0.000010,-0.000006,-0.000004,0.000011,-0.000007,-13.139962,0.000011,
2281,3208,0.393108694956467,12.1914550093567,0.0540459644947191,0.004315,-0.049698,0.012583,0.137605,-2.218239,312.049035,23.085799,0.999819,0.995075,0.002892,0.388403,0.000003,0.000006,0.000006,0.000011,-0.000001,52.762971,0.000012,
2251,3073,-0.236506675788036,9.26170703944874,0.0279295471801788,0.003414,-0.049601,0.012893,0.096394,-2.199673,314.048949,22.679571,0.999473,0.991867,0.003634,0.467529,0.000004,0.000002,-0.000005,0.000008,-0.000002,-38.592802,0.000008,
2221,2758,-0.837290899068673,2.41781100197905,-0.02216914489793,0.001817,-0.049647,0.005987,0.046296,-2.205498,318.779923,22.192212,0.999434,0.989464,0.004016,0.455889,0.000026,0.000047,-0.000001,0.000047,0.000026,-87.959668,0.000074,
2161,2683,-2.12819201965763,0.78167783153485,-0.0176958272289767,0.001821,-0.049664,0.002966,0.057279,-2.236206,320.230622,22.091718,0.999405,0.990643,0.003851,0.447161,0.000064,0.000049,-0.000008,0.000067,0.000045,-22.906003,0.000113,
2146,2338,-2.39961232779308,-6.74707333175859,-0.00225422581866042,-0.001367,-0.050540,-0.000329,-0.079030,-2.263783,325.859734,21.852400,0.999222,0.985681,0.004789,0.457065,0.000364,0.000264,0.000007,0.000365,0.000263,4.230499,0.000631,
2176,2743,-1.81189527021683,2.08846424209482,-0.0117559381076831,0.002005,-0.049597,0.006338,0.055047,-2.218769,319.251500,22.170786,0.999436,0.990044,0.004194,0.431243,0.000037,0.000036,-0.000009,0.000046,0.000027,-44.060590,0.000074,
2251,2818,-0.194604416334901,3.72333576595685,-0.0108670318157351,0.002096,-0.049629,0.005429,0.060153,-2.205177,317.846481,22.252687,0.999573,0.990294,0.004129,0.502044,0.000023,0.000041,-0.000005,0.000043,0.000022,-76.536856,0.000065,
2446,2578,4.09455230096803,-1.49726798294363,-0.0246693170235517,0.002203,-0.050855,0.006900,0.054070,-2.250666,321.626186,21.653406,0.999556,0.991268,0.004096,0.415466,0.000173,0.000065,-0.000010,0.000174,0.000064,-4.985046,0.000246,
2146,2593,-2.44045381009223,-1.17854404469809,-0.0267184838187973,0.001013,-0.049065,-0.002159,0.036180,-2.208271,321.649077,22.021376,0.998988,0.987445,0.004692,0.499630,0.000118,0.000072,0.000005,0.000118,0.000072,5.779454,0.000192,
2311,1993,1.26152882927656,-14.316456497473,0.0120273363253318,-0.001234,-0.056990,-0.017635,-0.018261,-2.671492,331.234141,20.201431,0.998899,0.979239,0.006253,0.285891,0.001052,0.000988,-0.000105,0.001130,0.000910,-36.526776,0.002044,
2191,2863,-1.50576893023053,4.69937192937736,-0.0107158246466952,0.002657,-0.049394,0.007605,0.080716,-2.206832,317.286373,22.289480,0.999321,0.991311,0.003684,0.444275,0.000019,0.000025,0.000005,0.000029,0.000016,60.704328,0.000045,
2131,2503,-2.75236918068164,-3.14166103508167,-0.0297061315519045,0.000735,-0.049037,-0.003357,0.027144,-2.224729,323.132260,21.949750,0.999040,0.985278,0.004846,0.532865,0.000185,0.000087,-0.000003,0.000185,0.000087,-1.544945,0.000278,
2476,2848,4.69476983820051,4.38850010760591,-0.0208078432011689,0.002777,-0.050369,0.005466,0.085247,-2.263816,317.355952,22.606213,0.999389,0.987847,0.004137,0.432918,0.000027,0.000002,0.000008,0.000029,0.000000,16.126993,0.000034,
2071,2248,-4.01947720151591,-8.71546925143385,-0.00224852599137648,-0.002734,-0.050667,-0.006911,-0.122152,-2.287641,327.608175,22.105877,0.998697,0.984707,0.004895,0.460828,0.000534,0.000505,0.000084,0.000605,0.000434,40.035090,0.001044,
2206,2878,-1.18242073025679,5.0260822207913,-0.00802544847300624,0.002555,-0.049565,0.007228,0.076726,-2.205317,317.016437,22.329002,0.999580,0.993468,0.003344,0.444693,0.000011,0.000026,0.000007,0.000029,0.000008,67.563993,0.000039,
2236,2818,-0.520390337404795,3.72283458131111,-0.0130011553758322,0.002455,-0.049378,0.004883,0.078917,-2.203730,317.878371,22.243089,0.999553,0.989970,0.004014,0.497649,0.000026,0.000042,-0.000001,0.000042,0.000026,-87.984664,0.000069,
2266,3163,0.0741114540365118,11.2151438235086,0.041010685744709,0.003573,-0.049480,0.011574,0.107484,-2.199424,312.669836,22.921123,0.999356,0.990453,0.003915,0.425863,0.000003,0.000011,-0.000001,0.000011,0.000002,-80.389323,0.000014,
2506,3208,5.27935697886767,12.211753378296,0.0339677724305147,0.004124,-0.050925,0.011549,0.122870,-2.271411,312.038151,24.113047,0.999367,0.991490,0.003753,0.404101,0.000023,0.000015,-0.000008,0.000028,0.000010,-33.426872,0.000039,
2191,2578,-1.45818337539258,-1.50620318696523,-0.0119776969092982,0.001369,-0.049354,0.002075,0.038873,-2.203399,321.862095,21.897997,0.999394,0.990613,0.003920,0.559513,0.000115,0.000085,0.000014,0.000121,0.000079,21.363855,0.000201,
2221,2713,-0.829192932093779,1.43736840537733,-0.0191856531676535,0.001805,-0.049826,0.004994,0.048860,-2.217582,319.538976,22.093847,0.999162,0.989959,0.003980,0.484826,0.000047,0.000053,0.000002,0.000054,0.000047,74.251018,0.000100,
2326,3133,1.38126687901016,10.5693775684303,0.027126148254581,0.003403,-0.049715,0.009500,0.104287,-2.230157,312.974561,23.075385,0.999242,0.991444,0.003713,0.440330,0.000000,0.000010,0.000001,0.000010,0.000000,85.698594,0.000011,
2431,2413,3.80174465020592,-5.10650654972641,-0.00649015794937213,0.001516,-0.051819,-0.001285,0.052719,-2.312897,324.430786,20.936593,0.999541,0.987206,0.004707,0.527287,0.000317,0.000218,-0.000026,0.000324,0.000211,-13.704940,0.000539,
2191,2833,-1.50076380109806,4.04714889270206,-0.0126852169414633,0.002737,-0.049543,0.008675,0.080939,-2.217620,317.758337,22.261085,0.999207,0.989699,0.004042,0.433345,0.000025,0.000032,0.000004,0.000034,0.000023,66.738525,0.000057,
2446,2593,4.09137973190433,-1.17052024077832,-0.031421675603724,0.001800,-0.050342,-0.002602,0.071189,-2.268590,321.343540,21.608580,0.999597,0.992063,0.003991,0.495533,0.000164,0.000065,-0.000003,0.000164,0.000065,-1.509504,0.000237,
2281,2968,0.432652148475114,6.98616761473945,-0.00147693651121017,0.003472,-0.049326,0.002475,0.132788,-2.205501,315.502938,22.631579,0.999230,0.989910,0.004020,0.427561,0.000010,-0.000010,0.000002,0.000010,-0.000010,6.125898,0.000011,
2401,2233,3.1829547671148,-9.04796482568135,0.00723915070528847,0.000669,-0.052826,-0.006741,0.033456,-2.399901,327.398656,20.517237,0.999029,0.983634,0.005404,0.378545,0.000609,0.000558,-0.000035,0.000627,0.000540,-27.016069,0.001168,
2281,3238,0.386394650307746,12.8422849875029,0.0404327891341723,0.003958,-0.049607,0.010953,0.126659,-2.214014,311.432159,23.097656,0.999792,0.993924,0.003228,0.433665,-0.000002,-0.000007,0.000000,-0.000002,-0.000007,-0.483004,0.000010,
2206,2608,-1.13781203730908,-0.850314437115237,-0.0184654880820858,0.001099,-0.049545,0.003304,0.022237,-2.204986,321.261207,21.993686,0.998886,0.985017,0.004803,0.477584,0.000094,0.000059,0.000017,0.000101,0.000052,21.999719,0.000156,
2311,2008,1.25985728105735,-13.9864871959403,0.00955030551659775,-0.000175,-0.056081,-0.020209,0.039271,-2.643237,331.029571,20.230274,0.998980,0.979745,0.006143,0.321078,0.001031,0.001011,-0.000077,0.001098,0.000944,-41.371277,0.002044,
2311,3283,1.02776052180189,13.821389094601,0.0178850023027621,0.004435,-0.049740,0.012693,0.141526,-2.219830,310.485187,23.318692,0.999579,0.993986,0.003020,0.454187,-0.000009,-0.000010,-0.000004,-0.000005,-0.000014,-42.367788,0.000019,
2296,3133,0.730250976295213,10.5667479319448,0.0305151525387259,0.003730,-0.049835,0.011281,0.114403,-2.215079,313.037851,22.940434,0.999680,0.994524,0.003284,0.466525,0.000000,0.000006,0.000000,0.000006,0.000000,87.798175,0.000007,
2341,3238,1.68837879382808,12.8483363670347,0.0336891874416665,0.004138,-0.049533,0.010768,0.133354,-2.214300,311.331324,23.420848,0.999460,0.991460,0.003552,0.420310,0.000003,-0.000001,-0.000004,0.000006,-0.000003,-29.489166,0.000006,
2176,2803,-1.82211585635762,3.39422665924834,-0.0132720424636545,0.001961,-0.048981,0.005369,0.056272,-2.178894,318.264853,22.200168,0.999503,0.989516,0.004217,0.491043,0.000027,0.000032,-0.000005,0.000035,0.000024,-59.596194,0.000059,
2176,2758,-1.81510656329415,2.41587860631752,-0.0207335640585598,0.001935,-0.049278,0.006303,0.052049,-2.190576,318.929431,22.174731,0.999320,0.989086,0.004192,0.468208,0.000036,0.000036,-0.000011,0.000047,0.000025,-44.049455,0.000073,
2206,2833,-1.17416414724198,4.04723281661149,-0.00287856451313928,0.002697,-0.049635,0.007551,0.082223,-2.207250,317.797514,22.279274,0.999246,0.989667,0.004075,0.443337,0.000019,0.000035,0.000007,0.000037,0.000017,69.629376,0.000056,
2356,3283,2.00307254801031,13.8260471535907,0.00761333301301192,0.004098,-0.050337,0.015474,0.114055,-2.242382,310.352686,23.567280,0.999575,0.992118,0.003471,0.435275,0.000008,-0.000007,-0.000007,0.000011,-0.000010,-21.032888,0.000012,
2311,3058,1.06899866416839,8.94039200285149,0.0217508099261181,0.003320,-0.049949,0.008614,0.103966,-2.233758,314.166610,22.839282,0.999689,0.992896,0.003416,0.454923,-0.000005,0.000003,0.000008,0.000007,-0.000010,58.535128,0.000011,
2236,3013,-0.552324582745392,7.95905842916755,0.0145428899134572,0.003361,-0.049455,0.010154,0.103507,-2.200930,314.955504,22.547440,0.999393,0.988713,0.004079,0.464269,0.000005,-0.000003,-0.000007,0.000009,-0.000007,-29.145884,0.000009,
2386,2038,2.89375605153017,-13.3286817696984,0.00440485463792584,0.000900,-0.056048,-0.016176,0.076400,-2.593431,330.551819,19.786169,0.998389,0.974001,0.006494,0.385902,0.001078,0.000984,-0.000060,0.001107,0.000954,-26.015228,0.002063,
2506,3223,5.27633058221734,12.5372899398322,0.0341072412305152,0.004187,-0.050563,0.011704,0.125243,-2.274227,311.795217,24.176864,0.999499,0.991132,0.003828,0.397083,0.000019,-0.000002,-0.000005,0.000020,-0.000003,-11.419119,0.000022,
2161,2413,-2.08502717361498,-5.10730538690044,-0.0107225538153557,-0.000623,-0.050362,-0.002161,-0.039457,-2.272216,324.562532,21.880791,0.998668,0.985919,0.004936,0.424027,0.000260,0.000173,-0.000010,0.000261,0.000172,-6.747689,0.000436,
2146,2548,-2.43293426149159,-2.16102368645053,-0.0146255785550125,0.000640,-0.049645,0.002422,0.004983,-2.216827,322.447784,21.971709,0.999025,0.985637,0.004640,0.514408,0.000145,0.000079,0.000004,0.000145,0.000079,3.212263,0.000227,
2221,2668,-0.821445875138043,0.45730153313977,-0.0201692100738455,0.001866,-0.049930,0.005908,0.048688,-2.221760,320.261227,22.031214,0.999475,0.992613,0.003768,0.485717,0.000070,0.000058,0.000001,0.000071,0.000058,6.886531,0.000129,
2251,3088,-0.239175459574618,9.58739207892132,0.0229879941161357,0.003682,-0.049870,0.011469,0.113302,-2.215545,313.779332,22.699755,0.999537,0.991048,0.003683,0.453898,0.000006,-0.000005,-0.000010,0.000012,-0.000011,-30.014573,0.000013,
2266,3133,0.079851416156913,10.5629633879128,0.0435958166042951,0.003721,-0.049562,0.011898,0.113084,-2.224243,313.188919,22.781284,0.999634,0.995023,0.003155,0.492326,0.000002,0.000006,-0.000007,0.000011,-0.000003,-52.008901,0.000012,
2311,3298,1.02442409104752,14.1462911353339,0.0133112136804812,0.004288,-0.049596,0.013487,0.132060,-2.217057,310.191189,23.310354,0.999617,0.994201,0.003014,0.495873,-0.000010,0.000002,-0.000005,0.000004,-0.000012,-70.431237,0.000012,
2176,2488,-1.77056074045401,-3.46860856714646,-0.0182955661617257,0.000253,-0.049672,-0.003487,0.004987,-2.235230,323.279559,21.906826,0.998973,0.984696,0.005100,0.459358,0.000176,0.000122,-0.000007,0.000177,0.000121,-7.370810,0.000300,
2146,2608,-2.44325183415816,-0.850461551226047,-0.0271191375152284,0.000828,-0.048957,-0.000431,0.022496,-2.192598,321.388496,22.121021,0.999361,0.989822,0.004247,0.424040,0.000113,0.000059,0.000001,0.000113,0.000059,1.559191,0.000174,
2281,3223,0.390079448571154,12.5160292540894,0.0529829096284402,0.004006,-0.049550,0.011280,0.127865,-2.199561,311.784791,23.028200,0.999800,0.994755,0.003056,0.491109,0.000000,0.000008,0.000001,0.000008,0.000000,84.197807,0.000009,
2101,2413,-3.3906998149669,-5.10751419185375,-0.00796877839303534,-0.000694,-0.049271,-0.002613,-0.040610,-2.219643,324.832975,22.076072,0.999029,0.986150,0.004677,0.457066,0.000280,0.000130,0.000007,0.000280,0.000130,2.702724,0.000419,
2311,2023,1.25608183617785,-13.6576633570555,0.0136674030370614,-0.001141,-0.055999,-0.015087,-0.022297,-2.617051,330.761140,20.237748,0.998853,0.981414,0.005689,0.375836,0.000992,0.001002,-0.000059,0.001057,0.000937,-47.494263,0.001995,
2431,2428,3.79808395502535,-4.77659415412386,-0.0115713517866993,0.000940,-0.051206,-0.005162,0.040840,-2.319533,324.132365,21.126401,0.999392,0.986319,0.004777,0.382204,0.000306,0.000192,-0.000020,0.000309,0.000189,-9.503453,0.000503,
2476,2863,4.69173722416071,4.71440692232693,-0.0148911513271059,0.002341,-0.050457,0.005966,0.063299,-2.263147,317.138746,22.649704,0.999092,0.986468,0.004387,0.446404,0.000022,0.000004,0.000005,0.000023,0.000003,13.830106,0.000028,
2356,3298,2.00048666110527,14.1522724345988,-0.000417565069028569,0.004644,-0.049945,0.010974,0.155291,-2.228684,310.079557,23.652857,0.999687,0.992649,0.003481,0.400905,0.000005,-0.000004,-0.000012,0.000013,-0.000012,-33.843335,0.000015,
2221,2578,-0.805867569494136,-1.50456016154244,-0.019053389892747,0.001382,-0.049843,0.000583,0.043503,-2.242378,321.725198,21.910202,0.999109,0.988686,0.004216,0.468989,0.000107,0.000082,0.000016,0.000115,0.000075,25.443014,0.000191,
2086,2323,-3.70406563561031,-7.07397176448355,-0.0129520482728367,-0.001512,-0.049622,-0.004526,-0.072580,-2.243661,326.283764,22.053101,0.999023,0.987807,0.004725,0.495680,0.000413,0.000295,0.000053,0.000433,0.000274,21.051865,0.000714,
2191,2593,-1.46133671583071,-1.17831731577378,-0.0167171587905841,0.001116,-0.049779,0.002420,0.026008,-2.224404,321.566468,21.973662,0.998951,0.987564,0.004448,0.478112,0.000104,0.000073,0.000015,0.000110,0.000066,22.221310,0.000179,
2506,3238,5.27300603687373,12.862523189741,0.031129947265697,0.004230,-0.050422,0.012032,0.126070,-2.257841,311.524555,24.179621,0.999526,0.990866,0.003833,0.470622,0.000016,0.000006,-0.000003,0.000016,0.000006,-14.848611,0.000023,
2206,2893,-1.18573074630516,5.35293433415409,-0.0198586459637227,0.002588,-0.049519,0.006165,0.081589,-2.221795,316.677945,22.350515,0.999783,0.994652,0.003225,0.423343,0.000012,0.000015,0.000009,0.000023,0.000004,51.126130,0.000029,
2281,2983,0.429629905606287,7.3111293404937,0.00183035080266336,0.003301,-0.049502,0.007534,0.107879,-2.200754,315.261273,22.592912,0.999321,0.990237,0.003943,0.498171,0.000014,-0.000004,0.000003,0.000015,-0.000004,9.804659,0.000015,
2116,2203,-3.03248956020778,-9.70076566932818,-0.00487328984866053,-0.002902,-0.051236,-0.009790,-0.121321,-2.358214,328.094067,21.886509,0.997502,0.977107,0.006007,0.387850,0.000610,0.000584,0.000087,0.000686,0.000509,40.769049,0.001199,
2221,2893,-0.858644500520374,5.35214486827721,-0.000300311258797592,0.002482,-0.049330,0.006169,0.076414,-2.202372,316.796708,22.348308,0.999607,0.992679,0.003558,0.471304,0.000009,0.000014,0.000009,0.000021,0.000002,51.741010,0.000025,
2176,2698,-1.80528826010655,1.11031335288455,-0.0275636267512027,0.001684,-0.048898,0.000290,0.059287,-2.188006,319.853666,22.104809,0.999357,0.990708,0.003873,0.490931,0.000052,0.000046,-0.000006,0.000056,0.000042,-33.349439,0.000098,
2266,2938,0.110704922878568,6.33188656453912,0.000887260920990229,0.002545,-0.049925,0.012425,0.057124,-2.218437,315.960245,22.439190,0.999450,0.991501,0.003785,0.519314,0.000008,0.000000,-0.000002,0.000009,0.000000,-11.973083,0.000010,
2146,2353,-2.4011333551659,-6.41929877159274,-0.00339092744661684,-0.000536,-0.050178,-0.002807,-0.033288,-2.255327,325.653979,21.838422,0.999206,0.985574,0.004753,0.489018,0.000340,0.000249,0.000005,0.000340,0.000249,2.954496,0.000591,
2071,2263,-4.02090503635744,-8.38653465265427,-0.00682278083121446,-0.001740,-0.050018,-0.009414,-0.069203,-2.291303,327.381266,22.142194,0.999067,0.987011,0.004704,0.419782,0.000507,0.000465,0.000087,0.000576,0.000396,38.345967,0.000978,
2416,2323,3.49273704458834,-7.07549765292258,0.00122622372271053,0.000780,-0.050939,-0.009960,0.051109,-2.327455,325.928455,20.769631,0.998815,0.982866,0.005121,0.427165,0.000441,0.000329,-0.000024,0.000446,0.000324,-11.718429,0.000774,
2326,2083,1.57172550326016,-12.3366847654545,0.000820056404961633,-0.000909,-0.055005,-0.011712,-0.022655,-2.509250,329.679330,20.442238,0.999367,0.984194,0.005243,0.329011,0.000879,0.000931,-0.000045,0.000957,0.000853,-60.029421,0.001810,
2131,2293,-2.71916521266316,-7.73071518335685,-0.0123160892648002,-0.001506,-0.050351,-0.009894,-0.056598,-2.298227,326.583655,21.832183,0.998602,0.984122,0.005218,0.475160,0.000453,0.000373,0.000054,0.000481,0.000346,26.749916,0.000830,
2341,3253,1.68481587516312,13.1733160764367,0.0237098942659486,0.004335,-0.050173,0.012940,0.134615,-2.236351,311.003061,23.401497,0.999553,0.992103,0.003421,0.452928,0.000004,-0.000004,0.000000,0.000004,-0.000004,-3.301373,0.000004,
2101,2113,-3.34473663055039,-11.6751884164656,0.0144437235804276,-0.003798,-0.052326,-0.012549,-0.154778,-2.427875,329.736603,21.879779,0.998840,0.977711,0.005988,0.374622,0.000806,0.000755,0.000113,0.000897,0.000665,38.667670,0.001568,
2191,2878,-1.50811472713461,5.02633019895842,-0.00849037239220252,0.002687,-0.049393,0.006949,0.084181,-2.202954,317.063766,22.398377,0.999791,0.994823,0.003110,0.353223,0.000017,0.000025,0.000005,0.000027,0.000015,63.544232,0.000042,
2326,3148,1.37924358318179,10.8946382975591,0.029382659125929,0.003842,-0.049758,0.007207,0.132512,-2.224614,312.776076,23.097257,0.999484,0.992686,0.003580,0.457332,0.000000,0.000005,0.000002,0.000006,-0.000001,72.137441,0.000006,
2191,2533,-1.45174178454716,-2.48680575021902,-0.0172520915928658,0.000551,-0.049939,0.002110,0.000983,-2.223187,322.508808,21.891981,0.999242,0.988145,0.004427,0.499817,0.000143,0.000100,0.000009,0.000145,0.000099,11.626337,0.000245,
2206,2623,-1.14012981652137,-0.523804105743423,-0.0144493910950132,0.001211,-0.049686,0.005240,0.021135,-2.229064,321.050697,22.031684,0.999293,0.985098,0.004767,0.432625,0.000087,0.000055,0.000012,0.000091,0.000051,18.709445,0.000144,
2311,3073,1.06664450294996,9.26627007941499,0.0291525594244035,0.003332,-0.050063,0.010450,0.098192,-2.228592,313.977310,22.932740,0.999675,0.994221,0.003207,0.397804,-0.000005,0.000008,0.000010,0.000013,-0.000010,61.628715,0.000014,
2086,2338,-3.70517558960385,-6.74669141642519,-0.00472754353251048,-0.001050,-0.049177,-0.008278,-0.040450,-2.232759,326.142560,22.078114,0.998782,0.985562,0.004947,0.482183,0.000383,0.000261,0.000045,0.000398,0.000246,18.169701,0.000650,
2476,2878,4.68803776877771,5.04183572536074,-0.0217575220264052,0.002417,-0.050575,0.007781,0.059867,-2.262069,316.832304,22.742450,0.998413,0.986252,0.004801,0.411079,0.000012,0.000020,0.000011,0.000027,0.000005,54.454052,0.000035,
2236,2833,-0.522911068813794,4.05016084620611,-0.0166957065315501,0.002655,-0.049204,0.002248,0.096765,-2.191494,317.620632,22.321142,0.999546,0.990603,0.003794,0.452893,0.000025,0.000037,0.000007,0.000040,0.000022,65.487773,0.000063,
2401,2248,3.17952803799514,-8.71875540238405,-0.00154824979165369,0.000709,-0.051647,-0.008532,0.042274,-2.331312,327.091419,20.462467,0.998922,0.983545,0.005362,0.550415,0.000576,0.000506,-0.000039,0.000593,0.000489,-23.971232,0.001084,
2341,2038,1.90852310391042,-13.327100832623,-0.00110166256183675,-0.000312,-0.055868,-0.015209,0.016709,-2.621387,330.426663,20.094301,0.998488,0.980856,0.005754,0.350973,0.001019,0.000975,-0.000056,0.001057,0.000936,-34.295307,0.001995,
2461,2818,4.37372705436951,3.73447320323461,-0.019548301957002,0.002241,-0.050584,0.005879,0.059414,-2.256206,317.795970,22.475380,0.999257,0.986400,0.004581,0.443438,0.000046,0.000002,0.000012,0.000049,-0.000001,14.174759,0.000056,
2311,2038,1.25355357499475,-13.3265871831173,0.0117845632639728,-0.001029,-0.055008,-0.018448,-0.005423,-2.568777,330.519991,20.365664,0.999470,0.987825,0.004498,0.331887,0.000955,0.000972,-0.000058,0.001022,0.000905,-49.198835,0.001929,
2356,2233,2.19959087149675,-9.04729155334729,-0.00169314231527551,0.000298,-0.052649,-0.009268,0.025337,-2.396452,327.285537,20.673590,0.997944,0.974813,0.006327,0.440239,0.000575,0.000547,-0.000021,0.000587,0.000536,-28.364160,0.001123,
2281,3253,0.382646099408426,13.1686019399808,0.0262612287096431,0.004152,-0.049463,0.013198,0.128152,-2.204954,311.068365,23.145779,0.999735,0.992916,0.003393,0.421084,-0.000003,-0.000010,0.000004,-0.000001,-0.000012,22.680520,0.000014,
2386,2053,2.89158967617896,-12.9997027175544,0.0171392451810561,0.000550,-0.055269,-0.017082,0.063953,-2.564780,330.403462,19.913057,0.998757,0.978379,0.006108,0.334102,0.001039,0.000975,-0.000059,0.001074,0.000941,-30.689665,0.002016,
2371,1993,2.57448637720074,-14.3192666666225,0.0203722838460862,-0.000037,-0.057269,-0.012602,0.020084,-2.643059,331.342813,19.745907,0.998451,0.953556,0.008340,0.342345,0.001175,0.001023,-0.000081,0.001210,0.000988,-23.458977,0.002202,
2251,2833,-0.196913320408033,4.05042328134955,-0.0140631957874007,0.002562,-0.049407,0.003708,0.087298,-2.209712,317.602354,22.329361,0.999460,0.990665,0.003924,0.444123,0.000020,0.000035,0.000000,0.000035,0.000020,88.366648,0.000056,
2161,2428,-2.08687300550121,-4.77915925573402,-0.0117614721527843,0.000058,-0.050031,-0.002493,-0.007077,-2.253175,324.343532,21.917520,0.999055,0.985980,0.004772,0.418055,0.000241,0.000143,-0.000007,0.000242,0.000142,-4.035992,0.000388,
2221,2683,-0.824227842169581,0.784156907178399,-0.0215975920412461,0.001725,-0.049710,0.004998,0.045198,-2.216045,320.002284,22.044059,0.999524,0.991968,0.003723,0.497796,0.000062,0.000062,0.000001,0.000064,0.000061,38.053643,0.000124,
2236,3028,-0.554454637076063,8.28469859993614,0.0160214815210793,0.003507,-0.049334,0.006274,0.122876,-2.200826,314.742305,22.573313,0.999452,0.990766,0.003765,0.458954,0.000003,-0.000007,-0.000007,0.000007,-0.000011,-27.401996,0.000011,
2296,3148,0.727668301879731,10.8923689752243,0.0305277050134691,0.003581,-0.049636,0.006892,0.122448,-2.227657,312.800395,22.999326,0.999617,0.993096,0.003537,0.423788,-0.000001,0.000004,0.000002,0.000005,-0.000002,70.164348,0.000005,
2446,2608,4.0890943840719,-0.844187148088295,-0.0161171289561821,0.001672,-0.051088,0.002352,0.046552,-2.288097,321.203221,21.722794,0.999258,0.987974,0.004426,0.414108,0.000154,0.000058,-0.000006,0.000154,0.000058,-3.793463,0.000220,
2176,2503,-1.77380481048095,-3.14183971728445,-0.0165855171028966,-0.000368,-0.050181,-0.000119,-0.034166,-2.246585,323.012491,21.898699,0.998857,0.984641,0.005118,0.469585,0.000169,0.000111,-0.000005,0.000169,0.000110,-4.811620,0.000281,
2251,3103,-0.241022819175928,9.91256704996016,0.0311329279152801,0.003856,-0.049656,0.010360,0.125072,-2.202228,313.614016,22.730810,0.999593,0.992488,0.003504,0.458427,0.000004,0.000000,-0.000010,0.000012,-0.000008,-39.766704,0.000012,
2146,2623,-2.44585178811063,-0.523999152929818,-0.0243150103472658,0.000925,-0.049459,0.005827,0.007853,-2.182513,321.154402,22.109811,0.999615,0.991406,0.003949,0.453932,0.000106,0.000051,-0.000004,0.000106,0.000051,-4.543957,0.000160,
2371,2308,2.51295487383235,-7.40446825834062,0.000464646331465701,0.000537,-0.051523,-0.006959,0.028698,-2.333958,326.099916,20.847941,0.999837,0.995402,0.003126,0.473582,0.000449,0.000354,-0.000006,0.000449,0.000353,-3.640289,0.000805,
2506,3253,5.26983602565548,13.1884985286214,0.0280075721424851,0.004488,-0.050472,0.012888,0.134633,-2.253485,311.260025,24.266280,0.999718,0.992456,0.003533,0.447918,0.000011,0.000022,0.000000,0.000022,0.000011,88.320257,0.000034,
2221,2773,-0.839294990884003,2.74350743116051,-0.0170989401723887,0.001965,-0.049521,0.004541,0.057734,-2.221348,318.590233,22.198851,0.999396,0.989404,0.004076,0.452097,0.000022,0.000046,-0.000002,0.000046,0.000021,-86.389465,0.000069,
2326,1993,1.58954840435561,-14.3169874933357,0.0119988022357234,-0.000820,-0.057363,-0.014987,-0.008189,-2.676280,331.237674,20.090704,0.997380,0.971835,0.006866,0.285165,0.001072,0.000994,-0.000101,0.001141,0.000924,-34.422815,0.002069,
2071,2278,-4.02359593217042,-8.05716871168671,-0.00711883590537354,-0.002060,-0.049640,-0.008562,-0.086196,-2.258599,327.119746,22.231043,0.999819,0.994479,0.003733,0.362838,0.000485,0.000419,0.000083,0.000541,0.000362,34.152801,0.000909,
2356,2113,2.221765458412,-11.6789643396907,0.00246737253741003,-0.000671,-0.054186,-0.011338,-0.012377,-2.478392,329.219284,20.341336,0.999353,0.980508,0.005361,0.357688,0.000858,0.000876,-0.000044,0.000912,0.000823,-51.052722,0.001735,
2341,2158,1.88580433417298,-10.6922001315527,-0.0106845330208785,0.000199,-0.053112,-0.014106,0.037284,-2.457103,328.432615,20.365068,0.999199,0.985070,0.005058,0.563188,0.000730,0.000732,-0.000025,0.000755,0.000706,-46.614348,0.001462,
2206,2848,-1.17748067533576,4.37403125329949,-0.00939359216681623,0.002514,-0.049585,0.008837,0.069782,-2.190918,317.486285,22.287146,0.999287,0.990496,0.003862,0.468297,0.000015,0.000029,0.000010,0.000034,0.000010,61.987310,0.000046,
2221,2728,-0.831337468618099,1.76409693981817,-0.0173691393740114,0.002061,-0.049402,0.003855,0.064412,-2.213082,319.325883,22.136174,0.999137,0.990037,0.003965,0.466154,0.000041,0.000051,0.000002,0.000052,0.000041,80.563100,0.000092,
2131,2308,-2.72108231129665,-7.40280735253376,-0.00744306114910387,-0.001099,-0.050560,-0.006358,-0.048537,-2.302427,326.390507,21.888032,0.998751,0.984268,0.005197,0.422767,0.000426,0.000331,0.000039,0.000440,0.000317,19.832700,0.000760,
2101,2128,-3.34784363821562,-11.3465700795017,0.0106268536889615,-0.004203,-0.052711,-0.010598,-0.179191,-2.416073,329.439897,21.829406,0.998790,0.986564,0.005124,0.441348,0.000768,0.000728,0.000111,0.000861,0.000636,39.885455,0.001502,
2266,3148,0.0766759134502202,10.8890071348488,0.0380090647561246,0.003703,-0.049883,0.012438,0.110396,-2.227010,312.893716,22.833921,0.999295,0.991638,0.003799,0.461398,0.000001,0.000009,-0.000006,0.000012,-0.000002,-62.058818,0.000013,
2191,2608,-1.46409285284111,-0.85111334923576,-0.0190902234255077,0.000957,-0.049576,0.000777,0.023912,-2.216269,321.301390,21.983446,0.998422,0.984899,0.004950,0.491760,0.000096,0.000060,0.000014,0.000101,0.000055,19.169275,0.000158,
2341,2053,1.90655057078326,-12.999150500465,0.0163871251538694,-0.000754,-0.055655,-0.014335,-0.006522,-2.581657,330.307548,20.169300,0.998763,0.980899,0.005539,0.355146,0.000983,0.000971,-0.000053,0.001030,0.000924,-41.701752,0.001955,
2326,3163,1.37707957993168,11.2197821528976,0.0344516544125213,0.004226,-0.049949,0.008845,0.144429,-2.237023,312.584914,23.146789,0.999668,0.993850,0.003360,0.428528,0.000001,0.000007,0.000005,0.000010,-0.000002,62.465744,0.000011,
2266,3178,0.071758940626129,11.5395518080782,0.0412543208486795,0.003943,-0.049781,0.011970,0.123049,-2.224107,312.442396,22.888138,0.999506,0.991557,0.003592,0.458674,0.000003,0.000010,-0.000002,0.000010,0.000003,-76.131774,0.000014,
2476,2893,4.68572334133396,5.36835255529009,-0.0203351322336971,0.002908,-0.050458,0.006275,0.088219,-2.254778,316.627417,22.810481,0.998501,0.986745,0.004690,0.406772,0.000012,0.000016,0.000015,0.000029,-0.000001,48.557402,0.000033,
2506,3268,5.2662388844207,13.5146766162497,0.0222892171282183,0.004598,-0.050807,0.014432,0.133619,-2.259109,310.963965,24.371556,0.999840,0.995350,0.002901,0.396734,0.000006,0.000007,0.000005,0.000011,0.000002,45.667234,0.000014,
2206,2908,-1.18697655113074,5.67748656151691,-0.00442697885989674,0.002800,-0.049311,0.005229,0.094455,-2.202655,316.575858,22.327196,0.999629,0.992767,0.003589,0.481815,0.000012,0.000007,0.000009,0.000019,0.000000,36.128783,0.000022,
2341,3268,1.6809546855715,13.4993351577139,0.0137618481353456,0.004250,-0.050041,0.015333,0.122362,-2.229669,310.660763,23.454735,0.999624,0.992320,0.003322,0.441314,0.000006,-0.000011,-0.000001,0.000006,-0.000011,-2.855799,0.000011,
2326,2098,1.56935215648915,-12.0102702449449,0.00496621889107018,-0.000807,-0.054609,-0.011168,-0.019723,-2.503824,329.476512,20.277510,0.999183,0.982620,0.005402,0.536341,0.000841,0.000888,-0.000045,0.000916,0.000813,-58.727635,0.001730,
2221,2908,-0.860861432938332,5.67832791307458,0.00314255814521402,0.002555,-0.049120,0.004869,0.084065,-2.185670,316.588536,22.389981,0.999569,0.991703,0.003896,0.464832,0.000010,0.000005,0.000008,0.000016,0.000000,35.767379,0.000018,
2401,2338,3.16160700429888,-6.74661199094471,-0.00474641173923374,0.000381,-0.050468,-0.010947,0.036455,-2.305265,325.602285,20.857086,0.998839,0.980805,0.005196,0.467893,0.000415,0.000309,-0.000015,0.000417,0.000307,-7.820662,0.000726,
2401,2458,3.13822332141635,-4.12221366470443,-0.00923525805609415,0.001548,-0.050962,-0.000532,0.052123,-2.293780,323.636284,21.223516,0.999376,0.986779,0.004761,0.489963,0.000267,0.000141,0.000009,0.000268,0.000141,3.856308,0.000415,
2161,2443,-2.08939431813426,-4.45247074576947,-0.0088682140579408,-0.000079,-0.050110,-0.000935,-0.018149,-2.254584,324.114674,21.883322,0.999111,0.986421,0.004763,0.462158,0.000222,0.000137,-0.000002,0.000222,0.000137,-1.664154,0.000362,
2431,2443,3.79497182883758,-4.44857470372186,-0.0135369658375453,0.001128,-0.050921,-0.003082,0.041932,-2.298987,323.873672,21.150454,0.999173,0.985529,0.004836,0.430291,0.000298,0.000154,-0.000008,0.000299,0.000153,-3.242913,0.000459,
2221,2788,-0.841044796407456,3.06948622529131,-0.0127401801029237,0.002285,-0.049205,0.001179,0.083335,-2.220720,318.408434,22.213146,0.999460,0.990649,0.003972,0.457527,0.000020,0.000046,0.000000,0.000046,0.000020,-89.829317,0.000067,
2446,2623,4.08617897619152,-0.517033739071046,-0.0114388792814566,0.001457,-0.050769,0.003370,0.033036,-2.264579,320.984680,21.781165,0.999380,0.988342,0.004258,0.432044,0.000147,0.000039,-0.000011,0.000148,0.000038,-5.840006,0.000196,
2086,2353,-3.70796685610644,-6.41774484508935,-0.0106436331549276,-0.001180,-0.048782,-0.009005,-0.044201,-2.227260,325.847438,22.126701,0.998349,0.981351,0.005471,0.439924,0.000359,0.000241,0.000043,0.000373,0.000227,17.898493,0.000605,
2386,2383,2.82482822035673,-5.76183931832127,-0.00824104030601802,0.000612,-0.051336,-0.001878,0.014048,-2.329989,324.808037,21.086888,0.999072,0.984108,0.005067,0.404539,0.000346,0.000243,-0.000009,0.000346,0.000243,-4.841827,0.000592,
2281,2998,0.426996535407675,7.63706691425689,0.00842099124929518,0.003091,-0.049682,0.009962,0.089982,-2.217016,315.053595,22.690919,0.999252,0.989526,0.004037,0.410623,0.000014,0.000004,0.000001,0.000015,0.000004,6.206735,0.000020,
2371,2188,2.53661524056103,-10.0338586331566,0.000413001703520877,0.000771,-0.052697,-0.013721,0.062855,-2.434034,328.073339,20.485249,0.998950,0.982174,0.005309,0.388510,0.000684,0.000678,-0.000037,0.000718,0.000643,-42.637424,0.001362,
2311,2053,1.25081170529555,-12.9984458127659,0.0154864565947719,-0.000946,-0.055433,-0.013549,-0.018451,-2.564650,330.296920,20.338405,0.999196,0.984852,0.004975,0.398890,0.000924,0.000959,-0.000053,0.000997,0.000886,-54.065770,0.001885,
2116,2218,-3.03488728494509,-9.37214317118145,-0.00274374719850812,-0.002983,-0.051056,-0.008554,-0.128671,-2.320721,327.862838,21.907728,0.998008,0.979275,0.005758,0.410076,0.000579,0.000549,0.000088,0.000653,0.000475,40.143954,0.001132,
2506,3283,5.26259266389339,13.8396020874806,0.0164886008996632,0.004380,-0.050779,0.012669,0.130397,-2.271153,310.665580,24.371631,0.999851,0.995711,0.002741,0.444143,-0.000001,-0.000016,0.000002,-0.000001,-0.000016,8.025864,0.000019,
2251,3118,-0.243635331779043,10.2378728932882,0.0343849095574456,0.003776,-0.049777,0.011475,0.117720,-2.201956,313.388633,22.759384,0.999572,0.991963,0.003631,0.452252,0.000003,0.000004,-0.000010,0.000013,-0.000007,-45.890858,0.000013,
2296,3163,0.725703484873133,11.217395708596,0.0429000278547846,0.003687,-0.049652,0.009941,0.117047,-2.209014,312.652992,23.050458,0.999687,0.992982,0.003424,0.420018,0.000001,0.000005,0.000006,0.000009,-0.000004,53.470427,0.000009,
2311,3088,1.06430839086788,9.59108837411521,0.0297175461944903,0.003632,-0.050061,0.009134,0.116490,-2.240205,313.755422,22.904727,0.999708,0.995061,0.003061,0.445552,-0.000006,-0.000003,-0.000001,-0.000002,-0.000006,-67.789234,0.000009,
2281,3268,0.379536146102417,13.4931892371985,0.0223985443311108,0.004264,-0.049795,0.015906,0.124088,-2.216116,310.786218,23.117112,0.999732,0.993300,0.003361,0.464604,0.000000,-0.000008,-0.000001,0.000000,-0.000008,-8.962545,0.000009,
2341,3283,1.67789362079449,13.8245229246712,0.00609851535045891,0.004541,-0.050184,0.014465,0.138767,-2.241231,310.366676,23.466919,0.999670,0.993037,0.003211,0.452599,0.000006,-0.000010,-0.000002,0.000006,-0.000010,-7.720258,0.000010,
2191,2623,-1.46641726832521,-0.524346808763944,-0.0159003616356586,0.000977,-0.049453,0.001013,0.024128,-2.223089,321.085133,22.020453,0.999138,0.986501,0.004594,0.463128,0.000090,0.000054,0.000008,0.000092,0.000052,12.621743,0.000146,
2101,2428,-3.39314750917973,-4.77976713142913,-0.00968417515099418,-0.000523,-0.049478,-0.000406,-0.039257,-2.230643,324.577973,22.098630,0.999254,0.987746,0.004443,0.426350,0.000259,0.000101,0.000012,0.000260,0.000100,4.410314,0.000371,
2221,2743,-0.834910311247146,2.09095885803574,-0.0223503473403071,0.001710,-0.050050,0.007567,0.036140,-2.230608,319.012371,22.162992,0.999208,0.988962,0.004193,0.441141,0.000032,0.000046,-0.000001,0.000046,0.000032,-86.670898,0.000078,
2371,2323,2.50984610093017,-7.07675992187184,0.00225064717761825,0.000483,-0.052005,-0.002710,0.010942,-2.340330,325.854747,20.864841,0.999486,0.991422,0.004005,0.493272,0.000419,0.000319,-0.000004,0.000419,0.000319,-2.154473,0.000740,
2146,2638,-2.4482100302897,-0.197845771173981,-0.0256912343630233,0.001125,-0.049550,0.005839,0.016946,-2.205180,320.909403,22.071754,0.999685,0.992069,0.003703,0.477626,0.000096,0.000042,-0.000005,0.000096,0.000042,-4.794909,0.000141,
2386,2263,2.84803071067046,-8.3865365660642,-0.0254601325148656,0.001029,-0.050863,-0.014654,0.079058,-2.332067,326.670618,20.667402,0.998862,0.983631,0.005217,0.460099,0.000536,0.000457,-0.000035,0.000549,0.000444,-20.912735,0.000995,
2146,2368,-2.40318819245837,-6.09125045029091,-0.00589863078374719,0.000012,-0.050302,-0.002944,-0.007752,-2.271848,325.416589,21.866345,0.999005,0.986586,0.004627,0.454313,0.000321,0.000234,-0.000003,0.000321,0.000234,-1.699004,0.000557,
2206,2638,-1.14261582857159,-0.196863942674383,-0.0187940271347884,0.001397,-0.049562,0.002303,0.039089,-2.217917,320.789099,22.007333,0.999277,0.986364,0.004630,0.485410,0.000079,0.000049,0.000011,0.000083,0.000045,18.353153,0.000129,
2431,2488,3.78585297626554,-3.46636157038466,-0.0097617438793236,0.001011,-0.051516,0.001668,0.018775,-2.337080,323.152617,21.273019,0.999135,0.983149,0.004891,0.423336,0.000247,0.000105,-0.000020,0.000250,0.000102,-7.963015,0.000362,
2506,3298,5.25986864969829,14.1647442352897,0.0197908297876666,0.004398,-0.050645,0.011895,0.134267,-2.270131,310.450451,24.432056,0.999745,0.993548,0.003228,0.444275,-0.000024,-0.000030,-0.000017,-0.000010,-0.000044,-40.498560,0.000058,
2311,2068,1.24807147017292,-12.6675979968568,0.00454426087475213,-0.000380,-0.054182,-0.016945,0.019486,-2.541461,330.001764,20.381145,0.999224,0.981572,0.005342,0.415240,0.000892,0.000948,-0.000043,0.000971,0.000869,-61.481898,0.001841,
2326,3178,1.37410118776033,11.5451090463125,0.0341414583306801,0.004315,-0.050078,0.011974,0.137681,-2.228729,312.329776,23.163821,0.999704,0.993969,0.003361,0.453200,0.000003,0.000010,0.000004,0.000012,0.000001,66.505836,0.000015,
2236,2848,-0.526239737680324,4.37623209127941,-0.019349962788624,0.002518,-0.049615,0.007345,0.073742,-2.206308,317.331480,22.323658,0.999397,0.990937,0.003788,0.456528,0.000023,0.000031,0.000010,0.000038,0.000016,55.470704,0.000055,
2431,2608,3.7621970162106,-0.844982792222595,-0.0164487067090704,0.001896,-0.050824,0.004092,0.050752,-2.276021,321.178412,21.694549,0.999304,0.987393,0.004478,0.470418,0.000149,0.000060,-0.000005,0.000149,0.000060,-2.948521,0.000215,
2401,2353,3.15832348408258,-6.41810200738674,-0.00711657713554814,0.000609,-0.051322,-0.005955,0.028525,-2.322619,325.331730,20.928280,0.998577,0.981099,0.005324,0.426788,0.000392,0.000293,-0.000008,0.000393,0.000293,-4.718043,0.000688,
2116,2233,-3.03628369319528,-9.04336280938239,-0.00397216059775474,-0.002047,-0.050702,-0.010455,-0.080002,-2.326473,327.659572,21.956494,0.998404,0.980769,0.005566,0.361264,0.000553,0.000513,0.000078,0.000613,0.000452,37.761838,0.001070,
2461,2833,4.3703357919774,4.06304099788493,-0.0291560215405298,0.002496,-0.050027,0.003727,0.079467,-2.233109,317.489749,22.615749,0.999526,0.989869,0.003929,0.380357,0.000040,0.000003,0.000012,0.000043,-0.000001,16.582768,0.000049,
2341,3298,1.67481943539516,14.1500138068384,0.00234429031161199,0.004421,-0.049947,0.012264,0.141058,-2.230643,310.090874,23.510795,0.999676,0.992901,0.003310,0.454442,0.000002,-0.000002,-0.000005,0.000006,-0.000006,-35.387463,0.000007,
2416,2413,3.47497316921733,-5.10536828339634,-0.00812364657900844,0.001764,-0.051232,-0.006239,0.082568,-2.333404,324.423806,21.107320,0.999472,0.987291,0.004679,0.380452,0.000311,0.000218,-0.000013,0.000313,0.000216,-7.965779,0.000533,
2416,2338,3.48965784439173,-6.74631202059601,-0.00280723734931598,0.000972,-0.050767,-0.010029,0.060248,-2.303503,325.660657,20.839412,0.998740,0.981956,0.005151,0.431181,0.000420,0.000308,-0.000024,0.000425,0.000303,-11.445031,0.000731,
2236,3043,-0.556797436562089,8.61044327490154,0.0215689017640557,0.003554,-0.049337,0.008043,0.119276,-2.200236,314.540055,22.638982,0.999592,0.991854,0.003579,0.413928,0.000004,-0.000010,-0.000008,0.000007,-0.000013,-24.275592,0.000013,
2386,2398,2.82293812531522,-5.43511823737216,-0.0012899764553822,0.000994,-0.051288,-0.002730,0.034634,-2.326010,324.644226,21.077803,0.999289,0.985568,0.004815,0.462216,0.000323,0.000228,-0.000004,0.000323,0.000228,-2.462759,0.000554,
2371,2008,2.57112334947866,-13.987803313267,0.0091190136100181,0.000414,-0.057627,-0.011804,0.037760,-2.653853,331.024849,19.850424,0.998075,0.971087,0.006798,0.272108,0.001148,0.001023,-0.000060,0.001172,0.000999,-21.928919,0.002174,
2326,2113,1.56705374128624,-11.6812867003996,0.00962378875573222,-0.000704,-0.055078,-0.011528,-0.013910,-2.548719,329.279557,20.407733,0.999152,0.981763,0.005458,0.398404,0.000806,0.000870,-0.000042,0.000891,0.000785,-63.496327,0.001677,
2386,2068,2.88750684002359,-12.6697849770826,0.00751023409702611,0.000298,-0.054953,-0.014704,0.044052,-2.538071,330.061560,19.883066,0.998853,0.977555,0.006053,0.437966,0.000999,0.000955,-0.000052,0.001034,0.000921,-33.467199,0.001956,
2266,2953,0.109102466968601,6.65885062113924,0.00078660317080903,0.003195,-0.049347,0.006107,0.108191,-2.209557,315.765130,22.548263,0.999109,0.987888,0.004350,0.444240,0.000005,-0.000008,-0.000002,0.000006,-0.000008,-9.066495,0.000008,
2401,2473,3.13562747254243,-3.79451283267912,-0.00497877566118632,0.001384,-0.050738,-0.002445,0.051603,-2.289388,323.427958,21.301552,0.999276,0.987462,0.004625,0.463122,0.000247,0.000126,0.000008,0.000248,0.000126,3.724384,0.000380,
2401,2263,3.17579710779462,-8.38843185321408,-0.00941411487144705,0.000688,-0.052390,-0.006685,0.034327,-2.353392,326.774748,20.616075,0.999121,0.986011,0.004826,0.422702,0.000543,0.000461,-0.000043,0.000562,0.000443,-22.992362,0.001007,
2281,3283,0.376540864000251,13.8181967277684,0.0164803756603078,0.004327,-0.049949,0.014301,0.132291,-2.233247,310.498838,23.126172,0.999523,0.992422,0.003388,0.464993,-0.000002,0.000002,-0.000003,0.000004,-0.000003,-61.168371,0.000004,
2266,3193,0.0691169927293132,11.8654556366139,0.038959434014771,0.004159,-0.049633,0.011654,0.134181,-2.212878,312.188259,22.946150,0.999568,0.991466,0.003541,0.436277,0.000003,0.000008,0.000000,0.000008,0.000003,87.221881,0.000011,
2356,2128,2.21929983526936,-11.3510629189132,0.00750209777800137,-0.000409,-0.054326,-0.007557,-0.013673,-2.471716,329.018550,20.331087,0.999098,0.981745,0.005345,0.416471,0.000821,0.000854,-0.000039,0.000880,0.000795,-56.470457,0.001676,
2371,2203,2.53354370905766,-9.70497778681403,-0.000683315025753473,0.000735,-0.052472,-0.012568,0.057243,-2.410523,327.816307,20.508653,0.998603,0.980006,0.005659,0.432335,0.000649,0.000634,-0.000032,0.000674,0.000609,-38.348454,0.001284,
2176,2518,-1.77558601628353,-2.81431328654662,-0.0198851016480717,0.000411,-0.049736,-0.002697,0.009751,-2.241255,322.786002,21.902446,0.998927,0.986153,0.004835,0.484612,0.000155,0.000105,0.000002,0.000155,0.000105,2.669081,0.000262,
2131,2323,-2.72285548689189,-7.0744871763855,-0.00380012571105226,-0.000692,-0.049840,-0.006245,-0.029961,-2.262349,326.197127,21.929627,0.999072,0.985093,0.004968,0.428529,0.000401,0.000293,0.000028,0.000408,0.000287,13.574158,0.000698,
2356,2248,2.19637247971316,-8.7182610135132,-0.000877628110970363,0.000248,-0.052523,-0.004135,0.005095,-2.371538,327.029444,20.744931,0.998774,0.981081,0.005543,0.435208,0.000545,0.000488,-0.000023,0.000553,0.000479,-19.488033,0.001033,
2281,3013,0.424022858675311,7.96273404874623,0.00606210288196962,0.003050,-0.049918,0.010397,0.086559,-2.216496,314.785536,22.690404,0.999197,0.988944,0.004077,0.438726,0.000012,0.000003,0.000000,0.000012,0.000003,-3.002439,0.000015,
2296,3178,0.722869301043477,11.5424770006484,0.0395084493173385,0.003895,-0.049895,0.010373,0.125100,-2.218253,312.387146,23.042941,0.999678,0.993025,0.003391,0.447064,0.000003,0.000004,0.000006,0.000010,-0.000003,48.689197,0.000010,
2206,2923,-1.18920048001197,6.00394847341258,-0.000334023686093587,0.003192,-0.049446,0.009535,0.098768,-2.196286,316.369643,22.413488,0.999411,0.990115,0.003939,0.418025,0.000011,0.000002,0.000010,0.000017,-0.000004,32.855976,0.000017,
2476,2908,4.68330992037866,5.69406628275992,-0.0155374388007772,0.003003,-0.050485,0.004615,0.098888,-2.263201,316.433461,22.848743,0.998685,0.984385,0.004913,0.416089,0.000009,-0.000011,0.000020,0.000021,-0.000023,31.958949,0.000025,
2161,2458,-2.09200919451457,-4.12441216716707,-0.0158565461000535,0.000004,-0.049562,-0.004658,-0.002745,-2.231972,323.829177,21.863196,0.999128,0.987388,0.004594,0.516440,0.000207,0.000125,0.000001,0.000207,0.000125,0.379708,0.000336,
2431,2503,3.78329626668792,-3.13912437884606,-0.00588562750323263,0.000986,-0.051076,0.000115,0.023562,-2.298589,322.946292,21.280537,0.999271,0.986391,0.004559,0.505410,0.000229,0.000095,-0.000026,0.000234,0.000090,-10.431746,0.000334,
2251,2848,-0.199641733328384,4.37653830668106,-0.0166442423130775,0.002664,-0.049593,0.003403,0.092923,-2.224054,317.342338,22.335938,0.999476,0.992006,0.003705,0.446504,0.000020,0.000029,0.000005,0.000032,0.000018,67.097301,0.000050,
2146,2653,-2.45028259354392,0.128292579994145,-0.024838570941597,0.001268,-0.049563,0.002864,0.032513,-2.220256,320.689283,22.048222,0.999688,0.990951,0.003783,0.494491,0.000089,0.000043,-0.000008,0.000090,0.000042,-9.181622,0.000134,
2371,2023,2.56809292095535,-13.65965778244,0.0189347019428396,-0.000393,-0.057313,-0.010049,-0.005248,-2.638786,330.822408,19.872265,0.998144,0.972152,0.006800,0.309800,0.001108,0.001010,-0.000055,0.001133,0.000985,-23.997903,0.002120,
2371,2338,2.50680650633233,-6.74740977667033,-0.00320126354222339,0.000562,-0.051514,-0.004941,0.022683,-2.334813,325.577885,20.953500,0.998862,0.984698,0.005030,0.453377,0.000399,0.000297,-0.000004,0.000399,0.000297,-2.122906,0.000699,
2341,2173,1.88266692430567,-10.3627572030961,-0.0028552826273085,-0.000171,-0.053523,-0.006888,-0.004866,-2.427560,328.213070,20.518269,0.999043,0.982821,0.005243,0.478870,0.000695,0.000701,-0.000023,0.000721,0.000675,-48.525936,0.001396,
2221,2803,-0.84462301524022,3.3968118280571,-0.0235541562270214,0.002196,-0.049369,0.002817,0.073953,-2.221617,318.064439,22.239998,0.999323,0.988459,0.004261,0.448655,0.000018,0.000036,-0.000001,0.000036,0.000018,-86.184009,0.000055,
2431,2458,3.79213461287617,-4.12120488200048,-0.0125071605140761,0.001319,-0.050910,-0.001360,0.044336,-2.287724,323.641546,21.157308,0.999421,0.986238,0.004690,0.486044,0.000283,0.000132,-0.000009,0.000284,0.000132,-3.318290,0.000425,
2146,2383,-2.40555378474252,-5.76364529058837,-0.00398771452239544,-0.000157,-0.049924,-0.004768,-0.009898,-2.269985,325.188364,21.883475,0.998773,0.985988,0.004691,0.448591,0.000303,0.000211,-0.000004,0.000303,0.000211,-2.732958,0.000516,
2251,3133,-0.245937691259833,10.5628727898507,0.0393653121050193,0.004145,-0.049987,0.016238,0.118997,-2.196860,313.186365,22.769028,0.999361,0.991971,0.003714,0.469953,0.000000,0.000006,-0.000010,0.000013,-0.000007,-53.160473,0.000013,
2401,2368,3.15514271736562,-6.09079319829669,-0.00648547909463559,0.000577,-0.051965,-0.002418,0.013999,-2.349077,325.080137,20.933196,0.998667,0.980811,0.005280,0.442569,0.000370,0.000279,-0.000008,0.000371,0.000278,-4.790005,0.000651,
2281,3298,0.373630985936249,14.1443327262877,0.0100931267796227,0.004621,-0.049869,0.014172,0.146330,-2.225803,310.212563,23.216832,0.999637,0.993841,0.003173,0.407963,0.000001,0.000010,-0.000006,0.000013,-0.000001,-64.400581,0.000014,
2326,2008,1.58733203385045,-13.9866666246117,0.0127535713660905,-0.000680,-0.055828,-0.019675,0.014942,-2.642303,331.025246,20.182959,0.997888,0.973056,0.006749,0.264838,0.001054,0.001014,-0.000075,0.001112,0.000956,-37.501995,0.002070,
2401,2278,3.171430567787,-8.05775244791614,-0.0218002258814636,0.000357,-0.052266,-0.005170,0.013747,-2.381353,326.407585,20.768709,0.999740,0.994188,0.003434,0.290297,0.000516,0.000434,-0.000028,0.000525,0.000425,-17.455830,0.000952,
2236,2863,-0.528378337045741,4.70218566004041,-0.0117760851819639,0.002556,-0.049505,0.008328,0.072342,-2.195634,317.149100,22.370327,0.999265,0.990666,0.003803,0.441089,0.000021,0.000032,0.000009,0.000037,0.000016,61.082258,0.000054,
2341,2068,1.90316004040751,-12.6703001141571,0.0118473115883262,-0.001018,-0.055242,-0.014476,-0.017908,-2.572647,330.017203,20.115619,0.998429,0.975697,0.006117,0.458220,0.000947,0.000957,-0.000045,0.000997,0.000907,-48.174252,0.001904,
2386,2083,2.88439671508553,-12.3400485713563,0.0100986788241357,0.000144,-0.054895,-0.011341,0.025018,-2.510877,329.821878,19.977607,0.998619,0.973977,0.006257,0.417316,0.000960,0.000938,-0.000049,0.000999,0.000899,-38.646382,0.001899,
2356,1993,2.24487094716926,-14.3184304457132,0.0128120989588751,-0.001353,-0.057369,-0.015556,-0.030011,-2.672758,331.223222,19.831923,0.998431,0.954411,0.008402,0.334121,0.001166,0.001013,-0.000090,0.001207,0.000971,-24.766001,0.002182,
2101,2143,-3.35034470725538,-11.0160234680067,0.00238678184121,-0.003707,-0.052118,-0.008572,-0.162161,-2.382323,329.146589,21.891162,0.998484,0.982361,0.005564,0.418019,0.000736,0.000695,0.000111,0.000828,0.000602,39.786925,0.001436,
2266,3208,0.0661883561442913,12.1910508285955,0.0385170904959296,0.004054,-0.049803,0.012684,0.125864,-2.215787,311.930356,23.004761,0.999729,0.994192,0.003162,0.398837,0.000000,0.000011,0.000001,0.000011,0.000000,84.374047,0.000013,
2191,2638,-1.46834172062092,-0.197540480843266,-0.0194315991045642,0.001765,-0.049213,-0.000112,0.063917,-2.228145,320.852263,22.006610,0.999471,0.988463,0.004267,0.487007,0.000081,0.000046,0.000007,0.000083,0.000045,10.627570,0.000129,
2161,2473,-2.09398720061505,-3.79648612179197,-0.0132771760492005,0.000366,-0.049198,-0.004224,0.012662,-2.211693,323.623166,21.927319,0.999104,0.986229,0.004881,0.483844,0.000196,0.000125,0.000003,0.000196,0.000125,2.128853,0.000323,
2386,2278,2.84619155338082,-8.05962191281143,-0.00519232737065067,0.000826,-0.051413,-0.010355,0.054164,-2.354639,326.572634,20.802114,0.999544,0.991506,0.003903,0.347761,0.000509,0.000428,-0.000024,0.000515,0.000422,-15.275977,0.000939,
2371,2038,2.56551383053204,-13.3291344787715,0.00728733245790636,0.000385,-0.056083,-0.015253,0.049269,-2.608526,330.538156,19.858279,0.998579,0.976108,0.006278,0.398899,0.001063,0.000983,-0.000052,0.001089,0.000957,-26.234239,0.002047,
2416,2428,3.47081365650019,-4.77700240810712,-0.0116662515974895,0.000914,-0.051235,-0.005297,0.040178,-2.328648,324.108464,21.158680,0.999406,0.986607,0.004702,0.383469,0.000300,0.000191,-0.000008,0.000300,0.000190,-3.994041,0.000495,
2206,2653,-1.14532558284501,0.130170243102469,-0.0237287560265713,0.001750,-0.049874,0.004366,0.048719,-2.208851,320.514151,21.994014,0.999309,0.986216,0.004684,0.525400,0.000075,0.000050,0.000010,0.000079,0.000046,18.668410,0.000126,
2311,2083,1.24473956969193,-12.3367117479813,0.00557359350091247,-0.000688,-0.054534,-0.012388,-0.010251,-2.496249,329.738002,20.544704,0.999192,0.982675,0.005351,0.332377,0.000859,0.000924,-0.000040,0.000943,0.000840,-64.641506,0.001784,
2326,2128,1.56498965403777,-11.3510956908342,0.0126187915523701,-0.000530,-0.053482,-0.015644,0.008783,-2.474463,329.084448,20.515857,0.999221,0.984159,0.005141,0.402026,0.000775,0.000844,-0.000038,0.000861,0.000758,-66.128545,0.001620,
2431,2623,3.75851610160851,-0.517468699395792,-0.0197795551985678,0.001413,-0.051010,0.003495,0.030730,-2.285196,320.886537,21.750269,0.999354,0.988554,0.004274,0.456295,0.000139,0.000044,-0.000008,0.000140,0.000043,-5.033579,0.000191,
2116,2248,-3.0389831030541,-8.71543854041197,-0.00543936168776327,-0.002220,-0.050544,-0.009524,-0.090644,-2.313497,327.395555,21.911662,0.998518,0.982612,0.005399,0.424887,0.000527,0.000486,0.000073,0.000582,0.000431,37.142694,0.001017,
2446,2638,4.08305612589719,-0.189053382884161,-0.018413305279978,0.001711,-0.050509,0.000964,0.053729,-2.267943,320.702788,21.847637,0.999504,0.989732,0.004070,0.415211,0.000134,0.000054,-0.000017,0.000137,0.000051,-11.749147,0.000195,
2296,3193,0.720454008514881,11.86786546315,0.0397930358478789,0.004261,-0.049930,0.010922,0.140026,-2.229873,312.158710,23.091978,0.999648,0.992826,0.003429,0.415217,0.000002,0.000002,0.000007,0.000009,-0.000006,44.810421,0.000009,
2326,2023,1.58358347888404,-13.6565059979741,0.00574137407448916,-0.001006,-0.055465,-0.018042,-0.005456,-2.613848,330.704949,20.184013,0.998306,0.978066,0.006248,0.330739,0.001016,0.001007,-0.000061,0.001073,0.000950,-42.809615,0.002024,
2206,2938,-1.19180540398688,6.32892855545645,0.00391833039969924,0.002964,-0.049650,0.010620,0.084817,-2.189452,316.147211,22.367895,0.999425,0.991968,0.003691,0.486673,0.000010,-0.000003,0.000004,0.000011,-0.000004,14.943515,0.000011,
2356,2143,2.21713520694959,-11.0215693488896,0.00701513887571537,0.000210,-0.053963,-0.008717,0.018853,-2.447680,328.804811,20.393977,0.998532,0.979656,0.005707,0.419024,0.000783,0.000792,-0.000032,0.000820,0.000755,-49.163648,0.001576,
2296,1993,0.933091742861727,-14.3159317098137,0.0117849780881443,-0.001707,-0.056832,-0.015180,-0.048573,-2.623817,331.212329,20.265882,0.998412,0.965725,0.007555,0.376131,0.001033,0.000979,-0.000107,0.001116,0.000895,-37.950044,0.002015,
2371,2218,2.53069474779466,-9.37622233429387,0.00428904199293356,0.000482,-0.052296,-0.011046,0.040322,-2.396294,327.598391,20.598494,0.998017,0.975472,0.006388,0.400370,0.000623,0.000600,-0.000026,0.000639,0.000583,-32.900936,0.001223,
2356,2008,2.24302930875679,-13.9869135817018,0.00546113448319829,0.000055,-0.056244,-0.017543,0.041796,-2.623671,330.991509,19.925992,0.998259,0.973024,0.006787,0.331632,0.001140,0.001018,-0.000063,0.001167,0.000991,-23.015597,0.002160,
2341,2188,1.88031847563309,-10.0333487776136,-0.000990577878212662,-0.000041,-0.053425,-0.009393,0.009848,-2.455712,328.001073,20.667059,0.999127,0.985623,0.004951,0.341137,0.000658,0.000672,-0.000022,0.000688,0.000642,-53.208476,0.001330,
2356,2263,2.19359543641118,-8.38978442904683,-0.00107680635449015,0.000077,-0.051938,-0.007260,0.008444,-2.360756,326.788791,20.774415,0.999219,0.984361,0.005050,0.457407,0.000512,0.000437,-0.000031,0.000523,0.000427,-19.639610,0.000951,
2431,2473,3.78943650327405,-3.79364948277842,-0.00756848819730749,0.001171,-0.050862,-0.001679,0.038738,-2.306308,323.433927,21.251860,0.999324,0.985697,0.004690,0.423991,0.000261,0.000117,-0.000012,0.000262,0.000116,-4.667452,0.000388,
2221,2818,-0.846390670664196,3.72250833090223,-0.00970630795251282,0.002344,-0.049589,0.006684,0.068312,-2.212673,317.930559,22.301121,0.999565,0.990136,0.003971,0.414973,0.000019,0.000042,0.000000,0.000042,0.000019,89.841222,0.000063,
2416,2353,3.48650895553349,-6.41827245860688,-0.00315361783162871,0.001041,-0.051029,-0.007011,0.052290,-2.306926,325.407058,20.873463,0.998325,0.981177,0.005364,0.443276,0.000397,0.000293,-0.000018,0.000400,0.000290,-9.476110,0.000693,
2221,2923,-0.863401172288587,6.00461554049274,0.00191476033239724,0.002844,-0.049068,0.006566,0.091902,-2.186429,316.341521,22.429168,0.999534,0.991963,0.003716,0.443274,0.000009,0.000001,0.000006,0.000012,-0.000002,28.386400,0.000013,
2311,3103,1.06153466748401,9.91736791060129,0.0298168040730502,0.003623,-0.049693,0.009008,0.116705,-2.216058,313.510557,22.976697,0.999440,0.993072,0.003525,0.429079,-0.000006,0.000000,-0.000002,0.000001,-0.000006,-74.706148,0.000007,
2176,2533,-1.77781189610381,-2.48690173111804,-0.0178109049115847,0.000677,-0.049531,-0.000945,0.016635,-2.224719,322.567203,21.937959,0.998824,0.986541,0.004650,0.478700,0.000139,0.000097,0.000004,0.000140,0.000097,5.707454,0.000238,
2236,3058,-0.558637810494002,8.93511590911433,0.027558869683503,0.003799,-0.049219,0.005998,0.137248,-2.201543,314.363497,22.613911,0.999627,0.992878,0.003376,0.457947,0.000008,-0.000011,-0.000006,0.000010,-0.000013,-15.043722,0.000014,
2386,2413,2.82083576103532,-5.10699186941011,-0.0020987373837329,0.001588,-0.050671,-0.006012,0.073862,-2.309998,324.433609,21.115563,0.999371,0.985035,0.004780,0.485153,0.000300,0.000220,0.000004,0.000300,0.000220,2.642205,0.000522,
2416,2443,3.46785971756486,-4.44922175075612,-0.0116141661637243,0.001052,-0.050827,-0.003405,0.039739,-2.293885,323.865146,21.165397,0.999414,0.987170,0.004606,0.460632,0.000291,0.000156,0.000002,0.000291,0.000156,0.856615,0.000454,
2326,2038,1.58023469107282,-13.3246614272574,-0.00174998163225837,-0.001139,-0.054476,-0.019804,-0.005163,-2.553825,330.400215,20.308092,0.998913,0.983523,0.005289,0.305139,0.000979,0.000982,-0.000060,0.001040,0.000920,-45.658768,0.001962,
2401,2383,3.15230297626697,-5.7609946992131,-0.0105617354029732,0.000649,-0.050641,-0.006645,0.033136,-2.314739,324.821380,21.064708,0.999188,0.984361,0.004903,0.392689,0.000353,0.000246,-0.000016,0.000356,0.000244,-8.470263,0.000603,
2401,2488,3.13258959088676,-3.46632202058907,-0.00656902351505551,0.001491,-0.050895,-0.001255,0.052159,-2.303564,323.171757,21.393811,0.999268,0.988323,0.004444,0.403215,0.000232,0.000113,0.000002,0.000232,0.000113,1.098281,0.000352,
2116,2263,-3.04173037563422,-8.38736570604599,-0.00628075739797396,-0.002228,-0.050952,-0.004765,-0.105185,-2.312822,327.132724,21.904422,0.998471,0.983336,0.005406,0.438664,0.000505,0.000442,0.000074,0.000554,0.000392,33.501119,0.000951,
2371,2353,2.50421246758851,-6.42010267660888,0.00404081233210718,0.000480,-0.051383,-0.002147,0.009081,-2.320178,325.382199,20.976233,0.998833,0.984280,0.005103,0.487923,0.000376,0.000283,0.000005,0.000377,0.000282,3.253908,0.000661,
2341,2083,1.90058348096253,-12.3384996053715,0.00930562440754557,-0.000446,-0.054936,-0.012751,0.002340,-2.522769,329.773195,20.318174,0.999091,0.981169,0.005451,0.345550,0.000912,0.000932,-0.000043,0.000967,0.000877,-51.707136,0.001845,
2371,2233,2.52743468615961,-9.04733607038944,0.00374071243220442,0.000410,-0.052745,-0.007470,0.024202,-2.397859,327.335332,20.663568,0.998519,0.979211,0.005946,0.377259,0.000590,0.000553,-0.000023,0.000601,0.000542,-25.688726,0.001143,
2281,3028,0.422178082919288,8.28831656413234,0.0104662756041876,0.003362,-0.049585,0.007011,0.112424,-2.212015,314.603198,22.727360,0.999033,0.988351,0.004152,0.433235,0.000010,0.000002,-0.000002,0.000010,0.000002,-15.716760,0.000013,
2386,2293,2.84359997361075,-7.73231574711671,-0.00393777502165449,0.001170,-0.051651,-0.008449,0.063021,-2.356132,326.349992,20.762487,0.999826,0.994242,0.003372,0.431172,0.000483,0.000394,-0.000017,0.000486,0.000391,-10.342289,0.000879,
2431,2638,3.75540793405805,-0.190251703768261,-0.0203907709970395,0.001314,-0.050859,0.003325,0.026850,-2.289956,320.633567,21.802398,0.999474,0.990571,0.004065,0.449954,0.000127,0.000057,-0.000012,0.000129,0.000055,-9.500881,0.000189,
2296,3208,0.717260065570972,12.1932062152612,0.037464355756299,0.004043,-0.049749,0.011490,0.128095,-2.224578,311.881411,23.108466,0.999734,0.993911,0.003175,0.432428,0.000001,0.000002,0.000007,0.000009,-0.000006,47.149316,0.000009,
2146,2398,-2.40846302699811,-5.43603092376696,-0.00570894450339665,-0.000339,-0.050384,-0.002272,-0.025952,-2.275038,324.916068,21.878401,0.998598,0.985791,0.004916,0.458270,0.000283,0.000190,-0.000006,0.000283,0.000190,-3.896541,0.000476,
2296,2008,0.931018363180005,-13.9862263581446,0.0100242301247704,-0.001134,-0.056444,-0.017801,-0.013347,-2.633202,330.991741,20.316313,0.998550,0.976522,0.006250,0.349732,0.001010,0.001004,-0.000075,0.001082,0.000932,-43.892868,0.002016,
2251,2863,-0.202282355624593,4.7025673333773,-0.0162567168815144,0.002679,-0.049573,0.003617,0.092939,-2.216930,317.101344,22.339908,0.999510,0.991802,0.003681,0.472737,0.000019,0.000031,0.000004,0.000033,0.000017,73.441110,0.000051,
2431,2518,3.78077018482651,-2.81199132330259,-0.00177116614025863,0.001014,-0.050899,-0.000932,0.028814,-2.290026,322.742538,21.314863,0.999040,0.985094,0.004756,0.530545,0.000213,0.000082,-0.000027,0.000218,0.000076,-11.248929,0.000305,
2371,2053,2.56279617649126,-12.9981951153347,0.0106085174778627,0.000328,-0.055149,-0.014630,0.044805,-2.566363,330.318642,20.044901,0.998786,0.978482,0.005884,0.298938,0.001025,0.000974,-0.000051,0.001056,0.000943,-31.582545,0.002000,
2326,2143,1.56173242731366,-11.0200022059507,0.00174020297959032,-0.000002,-0.052883,-0.013231,0.024885,-2.420651,328.767158,20.582674,0.999264,0.984656,0.005141,0.426650,0.000741,0.000781,-0.000032,0.000798,0.000723,-60.992149,0.001522,
2386,2098,2.88089010170064,-12.0102486782825,0.0040728615832677,0.000168,-0.055043,-0.009271,0.018672,-2.521186,329.523453,20.026049,0.998583,0.973406,0.006347,0.405245,0.000918,0.000897,-0.000053,0.000961,0.000854,-39.557545,0.001816,
2221,2833,-0.848906434674578,4.04839032446196,-0.00994815551786132,0.002400,-0.049411,0.005835,0.073682,-2.196253,317.689930,22.267904,0.999415,0.990220,0.003922,0.483552,0.000019,0.000038,0.000008,0.000041,0.000016,69.372636,0.000058,
2221,2938,-0.866480357624724,6.33019596529238,-7.06408886799181E-05,0.002734,-0.049560,0.009513,0.077208,-2.201973,316.066053,22.417192,0.999559,0.993360,0.003411,0.458118,0.000008,-0.000003,0.000000,0.000008,-0.000003,1.221300,0.000008,
2101,2158,-3.35220215999585,-10.687859358793,0.0119203080019474,-0.003623,-0.052081,-0.005238,-0.168023,-2.384759,328.978978,21.967946,0.998581,0.982316,0.005542,0.342284,0.000711,0.000651,0.000106,0.000791,0.000571,37.056353,0.001368,
2251,3148,-0.24867389875752,10.8879055092936,0.0378969995434204,0.003830,-0.049977,0.011064,0.121381,-2.231964,312.931393,22.785804,0.998635,0.988298,0.004392,0.440438,-0.000002,0.000008,-0.000009,0.000014,-0.000007,-59.622601,0.000014,
2311,3118,1.05881161720501,10.2428560400692,0.0330817213245496,0.003599,-0.049715,0.011175,0.108188,-2.212620,313.283882,23.020074,0.999247,0.992138,0.003767,0.420005,-0.000003,0.000006,0.000000,0.000006,-0.000003,87.010456,0.000006,
2131,2338,-2.72623627553851,-6.74604317501991,-0.00571217739701524,-0.001507,-0.049374,-0.005825,-0.068500,-2.232345,325.900676,21.942757,0.999298,0.986294,0.004707,0.453290,0.000372,0.000267,0.000017,0.000374,0.000265,8.786985,0.000642,
2356,2023,2.23997611575598,-13.6588757060172,0.0073990480589714,-0.000328,-0.056207,-0.017532,0.024240,-2.625337,330.749395,19.865663,0.997826,0.972216,0.007134,0.432680,0.001099,0.001006,-0.000052,0.001123,0.000983,-24.172096,0.002107,
2416,2458,3.46482475808805,-4.12100590935759,-0.0157473615649337,0.001446,-0.050917,-0.001557,0.051030,-2.295734,323.598565,21.214549,0.999350,0.986466,0.004711,0.458979,0.000278,0.000136,0.000002,0.000278,0.000136,0.958475,0.000422,
2206,2953,-1.19472645584289,6.65523454046584,-0.00444000854952264,0.003110,-0.049335,0.009011,0.096778,-2.181364,315.844581,22.358398,0.999404,0.992057,0.003700,0.520637,0.000011,-0.000008,0.000000,0.000011,-0.000008,0.425011,0.000011,
2341,2203,1.87755535518361,-9.7045506397557,-0.000831948657548764,-0.000020,-0.052704,-0.009435,0.011245,-2.418935,327.761548,20.682512,0.998899,0.983029,0.005349,0.401632,0.000625,0.000631,-0.000018,0.000646,0.000610,-49.827803,0.001256,
2356,2158,2.21500357432607,-10.6924907778947,0.00859928347966843,0.000514,-0.053566,-0.012304,0.045527,-2.466568,328.602731,20.489439,0.999050,0.981867,0.005423,0.346166,0.000745,0.000737,-0.000033,0.000775,0.000707,-41.727671,0.001483,
2386,2428,2.81765064570424,-4.77898150547779,0.000925353827597064,0.001359,-0.051115,-0.002240,0.049686,-2.301536,324.191454,21.191753,0.999382,0.987841,0.004559,0.462284,0.000287,0.000192,0.000008,0.000288,0.000192,4.574389,0.000483,
2371,2368,2.50047794157854,-6.0906237472464,-0.0024196562469001,0.000370,-0.051397,0.001058,-0.007355,-2.318278,325.068520,21.081431,0.998614,0.982956,0.005162,0.427851,0.000355,0.000269,0.000006,0.000355,0.000268,4.027314,0.000626,
2356,2278,2.18951064857658,-8.06013522141886,-0.0153748844718393,-0.000111,-0.052119,-0.007853,0.001828,-2.390742,326.420462,20.814298,0.999394,0.988241,0.004482,0.429388,0.000486,0.000408,-0.000024,0.000493,0.000401,-16.028648,0.000895,
2371,2068,2.55944555654297,-12.6688951283746,0.00587371449404372,0.000073,-0.054387,-0.016244,0.039124,-2.521662,330.031873,19.995151,0.999058,0.979745,0.005518,0.438337,0.000986,0.000956,-0.000044,0.001018,0.000924,-35.547713,0.001942,
2191,2653,-1.47117304451897,0.12970697975107,-0.0223007159581812,0.001703,-0.049537,0.000160,0.060117,-2.231095,320.581116,22.041971,0.999534,0.989651,0.004071,0.463836,0.000077,0.000045,0.000005,0.000078,0.000044,8.178647,0.000123,
2326,3193,1.37214270382679,11.8691884384424,0.044674551809635,0.004414,-0.050209,0.012595,0.140065,-2.231200,312.175164,23.144015,0.999729,0.994631,0.003168,0.503666,0.000002,0.000007,0.000004,0.000009,0.000000,59.890113,0.000010,
2266,3223,0.0634468192606228,12.5157474562498,0.0381166905959276,0.004139,-0.049841,0.013828,0.125990,-2.213467,311.681560,22.979376,0.999780,0.995158,0.003130,0.450839,-0.000002,0.000013,-0.000004,0.000014,-0.000003,-76.842901,0.000014,
2161,2488,-2.09665565816675,-3.46848743606265,-0.0239242803010598,0.000806,-0.049089,-0.005528,0.036925,-2.217722,323.316050,21.907843,0.999002,0.985979,0.004857,0.508855,0.000182,0.000116,-0.000004,0.000182,0.000116,-3.286132,0.000301,
2356,2038,2.23836179065804,-13.3288502468487,0.00807074398159102,0.000837,-0.055898,-0.017578,0.077880,-2.619181,330.566808,19.969404,0.998411,0.977219,0.006199,0.377230,0.001054,0.000981,-0.000049,0.001079,0.000956,-26.917773,0.002036,
2101,2173,-3.35470520446487,-10.3571386124991,-0.00354979838232339,-0.003341,-0.050692,-0.013780,-0.129801,-2.336778,328.646531,21.966493,0.998584,0.983046,0.005408,0.396212,0.000680,0.000622,0.000100,0.000755,0.000547,36.928614,0.001308,
2446,2653,4.08028006271789,0.138069301752452,-0.0194256886842936,0.002069,-0.050467,0.001608,0.067820,-2.264343,320.464360,21.884092,0.999608,0.990820,0.003887,0.435087,0.000125,0.000064,-0.000014,0.000128,0.000061,-12.198733,0.000194,
2401,2293,3.16896642225808,-7.73094788459436,-0.0184524836199103,0.000810,-0.052763,-0.001746,0.021921,-2.382531,326.201873,20.705289,0.999504,0.990585,0.003988,0.400150,0.000491,0.000398,-0.000022,0.000496,0.000393,-12.465475,0.000890,
2311,3133,1.05578810682722,10.5682897748196,0.0320918529940286,0.003456,-0.049702,0.011509,0.100493,-2.205401,313.022350,23.031988,0.999429,0.992551,0.003617,0.446448,-0.000005,0.000007,-0.000001,0.000007,-0.000005,-86.221034,0.000007,
2236,2878,-0.529943094191001,5.02695122444607,0.000589307943869244,0.002723,-0.049471,0.007877,0.081525,-2.199802,317.017880,22.360954,0.999475,0.991394,0.003679,0.467168,0.000016,0.000031,0.000007,0.000034,0.000013,68.050168,0.000049,
2266,2968,0.106762915807309,6.98474257658583,-0.00169173341294027,0.003582,-0.049516,0.003976,0.133037,-2.210205,315.524482,22.556056,0.999372,0.990932,0.003866,0.460888,0.000003,-0.000007,-0.000002,0.000004,-0.000008,-11.186058,0.000008,
2221,2953,-0.868712300411669,6.65627813122953,0.00252629600100818,0.002859,-0.049333,0.008274,0.087022,-2.193738,315.852827,22.464065,0.999433,0.991817,0.003709,0.437890,0.000007,-0.000008,-0.000002,0.000007,-0.000008,-9.083257,0.000009,
2206,2668,-1.1479260824439,0.457696454822489,-0.0237428617559203,0.001374,-0.049213,-0.000781,0.047920,-2.210110,320.269485,22.082386,0.999555,0.991499,0.003820,0.452834,0.000070,0.000058,0.000004,0.000071,0.000057,15.565912,0.000129,
2326,2053,1.5780970430535,-12.9976367794725,0.00399457666947001,-0.000695,-0.055192,-0.016404,0.003220,-2.570136,330.216113,20.223295,0.999387,0.987346,0.004655,0.411198,0.000946,0.000969,-0.000056,0.001015,0.000901,-50.908283,0.001917,
2296,3223,0.714524090520815,12.5177570939653,0.0360418110121827,0.004128,-0.049605,0.010889,0.134132,-2.216137,311.629936,23.058221,0.999810,0.994862,0.002976,0.520148,-0.000002,0.000005,0.000002,0.000005,-0.000002,73.135252,0.000005,
2116,2278,-3.04304960357492,-8.05852813871566,-0.00535753296009034,-0.001592,-0.050032,-0.010417,-0.059015,-2.285510,326.944348,21.963339,0.998575,0.983793,0.005260,0.412488,0.000484,0.000398,0.000070,0.000523,0.000359,29.285006,0.000887,
2176,2548,-1.7807448716909,-2.1600241332328,-0.0188987530997906,0.000560,-0.050227,0.002387,0.000690,-2.243631,322.299716,21.936445,0.999123,0.987153,0.004478,0.474420,0.000129,0.000086,0.000006,0.000130,0.000085,8.247058,0.000216,
2371,2248,2.52387388689974,-8.71660302625938,-0.0156654625927786,0.000739,-0.051674,-0.013734,0.061869,-2.371614,326.968186,20.681149,0.999032,0.983339,0.005505,0.430174,0.000557,0.000498,-0.000025,0.000566,0.000489,-19.744141,0.001056,
2401,2398,3.14995739776245,-5.43352343961975,-0.0102898668695843,0.001112,-0.050788,-0.007751,0.058316,-2.312085,324.606150,21.062017,0.999362,0.985227,0.004783,0.445248,0.000329,0.000230,-0.000012,0.000331,0.000229,-6.797932,0.000563,
2251,2878,-0.204799892683024,5.02895851284792,-0.0112408995134388,0.002680,-0.049489,0.006502,0.083490,-2.222873,316.889340,22.428462,0.999560,0.990547,0.003802,0.400855,0.000015,0.000029,0.000004,0.000030,0.000014,75.496574,0.000045,
2386,2443,2.81363722249199,-4.45011001159621,-0.0112090262501852,0.001265,-0.051156,-0.001355,0.042203,-2.304619,323.839316,21.220883,0.999124,0.988462,0.004647,0.475089,0.000275,0.000165,0.000016,0.000278,0.000163,7.900449,0.000446,
2386,2113,2.87835751278038,-11.6801949542777,0.00208393734499168,0.000422,-0.054126,-0.012619,0.042601,-2.495640,329.288440,20.111944,0.998588,0.968827,0.006544,0.391336,0.000880,0.000877,-0.000052,0.000931,0.000827,-44.212123,0.001759,
2131,2353,-2.72816027968709,-6.41834241371661,-0.00387626645749606,-0.000790,-0.049971,-0.000554,-0.051495,-2.239513,325.691108,21.966732,0.999193,0.985538,0.004785,0.429579,0.000347,0.000251,0.000013,0.000349,0.000249,7.640474,0.000601,
2146,2413,-2.41142790479052,-5.10666891308951,-0.0176433512220342,-0.000057,-0.050038,-0.002231,-0.013023,-2.249758,324.586673,21.911088,0.998356,0.986425,0.005164,0.460557,0.000268,0.000158,-0.000013,0.000270,0.000157,-6.393443,0.000431,
2281,3043,0.419717728279522,8.61384876378544,0.0145187166708638,0.003449,-0.049854,0.008569,0.111105,-2.221920,314.390800,22.775272,0.999300,0.990751,0.003847,0.402247,0.000008,0.000006,-0.000001,0.000008,0.000005,-24.682887,0.000014,
2341,2098,1.89729619295719,-12.0087821584748,0.00546186731389753,-0.000448,-0.054495,-0.010239,-0.006292,-2.487352,329.490594,20.336881,0.999223,0.982956,0.005247,0.402364,0.000873,0.000888,-0.000044,0.000925,0.000835,-49.731645,0.001762,
2416,2368,3.48390599499664,-6.09123408549487,-0.00220551210912845,0.001121,-0.051266,-0.009299,0.064237,-2.334948,325.184723,20.858040,0.998934,0.983014,0.005040,0.479971,0.000376,0.000279,-0.000016,0.000378,0.000276,-9.133482,0.000657,
2251,3163,-0.25082125431085,11.2137211947018,0.0425994492409245,0.003963,-0.049717,0.010040,0.130995,-2.216318,312.734502,22.865250,0.999208,0.990301,0.003919,0.398499,0.000000,0.000010,-0.000004,0.000012,-0.000002,-70.203101,0.000013,
2371,2383,2.49753435093426,-5.76178412602782,-0.0058490079440503,0.000245,-0.050930,-0.003004,0.001504,-2.305249,324.805556,21.152094,0.999061,0.984211,0.005010,0.413179,0.000339,0.000241,-0.000002,0.000339,0.000241,-1.066781,0.000583,
2191,2668,-1.47415741457611,0.45736809612707,-0.021964856410932,0.001267,-0.049235,0.000403,0.039402,-2.224976,320.319447,22.137971,0.999768,0.994214,0.003243,0.388598,0.000072,0.000054,0.000000,0.000072,0.000054,-1.067113,0.000126,
2386,2308,2.83966949068411,-7.40330344688414,-0.0124753621574882,0.000899,-0.051348,-0.007208,0.046293,-2.333222,326.019215,20.761769,0.999767,0.993804,0.003509,0.500521,0.000459,0.000358,-0.000012,0.000460,0.000357,-6.682502,0.000819,
2326,2158,1.55882240912884,-10.692603859436,0.00383154719747836,-0.000014,-0.053545,-0.009401,0.010937,-2.455201,328.529712,20.545983,0.999071,0.983576,0.005235,0.466201,0.000703,0.000731,-0.000027,0.000747,0.000687,-58.904546,0.001435,
2446,2668,4.07789603242899,0.464993611465303,-0.0174620115394077,0.002419,-0.050202,0.000336,0.088765,-2.246143,320.257592,21.917254,0.999428,0.988817,0.004211,0.472670,0.000117,0.000056,-0.000012,0.000119,0.000054,-10.434382,0.000177,
2326,3208,1.36957201230561,12.1948258627988,0.047922575697271,0.004412,-0.049701,0.012661,0.139930,-2.211469,311.956055,23.205854,0.999607,0.993371,0.003338,0.494566,0.000002,0.000007,0.000002,0.000008,0.000001,68.940516,0.000010,
2266,3238,0.0608450038718225,12.8402962377684,0.034069767366816,0.004193,-0.049864,0.008949,0.144566,-2.241370,311.420814,22.953637,0.999778,0.994600,0.003158,0.472909,-0.000005,-0.000001,-0.000004,0.000002,-0.000008,-56.785529,0.000008,
2431,2653,3.75335534576086,0.136813659464046,-0.0142058903586531,0.001751,-0.050429,0.003541,0.046351,-2.240258,320.460465,21.847864,0.999487,0.990022,0.004131,0.504519,0.000118,0.000065,-0.000009,0.000120,0.000063,-9.220227,0.000186,
2236,3073,-0.562394707402255,9.26100008705245,0.0209052760321242,0.003510,-0.049660,0.010751,0.108359,-2.206779,314.033841,22.626389,0.999664,0.992597,0.003374,0.460612,0.000008,-0.000004,-0.000003,0.000009,-0.000004,-14.571531,0.000009,
2311,3148,1.05320074324239,10.8939878599246,0.0284570762354974,0.003675,-0.049483,0.008187,0.121987,-2.210086,312.767694,23.068031,0.999545,0.992098,0.003702,0.436966,-0.000005,0.000004,0.000001,0.000004,-0.000005,83.595547,0.000005,
2356,2173,2.21173886711894,-10.3642553226618,0.0060297385154513,0.000219,-0.052848,-0.012943,0.034525,-2.445137,328.328670,20.428851,0.999191,0.981495,0.005409,0.470185,0.000709,0.000704,-0.000033,0.000739,0.000673,-42.726675,0.001413,
2356,2053,2.23545944919438,-13.0001036503005,0.0222291509562069,-0.000186,-0.055238,-0.015739,0.024830,-2.567116,330.389740,20.067162,0.998749,0.979696,0.005630,0.373605,0.001016,0.000979,-0.000047,0.001048,0.000947,-34.414075,0.001996,
2221,2968,-0.871104389183955,6.98207593558337,0.00551473123937285,0.002880,-0.049104,0.008231,0.088207,-2.186255,315.634329,22.492089,0.999389,0.989834,0.003972,0.435347,0.000008,-0.000005,-0.000003,0.000009,-0.000006,-11.655685,0.000009,
2146,2428,-2.41325142727567,-4.77811588467673,-0.0171656990726774,0.000344,-0.049009,-0.005177,0.014640,-2.209212,324.375283,21.978127,0.998888,0.986701,0.004856,0.443269,0.000249,0.000129,-0.000009,0.000250,0.000128,-4.180126,0.000384,
2176,2563,-1.78308120330666,-1.83196542777297,-0.0194950288466202,0.000781,-0.049618,0.002359,0.011137,-2.206880,322.061649,21.996796,0.999135,0.986159,0.004543,0.464100,0.000121,0.000085,0.000004,0.000122,0.000085,6.362857,0.000208,
2131,2368,-2.73033794852086,-6.08999945365937,-0.0149819540991416,-0.000483,-0.049103,-0.010586,-0.007176,-2.243521,325.400893,21.925412,0.999071,0.985855,0.004718,0.474522,0.000328,0.000235,0.000007,0.000329,0.000234,3.968421,0.000566,
2161,2503,-2.09972815189907,-3.14035807704975,-0.032387908039027,0.000890,-0.049262,-0.004005,0.036060,-2.214213,323.001819,21.917093,0.998857,0.985072,0.005020,0.514807,0.000175,0.000105,-0.000002,0.000176,0.000105,-1.913494,0.000283,
2416,2473,3.46233253994438,-3.79510782238893,-0.00486847720253536,0.001055,-0.051168,-0.001145,0.031479,-2.307038,323.427339,21.204865,0.999190,0.985677,0.004786,0.506128,0.000257,0.000121,0.000002,0.000257,0.000121,0.660015,0.000387,
2341,2218,1.87487211795166,-9.37621185579367,-0.00253029742577837,-0.000149,-0.052449,-0.014394,0.022611,-2.410062,327.516852,20.669758,0.998569,0.981985,0.005627,0.462730,0.000600,0.000594,-0.000013,0.000610,0.000584,-38.995179,0.001194,
2431,2533,3.77812517673331,-2.48321861551413,-0.00251146272609049,0.001451,-0.050938,-0.000467,0.047127,-2.286891,322.510476,21.465740,0.999317,0.987939,0.004376,0.433800,0.000203,0.000081,-0.000023,0.000207,0.000077,-10.493267,0.000294,
2401,2503,3.12875741673841,-3.13690227402387,-0.0182291573324278,0.001418,-0.050476,-0.002439,0.053259,-2.285722,322.831311,21.480348,0.999443,0.988779,0.004307,0.381802,0.000212,0.000104,-0.000004,0.000212,0.000104,-2.259454,0.000322,
2101,2188,-3.35735966427683,-10.0292517169687,-0.00173451135617597,-0.003380,-0.051216,-0.007635,-0.149700,-2.323262,328.400937,21.930636,0.998525,0.982698,0.005490,0.449453,0.000644,0.000606,0.000098,0.000725,0.000525,39.612549,0.001256,
2236,2893,-0.531999145930211,5.35308286320464,0.00328445528219845,0.002977,-0.049251,0.005830,0.099945,-2.189731,316.814326,22.395208,0.999676,0.991643,0.003672,0.463686,0.000013,0.000020,0.000007,0.000024,0.000008,58.938592,0.000034,
2341,2113,1.89532172037953,-11.6803194471082,0.00908607069140999,-0.000194,-0.054184,-0.014094,0.018855,-2.506981,329.304540,20.383209,0.999297,0.982979,0.005194,0.375734,0.000838,0.000870,-0.000041,0.000898,0.000810,-55.541033,0.001709,
2116,2293,-3.04581490766834,-7.7289495359637,-0.0129825854744468,-0.001515,-0.049313,-0.010955,-0.053689,-2.241135,326.643864,21.992284,0.998718,0.985283,0.005023,0.433789,0.000462,0.000375,0.000067,0.000499,0.000338,28.617098,0.000842,
2326,2068,1.57502786511193,-12.6681430764437,-0.000154094501795043,-0.000685,-0.054543,-0.016421,0.003966,-2.552074,329.940793,20.224216,0.999102,0.982202,0.005339,0.466169,0.000913,0.000956,-0.000047,0.000986,0.000882,-57.410685,0.001870,
2296,3238,0.711491073789041,12.843902897671,0.0295757581004068,0.004114,-0.049263,0.007865,0.143969,-2.194897,311.339066,23.117749,0.999669,0.992947,0.003325,0.510554,-0.000003,-0.000009,0.000001,-0.000003,-0.000009,11.042300,0.000012,
2401,2308,3.16616213521317,-7.40331667132405,-0.0179951920741814,0.000897,-0.052297,-0.001527,0.025324,-2.354420,325.966698,20.664006,0.999775,0.993851,0.003507,0.517195,0.000468,0.000362,-0.000019,0.000471,0.000359,-9.654710,0.000832,
2281,3058,0.416962044537733,8.93918002121964,0.0152735688574808,0.003374,-0.049659,0.008670,0.107405,-2.205738,314.148331,22.760713,0.999371,0.992915,0.003617,0.459874,0.000006,0.000002,0.000003,0.000008,0.000000,28.714571,0.000009,
2251,2893,-0.207152474174176,5.35408854598733,-0.00516041073791484,0.002568,-0.049759,0.006612,0.077972,-2.213654,316.690631,22.397253,0.999620,0.991417,0.003677,0.464299,0.000012,0.000018,0.000003,0.000019,0.000011,68.923455,0.000030,
2416,2488,3.45882431668722,-3.46683104110772,-0.010936747064477,0.001230,-0.051533,0.001915,0.028185,-2.324297,323.129897,21.267247,0.999272,0.986612,0.004585,0.475591,0.000243,0.000110,-0.000004,0.000243,0.000109,-1.881377,0.000361,
2206,2683,-1.15009035293571,0.784189597127622,-0.023536299712589,0.001895,-0.049335,0.000973,0.066297,-2.204453,320.046194,22.075452,0.999668,0.992953,0.003585,0.482468,0.000062,0.000062,0.000002,0.000065,0.000060,45.231373,0.000125,
2386,2458,2.8107624765453,-4.12115559160834,-0.0125890561517394,0.001635,-0.050922,0.001663,0.048440,-2.287330,323.590208,21.343818,0.999165,0.987391,0.004723,0.414336,0.000261,0.000148,0.000018,0.000263,0.000145,8.802299,0.000414,
2356,2293,2.1869317254349,-7.73016546480446,-0.0241377973393355,0.000111,-0.051797,-0.017199,0.044962,-2.369450,326.147379,20.894933,0.999599,0.992364,0.004073,0.411137,0.000461,0.000378,-0.000018,0.000464,0.000374,-11.532192,0.000840,
2176,2578,-1.78537382210795,-1.50534174001991,-0.0217096508014833,0.001030,-0.049355,0.000565,0.028212,-2.218719,321.817617,21.964791,0.999195,0.987775,0.004313,0.497385,0.000110,0.000084,0.000007,0.000112,0.000082,14.304930,0.000194,
2161,2518,-2.102816619708,-2.81261603481426,-0.0347707188910817,0.000575,-0.049241,-0.002114,0.015779,-2.217760,322.718928,21.958788,0.998748,0.985491,0.004995,0.480565,0.000161,0.000101,0.000004,0.000162,0.000101,3.350135,0.000265,
2431,2548,3.77524446718554,-2.15539256129923,0.00324568239420842,0.001262,-0.050519,0.001780,0.030345,-2.256393,322.297719,21.565216,0.999688,0.990290,0.003893,0.415949,0.000194,0.000065,-0.000018,0.000196,0.000062,-7.821823,0.000270,
2341,2233,1.87220245749168,-9.04768466630993,0.00437432102751245,-0.000093,-0.052266,-0.008519,0.004848,-2.368796,327.314146,20.736375,0.998341,0.978409,0.005912,0.476229,0.000563,0.000542,-0.000011,0.000568,0.000537,-22.909780,0.001105,
2101,2203,-3.3595045849641,-9.70079558367494,-0.00177877469604937,-0.003132,-0.051168,-0.006877,-0.140491,-2.338852,328.168642,21.961134,0.998102,0.980700,0.005651,0.407180,0.000613,0.000583,0.000096,0.000696,0.000501,40.557341,0.001202,
2431,2668,3.74927747408097,0.466428506930711,-0.0294139303327938,0.001750,-0.050262,0.001815,0.052761,-2.240539,320.094521,22.003247,0.999440,0.989939,0.004278,0.399690,0.000110,0.000059,-0.000007,0.000111,0.000058,-7.691471,0.000171,
2266,3253,0.0581569985482524,13.1662917090747,0.034326252885819,0.004544,-0.049732,0.013617,0.145416,-2.207570,311.177248,23.028190,0.999757,0.993711,0.003334,0.456466,-0.000007,-0.000002,-0.000001,-0.000002,-0.000007,-79.425215,0.000010,
2446,2683,4.07445280940202,0.793016516131388,-0.0220844527552799,0.002346,-0.049909,0.000197,0.086067,-2.226296,319.971483,21.999780,0.999221,0.987620,0.004340,0.462715,0.000108,0.000065,-0.000007,0.000109,0.000064,-9.056782,0.000175,
2146,2443,-2.4159671346044,-4.45126894666664,-0.0152883886145787,0.000177,-0.049183,-0.001763,-0.003391,-2.205498,324.130984,21.943958,0.999092,0.986449,0.004875,0.490325,0.000231,0.000122,-0.000007,0.000231,0.000122,-3.611720,0.000358,
2221,2983,-0.873341433042949,7.30723881606489,0.0108143412015238,0.003078,-0.049510,0.010783,0.088940,-2.202243,315.435050,22.504664,0.999444,0.990935,0.003812,0.424945,0.000011,-0.000004,-0.000004,0.000012,-0.000005,-13.272359,0.000012,
2371,2263,2.52112894017652,-8.38827136557326,-0.00887741354000582,0.000510,-0.051657,-0.011414,0.043193,-2.350391,326.763538,20.759530,0.999215,0.986323,0.004840,0.415990,0.000525,0.000451,-0.000030,0.000536,0.000441,-19.466133,0.000978,
2251,3178,-0.25318328503279,11.5380324065431,0.0484389702941144,0.004003,-0.049803,0.011897,0.126699,-2.223597,312.534036,22.838901,0.999461,0.991526,0.003553,0.439795,0.000000,0.000010,-0.000004,0.000011,-0.000001,-69.131662,0.000012,
2221,2848,-0.851912531839265,4.37518680399035,-0.0143645973847129,0.002407,-0.049462,0.007050,0.070133,-2.191873,317.405087,22.303939,0.999300,0.990475,0.003849,0.470648,0.000015,0.000030,0.000012,0.000036,0.000009,61.086924,0.000048,
2416,2383,3.48188538572651,-5.76214382086363,0.00495627506961682,0.001451,-0.050495,-0.009664,0.081009,-2.316053,325.017548,21.048386,0.999650,0.987297,0.004482,0.357856,0.000359,0.000244,-0.000025,0.000364,0.000239,-11.764001,0.000608,
2356,2068,2.23232038372654,-12.6703090810173,0.0227409583593499,-0.000383,-0.054750,-0.013794,0.009181,-2.523771,330.136321,20.121128,0.998895,0.979241,0.005616,0.405479,0.000976,0.000964,-0.000041,0.001012,0.000928,-40.727642,0.001940,
2236,3088,-0.564357758031111,9.58699527390976,0.0214775437838171,0.003878,-0.049353,0.006672,0.138652,-2.209156,313.823474,22.696918,0.999543,0.992504,0.003444,0.407810,0.000010,-0.000011,-0.000008,0.000013,-0.000014,-19.881756,0.000015,
2266,2983,0.103743596239543,7.31029359532912,0.00306231302459992,0.003250,-0.049772,0.008546,0.102528,-2.211447,315.289087,22.587293,0.999604,0.992572,0.003646,0.452963,0.000008,-0.000002,-0.000001,0.000008,-0.000002,-8.213061,0.000008,
2341,2128,1.89216657462602,-11.3500391297853,0.0027608538991899,-0.000117,-0.053286,-0.014804,0.025202,-2.475710,329.015855,20.441900,0.999460,0.986690,0.004710,0.388200,0.000805,0.000846,-0.000035,0.000866,0.000785,-60.250613,0.001651,
2386,2128,2.87572683291053,-11.3503165084244,-0.00338116888963214,0.000824,-0.053254,-0.016263,0.074422,-2.487486,329.032544,20.167275,0.998869,0.975427,0.005964,0.390445,0.000844,0.000857,-0.000048,0.000899,0.000802,-48.733681,0.001702,
2371,2083,2.55655513201856,-12.3390602860749,0.00716917390934668,0.000342,-0.054533,-0.011191,0.033498,-2.496774,329.794882,20.086609,0.998977,0.978111,0.005727,0.416040,0.000947,0.000935,-0.000042,0.000984,0.000898,-40.935799,0.001883,
2311,3163,1.05123296731584,11.2184933515828,0.0369417653027995,0.003961,-0.049737,0.009610,0.130184,-2.226719,312.601772,23.083296,0.999660,0.993110,0.003459,0.436061,-0.000003,0.000005,0.000004,0.000006,-0.000005,67.398710,0.000007,
2401,2413,3.14736476758849,-5.10561315462476,-0.00888742474171522,0.001389,-0.050650,-0.006985,0.068276,-2.301285,324.384740,21.107149,0.999388,0.985800,0.004747,0.457889,0.000305,0.000221,-0.000006,0.000305,0.000220,-3.803947,0.000528,
2401,2518,3.12603863819298,-2.81082813816487,-0.0173883994339121,0.001483,-0.050259,-0.003167,0.058997,-2.261849,322.601308,21.373339,0.999476,0.987660,0.004473,0.559410,0.000195,0.000094,-0.000007,0.000195,0.000093,-4.211737,0.000294,
2191,2683,-1.47563994966622,0.782281694238215,-0.0119866034352185,0.001814,-0.049682,0.002824,0.056837,-2.226726,320.177489,22.073680,0.999600,0.993129,0.003509,0.465947,0.000064,0.000058,-0.000001,0.000064,0.000058,-10.242862,0.000122,
2326,3223,1.36624031258258,12.5199185235885,0.0450841316180117,0.004124,-0.050155,0.012925,0.125473,-2.255217,311.672205,23.249343,0.999421,0.992838,0.003356,0.440181,-0.000001,0.000009,-0.000001,0.000009,-0.000001,-81.468009,0.000010,
2296,3253,0.708198989324504,13.1695890800967,0.0264625518545358,0.004092,-0.049603,0.011568,0.130220,-2.213225,311.053073,23.197836,0.999659,0.990728,0.003650,0.440264,-0.000004,-0.000011,0.000006,0.000000,-0.000014,28.436548,0.000017,
2356,2188,2.20858054374231,-10.0341957330365,0.00884479421029027,-0.000005,-0.053117,-0.008993,0.010329,-2.428128,328.085067,20.601752,0.999047,0.983090,0.005233,0.355855,0.000673,0.000674,-0.000033,0.000707,0.000640,-45.406827,0.001348,
2281,3073,0.41422704616652,9.26583286999663,0.00978141267523824,0.003608,-0.049348,0.006405,0.125892,-2.199426,313.875084,22.841424,0.999448,0.992792,0.003643,0.412408,0.000006,0.000008,0.000006,0.000013,0.000001,50.683169,0.000016,
2101,2218,-3.36203884157522,-9.37165524394409,-0.00397007028681173,-0.003071,-0.051068,-0.005204,-0.142594,-2.297967,327.906596,21.980798,0.998109,0.981710,0.005607,0.432341,0.000584,0.000548,0.000097,0.000665,0.000467,39.705843,0.001138,
2416,2398,3.47808499155126,-5.43514487169827,-0.000967120127654653,0.001476,-0.051506,-0.004589,0.063215,-2.335647,324.708049,20.964603,0.999531,0.986796,0.004658,0.471520,0.000336,0.000228,-0.000020,0.000340,0.000225,-9.946694,0.000568,
2206,2698,-1.15370385138731,1.11078688679009,-0.0314816932012718,0.001683,-0.049663,0.004898,0.043991,-2.206167,319.714312,22.023485,0.999400,0.991852,0.003726,0.549969,0.000052,0.000057,0.000002,0.000057,0.000051,71.520906,0.000108,
2371,2278,2.51920716618006,-8.06101794021745,0.00667525186111106,0.000238,-0.051681,-0.011435,0.030769,-2.367727,326.638671,20.870818,0.999748,0.993963,0.003588,0.330232,0.000499,0.000422,-0.000020,0.000504,0.000417,-13.788721,0.000922,
2446,2698,4.07000511822966,1.12071843251603,-0.0308761113507217,0.001856,-0.050109,0.003094,0.052634,-2.254372,319.620071,22.071988,0.999565,0.989956,0.004030,0.415158,0.000098,0.000084,-0.000006,0.000100,0.000082,-20.667767,0.000183,
2221,2998,-0.875601392495557,7.63242501157101,0.0108481595613625,0.003394,-0.049752,0.010084,0.105648,-2.216406,315.207624,22.485207,0.999432,0.990572,0.003907,0.448735,0.000009,0.000000,-0.000005,0.000012,-0.000002,-25.465565,0.000012,
2161,2533,-2.10469538141408,-2.48618391950456,-0.0251193441596911,0.000699,-0.049491,0.000327,0.013922,-2.221793,322.555059,21.993640,0.998977,0.986413,0.004637,0.452461,0.000144,0.000094,0.000005,0.000145,0.000093,5.896034,0.000240,
2221,2863,-0.854703336119552,4.70125537281693,-0.011893469985182,0.002245,-0.049666,0.009658,0.054194,-2.201764,317.165706,22.343327,0.999328,0.991385,0.003674,0.439931,0.000014,0.000027,0.000010,0.000032,0.000009,61.426437,0.000043,
2326,3238,1.36285542216215,12.8470565582028,0.0342096389980497,0.004274,-0.049483,0.011620,0.137257,-2.212413,311.345676,23.353791,0.999443,0.992190,0.003452,0.411641,-0.000001,-0.000002,-0.000003,0.000001,-0.000004,-40.716863,0.000005,
2386,2143,2.87203566274937,-11.0210693346198,-0.00210195026625115,0.000222,-0.053290,-0.012487,0.033355,-2.456135,328.759829,20.220791,0.998710,0.973227,0.006132,0.414754,0.000805,0.000801,-0.000046,0.000850,0.000757,-43.792047,0.001608,
2386,2323,2.83641052952455,-7.07396667499749,-0.0195767992553897,0.001102,-0.051159,-0.007120,0.055349,-2.313291,325.725917,20.814183,0.999628,0.991720,0.004033,0.513752,0.000426,0.000325,-0.000009,0.000427,0.000324,-5.242495,0.000753,
2176,2593,-1.78765889441668,-1.17848480196194,-0.0200870646317526,0.001148,-0.049763,0.000451,0.033833,-2.248981,321.593974,22.010824,0.999108,0.987598,0.004382,0.434037,0.000099,0.000073,0.000010,0.000103,0.000070,18.679614,0.000173,
2431,2683,3.74676707845926,0.792655928352858,-0.0261766220586992,0.001978,-0.050303,0.002200,0.061799,-2.245329,319.886872,22.010964,0.999454,0.988948,0.004251,0.437549,0.000102,0.000067,-0.000003,0.000102,0.000067,-4.287805,0.000170,
2341,2143,1.88793364086792,-11.0189534333857,-0.0122803158432134,-0.000133,-0.053180,-0.011426,0.012787,-2.435099,328.635494,20.477461,0.999114,0.984018,0.005154,0.433823,0.000768,0.000784,-0.000027,0.000804,0.000748,-53.006918,0.001552,
2356,2083,2.2285973137453,-12.3386834646331,0.00817956867803105,0.000091,-0.054911,-0.010824,0.020412,-2.511717,329.783822,20.212454,0.999344,0.981828,0.005196,0.368771,0.000938,0.000940,-0.000041,0.000979,0.000898,-45.804017,0.001878,
2401,2323,3.16422539433033,-7.07477215828234,-0.00427657088232536,0.000459,-0.051228,-0.005744,0.020929,-2.310602,325.833375,20.827236,0.999264,0.987311,0.004464,0.444922,0.000435,0.000331,-0.000015,0.000437,0.000329,-8.149958,0.000769,
2311,3178,1.04865789622881,11.5437109251808,0.0381756324061939,0.004151,-0.049884,0.010587,0.135526,-2.231963,312.371809,23.112477,0.999740,0.993510,0.003349,0.432481,-0.000001,0.000006,0.000003,0.000007,-0.000003,67.446540,0.000007,
2236,3103,-0.567115830312762,9.91154656031892,0.0218989346874423,0.003850,-0.049453,0.008117,0.132592,-2.222893,313.576271,22.648860,0.999557,0.993065,0.003387,0.462202,0.000005,-0.000005,-0.000010,0.000011,-0.000011,-30.887671,0.000013,
2371,2098,2.55315037811367,-12.0099477150779,0.00626296487592981,0.000209,-0.055201,-0.006872,0.011864,-2.514730,329.524094,20.136192,0.998884,0.976894,0.005935,0.393035,0.000905,0.000892,-0.000045,0.000944,0.000853,-40.950717,0.001798,
2206,2713,-1.15588668315591,1.43684208608881,-0.025406257145562,0.001626,-0.049804,0.004408,0.042821,-2.230864,319.520627,22.063895,0.998652,0.986638,0.004687,0.501716,0.000047,0.000050,0.000002,0.000051,0.000046,69.454839,0.000097,
2326,3253,1.35905615579878,13.1718753707679,0.0241236463656946,0.004182,-0.050054,0.013426,0.126497,-2.245520,311.004691,23.329809,0.999477,0.992187,0.003452,0.435437,-0.000003,-0.000007,0.000000,-0.000003,-0.000007,-4.626528,0.000011,
2416,2503,3.45529010527965,-3.13756993639895,-0.0196202689949132,0.001367,-0.051156,0.002170,0.033675,-2.303648,322.818662,21.363929,0.999492,0.989300,0.004219,0.448739,0.000224,0.000101,-0.000010,0.000224,0.000100,-4.483073,0.000333,
2296,3268,0.705429302309703,13.494572221225,0.0232127393391011,0.004285,-0.049714,0.010994,0.140992,-2.225132,310.790652,23.209994,0.999624,0.992378,0.003400,0.444876,-0.000001,-0.000011,0.000003,0.000000,-0.000012,16.637110,0.000013,
2386,2338,2.83435268246644,-6.74658483594332,-0.00578405656699488,0.000799,-0.050849,-0.007767,0.043890,-2.310007,325.586899,20.916385,0.998951,0.984706,0.004929,0.459732,0.000405,0.000302,-0.000010,0.000406,0.000301,-5.257601,0.000709,
2431,2563,3.7726670669356,-1.82816391282611,0.000389337389833599,0.002281,-0.051152,0.006594,0.059052,-2.261844,322.059118,21.573749,0.999454,0.989073,0.004208,0.452710,0.000179,0.000067,-0.000009,0.000180,0.000067,-4.486933,0.000255,
2311,3193,1.04641268170502,11.8688266899524,0.0404249451244709,0.004434,-0.049795,0.009413,0.152669,-2.223886,312.162033,23.128564,0.999694,0.993462,0.003337,0.455591,-0.000002,0.000003,0.000004,0.000006,-0.000004,62.644076,0.000006,
2326,3268,1.35576046983168,13.4982064613821,0.0161975395738523,0.004238,-0.049818,0.012628,0.131969,-2.227079,310.696878,23.410935,0.999594,0.992922,0.003253,0.405585,-0.000003,-0.000013,-0.000002,-0.000002,-0.000014,-9.678391,0.000017,
2356,2098,2.22460861929057,-12.0086691090071,0.0038463100393642,-0.000459,-0.054845,-0.007327,-0.016985,-2.490669,329.468237,20.267622,0.999201,0.980546,0.005435,0.377103,0.000896,0.000895,-0.000044,0.000940,0.000851,-44.685344,0.001792,
2401,2428,3.14396079893896,-4.77808685905845,-0.00791714040605029,0.001001,-0.051036,-0.004800,0.042466,-2.314261,324.124153,21.141713,0.999348,0.985648,0.004745,0.457340,0.000292,0.000193,-0.000001,0.000292,0.000193,-0.699626,0.000488,
2371,2113,2.55036168738041,-11.6799018049842,0.000830972455617029,0.000182,-0.054087,-0.013575,0.034835,-2.500795,329.259646,20.195160,0.998968,0.976589,0.005860,0.392182,0.000868,0.000873,-0.000044,0.000915,0.000826,-46.565675,0.001742,
2206,2728,-1.15789564130285,1.76415928523679,-0.023784460264153,0.002069,-0.049351,0.004118,0.064296,-2.206644,319.311441,22.139176,0.999092,0.989094,0.004195,0.467368,0.000039,0.000049,0.000001,0.000049,0.000039,86.827311,0.000088,
2296,3283,0.702566080547587,13.8199141245693,0.0188443060515056,0.004476,-0.049617,0.010528,0.151489,-2.212819,310.518178,23.229164,0.999478,0.992335,0.003405,0.466414,-0.000002,0.000001,0.000003,0.000003,-0.000003,59.191452,0.000003,
2356,2308,2.18517275691835,-7.40341489714317,-0.00960008194454076,0.000482,-0.050950,-0.011611,0.042688,-2.342313,326.024173,20.914648,0.999340,0.990718,0.004090,0.458945,0.000435,0.000342,-0.000009,0.000436,0.000341,-5.428213,0.000779,
2386,2353,2.83086244372099,-6.41986151329843,-0.00114478061004775,0.000304,-0.051684,-0.001742,-0.000677,-2.333218,325.339014,20.898535,0.998476,0.981601,0.005457,0.499300,0.000383,0.000286,-0.000002,0.000383,0.000286,-1.109795,0.000671,
2161,2548,-2.10732475396245,-2.16006409832016,-0.0207893522473341,0.000460,-0.049891,0.003239,-0.006137,-2.224950,322.328888,21.955318,0.999148,0.986496,0.004466,0.498652,0.000135,0.000081,0.000007,0.000136,0.000080,7.029245,0.000218,
2191,2698,-1.47838948113545,1.10828934672129,-0.0156711495445734,0.001773,-0.049318,0.001474,0.059309,-2.208213,319.906078,21.981095,0.999646,0.994371,0.003273,0.592075,0.000054,0.000053,-0.000001,0.000055,0.000052,-30.254510,0.000107,
2326,3283,1.35236482611394,13.8232852923953,0.00740302626110179,0.004329,-0.050013,0.012786,0.135574,-2.233444,310.380583,23.401365,0.999649,0.994029,0.003054,0.441979,-0.000005,-0.000009,-0.000003,-0.000003,-0.000011,-28.345595,0.000015,
2386,2158,2.8694756062089,-10.6918261894063,0.000667696668642748,0.000408,-0.053372,-0.011637,0.038791,-2.465928,328.546129,20.335958,0.999164,0.979028,0.005564,0.335809,0.000770,0.000746,-0.000048,0.000808,0.000708,-38.042359,0.001517,
2311,3208,1.04364085069969,12.1940710793009,0.0481629330211035,0.004037,-0.049744,0.011649,0.126728,-2.221908,311.955056,23.198055,0.999660,0.992882,0.003404,0.418493,-0.000004,0.000004,0.000003,0.000004,-0.000005,71.180326,0.000005,
2221,3013,-0.877923451628764,7.95806777964511,0.0153659809269016,0.003339,-0.049430,0.009444,0.105330,-2.200188,315.000195,22.511706,0.999442,0.990872,0.003797,0.456459,0.000008,-0.000001,-0.000007,0.000012,-0.000005,-29.098096,0.000012,
2266,2998,0.101614397133989,7.6355325090744,0.00846768052775815,0.003373,-0.049764,0.007760,0.110760,-2.226544,315.097970,22.611371,0.999457,0.991108,0.003790,0.438596,0.000008,0.000004,-0.000003,0.000010,0.000002,-27.264310,0.000013,
2296,3298,0.698634515166919,14.1460993855334,0.00624247684288548,0.004584,-0.049534,0.015122,0.140846,-2.209072,310.155136,23.294832,0.999655,0.993789,0.003223,0.432868,-0.000002,0.000011,0.000001,0.000011,-0.000002,85.777316,0.000012,
2281,3088,0.412324555173317,9.58951407083406,0.0220466433831348,0.003532,-0.049930,0.006336,0.122361,-2.232682,313.729980,22.805613,0.999636,0.993040,0.003605,0.441569,0.000007,0.000000,-0.000002,0.000007,-0.000001,-14.054970,0.000008,
2401,2443,3.1414899322341,-4.45031866376665,-0.0037976730632181,0.001184,-0.050852,-0.004041,0.048174,-2.291709,323.920966,21.197119,0.999315,0.987015,0.004690,0.471437,0.000281,0.000161,0.000007,0.000282,0.000161,3.446422,0.000448,
2206,2743,-1.16058290052951,2.09074808686891,-0.0228204462480903,0.001994,-0.049593,0.005469,0.056430,-2.225929,319.068025,22.190141,0.999386,0.990205,0.004044,0.414049,0.000031,0.000044,-0.000003,0.000045,0.000030,-78.277084,0.000075,
2371,2128,2.54738088021006,-11.3510258088556,0.00210247290772259,0.000031,-0.053722,-0.012664,0.024822,-2.466597,329.018275,20.205967,0.999048,0.980128,0.005602,0.459774,0.000832,0.000852,-0.000041,0.000884,0.000800,-51.722640,0.001685,
2401,2533,3.12315858895314,-2.48235694646445,-0.0132093241427924,0.001354,-0.050374,-0.001235,0.046062,-2.256832,322.379165,21.539596,0.999417,0.988632,0.004446,0.444600,0.000185,0.000091,-0.000008,0.000186,0.000090,-4.585137,0.000281,
2416,2518,3.45299250976859,-2.81066828128021,-0.0169608016709049,0.001434,-0.050720,-0.002373,0.053556,-2.291507,322.617556,21.361104,0.999340,0.987576,0.004468,0.512634,0.000206,0.000089,-0.000013,0.000207,0.000088,-6.046337,0.000303,
2251,2908,-0.208370118744302,5.68020342284451,0.0053835078858242,0.002856,-0.049025,0.000876,0.110304,-2.195854,316.566348,22.483446,0.999728,0.992975,0.003393,0.418804,0.000010,0.000011,0.000002,0.000013,0.000008,51.318954,0.000021,
2446,2713,4.06656503662926,1.44809387102043,-0.0366504188999102,0.001618,-0.049756,-0.000206,0.054176,-2.240551,319.328765,22.102483,0.999660,0.991964,0.003754,0.451278,0.000086,0.000082,-0.000002,0.000087,0.000082,-24.041111,0.000168,
2386,2368,2.82730475408281,-6.09040713526534,-0.00830301240142717,0.000352,-0.051812,0.000055,-0.005007,-2.339411,325.031634,21.003290,0.998707,0.982369,0.005241,0.433619,0.000361,0.000273,-0.000001,0.000361,0.000273,-0.602485,0.000636,
2431,2578,3.76963628916469,-1.49941586365046,-0.00215375877087354,0.002562,-0.050818,0.008147,0.066391,-2.235758,321.800683,21.698163,0.999659,0.992715,0.003806,0.405165,0.000169,0.000068,-0.000007,0.000169,0.000067,-4.109103,0.000244,
2356,2203,2.20469719194361,-9.70513041317541,0.00161622533750005,-0.000018,-0.053616,-0.002781,-0.012256,-2.429530,327.760201,20.601967,0.998917,0.983068,0.005263,0.396191,0.000639,0.000634,-0.000029,0.000666,0.000607,-42.605128,0.001273,
2371,2293,2.51681994867522,-7.7333086541534,0.00756799884334214,0.000644,-0.051672,-0.011372,0.049183,-2.352698,326.422344,20.846859,0.999752,0.993993,0.003540,0.412242,0.000474,0.000389,-0.000012,0.000475,0.000387,-7.945764,0.000864,
2326,3298,1.34933180451664,14.1480310072219,0.00863348765881256,0.004114,-0.049900,0.014102,0.121195,-2.219319,310.130287,23.399454,0.999643,0.994321,0.003105,0.490898,-0.000010,0.000003,-0.000006,0.000005,-0.000012,-69.088975,0.000012,
2446,2728,4.06439030243715,1.77331196821839,-0.0285905109308828,0.002023,-0.050400,0.002787,0.061367,-2.261871,319.159878,22.086424,0.999624,0.991569,0.003747,0.498259,0.000070,0.000073,0.000006,0.000077,0.000066,53.593893,0.000143,
2161,2563,-2.10892571603237,-1.83320008312382,-0.0127984240263572,0.000785,-0.049599,0.002826,0.010180,-2.204692,322.168830,21.998048,0.999106,0.986241,0.004516,0.486827,0.000128,0.000080,0.000003,0.000128,0.000080,3.723506,0.000210,
2266,3013,0.099143374599354,7.96050754822647,0.0145257094551425,0.003329,-0.049882,0.010037,0.101200,-2.215593,314.894462,22.592963,0.999421,0.990748,0.003758,0.492816,0.000005,0.000002,-0.000005,0.000008,-0.000002,-34.279089,0.000009,
2416,2533,3.44980203892905,-2.4824553419966,-0.0138157959934802,0.001345,-0.051163,0.002592,0.031174,-2.285398,322.377432,21.493518,0.999354,0.988249,0.004427,0.435038,0.000195,0.000088,-0.000012,0.000196,0.000087,-6.117488,0.000290,
2251,2923,-0.211236580484606,6.00599536052571,-0.000739910753452477,0.003348,-0.049298,0.004351,0.121427,-2.210355,316.281987,22.456214,0.999643,0.992975,0.003516,0.454399,0.000008,0.000006,0.000001,0.000008,0.000005,13.344003,0.000014,
2356,2218,2.20266261003281,-9.3762866568166,0.00164860203591388,0.000224,-0.052664,-0.009954,0.024330,-2.411676,327.554756,20.644283,0.998362,0.978835,0.005901,0.412703,0.000611,0.000599,-0.000023,0.000629,0.000581,-37.952082,0.001211,
2191,2713,-1.48178928523982,1.4376312464589,-0.0305331356040028,0.001963,-0.049243,0.001557,0.067818,-2.210954,319.545849,22.130117,0.999176,0.990052,0.004030,0.455365,0.000048,0.000046,-0.000001,0.000049,0.000045,-22.868518,0.000094,
2311,3223,1.04078160744341,12.5185174629167,0.047046573792727,0.003998,-0.050078,0.010998,0.126952,-2.247430,311.700558,23.173311,0.999577,0.993214,0.003296,0.448651,-0.000007,0.000006,-0.000002,0.000006,-0.000008,-81.068591,0.000008,
2386,2173,2.86645633941029,-10.3637833366465,-0.00103869104157184,0.000587,-0.053384,-0.009326,0.038692,-2.445770,328.290146,20.269063,0.999473,0.982298,0.005208,0.468967,0.000729,0.000711,-0.000049,0.000770,0.000671,-39.864959,0.001442,
2446,2743,4.062205553104,2.09920246929581,-0.0149434827451955,0.002069,-0.050881,0.007021,0.047468,-2.268597,319.016038,22.165571,0.999558,0.990492,0.003892,0.464460,0.000063,0.000072,0.000010,0.000078,0.000057,56.911525,0.000136,
2371,2143,2.54482524718869,-11.0211315182199,0.00296768626088806,0.000290,-0.053411,-0.012490,0.036194,-2.444685,328.794345,20.322746,0.998892,0.978565,0.005739,0.408833,0.000794,0.000793,-0.000038,0.000831,0.000756,-44.639257,0.001588,
2221,3028,-0.880491472732952,8.28391231574463,0.00979323630002682,0.003546,-0.049307,0.005924,0.126223,-2.197216,314.729511,22.506402,0.999597,0.993322,0.003376,0.483162,0.000008,-0.000003,-0.000008,0.000012,-0.000007,-27.787762,0.000012,
2206,2758,-1.16276413394273,2.41670184561621,-0.0180663971254944,0.002020,-0.049543,0.004800,0.059799,-2.213635,318.867487,22.185556,0.999407,0.989973,0.004018,0.447620,0.000027,0.000045,-0.000004,0.000046,0.000026,-77.516860,0.000073,
2431,2593,3.76617555095241,-1.17406469039857,-0.000111618140465453,0.001620,-0.050579,0.004728,0.035859,-2.249911,321.544452,21.596098,0.999504,0.990765,0.004067,0.543957,0.000161,0.000067,-0.000001,0.000161,0.000067,-0.903367,0.000234,
2281,3103,0.409639058356497,9.91553206199807,0.0200208803549344,0.003860,-0.049695,0.008149,0.131504,-2.216426,313.476490,22.848035,0.999596,0.993260,0.003492,0.442228,0.000007,0.000003,-0.000002,0.000008,0.000002,-23.994762,0.000010,
2341,1993,1.91703646180736,-14.3191596097634,0.019362709881932,-0.001145,-0.058980,-0.007105,-0.050713,-2.694652,331.255174,19.928934,0.998114,0.976876,0.006475,0.321764,0.001118,0.000991,-0.000095,0.001169,0.000940,-28.199938,0.002114,
2266,3028,0.0966520470274865,8.2866503868322,0.0152185294222704,0.003284,-0.049658,0.007145,0.108721,-2.225761,314.662614,22.670695,0.999286,0.990093,0.003893,0.429621,0.000003,-0.000002,-0.000006,0.000007,-0.000006,-34.762698,0.000007,
2251,2938,-0.214514436897911,6.33061659293553,0.00343311991696282,0.002896,-0.049993,0.010681,0.079584,-2.221817,316.031233,22.396193,0.999607,0.993640,0.003358,0.525661,0.000007,0.000002,-0.000003,0.000009,0.000000,-25.094101,0.000010,
2416,2548,3.44640007350375,-2.15458779971312,-0.0181165992910906,0.001284,-0.050877,0.003202,0.026231,-2.279946,322.092807,21.533122,0.999352,0.988134,0.004389,0.449721,0.000183,0.000072,-0.000007,0.000184,0.000072,-3.804094,0.000264,
2191,2728,-1.4837049456046,1.76349929384882,-0.0253767696041791,0.002146,-0.049154,0.000070,0.080903,-2.222571,319.358702,22.136650,0.999192,0.989498,0.004082,0.451826,0.000042,0.000045,-0.000001,0.000045,0.000041,-73.921127,0.000086,
2311,3238,1.03734551942265,12.8452273190991,0.037409629180047,0.004132,-0.049677,0.011826,0.130512,-2.221888,311.376531,23.262130,0.999416,0.992275,0.003448,0.416286,-0.000009,-0.000007,-0.000003,-0.000005,-0.000012,-54.661468,0.000017,
2446,2758,4.05830977091187,2.42688865581349,-0.0253627631325912,0.002008,-0.050710,0.006807,0.045538,-2.266359,318.682091,22.213200,0.999535,0.989187,0.004086,0.471650,0.000065,0.000064,0.000012,0.000076,0.000053,44.183783,0.000130,
2386,2188,2.86344416299403,-10.0339005748027,0.00359543227529002,0.000263,-0.053239,-0.007405,0.017071,-2.417995,328.064174,20.435101,0.999024,0.981630,0.005355,0.376848,0.000693,0.000684,-0.000047,0.000736,0.000642,-42.194899,0.001379,
2266,3043,0.0942150013434322,8.61157149788424,0.0183127123538043,0.003356,-0.050218,0.007547,0.110534,-2.247360,314.445735,22.667109,0.999464,0.992099,0.003639,0.436082,0.000002,0.000000,-0.000006,0.000007,-0.000005,-39.136325,0.000008,
2281,3118,0.406186412911747,10.2410309981826,0.0204670182047835,0.003450,-0.050156,0.012814,0.096823,-2.228957,313.200244,22.891115,0.999771,0.994686,0.003128,0.413225,0.000007,0.000006,-0.000001,0.000008,0.000006,-26.583567,0.000013,
2251,2953,-0.216646369561808,6.65841281335301,0.00179513976462431,0.003226,-0.049278,0.006009,0.110416,-2.198520,315.802609,22.556335,0.999410,0.991726,0.003727,0.411787,0.000003,-0.000005,-0.000005,0.000005,-0.000008,-24.165383,0.000008,
2206,2773,-1.1649661532672,2.74318846861954,-0.0134633922879175,0.002219,-0.049753,0.006708,0.062848,-2.213287,318.665081,22.244424,0.999356,0.989724,0.004160,0.405729,0.000023,0.000045,-0.000004,0.000046,0.000023,-79.064650,0.000069,
2416,2563,3.44378760839789,-1.82714216591531,-0.0170030076301373,0.001592,-0.050705,0.003986,0.037607,-2.245701,321.869658,21.558278,0.998960,0.984440,0.004751,0.507504,0.000167,0.000073,0.000000,0.000167,0.000073,0.081743,0.000246,
2341,2008,1.91421675291811,-13.9873498127716,0.0124252975596733,-0.001180,-0.056626,-0.014262,-0.026618,-2.621281,330.978959,20.029704,0.998120,0.974866,0.006704,0.334999,0.001100,0.001005,-0.000071,0.001138,0.000967,-28.084390,0.002107,
2371,2158,2.54257124812559,-10.6922754712422,0.00593854518541548,0.000626,-0.053290,-0.013035,0.053536,-2.459241,328.594501,20.408891,0.999277,0.981249,0.005517,0.351627,0.000758,0.000739,-0.000040,0.000789,0.000707,-38.295141,0.001497,
2311,3253,1.03383892176267,13.1707314066846,0.0290677790035829,0.004157,-0.049956,0.013431,0.126077,-2.226131,311.056024,23.281827,0.999545,0.992085,0.003434,0.423066,-0.000011,-0.000013,-0.000001,-0.000011,-0.000013,-16.783103,0.000024,
2191,2743,-1.48593949191057,2.0896568497089,-0.0172699783762482,0.002043,-0.049156,0.001963,0.070233,-2.215525,319.172140,22.178513,0.999366,0.990061,0.004043,0.431515,0.000035,0.000040,-0.000004,0.000043,0.000033,-60.607840,0.000076,
2386,2203,2.86057536659569,-9.70412585852577,-0.00514262540241361,0.000840,-0.052928,-0.009133,0.049794,-2.411673,327.781581,20.477082,0.998525,0.979310,0.005677,0.387144,0.000657,0.000641,-0.000041,0.000691,0.000608,-39.552743,0.001300,
2341,2023,1.91180675180197,-13.6584035191843,0.010508659275331,-0.000848,-0.055907,-0.016811,-0.002307,-2.612048,330.746285,19.996869,0.998185,0.976501,0.006460,0.417275,0.001061,0.000997,-0.000058,0.001095,0.000962,-30.582534,0.002059,
2251,2968,-0.218996463153076,6.98450705942868,0.00151285208443142,0.003423,-0.048953,0.003937,0.126440,-2.182529,315.571341,22.581054,0.999544,0.993359,0.003447,0.425815,0.000002,-0.000005,-0.000005,0.000004,-0.000008,-27.679557,0.000008,
2281,3133,0.404145606013188,10.56559866363,0.0269598565142815,0.003654,-0.049800,0.012658,0.106855,-2.215910,313.019480,22.863750,0.999660,0.994253,0.003326,0.480287,0.000004,0.000008,-0.000002,0.000009,0.000004,-69.929443,0.000013,
2206,2788,-1.16765461917275,3.06907367947514,-0.0160897395195434,0.002278,-0.049763,0.006436,0.066405,-2.219860,318.403172,22.202698,0.999152,0.987775,0.004426,0.457585,0.000022,0.000045,-0.000002,0.000045,0.000022,-85.959122,0.000068,
2191,2758,-1.48825836204111,2.41598739852563,-0.0160125958398112,0.002224,-0.049209,0.002363,0.077322,-2.208516,318.946037,22.185508,0.999451,0.990497,0.003853,0.446075,0.000033,0.000040,-0.000006,0.000043,0.000030,-59.458397,0.000073,
2371,2173,2.53967243877593,-10.364863339616,0.00450792696381086,0.000708,-0.053023,-0.012728,0.056330,-2.444945,328.344122,20.292631,0.999223,0.981804,0.005361,0.526222,0.000719,0.000706,-0.000039,0.000752,0.000673,-40.500917,0.001426,
2311,3268,1.03092647107594,13.4963355002684,0.0225591756529298,0.004373,-0.049705,0.011485,0.142850,-2.216022,310.771835,23.311379,0.999627,0.993151,0.003185,0.434431,-0.000009,-0.000017,-0.000003,-0.000008,-0.000018,-16.427562,0.000027,
2386,2218,2.85837866102586,-9.3762437965062,0.00522093025455206,0.000796,-0.052823,-0.008134,0.044245,-2.398372,327.620262,20.544594,0.998634,0.980215,0.005795,0.378620,0.000632,0.000605,-0.000033,0.000654,0.000583,-34.246994,0.001238,
2416,2578,3.44124795583106,-1.49895184190012,-0.0163626283551253,0.002169,-0.051187,0.006628,0.054230,-2.265428,321.647597,21.706144,0.999337,0.988654,0.004284,0.388482,0.000156,0.000073,0.000001,0.000157,0.000073,0.996784,0.000234,
2251,2983,-0.221591358902604,7.30938342468276,0.00776824297304302,0.003240,-0.049469,0.006504,0.109330,-2.210022,315.362385,22.586153,0.999552,0.992385,0.003622,0.415627,0.000006,-0.000003,-0.000005,0.000008,-0.000005,-23.927394,0.000009,
2191,2773,-1.49214364859681,2.7432831019746,-0.0276288864038747,0.002073,-0.049778,0.007827,0.053082,-2.204659,318.580830,22.187937,0.999296,0.989119,0.004219,0.462161,0.000029,0.000041,-0.000006,0.000044,0.000027,-67.745320,0.000071,
2416,2593,3.43723941512671,-1.17206337238135,-0.0195499635106557,0.001193,-0.050886,0.004573,0.017112,-2.254797,321.340259,21.675921,0.999455,0.990889,0.003992,0.477963,0.000147,0.000069,0.000006,0.000147,0.000069,4.602656,0.000221,
2386,2233,2.85558451807053,-9.04856332400637,0.0194350639072809,0.000396,-0.053405,-0.000251,-0.002493,-2.373979,327.449703,20.626366,0.999082,0.983219,0.005563,0.366457,0.000601,0.000558,-0.000029,0.000615,0.000543,-26.796376,0.001159,
2386,2248,2.85184996877561,-8.71726364285662,-0.00580241260786352,0.000978,-0.052079,-0.007402,0.050297,-2.347174,327.048899,20.634317,0.998974,0.983434,0.005412,0.431794,0.000568,0.000503,-0.000031,0.000580,0.000490,-21.794322,0.001072,
2416,2608,3.43454382090617,-0.844344645157904,-0.0243194829070603,0.001577,-0.050688,0.001437,0.046263,-2.273854,321.085694,21.742849,0.999346,0.988858,0.004237,0.440395,0.000134,0.000062,0.000003,0.000134,0.000062,2.717964,0.000201,
