Image X[Pixel],Image Y[Pixel],X[mm],Y[mm],Z[mm],Horizontal Displacement U[mm],Vertical Displacement V[mm],Out-Of-Plane: W[mm],Horizontal: u[Pixel],Vertical: v[Pixel],Horizontal: q[Pixel],Vertical: r[Pixel],Correlation Value 2D,Correlation Value Persp,Sigma,Epipolar Distance,Strain-global frame: Exx,Strain-global frame: Eyy,Strain-global frame: Exy,Maximum Principal Strain: EI,Minimum Principal Strain: EII,Shear Angle Gamma,Von Mises Equivalent Strain,
2026,2068,-4.96554634390785,-12.6083813722108,0.0297381144716269,0.003079,-0.000012,0.000751,0.139241,0.008244,331.241277,24.776748,0.999699,0.992482,0.003631,0.369007,0.000001,-0.000062,0.000036,0.000018,-0.000079,24.330241,0.000083,
2011,1993,-5.28199639717592,-14.2514395017549,0.0283389253339124,0.002666,0.000795,-0.002076,0.128138,0.035114,332.511435,24.965014,0.998717,0.981624,0.005422,0.343464,0.000025,-0.000065,0.000080,0.000072,-0.000112,30.392191,0.000114,
2041,2143,-4.65031628939122,-10.964161497196,0.0170644569869296,0.003099,0.000153,-0.002133,0.148224,0.016124,329.853251,24.647047,0.998240,0.980693,0.005919,0.391020,-0.000015,0.000009,0.000023,0.000023,-0.000029,58.424809,0.000031,
2056,2218,-4.33530318277624,-9.3207793517193,0.00978694197334562,0.003153,0.000347,-0.000768,0.147044,0.037737,328.501476,24.628814,0.998597,0.981431,0.005342,0.334885,-0.000017,0.000041,0.000017,0.000046,-0.000021,74.469335,0.000046,
2071,2293,-4.02123228914207,-7.68022017062732,-0.00397798271745842,0.002777,0.000398,-0.002437,0.134642,0.026110,327.087830,24.460113,0.999795,0.993301,0.003773,0.416468,0.000000,0.000013,0.000010,0.000019,-0.000006,61.486257,0.000019,
2116,2518,-3.07871904077916,-2.76540920641562,-0.0177214952294662,0.002714,-0.000199,0.003459,0.114535,0.024230,323.104671,24.374624,0.999245,0.986758,0.004502,0.392240,-0.000010,0.000000,0.000004,0.000001,-0.000011,69.734954,0.000012,
2101,2443,-3.39171706662028,-4.40307781158018,-0.00775187833068003,0.003265,0.000145,0.001382,0.146101,0.025759,324.499988,24.377639,0.999402,0.987464,0.004455,0.406152,-0.000019,-0.000039,-0.000009,-0.000015,-0.000042,-20.614542,0.000059,
2131,2593,-2.76473739796298,-1.1296468121399,-0.024547326881077,0.002987,-0.000015,0.001902,0.131763,0.034604,321.786557,24.342228,0.999401,0.989987,0.004232,0.439979,-0.000017,-0.000004,0.000004,-0.000003,-0.000019,74.646154,0.000023,
2176,2818,-1.82491540982386,3.77106850211572,-0.0310512800574543,0.002627,-0.000147,0.001195,0.117243,0.010777,317.896392,24.543154,0.999337,0.990616,0.003947,0.351973,-0.000023,-0.000014,0.000002,-0.000014,-0.000023,80.582167,0.000038,
2011,2008,-5.28497576601936,-13.9210011958796,0.0186793047375318,0.002688,-0.000204,0.002583,0.116257,0.018581,332.179228,24.994583,0.998684,0.983958,0.005205,0.289582,0.000042,-0.000006,0.000108,0.000129,-0.000093,38.719760,0.000133,
2296,2023,0.932678068109272,-13.6019680563295,0.0269967382899949,0.003280,0.000133,-0.000028,0.150263,0.027435,331.013801,22.889148,0.999188,0.981525,0.005419,0.475132,-0.000009,-0.000012,-0.000013,0.000003,-0.000024,-42.220268,0.000026,
2026,2083,-4.96829371773159,-12.2793753395948,0.0288569711824493,0.002866,-0.000608,0.005677,0.115796,0.004835,330.970263,24.790437,0.999287,0.986773,0.004611,0.345605,-0.000006,-0.000027,0.000036,0.000021,-0.000054,36.744335,0.000054,
2506,3073,5.30378345973527,9.33110533581227,0.00455383367977902,0.002747,-0.000681,0.005999,0.102736,-0.003692,313.949108,25.824691,0.999664,0.991873,0.003894,0.430136,-0.000009,0.000008,0.000017,0.000018,-0.000019,58.944829,0.000022,
2191,2893,-1.51016705675805,5.40046346348225,-0.0126032283700965,0.003037,-0.000267,0.000440,0.138409,0.000207,316.803295,24.609326,0.999799,0.994857,0.003155,0.361985,-0.000013,-0.000005,0.000002,-0.000005,-0.000014,76.087707,0.000019,
2026,2113,-4.97298381570694,-11.6205592495428,0.0162919435833828,0.003124,-0.000259,0.002683,0.135967,0.000514,330.404825,24.787603,0.998506,0.978893,0.005831,0.331288,-0.000002,-0.000039,0.000028,0.000013,-0.000053,28.130823,0.000056,
2011,2038,-5.28895372155478,-13.2629721645489,0.00966762660766562,0.003215,0.000648,-0.002660,0.154912,0.006421,331.663090,24.909589,0.998412,0.980104,0.005558,0.346019,0.000005,-0.000101,0.000046,0.000022,-0.000118,20.422533,0.000126,
2386,2473,2.8094224223379,-3.74300481402793,-0.00940215168270697,0.003007,-0.000195,0.002568,0.128645,0.003322,323.416458,23.751044,0.999428,0.988935,0.004412,0.348969,-0.000004,-0.000021,0.000014,0.000004,-0.000029,30.042301,0.000031,
2206,2968,-1.19626193099192,7.03012272248326,-0.0012298110727329,0.003259,-0.000025,-0.001031,0.153416,0.006868,315.646832,24.729903,0.999389,0.990761,0.003837,0.355609,-0.000013,0.000002,-0.000003,0.000002,-0.000014,-80.291521,0.000015,
2071,2308,-4.02415203110344,-7.35088736374237,-0.0155338059990413,0.002908,0.000462,-0.001979,0.139394,0.009678,326.754641,24.493558,0.999812,0.992952,0.003901,0.365833,-0.000005,0.000006,0.000005,0.000008,-0.000007,67.016902,0.000009,
2041,2158,-4.65392393533116,-10.6323782328575,0.00017937883058039,0.003000,-0.000044,0.001890,0.132479,0.010671,329.455439,24.773828,0.999234,0.986705,0.004830,0.254984,-0.000019,-0.000013,0.000000,-0.000013,-0.000019,-88.650752,0.000033,
2401,2548,3.12192963512397,-2.10512444424609,-0.0145673838515563,0.003183,-0.000105,-0.000811,0.148950,0.007373,322.190351,23.875774,0.999353,0.989347,0.004557,0.425950,-0.000002,-0.000022,-0.000001,-0.000002,-0.000022,-4.237997,0.000026,
2311,2098,1.24557639507529,-11.9538515355695,0.0174903788822576,0.002997,-0.000045,0.001024,0.133741,0.012155,329.699504,23.113552,0.999491,0.981168,0.005356,0.311829,-0.000018,0.000015,-0.000009,0.000017,-0.000021,-75.747397,0.000022,
2086,2383,-3.70907304524969,-5.71237919147595,-0.013031042665375,0.002927,0.000112,-0.002793,0.142631,0.003860,325.493354,24.459390,0.998288,0.981533,0.005428,0.339570,-0.000014,-0.000021,-0.000009,-0.000008,-0.000027,-33.824383,0.000037,
2326,2173,1.55869362779207,-10.3084521643184,0.0119324164721775,0.002967,-0.000148,0.002922,0.125783,0.025784,328.429380,23.247340,0.998955,0.979232,0.005390,0.288237,-0.000015,-0.000018,-0.000008,-0.000008,-0.000025,-38.937294,0.000035,
2371,2398,2.49702687564997,-5.38322467143222,-0.00434015353221184,0.002751,0.000105,0.000470,0.124503,0.017295,324.660798,23.520425,0.999434,0.987571,0.004612,0.416382,-0.000003,-0.000013,0.000009,0.000002,-0.000018,29.512208,0.000019,
2176,2833,-1.82749344968368,4.09739038544814,-0.0385429470806002,0.003027,0.000054,0.000182,0.138826,0.009872,317.611398,24.514293,0.999602,0.994080,0.003415,0.392219,-0.000021,-0.000007,0.000004,-0.000006,-0.000022,73.317278,0.000029,
2221,3043,-0.883793902241162,8.65892022417447,0.00583079527422115,0.002861,-0.000309,0.001738,0.126202,0.010757,314.414667,24.844123,0.999717,0.993510,0.003262,0.373959,-0.000015,-0.000010,-0.000011,-0.000001,-0.000024,-51.233626,0.000029,
2071,2323,-4.0254294029444,-7.0245527767152,-0.00272552784042546,0.003268,0.000174,0.000283,0.149421,0.019804,326.630054,24.474471,0.999270,0.987726,0.004541,0.393412,-0.000008,-0.000017,-0.000002,-0.000008,-0.000018,-9.770116,0.000026,
2251,3193,-0.25701086326367,11.9130946675867,0.0357867345727527,0.002979,-0.000377,0.000799,0.134570,-0.007123,312.153240,25.167941,0.999554,0.992254,0.003467,0.352583,-0.000019,-0.000008,-0.000012,0.000000,-0.000027,-57.544902,0.000031,
2161,2743,-2.13752237190376,2.1379489175162,-0.0289436360557715,0.003142,-0.000223,0.001189,0.140880,-0.004500,319.209476,24.423001,0.999334,0.989144,0.004218,0.390633,-0.000017,-0.000018,-0.000008,-0.000010,-0.000025,-44.543184,0.000036,
2086,2368,-3.70623559296611,-6.04174492283948,-0.00526013899053623,0.003134,-0.000343,0.000374,0.142810,-0.007942,325.800767,24.384846,0.998369,0.981236,0.005461,0.401374,-0.000011,-0.000023,-0.000002,-0.000010,-0.000023,-9.994319,0.000034,
2431,2698,3.74441778917025,1.17004519092026,-0.0258539719287114,0.002424,-0.000290,0.000282,0.110168,0.004714,319.656439,24.446125,0.999807,0.991806,0.003645,0.310309,-0.000011,0.000004,-0.000008,0.000007,-0.000015,-65.763720,0.000015,
2101,2458,-3.394448777554,-4.07545743417818,-0.0140847145905809,0.003196,0.000002,-0.000385,0.148077,0.023214,324.207091,24.348215,0.999412,0.987580,0.004390,0.436068,-0.000021,-0.000039,-0.000019,-0.000009,-0.000051,-32.466616,0.000064,
2236,3133,-0.57350940760637,10.6121991300624,0.0149967759689957,0.002937,-0.000386,0.003381,0.124255,-0.001963,312.982459,25.024422,0.999656,0.992315,0.003680,0.350428,-0.000028,-0.000015,-0.000014,-0.000006,-0.000037,-57.417408,0.000047,
2476,2923,4.67987754461036,6.07086828846201,-0.0197624604211342,0.002634,-0.000350,0.000554,0.118747,-0.013280,316.135197,25.273634,0.999285,0.986327,0.004463,0.306016,-0.000015,-0.000003,0.000007,0.000000,-0.000018,64.975870,0.000021,
2011,2023,-5.28664352024169,-13.593098111571,0.0173451150342316,0.003068,0.000097,-0.000200,0.141345,-0.010172,331.953833,24.906188,0.998744,0.982738,0.005297,0.341007,0.000020,-0.000032,0.000073,0.000072,-0.000084,35.195808,0.000090,
2146,2668,-2.45025592310941,0.503866474646273,-0.0234020043506575,0.003297,0.000176,-0.002756,0.160132,0.007477,320.548884,24.332201,0.999643,0.991485,0.003674,0.447825,-0.000011,-0.000005,-0.000003,-0.000004,-0.000013,-69.768659,0.000017,
2086,2398,-3.71149266175123,-5.38549367357891,-0.00884386659390657,0.002695,0.000015,-0.000910,0.126517,0.011270,325.270530,24.431937,0.998847,0.984406,0.004905,0.375032,-0.000017,-0.000031,-0.000013,-0.000009,-0.000039,-31.069179,0.000051,
2446,2773,4.05618304413993,2.80372043360776,-0.0336978123520453,0.002851,-0.000270,-0.001857,0.137707,-0.027017,318.423029,24.566059,0.999562,0.988271,0.004279,0.418230,-0.000006,-0.000008,-0.000017,0.000010,-0.000025,-43.517606,0.000025,
2461,2848,4.36753551866856,4.43870932798532,-0.0342209951578525,0.002911,-0.000201,0.001045,0.129718,0.007861,317.216069,24.913457,0.999787,0.993343,0.003255,0.386305,-0.000023,-0.000017,-0.000013,-0.000007,-0.000034,-51.566226,0.000044,
2491,2998,4.99268415051855,7.70058912607132,-0.000334525649066109,0.002606,-0.000542,0.000463,0.117721,-0.020896,315.109239,25.526290,0.999390,0.988308,0.004099,0.367695,0.000004,-0.000002,0.000011,0.000013,-0.000011,38.044203,0.000014,
2506,3088,5.30171011531707,9.65726385364647,0.00868368151128607,0.002863,-0.000226,-0.000540,0.133617,-0.005917,313.768590,25.938169,0.999744,0.992912,0.003398,0.374371,-0.000007,0.000009,0.000028,0.000030,-0.000028,53.401003,0.000033,
2191,2923,-1.51501461763976,6.05179150455167,-0.00656495265030799,0.003113,-0.000520,0.003269,0.132986,-0.001038,316.359920,24.631432,0.999470,0.991155,0.003765,0.366629,-0.000010,-0.000005,0.000001,-0.000005,-0.000011,80.423757,0.000016,
2116,2533,-3.08116483042957,-2.43858609245122,-0.0213259817541598,0.002744,-0.000127,0.000971,0.123276,0.012936,322.841098,24.332702,0.999110,0.984889,0.004857,0.427512,-0.000017,-0.000004,0.000003,-0.000003,-0.000018,76.135051,0.000022,
2356,2323,2.18422712521473,-7.02484786359783,0.0036339598132713,0.002722,-0.000440,0.006212,0.102819,0.018392,325.914344,23.333400,0.999718,0.994102,0.003661,0.447662,-0.000020,-0.000043,-0.000001,-0.000020,-0.000043,-1.294308,0.000064,
2101,2473,-3.3972533976009,-3.74815499433913,-0.0134470358417502,0.002950,-0.000571,0.003135,0.126295,-0.006036,323.948633,24.386310,0.999339,0.988284,0.004354,0.371110,-0.000021,-0.000028,-0.000010,-0.000014,-0.000035,-35.571935,0.000051,
2041,2188,-4.65814087981307,-9.97752822855367,0.00963487710879463,0.002697,0.000049,0.002730,0.116273,0.023013,329.036954,24.687049,0.999299,0.985903,0.004722,0.344072,-0.000018,0.000021,0.000014,0.000026,-0.000023,71.906501,0.000028,
2236,3118,-0.570307045207372,10.2867499700554,0.0142856523558521,0.003237,-0.000180,-0.000709,0.151407,-0.002593,313.248995,24.993337,0.999567,0.991826,0.003698,0.361048,-0.000028,-0.000017,-0.000016,-0.000005,-0.000040,-54.970064,0.000049,
2191,2908,-1.51278543202359,5.72445896134935,-0.0046594756732361,0.002711,-0.000678,0.004384,0.110857,-0.007492,316.598855,24.507601,0.999809,0.994544,0.003232,0.469824,-0.000011,-0.000011,0.000000,-0.000010,-0.000011,36.898085,0.000022,
2251,3208,-0.259807620539647,12.2378519429946,0.0357680152143871,0.002735,-0.000617,-0.001159,0.129715,-0.014781,311.902795,25.157011,0.999757,0.995157,0.003044,0.377720,-0.000018,-0.000009,-0.000011,-0.000002,-0.000026,-56.200844,0.000031,
2476,2938,4.67741300562413,6.39640550935415,-0.0153135398610971,0.002840,-0.000394,0.000508,0.128381,-0.013936,315.937168,25.293800,0.999404,0.989209,0.004026,0.341042,-0.000016,-0.000010,0.000004,-0.000008,-0.000018,61.528243,0.000027,
2131,2608,-2.76663831358583,-0.80326445267464,-0.023272484799179,0.003188,-0.000098,-0.001991,0.152573,0.001470,321.575417,24.349204,0.999449,0.989395,0.004286,0.405874,-0.000015,-0.000006,0.000005,-0.000004,-0.000017,66.471370,0.000022,
2146,2683,-2.45365062461991,0.831462612840014,-0.0284648211213607,0.003071,-0.000448,0.002576,0.133416,0.017944,320.236335,24.377977,0.999458,0.990261,0.003829,0.420687,-0.000013,-0.000003,-0.000005,-0.000001,-0.000015,-66.405163,0.000018,
2026,2098,-4.96998762122774,-11.9498736800843,0.02582404527368,0.003224,0.000066,0.000418,0.146859,0.008354,330.735242,24.824157,0.999023,0.981343,0.005324,0.308894,-0.000005,-0.000032,0.000030,0.000015,-0.000052,33.057620,0.000054,
2041,2173,-4.65568635117529,-10.3059760300219,0.00851121654744702,0.002881,-0.000047,0.000861,0.129886,0.007424,329.282131,24.682388,0.999347,0.988702,0.004385,0.337932,-0.000020,-0.000018,0.000000,-0.000018,-0.000020,-82.182591,0.000038,
2161,2758,-2.14030128260218,2.46395849262515,-0.0239423448023217,0.002683,-0.000329,0.003408,0.112982,0.012373,318.979867,24.421262,0.999041,0.986866,0.004403,0.419397,-0.000018,-0.000020,-0.000009,-0.000010,-0.000028,-40.962221,0.000039,
2401,2563,3.11797712391342,-1.77686399484516,-0.0194947168679391,0.002688,0.000216,0.001003,0.119816,0.027475,321.875950,23.937125,0.999265,0.987641,0.004492,0.431386,-0.000007,-0.000024,-0.000006,-0.000005,-0.000026,-17.638262,0.000033,
2086,2428,-3.71583335796792,-4.73087895728941,-0.00436632290711714,0.003058,-0.000204,0.004010,0.128984,0.026679,324.826369,24.429884,0.999202,0.986428,0.004527,0.393370,-0.000019,-0.000044,0.000002,-0.000019,-0.000044,5.033434,0.000064,
2386,2488,2.80627978102477,-3.41569173203528,-0.00780613296325328,0.002846,-0.000475,0.005295,0.111394,0.019699,323.169319,23.762465,0.999458,0.988688,0.004296,0.398494,0.000000,-0.000013,0.000011,0.000006,-0.000020,30.200519,0.000020,
2416,2623,3.43312279817042,-0.467311048206781,-0.0252024725987781,0.003078,-0.000400,0.000267,0.140138,0.000719,320.891345,24.083403,0.999401,0.988194,0.004168,0.430217,-0.000005,-0.000014,-0.000010,0.000002,-0.000021,-32.392123,0.000023,
2011,2053,-5.29148837077476,-12.934547705532,0.0146722406647655,0.002903,-0.000762,0.003487,0.123572,-0.019732,331.433506,24.948612,0.999409,0.991255,0.003931,0.272282,0.000001,-0.000089,0.000027,0.000008,-0.000097,15.510392,0.000107,
2056,2263,-4.34308035647139,-8.33596293845394,0.00104490953714276,0.002939,-0.000241,0.003113,0.126186,0.022229,327.684777,24.595861,0.999118,0.984194,0.005161,0.343928,-0.000025,0.000035,0.000011,0.000037,-0.000027,79.773144,0.000038,
2116,2548,-3.08340240028388,-2.11127583199246,-0.0258977581521549,0.003339,-0.000292,0.002978,0.144678,0.003190,322.581733,24.330511,0.999187,0.987462,0.004494,0.424406,-0.000017,-0.000005,0.000005,-0.000003,-0.000019,69.118285,0.000024,
2071,2338,-4.02712784322364,-6.69745544290147,0.00207987758290074,0.003393,0.000406,-0.002529,0.163228,0.029444,326.442398,24.450169,0.998840,0.985856,0.004781,0.425889,-0.000014,-0.000027,-0.000001,-0.000014,-0.000027,-4.614067,0.000042,
2311,2113,1.24305766540274,-11.6266256652839,0.0258551203779689,0.002779,-0.000408,0.003576,0.114927,0.012185,329.509475,23.078786,0.999359,0.981741,0.005252,0.381831,-0.000018,0.000006,-0.000007,0.000008,-0.000020,-74.117007,0.000020,
2206,2983,-1.19914486970824,7.35655760759345,-0.00540464605802526,0.003230,0.000213,-0.001596,0.154019,0.026469,315.367479,24.760028,0.999436,0.991300,0.003704,0.361256,-0.000014,0.000007,-0.000001,0.000007,-0.000014,-88.469372,0.000014,
2266,3283,0.0498373852110525,13.8658428443921,0.00494532228566413,0.002912,-0.000620,0.001501,0.129003,-0.031085,310.385878,25.310662,0.999496,0.992521,0.003444,0.401804,-0.000013,0.000024,-0.000017,0.000031,-0.000020,-68.184733,0.000031,
2461,2863,4.36491546514323,4.76500481336328,-0.0292229121035348,0.002751,0.000156,-0.000773,0.129371,0.017803,317.012593,24.977974,0.999557,0.990936,0.003662,0.385795,-0.000023,-0.000009,-0.000013,-0.000001,-0.000031,-59.770916,0.000036,
2476,2953,4.67487793054016,6.72212710131348,-0.0125864920848358,0.002954,-0.000292,-0.001516,0.141397,-0.013229,315.727941,25.321132,0.999330,0.989387,0.004061,0.370559,-0.000010,-0.000020,0.000010,-0.000004,-0.000026,32.219897,0.000032,
2266,3268,0.053311861346085,13.5407529172782,0.0143273407747984,0.003029,-0.000331,0.002079,0.132617,-0.011493,310.714082,25.309402,0.999618,0.993034,0.003404,0.398648,-0.000012,0.000013,-0.000016,0.000020,-0.000019,-64.156412,0.000023,
2296,2053,0.927503325165418,-12.9418473276738,0.0279409470560381,0.003369,0.000386,-0.001454,0.159276,0.022979,330.547334,23.118706,0.999295,0.982459,0.005104,0.308034,-0.000016,-0.000002,-0.000012,0.000005,-0.000023,-60.441773,0.000024,
2056,2233,-4.33835422011076,-8.99208546316068,0.00265229884143992,0.002920,0.000053,0.001147,0.130914,0.020040,328.185092,24.619720,0.999235,0.987588,0.004641,0.323645,-0.000020,0.000048,0.000018,0.000052,-0.000024,76.261917,0.000052,
2071,2353,-4.02992235791725,-6.36847046627127,-0.0055568875317249,0.003389,0.000271,-0.002440,0.162778,0.036269,326.136311,24.484189,0.998500,0.982404,0.005270,0.397572,-0.000019,-0.000035,0.000002,-0.000019,-0.000035,5.427244,0.000054,
2041,2233,-4.66488815278975,-8.99222861919789,0.00544074618716195,0.002938,-0.000302,0.003412,0.125370,-0.008879,328.288252,24.727785,0.999097,0.983135,0.005134,0.256481,-0.000033,0.000051,0.000015,0.000053,-0.000035,79.966573,0.000054,
2026,2128,-4.97545880712306,-11.2916703341804,0.0129814277982518,0.003056,-0.000455,0.002987,0.131963,-0.004700,330.132809,24.783453,0.998739,0.978500,0.005922,0.323785,-0.000008,-0.000021,0.000025,0.000011,-0.000040,37.582847,0.000042,
2251,3223,-0.261992307762,12.5624898336417,0.0472547446283329,0.002624,-0.000398,0.001690,0.115330,0.001515,311.738977,25.180750,0.999704,0.994529,0.003184,0.392283,-0.000017,-0.000005,-0.000014,0.000004,-0.000026,-55.891382,0.000028,
2446,2788,4.0535768604198,3.13040830915229,-0.0298701588088761,0.002969,-0.000145,-0.001398,0.141451,-0.023390,318.214119,24.643461,0.999458,0.988604,0.004174,0.396592,-0.000009,-0.000009,-0.000019,0.000010,-0.000028,-45.165134,0.000028,
2206,2998,-1.20183264199295,7.68176172875835,-0.00393609208441603,0.003293,-0.000238,0.001993,0.145340,0.011368,315.126718,24.754445,0.999455,0.991186,0.003758,0.367685,-0.000016,0.000007,-0.000001,0.000007,-0.000016,-86.815418,0.000016,
2221,3058,-0.88553200599949,8.98341632540992,0.0155354737069047,0.003022,-0.000171,0.001004,0.136029,0.015096,314.261084,24.822679,0.999781,0.994267,0.003015,0.417785,-0.000015,-0.000017,-0.000011,-0.000005,-0.000027,-42.254413,0.000034,
2506,3103,5.29896523551996,9.98229992082232,0.013088923373175,0.003008,-0.000324,0.001501,0.132322,-0.004879,313.558595,25.950112,0.999725,0.992479,0.003421,0.423590,-0.000015,0.000012,0.000039,0.000039,-0.000043,54.506238,0.000047,
2461,2878,4.36156613436095,5.09158017452326,-0.0306097976674096,0.002744,-0.000047,0.001697,0.119719,0.026751,316.746168,25.026096,0.999444,0.991370,0.003724,0.400760,-0.000028,-0.000004,-0.000010,0.000000,-0.000032,-69.875582,0.000037,
2176,2848,-1.8295165661662,4.4224631559104,-0.0265195298343883,0.002825,-0.000344,0.001595,0.125041,0.003568,317.454485,24.527254,0.999396,0.991322,0.003700,0.384553,-0.000018,-0.000012,0.000007,-0.000007,-0.000022,55.755742,0.000031,
2041,2203,-4.66068037580431,-9.64845343879364,0.00197614005043079,0.002634,0.000264,-0.000861,0.123426,0.011693,328.739410,24.688985,0.998884,0.982495,0.005218,0.326053,-0.000023,0.000024,0.000012,0.000027,-0.000026,75.905228,0.000031,
2431,2713,3.74262799867192,1.49518915601856,-0.0185737209746435,0.002894,0.000021,-0.001126,0.137040,0.006045,319.500775,24.389955,0.999743,0.991741,0.003666,0.417793,-0.000012,0.000012,-0.000014,0.000019,-0.000019,-65.208815,0.000021,
2296,2038,0.929987439162254,-13.2714503977464,0.0336907289159853,0.002810,0.000072,-0.000199,0.129348,0.011251,330.806581,23.126715,0.999343,0.983824,0.005010,0.254705,-0.000013,-0.000011,-0.000012,0.000001,-0.000024,-47.939263,0.000028,
2371,2413,2.49440692690966,-5.05474596213599,-0.00512957430061078,0.002904,0.000104,-0.001562,0.138753,0.008993,324.425293,23.615853,0.999560,0.988642,0.004405,0.355145,-0.000005,-0.000007,0.000015,0.000009,-0.000022,42.585773,0.000022,
2356,2338,2.18119242928547,-6.69488748022992,-0.000360370815656097,0.002630,-0.000211,0.003432,0.108421,0.018903,325.643197,23.497838,0.999430,0.988744,0.004421,0.324330,-0.000016,-0.000039,0.000000,-0.000016,-0.000039,0.474497,0.000057,
2191,2938,-1.51691076644167,6.37691962134863,-0.001614388335895,0.003292,-0.000677,0.000952,0.148430,-0.018456,316.172694,24.629193,0.999516,0.992432,0.003562,0.365136,-0.000013,-0.000005,-0.000001,-0.000004,-0.000013,-80.338215,0.000019,
2101,2488,-3.39937019587158,-3.42111608194847,-0.0185175664649933,0.003183,-0.000007,-0.002235,0.152861,-0.020227,323.690854,24.337747,0.999209,0.988525,0.004300,0.408165,-0.000018,-0.000025,-0.000011,-0.000011,-0.000033,-35.750021,0.000046,
2026,2158,-4.97994745291474,-10.6334397961936,0.0111480516109168,0.003035,-0.000272,0.002472,0.132523,0.004302,329.636275,24.865444,0.999215,0.985948,0.004793,0.237108,-0.000011,-0.000012,-0.000002,-0.000009,-0.000014,-39.277276,0.000023,
2116,2578,-3.08812365714972,-1.45697262612327,-0.0236478820223169,0.003009,0.000146,-0.001412,0.142661,0.018147,322.112822,24.378420,0.999337,0.989823,0.004240,0.400080,-0.000022,-0.000015,0.000001,-0.000015,-0.000022,85.521084,0.000037,
2386,2503,2.80356636514131,-3.08766780112091,-0.00556917597742768,0.002734,-0.000163,0.003789,0.111797,0.034396,322.944738,23.851106,0.999583,0.989961,0.004034,0.368680,-0.000003,-0.000007,0.000012,0.000007,-0.000017,39.080306,0.000017,
2041,2248,-4.6671148047565,-8.6653041777252,0.00415632458759774,0.002959,-0.000612,0.002477,0.128857,-0.025961,328.040711,24.622123,0.999146,0.985123,0.004819,0.339946,-0.000033,0.000049,0.000006,0.000050,-0.000034,85.559191,0.000051,
2266,3298,0.0474593454703864,14.1918827291809,0.00711436021009604,0.002770,-0.000135,-0.003059,0.137796,-0.017897,310.166074,25.433807,0.999545,0.993095,0.003440,0.315666,-0.000005,0.000032,-0.000016,0.000038,-0.000011,-69.513267,0.000039,
2011,2083,-5.29567789537638,-12.2766881461312,0.0108159631188869,0.002896,0.000234,-0.002322,0.139243,0.017222,330.936409,24.891285,0.998586,0.983263,0.005348,0.349278,-0.000012,-0.000017,0.000028,0.000014,-0.000043,42.456247,0.000043,
2491,3013,4.98943837029146,8.02728316452552,-0.00322635668521798,0.002730,-0.000493,0.001106,0.120994,-0.016578,314.842328,25.616977,0.999665,0.992405,0.003466,0.339370,0.000001,0.000005,0.000010,0.000013,-0.000007,50.371343,0.000013,
2251,3253,-0.268495447027419,13.2139806034549,0.0283083992519551,0.002873,-0.000319,0.001757,0.126600,0.001000,311.099269,25.238138,0.999651,0.993854,0.003266,0.378214,-0.000016,-0.000001,-0.000013,0.000006,-0.000023,-60.664228,0.000024,
2056,2248,-4.34059513914255,-8.66483392082466,0.00355835250695691,0.002816,-0.000211,0.000077,0.129047,0.004470,327.950142,24.565358,0.999079,0.985397,0.004864,0.359580,-0.000022,0.000046,0.000011,0.000048,-0.000023,80.976802,0.000048,
2476,2968,4.67224353481866,7.0486290630392,-0.00570748060255255,0.002736,0.000080,-0.002231,0.134352,0.024674,315.532691,25.415751,0.999489,0.990656,0.003876,0.369777,-0.000010,-0.000015,0.000010,-0.000002,-0.000022,37.789261,0.000027,
2461,2893,4.35885817579421,5.41806177191899,-0.0268767828820842,0.002658,-0.000372,0.000528,0.120066,0.008722,316.532699,25.134194,0.999128,0.988837,0.004211,0.328539,-0.000020,-0.000017,-0.000005,-0.000013,-0.000023,-53.156693,0.000037,
2056,2278,-4.34527662324425,-8.00674267990808,-0.000569642089885747,0.003121,-0.000091,0.003230,0.134282,0.015851,327.437588,24.696846,0.999669,0.991228,0.004090,0.233480,-0.000023,0.000018,0.000010,0.000020,-0.000025,77.337747,0.000026,
2506,3118,5.29581052604928,10.3089613954702,0.0133314929815924,0.002887,-0.000227,0.001004,0.128761,0.004284,313.310476,26.081387,0.999585,0.991760,0.003627,0.361499,-0.000015,0.000029,0.000031,0.000045,-0.000031,62.513055,0.000046,
2146,2728,-2.46062777967633,1.81097447682006,-0.027871090740291,0.003154,0.000302,-0.002388,0.152525,0.015955,319.530272,24.405894,0.999426,0.990030,0.004098,0.415334,-0.000013,-0.000016,-0.000004,-0.000010,-0.000018,-34.889507,0.000029,
2326,2188,1.5570311031205,-9.98163589354299,0.0193877738433343,0.003167,0.000324,-0.001519,0.150408,0.019853,328.275023,23.195685,0.999160,0.982011,0.005199,0.370398,-0.000020,-0.000018,-0.000006,-0.000013,-0.000025,-48.507606,0.000039,
2281,2008,0.607539007326434,-13.9297234030736,0.0322286878956675,0.002918,0.000066,0.002244,0.126098,0.047669,331.288493,23.106199,0.999370,0.983279,0.005177,0.348570,-0.000006,-0.000009,-0.000015,0.000007,-0.000023,-41.621625,0.000023,
2131,2623,-2.76925908110303,-0.476385256633883,-0.0214869919064995,0.002996,-0.000018,-0.000399,0.139033,0.010931,321.333768,24.368241,0.999504,0.989745,0.004118,0.402689,-0.000012,-0.000012,0.000001,-0.000011,-0.000013,41.549910,0.000024,
2101,2503,-3.40219987097073,-3.09298433232479,-0.0182902869755708,0.002831,0.000094,-0.000477,0.131616,0.016501,323.428592,24.392232,0.999247,0.988563,0.004232,0.392757,-0.000013,-0.000006,-0.000003,-0.000005,-0.000014,-70.581773,0.000020,
2161,2773,-2.14285993022863,2.79113679509805,-0.0327070311950024,0.003012,-0.000206,0.000268,0.137819,0.012339,318.687496,24.439674,0.999377,0.990124,0.004000,0.411058,-0.000016,-0.000023,-0.000008,-0.000011,-0.000028,-33.820563,0.000040,
2086,2443,-3.7189300636403,-4.40213033321819,-0.0146748034384245,0.002758,0.000170,0.000855,0.124398,0.026403,324.493490,24.458389,0.999419,0.987252,0.004459,0.365585,-0.000023,-0.000042,-0.000002,-0.000022,-0.000042,-5.399440,0.000066,
2176,2878,-1.83327308943716,5.0735890175438,-0.0109932506979931,0.003027,-0.000239,0.000504,0.137790,0.005989,317.108992,24.573595,0.999545,0.992613,0.003455,0.364564,-0.000011,0.000000,0.000006,0.000003,-0.000014,67.757842,0.000014,
2161,2803,-2.1468592290448,3.44309987199845,-0.0234525027529457,0.003239,0.000143,-0.002324,0.156329,0.013033,318.295870,24.478622,0.999570,0.991684,0.003760,0.392732,-0.000018,-0.000019,-0.000004,-0.000015,-0.000023,-42.570645,0.000038,
2071,2383,-4.03548992419143,-5.71317495709108,-0.00366229283855546,0.002547,-0.000085,0.001279,0.113441,0.039727,325.619510,24.501612,0.998573,0.983603,0.005166,0.380833,-0.000018,-0.000022,-0.000007,-0.000013,-0.000027,-38.675325,0.000041,
2446,2803,4.05039280403881,3.45757889149279,-0.0277512444046693,0.002968,-0.000556,0.002917,0.125186,-0.020511,317.970559,24.756863,0.999570,0.990112,0.003898,0.338149,-0.000012,-0.000010,-0.000016,0.000005,-0.000027,-46.109985,0.000029,
2416,2638,3.43050319768319,-0.139666513502696,-0.0205849517749357,0.003145,-0.000251,0.001584,0.138445,0.004393,320.683951,24.211471,0.999449,0.988664,0.004167,0.353997,-0.000011,-0.000013,-0.000011,-0.000001,-0.000022,-42.476266,0.000026,
2236,3178,-0.580021258762077,11.5863622835279,0.032863461947386,0.002947,-0.000260,0.000484,0.134112,-0.017441,312.406260,25.049355,0.999437,0.990995,0.003708,0.369735,-0.000023,-0.000006,-0.000012,0.000000,-0.000029,-63.210632,0.000033,
2341,2248,1.87118975480169,-8.66589494812103,0.00457293725662566,0.002824,-0.000576,0.006334,0.107189,0.016491,327.136874,23.264689,0.999069,0.982337,0.005136,0.377928,-0.000018,-0.000032,-0.000008,-0.000014,-0.000036,-24.539312,0.000051,
2461,2908,4.35651983305957,5.74315730735221,-0.0169457159830699,0.002525,-0.000438,0.000587,0.113612,-0.010068,316.364915,25.163797,0.998945,0.987144,0.004532,0.333971,-0.000014,-0.000012,0.000002,-0.000011,-0.000015,61.063273,0.000026,
2251,3238,-0.265088069979242,12.8871152902569,0.0416847232614828,0.002643,-0.000392,0.002022,0.115090,-0.005002,311.446570,25.131912,0.999793,0.995730,0.002895,0.456678,-0.000016,-0.000008,-0.000014,0.000002,-0.000026,-52.306020,0.000029,
2236,3148,-0.57519227745976,10.9366718850125,0.0220332642062999,0.003205,-0.000314,0.000372,0.146426,-0.001988,312.818444,25.008202,0.999272,0.990837,0.003886,0.386690,-0.000026,-0.000009,-0.000011,-0.000004,-0.000031,-64.532536,0.000038,
2431,2728,3.73966871953565,1.82101739846295,-0.0189959562043214,0.003183,-0.000626,0.001889,0.138896,-0.018677,319.255434,24.364427,0.999726,0.992310,0.003560,0.468841,-0.000013,0.000006,-0.000013,0.000012,-0.000020,-63.244102,0.000020,
2026,2173,-4.981896061937,-10.306842333664,0.0182883326121441,0.002965,-0.000773,0.004460,0.123679,0.004410,329.446822,24.774789,0.999328,0.988523,0.004342,0.320736,-0.000009,-0.000020,-0.000002,-0.000008,-0.000021,-8.120433,0.000030,
2086,2413,-3.71359812505326,-5.05910106296815,-0.000919827349662228,0.002768,-0.000503,0.004534,0.114015,0.020711,325.082480,24.397171,0.998976,0.985253,0.004681,0.419601,-0.000018,-0.000034,-0.000011,-0.000013,-0.000039,-27.215519,0.000054,
2506,3133,5.29273365770274,10.6346899529937,0.00996922245025189,0.003094,-0.000163,-0.000080,0.142618,0.020020,313.049967,26.101753,0.999569,0.991821,0.003602,0.417060,-0.000011,0.000012,0.000018,0.000022,-0.000021,61.058138,0.000025,
2491,3028,4.9864424241893,8.3533396332701,-0.00352894175557594,0.002970,-0.000372,0.002787,0.125674,0.000780,314.598687,25.657547,0.999756,0.993758,0.003279,0.374456,-0.000004,0.000015,0.000007,0.000018,-0.000006,71.303008,0.000018,
2041,2218,-4.66261346164482,-9.32013219305095,0.00107841743317749,0.002984,0.000776,-0.000805,0.139538,0.043558,328.506852,24.655624,0.998247,0.976116,0.005875,0.386367,-0.000029,0.000044,0.000019,0.000049,-0.000033,76.218880,0.000050,
2086,2458,-3.72121028635409,-4.07516405221602,-0.0160924558522311,0.002937,0.000132,0.001322,0.131292,0.040783,324.246601,24.398012,0.999428,0.988224,0.004376,0.440673,-0.000024,-0.000043,-0.000014,-0.000017,-0.000050,-28.219440,0.000070,
2206,3013,-1.2044772158739,8.00679957375886,0.00213614785036498,0.002806,-0.000289,0.001630,0.124032,-0.000989,314.911807,24.765587,0.999423,0.991047,0.003745,0.360016,-0.000013,0.000002,-0.000005,0.000004,-0.000015,-74.521306,0.000015,
2221,3103,-0.892863401287634,9.95933378638717,0.0195756560945597,0.003157,-0.000297,-0.001233,0.149295,-0.021714,313.573209,24.890181,0.999480,0.991914,0.003663,0.367241,-0.000023,-0.000015,-0.000009,-0.000009,-0.000029,-56.160394,0.000040,
2371,2428,2.49092836252106,-4.72800939283747,-0.00933901496915723,0.002699,0.000071,-0.000391,0.125192,0.019705,324.134241,23.505724,0.999720,0.992228,0.004022,0.518950,-0.000006,-0.000007,0.000013,0.000007,-0.000020,44.481091,0.000020,
2191,2983,-1.52480123191438,7.35423724157187,0.00371218848113131,0.002786,-0.000050,0.001253,0.124474,0.019647,315.459493,24.666238,0.999360,0.991313,0.003767,0.407644,-0.000009,0.000010,0.000001,0.000010,-0.000010,86.625160,0.000011,
2116,2563,-3.08582203307246,-1.78355733159236,-0.0265637266587078,0.003152,0.000163,-0.000450,0.146378,0.018944,322.334793,24.380105,0.999152,0.987828,0.004571,0.395078,-0.000017,-0.000012,0.000003,-0.000011,-0.000018,65.769875,0.000030,
2206,3028,-1.2070604359012,8.33224127527985,0.00445168707568655,0.002717,-0.000306,0.002330,0.117707,-0.000482,314.680105,24.779356,0.999616,0.992923,0.003473,0.362567,-0.000012,-0.000003,-0.000007,0.000001,-0.000016,-60.474326,0.000017,
2101,2533,-3.40803808416853,-2.437817699874,-0.0319831344763202,0.002610,-0.000039,-0.000714,0.122125,0.000976,322.820069,24.377463,0.999504,0.990630,0.003990,0.397039,-0.000022,-0.000006,0.000007,-0.000004,-0.000025,68.511389,0.000032,
2011,2068,-5.2930510879444,-12.6072405104361,0.0217704790005655,0.002959,-0.000396,0.001789,0.130872,-0.011860,331.259994,24.879794,0.999385,0.990877,0.003989,0.339986,-0.000003,-0.000042,0.000028,0.000012,-0.000056,27.579086,0.000059,
2131,2653,-2.77350731081067,0.176906660365418,-0.0203579283119097,0.003155,0.000529,-0.006593,0.165064,0.008561,320.883129,24.377329,0.999666,0.991131,0.003725,0.403693,-0.000012,-0.000004,-0.000002,-0.000003,-0.000012,-77.243869,0.000016,
2221,3073,-0.888168529601376,9.30903783840195,0.0172541994323865,0.002912,-0.000322,0.001163,0.130340,-0.001530,314.024767,24.877215,0.999632,0.993097,0.003309,0.364277,-0.000018,-0.000013,-0.000011,-0.000004,-0.000026,-51.721570,0.000033,
2041,2263,-4.66906909273439,-8.33640111788269,0.00181753723143174,0.003073,0.000459,-0.002598,0.148517,0.023470,327.799074,24.625327,0.999180,0.986112,0.004765,0.381004,-0.000035,0.000037,0.000006,0.000038,-0.000035,85.618477,0.000042,
2401,2578,3.11504199211676,-1.44972551589525,-0.0179778208552079,0.002689,-0.000630,0.002655,0.113548,-0.001866,321.638903,24.006556,0.999302,0.987079,0.004505,0.378893,-0.000004,-0.000009,0.000001,-0.000004,-0.000009,14.991989,0.000013,
2311,2128,1.24040635125215,-11.2959221962776,0.0221739082365957,0.002773,0.000011,-0.001603,0.132461,0.001627,329.253971,23.245766,0.999252,0.983740,0.005058,0.239392,-0.000015,0.000011,-0.000012,0.000015,-0.000019,-68.392795,0.000020,
2281,1993,0.610129121840824,-14.2587929084472,0.0325881205270662,0.002848,-0.000206,0.002815,0.120914,0.022951,331.527236,23.132348,0.999430,0.969765,0.006608,0.266129,-0.000005,0.000015,-0.000031,0.000037,-0.000027,-54.019857,0.000038,
2026,2143,-4.97729656747459,-10.9644083939511,0.0173198317516494,0.003263,-0.000555,0.005032,0.135849,0.011363,329.932587,24.697638,0.998113,0.978128,0.006002,0.418622,-0.000004,0.000016,0.000024,0.000032,-0.000021,56.149663,0.000033,
2281,2023,0.604658942764793,-13.6000669174923,0.0261788160466949,0.003054,0.000250,0.000778,0.137276,0.036761,331.008341,23.110424,0.999178,0.981989,0.005403,0.364944,-0.000013,-0.000011,-0.000007,-0.000004,-0.000019,-48.805186,0.000025,
2191,2953,-1.52009170569842,6.70237300750143,0.00294449185435042,0.002593,-0.000762,0.004147,0.106199,-0.002798,315.924280,24.624854,0.999415,0.991594,0.003698,0.399087,-0.000012,-0.000005,-0.000001,-0.000005,-0.000012,-78.488602,0.000018,
2056,2293,-4.34738110396583,-7.68132150812428,0.00656688203150679,0.002844,-0.000353,0.003427,0.120924,0.024198,327.243421,24.529605,0.999882,0.994167,0.003501,0.405688,-0.000008,0.000021,0.000017,0.000029,-0.000016,64.998952,0.000029,
2356,2353,2.17887815234502,-6.36929467059058,-0.00281433123433317,0.002900,0.000018,-0.002019,0.140019,-0.011769,325.413227,23.314401,0.999535,0.988926,0.004470,0.517794,-0.000011,-0.000040,0.000008,-0.000009,-0.000041,14.108985,0.000054,
2386,2518,2.80060159039473,-2.76066727295305,-0.00974228019674683,0.002662,0.000125,-0.000314,0.123318,0.025532,322.678446,23.816233,0.999513,0.988135,0.004385,0.439439,-0.000005,-0.000010,0.000009,0.000002,-0.000017,36.876727,0.000018,
2296,2068,0.924818978902085,-12.6132430313519,0.0313948976046277,0.003311,0.000230,0.000871,0.148772,0.019983,330.324472,23.142772,0.999336,0.982430,0.005103,0.314068,-0.000018,0.000003,-0.000009,0.000006,-0.000022,-68.938537,0.000022,
2176,2863,-1.83146048188732,4.7474523026998,-0.0183393431344712,0.002705,-0.000411,-0.000788,0.126864,-0.018321,317.281129,24.522214,0.999061,0.987584,0.004144,0.379714,-0.000014,-0.000011,0.000005,-0.000007,-0.000018,52.491866,0.000026,
2251,3268,-0.272060655099676,13.5396273341882,0.0127047118890573,0.002993,-0.000307,-0.000026,0.137952,-0.015622,310.733769,25.247900,0.999449,0.992264,0.003598,0.373817,-0.000018,0.000010,-0.000011,0.000014,-0.000022,-70.596856,0.000022,
2296,2083,0.921087772069875,-12.2835083891052,0.0290639090406444,0.002887,-0.000655,0.006430,0.110282,0.027321,330.024960,23.200982,0.999429,0.982860,0.005056,0.296691,-0.000019,0.000012,-0.000011,0.000016,-0.000022,-72.334506,0.000023,
2116,2593,-3.09013063523779,-1.13188824367889,-0.0141355179084144,0.003066,-0.000445,0.002805,0.132641,0.005630,321.940183,24.312322,0.999507,0.991225,0.003980,0.457626,-0.000020,-0.000004,0.000006,-0.000002,-0.000022,71.949435,0.000026,
2026,2188,-4.98413649932209,-9.97786753076181,0.0106261398199194,0.003090,-0.000097,-0.000351,0.142836,-0.002837,329.161386,24.756720,0.999293,0.986616,0.004660,0.324746,-0.000003,0.000027,0.000014,0.000033,-0.000008,67.835648,0.000034,
2251,3283,-0.275267147665531,13.8647232658514,0.00650330695282264,0.002977,-0.000408,0.000661,0.134865,-0.027637,310.432725,25.259292,0.999439,0.992085,0.003598,0.372167,-0.000021,0.000017,-0.000014,0.000022,-0.000026,-72.144634,0.000028,
2041,2293,-4.67378210784886,-7.68194173216872,0.00973422236279475,0.002586,-0.000155,0.001284,0.115217,0.014938,327.349919,24.576282,0.999850,0.993222,0.003811,0.410405,-0.000011,0.000031,0.000014,0.000035,-0.000015,73.533959,0.000035,
2071,2398,-4.03823684317519,-5.38623864997646,-0.00583559480139684,0.002282,-0.000554,0.001915,0.099264,-0.003338,325.346103,24.467369,0.998937,0.985267,0.004964,0.370758,-0.000022,-0.000033,-0.000013,-0.000013,-0.000042,-34.318729,0.000058,
2236,3193,-0.582817952441811,11.9116980142537,0.0322696981574495,0.003040,-0.000314,0.003025,0.130155,-0.010477,312.151649,25.069925,0.999439,0.990942,0.003710,0.375942,-0.000023,-0.000010,-0.000011,-0.000004,-0.000030,-59.830463,0.000037,
2056,2308,-4.34951676914108,-7.35290089272115,0.00474519248871275,0.003017,0.000087,0.002247,0.132350,0.021623,326.998045,24.561829,0.999684,0.990701,0.004093,0.367544,-0.000010,0.000016,0.000013,0.000021,-0.000015,67.663518,0.000022,
2011,2098,-5.29780340257599,-11.9469909822066,0.00836715459183779,0.003118,0.000481,-0.001580,0.147517,0.042854,330.683398,24.928227,0.998177,0.978547,0.005940,0.329441,-0.000009,-0.000034,0.000021,0.000003,-0.000045,29.272326,0.000051,
2146,2743,-2.4628319339629,2.13679905048483,-0.0218941370574157,0.003168,0.000091,-0.000356,0.146938,0.013721,319.331328,24.409401,0.999410,0.990038,0.004158,0.417311,-0.000013,-0.000019,-0.000006,-0.000009,-0.000023,-32.270348,0.000033,
2281,2038,0.600908021595618,-13.2688451978101,0.0150598868403335,0.002826,0.000048,0.000966,0.126163,0.018656,330.663009,23.214079,0.999265,0.984179,0.005044,0.275031,-0.000014,-0.000010,-0.000005,-0.000007,-0.000017,-58.312386,0.000025,
2191,2998,-1.52745333777278,7.68001630759747,0.00129622116190831,0.002976,-0.000284,0.002657,0.128716,0.008101,315.198911,24.682752,0.999518,0.991458,0.003748,0.393561,-0.000011,0.000008,0.000001,0.000008,-0.000011,87.865319,0.000011,
2506,3148,5.2901245437215,10.9599584051557,0.0184640158847742,0.002989,-0.000348,0.001486,0.131563,-0.003644,312.864248,26.195484,0.999529,0.990888,0.003725,0.359223,-0.000006,-0.000014,0.000014,0.000005,-0.000025,36.895319,0.000026,
2446,2818,4.04784764714259,3.78350888634273,-0.02741570915083,0.003018,0.000316,-0.001594,0.144643,-0.001369,317.748361,24.730317,0.999541,0.989917,0.003977,0.436120,-0.000012,-0.000019,-0.000014,-0.000001,-0.000030,-37.961566,0.000035,
2416,2653,3.42721207775226,0.187448378847058,-0.0186197082755371,0.002922,-0.000226,0.005069,0.115584,0.047988,320.433233,24.232902,0.999494,0.989021,0.004205,0.424493,-0.000015,-0.000009,-0.000012,0.000001,-0.000024,-52.187857,0.000027,
2176,2893,-1.83484534190088,5.39776943010512,0.00227279919380408,0.003101,-0.000461,0.000569,0.140883,-0.018141,316.979605,24.539680,0.999792,0.995298,0.003113,0.386093,-0.000011,-0.000002,0.000004,-0.000001,-0.000013,68.155176,0.000015,
2341,2263,1.8686488682201,-8.33752371287269,0.00543173290202503,0.002745,-0.000002,0.002721,0.116346,0.019261,326.910943,23.303560,0.999150,0.983187,0.005038,0.380616,-0.000021,-0.000039,-0.000013,-0.000014,-0.000046,-27.950156,0.000063,
2161,2818,-2.1494394534572,3.7699691200785,-0.0177204388380119,0.002957,0.000118,0.000147,0.135784,0.023488,318.078963,24.583688,0.999700,0.993544,0.003358,0.307819,-0.000016,-0.000016,-0.000001,-0.000015,-0.000016,-46.720805,0.000032,
2476,2983,4.6686790549025,7.37535904125235,-0.0136294558374175,0.002818,-0.000143,-0.002980,0.140837,-0.001311,315.227223,25.497158,0.999391,0.989641,0.004063,0.318558,-0.000004,-0.000002,0.000009,0.000007,-0.000012,47.311597,0.000012,
2026,2218,-4.9894819945154,-9.32054232119771,-0.00113651909492773,0.002809,0.000188,-0.001003,0.131833,0.000153,328.570901,24.702395,0.998737,0.981078,0.005446,0.368284,-0.000012,0.000051,0.000014,0.000054,-0.000015,78.290793,0.000056,
2161,2788,-2.14507820028073,3.11686802922337,-0.0252801893984724,0.002876,-0.000258,0.001319,0.128251,-0.006216,318.496529,24.474865,0.999470,0.990514,0.004035,0.367059,-0.000020,-0.000018,-0.000006,-0.000013,-0.000025,-49.255772,0.000038,
2221,3088,-0.891113744923775,9.63457076299554,0.0142599338799414,0.002812,-0.000519,0.001156,0.125647,-0.020637,313.750022,24.899914,0.999423,0.992811,0.003414,0.340432,-0.000020,-0.000015,-0.000010,-0.000008,-0.000028,-52.194711,0.000037,
2401,2593,3.11210786892291,-1.12246874792127,-0.0164531683926157,0.002647,-0.000193,0.003864,0.107432,0.012372,321.401719,24.047897,0.999460,0.988701,0.004241,0.398160,-0.000003,-0.000012,0.000002,-0.000002,-0.000013,9.846065,0.000016,
2101,2518,-3.40500577601835,-2.76549710000138,-0.0225617494177186,0.002756,-0.000326,0.000746,0.124460,-0.000107,323.143474,24.405149,0.999626,0.991997,0.003704,0.365631,-0.000016,-0.000003,0.000008,0.000001,-0.000020,64.231395,0.000023,
2071,2368,-4.03250009323375,-6.04111307764889,-0.00460615973810263,0.003198,-0.000072,-0.000159,0.147432,0.032464,325.887435,24.469435,0.997777,0.979521,0.005751,0.407192,-0.000014,-0.000023,0.000001,-0.000013,-0.000023,7.694576,0.000037,
2371,2443,2.48847232049086,-4.39962391576736,-0.00201036968138624,0.002809,-0.000308,0.002975,0.118161,0.019915,323.944854,23.670518,0.999284,0.987095,0.004633,0.396308,-0.000005,-0.000014,0.000013,0.000004,-0.000024,35.605933,0.000025,
2206,3043,-1.20888344629485,8.65734060457692,0.0135242679388625,0.002828,-0.000309,0.001683,0.124852,-0.006780,314.518422,24.816385,0.999823,0.994924,0.003083,0.334871,-0.000010,-0.000010,-0.000009,-0.000001,-0.000019,-43.929982,0.000023,
2221,3118,-0.8950221582644,10.2852130276319,0.0245386406990065,0.003201,0.000039,-0.002494,0.155534,-0.006637,313.375367,24.968224,0.999567,0.991539,0.003760,0.321883,-0.000028,-0.000014,-0.000015,-0.000005,-0.000038,-57.729113,0.000047,
2146,2698,-2.45649622366041,1.15843915258066,-0.0325554471656346,0.003005,-0.000258,0.003080,0.128932,0.023855,319.954270,24.384609,0.999500,0.989975,0.003896,0.428334,-0.000010,-0.000006,-0.000002,-0.000005,-0.000011,-66.106485,0.000016,
2131,2638,-2.770547286363,-0.150989216542989,-0.00710507536069827,0.003027,0.000119,-0.003128,0.148719,0.013479,321.220771,24.368832,0.999737,0.992528,0.003508,0.410557,-0.000007,-0.000013,0.000001,-0.000007,-0.000013,5.509354,0.000020,
2191,2968,-1.52220325319633,7.02822380005089,0.00150419464540619,0.002917,-0.000442,0.000666,0.132187,-0.003349,315.693602,24.635093,0.999297,0.990409,0.003922,0.402230,-0.000010,0.000004,-0.000001,0.000005,-0.000010,-86.675001,0.000010,
2266,2023,0.277863995448733,-13.5988597898323,0.0253470721110602,0.003392,0.001101,-0.006799,0.178084,0.032327,331.061284,23.281884,0.998889,0.978973,0.005974,0.290432,-0.000010,-0.000018,-0.000006,-0.000007,-0.000021,-27.623121,0.000029,
2011,2113,-5.29935659218102,-11.6202699622434,0.0185302999175292,0.003221,0.000054,0.000249,0.147189,0.015840,330.527841,24.889210,0.998262,0.980823,0.005755,0.332081,-0.000005,-0.000052,0.000020,0.000002,-0.000059,20.700791,0.000067,
2056,2368,-4.35918082731205,-6.03947369271642,-0.0155206933793579,0.003348,0.000680,-0.003519,0.164008,0.042940,325.893968,24.563744,0.998739,0.983868,0.005084,0.373577,-0.000019,-0.000019,0.000004,-0.000015,-0.000023,45.979042,0.000039,
2011,2143,-5.30423134969847,-10.9613079021897,0.00368929645520666,0.003453,0.000623,-0.001366,0.162400,0.047093,329.938092,24.863968,0.998151,0.979511,0.005838,0.371361,-0.000009,0.000019,0.000021,0.000030,-0.000020,62.415649,0.000031,
2116,2608,-3.09250628588808,-0.803984241381677,-0.0235299652829326,0.003316,0.000079,-0.003343,0.162509,0.007847,321.648404,24.330910,0.999296,0.988153,0.004424,0.445569,-0.000016,-0.000007,0.000006,-0.000004,-0.000020,62.660487,0.000025,
2461,2923,4.35318043898556,6.0698285889666,-0.0190027862138891,0.002497,-0.000516,0.002020,0.106932,-0.012689,316.095633,25.239814,0.999322,0.989311,0.004174,0.309282,-0.000011,-0.000011,0.000005,-0.000006,-0.000016,44.185348,0.000022,
2101,2548,-3.41031221746108,-2.11188089258921,-0.0357889025948452,0.003138,-0.000715,0.002155,0.137866,-0.000796,322.562139,24.248812,0.999673,0.993671,0.003578,0.526078,-0.000021,-0.000007,0.000008,-0.000004,-0.000025,65.358140,0.000031,
2116,2668,-3.10364462300396,0.504763845771805,-0.0376171679044432,0.002992,0.000093,0.000161,0.137257,0.013507,320.533102,24.400930,0.999586,0.990966,0.003737,0.397528,-0.000017,-0.000007,-0.000001,-0.000006,-0.000017,-82.741330,0.000024,
2431,2743,3.73608262932298,2.14896122031464,-0.0201224016183801,0.002772,-0.000695,0.003164,0.115303,-0.011453,318.977374,24.500481,0.999628,0.990396,0.003818,0.390192,-0.000010,0.000002,-0.000014,0.000011,-0.000019,-56.771123,0.000019,
2206,3058,-1.21144212292906,8.9827667989467,0.0136048186990365,0.002862,-0.000186,0.001536,0.126967,0.006351,314.276241,24.808591,0.999771,0.994397,0.003127,0.371799,-0.000009,-0.000017,-0.000009,-0.000003,-0.000024,-33.123973,0.000029,
2041,2308,-4.67619153034293,-7.35329943749384,0.00435896693431914,0.002891,-0.000452,0.003630,0.122642,0.020129,327.071013,24.585080,0.999762,0.991315,0.004140,0.401787,-0.000010,0.000028,0.000009,0.000030,-0.000012,77.309417,0.000030,
2251,3298,-0.277339333512916,14.189964423015,0.00974211536430403,0.003170,-0.000029,-0.002151,0.153181,-0.013608,310.231796,25.313230,0.999334,0.990978,0.003730,0.353988,-0.000018,0.000026,-0.000015,0.000031,-0.000023,-72.908526,0.000032,
2296,2113,0.914745948326487,-11.6247772686632,0.0143501598744251,0.002759,-0.000075,0.002407,0.118250,0.018569,329.427664,23.181098,0.999218,0.980087,0.005392,0.374725,-0.000021,-0.000002,-0.000013,0.000004,-0.000027,-62.854273,0.000029,
2281,2098,0.590005342958762,-11.9534677107563,0.0172636882332995,0.002566,-0.000388,0.001980,0.110770,-0.002877,329.701396,23.292012,0.998779,0.978909,0.005637,0.299739,-0.000018,0.000007,-0.000006,0.000008,-0.000019,-77.693625,0.000019,
2131,2668,-2.77403190556871,0.499850079090514,0.00298140802328817,0.003623,0.000225,-0.005268,0.182575,-0.000061,320.853643,24.245606,0.999666,0.991226,0.003774,0.532255,-0.000013,-0.000003,-0.000001,-0.000003,-0.000014,-82.094367,0.000017,
2086,2518,-3.73027204124551,-2.76687898080016,-0.0147543056968402,0.002807,0.000241,-0.004557,0.142322,0.005512,323.300107,24.400985,0.999442,0.990992,0.003905,0.403260,-0.000025,-0.000003,0.000013,0.000003,-0.000031,64.191944,0.000034,
2236,3208,-0.585045494107682,12.2369755474816,0.0390839202112261,0.002761,0.000107,-0.000329,0.128433,0.014534,311.961097,25.113881,0.999498,0.992492,0.003553,0.376831,-0.000023,-0.000012,-0.000011,-0.000005,-0.000029,-58.706675,0.000037,
2026,2233,-4.9920813158623,-8.99154160838852,0.00112373023375767,0.002555,-0.000281,0.003510,0.107683,0.025441,328.324089,24.775443,0.999414,0.985418,0.004767,0.313233,-0.000015,0.000055,0.000006,0.000056,-0.000015,85.400281,0.000058,
2506,3163,5.28693848615741,11.2851537654277,0.018982477528084,0.002837,-0.000323,0.001348,0.125015,-0.020538,312.616098,26.230543,0.999639,0.991931,0.003497,0.366961,0.000000,-0.000010,0.000016,0.000012,-0.000022,35.901630,0.000022,
2326,2203,1.55360120655887,-9.65240128575049,0.0146519424605458,0.002840,0.000067,-0.001991,0.136970,0.003243,327.980092,23.252403,0.999119,0.981758,0.005433,0.334345,-0.000026,-0.000010,-0.000010,-0.000005,-0.000031,-64.704958,0.000039,
2236,3163,-0.578011329923026,11.2619351595453,0.0232158859876677,0.002934,0.000026,-0.000090,0.135553,0.010341,312.571957,25.020405,0.999426,0.990431,0.003864,0.406626,-0.000024,-0.000002,-0.000009,0.000002,-0.000028,-70.332824,0.000031,
2281,2053,0.598365555185911,-12.9403032078094,0.0136673060660542,0.003095,0.000045,0.001435,0.136928,0.033020,330.421310,23.156497,0.999159,0.982243,0.005188,0.378258,-0.000016,0.000002,-0.000003,0.000002,-0.000017,-80.740518,0.000018,
2491,3043,4.98344657250948,8.68025735966349,-0.00701609153009031,0.003157,-0.000091,0.000607,0.142798,0.013200,314.340346,25.765649,0.999756,0.993046,0.003505,0.336773,-0.000003,0.000017,0.000008,0.000020,-0.000006,70.060025,0.000020,
2086,2473,-3.72385594237373,-3.74764546644471,-0.0170260116051395,0.002884,-0.000296,0.004279,0.120201,0.026028,323.985597,24.426779,0.999351,0.988703,0.004401,0.397664,-0.000026,-0.000032,-0.000006,-0.000022,-0.000036,-32.081054,0.000058,
2176,2968,-1.84753997122335,7.02735467173268,0.00140843163643467,0.003161,-0.000434,-0.000210,0.146107,-0.018267,315.755642,24.619715,0.999361,0.991734,0.003674,0.364480,-0.000009,0.000007,0.000002,0.000007,-0.000009,84.381471,0.000009,
2041,2278,-4.67112225389515,-8.00821774446802,0.00375518621723359,0.003238,0.000167,-0.001026,0.151654,0.022539,327.576950,24.661753,0.999804,0.992231,0.004025,0.338146,-0.000028,0.000025,0.000005,0.000025,-0.000028,84.531899,0.000031,
2176,2908,-1.83871561918124,5.72445987817051,-0.00790656477732909,0.002544,-0.000572,0.001674,0.111771,-0.016925,316.621041,24.545258,0.999572,0.992121,0.003617,0.393468,-0.000007,-0.000009,0.000002,-0.000006,-0.000011,33.818841,0.000017,
2056,2323,-4.35073099437777,-7.02497510015736,0.00465313616001595,0.003508,0.000983,-0.007010,0.181211,0.033070,326.804335,24.557224,0.999277,0.984372,0.004829,0.380028,-0.000017,-0.000009,0.000003,-0.000008,-0.000018,69.169217,0.000027,
2446,2833,4.04539314967932,4.11187671154465,-0.0238288572874126,0.003117,0.000366,-0.003600,0.156809,0.026460,317.544654,24.948254,0.999733,0.992161,0.003543,0.297947,-0.000016,-0.000022,-0.000011,-0.000007,-0.000031,-38.163961,0.000040,
2116,2683,-3.10582095494378,0.830158254261804,-0.0332859287190104,0.003015,-0.000212,0.001111,0.135423,0.005684,320.324827,24.340650,0.999574,0.992279,0.003504,0.453665,-0.000019,-0.000007,-0.000004,-0.000006,-0.000020,-74.346757,0.000027,
2191,3013,-1.52954663615357,8.00456471635439,0.0121331947567569,0.002692,-0.000287,0.002272,0.116806,-0.005075,315.033448,24.680890,0.999462,0.991099,0.003819,0.395918,-0.000009,0.000003,-0.000003,0.000004,-0.000010,-77.829858,0.000010,
2161,2893,-2.16201891124368,5.39896245310166,-0.0173920405713375,0.002977,-0.000312,0.000723,0.134795,-0.003303,316.861427,24.543380,0.999605,0.992347,0.003578,0.370446,-0.000011,-0.000004,0.000002,-0.000004,-0.000011,77.687179,0.000015,
2416,2668,3.42438508028581,0.514861573584682,-0.019181712629063,0.002899,-0.000254,0.002670,0.123223,0.016233,320.192100,24.340251,0.999427,0.988406,0.004378,0.333406,-0.000014,-0.000019,-0.000015,-0.000001,-0.000032,-40.509471,0.000038,
2386,2533,2.79730859547021,-2.43170131670715,-0.0204216523667355,0.002935,0.000524,-0.002493,0.143887,0.054513,322.365680,23.870994,0.999522,0.988698,0.004380,0.458457,-0.000005,-0.000012,0.000006,-0.000001,-0.000015,29.183417,0.000019,
2401,2608,3.10949392250143,-0.794887417916051,-0.0186680075573236,0.002675,0.000050,-0.001887,0.129681,0.016934,321.161537,24.100968,0.999486,0.988979,0.004136,0.395672,-0.000006,-0.000015,-0.000002,-0.000005,-0.000015,-14.651359,0.000021,
2296,2098,0.917799926204982,-11.9540375524886,0.0216485215410671,0.002720,-0.000708,0.004508,0.109140,0.005598,329.720779,23.214121,0.999229,0.980756,0.005360,0.295419,-0.000021,0.000006,-0.000014,0.000012,-0.000027,-66.703694,0.000027,
2266,2038,0.274245634606917,-13.2700286849418,0.0264971163866221,0.002862,0.000257,0.000374,0.129913,0.026119,330.781880,23.293442,0.999005,0.980557,0.005531,0.302026,-0.000012,-0.000011,-0.000002,-0.000010,-0.000014,-50.612670,0.000024,
2371,2458,2.4852071162749,-4.07146525350447,-0.008899133608395,0.002833,-0.000455,0.001506,0.124419,-0.012262,323.650592,23.718769,0.999174,0.985663,0.004772,0.358512,-0.000006,-0.000011,0.000015,0.000007,-0.000024,39.796741,0.000025,
2341,2278,1.8652841246868,-8.00894658546123,-0.000395638714508095,0.002392,0.000004,-0.000421,0.111091,0.014889,326.614880,23.305878,0.998959,0.983311,0.005124,0.413017,-0.000025,-0.000037,-0.000015,-0.000015,-0.000047,-34.104472,0.000065,
2116,2623,-3.09589046895509,-0.475906257234342,-0.0338168520700037,0.003098,-0.000023,-0.002085,0.148737,0.002509,321.305594,24.371553,0.999203,0.985384,0.004790,0.403977,-0.000014,-0.000015,0.000002,-0.000013,-0.000017,40.682612,0.000030,
2476,2998,4.6660014243308,7.70009904533498,-0.00472260152656645,0.002861,-0.000466,0.002064,0.123477,-0.003282,315.039572,25.490487,0.999367,0.989606,0.003978,0.379090,0.000004,-0.000002,0.000012,0.000013,-0.000011,37.395141,0.000014,
2086,2533,-3.73271372509007,-2.43981672460128,-0.0136077690295338,0.002893,-0.000109,-0.000638,0.134878,0.008257,323.059807,24.408607,0.999606,0.991965,0.003823,0.398461,-0.000030,-0.000008,0.000013,-0.000002,-0.000036,65.045845,0.000043,
2191,3043,-1.53405584186945,8.65649133027639,0.0180653454377762,0.002789,-0.000324,-0.000022,0.128545,0.005961,314.604663,24.804651,0.999714,0.994421,0.003284,0.310319,-0.000006,-0.000011,-0.000007,-0.000001,-0.000016,-36.308213,0.000019,
2071,2443,-4.04405106538677,-4.40391257825895,-0.00358721634307813,0.003114,0.000081,-0.000431,0.144424,-0.001155,324.683909,24.485527,0.999276,0.987490,0.004447,0.349424,-0.000029,-0.000044,-0.000001,-0.000028,-0.000045,-5.276423,0.000074,
2011,2128,-5.30191252639252,-11.2900354555738,0.0109347258986077,0.003312,0.000169,0.000779,0.150025,0.021096,330.226479,24.950483,0.998457,0.980390,0.005799,0.267440,-0.000012,-0.000026,0.000018,0.000000,-0.000038,34.313216,0.000043,
2236,3268,-0.597193930877033,13.5377364966368,0.01503571140438,0.002927,-0.000276,-0.001379,0.139372,-0.011541,310.787331,25.128935,0.999471,0.992926,0.003469,0.414540,-0.000023,0.000010,-0.000011,0.000013,-0.000026,-73.230065,0.000026,
2281,2068,0.596575699156944,-12.6107478225799,0.0190694572396524,0.003354,0.000679,-0.001871,0.160081,0.035532,330.247708,23.284003,0.999151,0.982883,0.005073,0.283873,-0.000017,0.000003,-0.000001,0.000003,-0.000017,-88.375231,0.000019,
2086,2488,-3.72589509261376,-3.42090306387846,-0.0186845074347843,0.003033,0.000022,0.000175,0.138988,0.019792,323.748569,24.374304,0.999288,0.989227,0.004278,0.444106,-0.000025,-0.000029,-0.000007,-0.000020,-0.000034,-34.812119,0.000055,
2461,2938,4.35097728628438,6.39602066952322,-0.0202446632958981,0.003002,-0.000203,-0.003021,0.149263,-0.013983,315.882441,25.280475,0.999425,0.990773,0.004037,0.321096,-0.000010,-0.000016,0.000002,-0.000009,-0.000016,15.590260,0.000026,
2221,3133,-0.898005787066023,10.6093873199612,0.025140077433548,0.003046,-0.000141,0.000847,0.137598,-0.001112,313.117751,24.875279,0.999619,0.992562,0.003576,0.438293,-0.000030,-0.000015,-0.000014,-0.000006,-0.000038,-58.992507,0.000048,
2206,3118,-1.22059034096677,10.2832260628994,0.0278975784530644,0.003143,-0.000357,0.001139,0.141147,-0.004059,313.430138,24.851949,0.999515,0.992307,0.003660,0.380444,-0.000021,-0.000015,-0.000013,-0.000004,-0.000032,-52.145047,0.000039,
2506,3178,5.28471776543094,11.6106501476017,0.0272606025283153,0.002956,-0.000304,0.000756,0.132873,-0.006668,312.447076,26.312361,0.999669,0.992374,0.003477,0.359009,-0.000004,-0.000009,0.000017,0.000010,-0.000023,40.061117,0.000023,
2161,2833,-2.1515278182785,4.09442802047238,-0.0141145268898981,0.003063,-0.000052,-0.000939,0.143904,0.001115,317.874195,24.487530,0.999629,0.993638,0.003378,0.391584,-0.000015,-0.000010,0.000001,-0.000010,-0.000015,84.054559,0.000025,
2026,2248,-4.99398984928947,-8.66494723994604,0.00101922156233059,0.002758,-0.000346,0.002000,0.121104,-0.000711,328.096453,24.660719,0.999418,0.986686,0.004566,0.394264,-0.000017,0.000056,-0.000005,0.000056,-0.000018,-85.932541,0.000057,
2131,2743,-2.78895423682053,2.13649512073879,-0.0243265843658378,0.003050,0.000228,-0.000788,0.142852,0.011485,319.368092,24.418232,0.999420,0.990129,0.004033,0.401372,-0.000013,-0.000020,-0.000002,-0.000012,-0.000021,-16.774690,0.000033,
2011,2158,-5.30743685791897,-10.6325031010458,0.00460478643151419,0.002537,-0.000268,0.001564,0.112220,-0.000505,329.655229,24.951255,0.998394,0.978997,0.005923,0.227640,-0.000023,-0.000009,-0.000009,-0.000005,-0.000028,-63.570605,0.000035,
2311,2143,1.23783177240864,-10.9679143305648,0.0286518883477811,0.002884,-0.000478,0.004121,0.117908,0.012190,329.051925,23.260802,0.999317,0.984007,0.005128,0.269849,-0.000019,-0.000006,-0.000014,0.000003,-0.000028,-57.582194,0.000030,
2221,3193,-0.907605994338414,11.9101451307358,0.0365259626323109,0.003091,-0.000179,-0.000965,0.145572,0.002036,312.239217,24.986717,0.999499,0.992555,0.003509,0.400602,-0.000025,-0.000013,-0.000011,-0.000007,-0.000032,-58.578669,0.000041,
2266,1993,0.281813436197339,-14.258353124285,0.0276860427106271,0.002599,-0.000134,0.003290,0.108068,0.032496,331.493155,23.173997,0.999173,0.966231,0.007097,0.340389,0.000010,-0.000003,-0.000028,0.000033,-0.000025,-38.686593,0.000034,
2281,2113,0.587656660631403,-11.6247304762574,0.0143299543544231,0.002862,0.000192,-0.001406,0.135864,0.001635,329.460799,23.267208,0.998907,0.979450,0.005515,0.360045,-0.000018,0.000000,-0.000005,0.000002,-0.000019,-75.111288,0.000021,
2206,3073,-1.21356921745641,9.3077608487663,0.0165494926832253,0.002962,-0.000253,-0.001033,0.139735,-0.003128,314.068876,24.805894,0.999683,0.993031,0.003355,0.380594,-0.000011,-0.000013,-0.000009,-0.000003,-0.000021,-42.609601,0.000026,
2146,2713,-2.45912202852574,1.48521937364269,-0.0338296756930276,0.002797,-0.000216,0.000899,0.125979,0.005975,319.697312,24.424851,0.999527,0.991504,0.003869,0.378164,-0.000010,-0.000010,-0.000005,-0.000005,-0.000015,-42.817996,0.000021,
2416,2683,3.42166340867056,0.841300838212135,-0.0198170895258727,0.002940,0.000023,-0.000205,0.135726,0.003576,319.955550,24.343139,0.999380,0.986477,0.004677,0.366058,-0.000014,-0.000003,-0.000010,0.000003,-0.000020,-58.878913,0.000022,
2131,2683,-2.77808727657473,0.828996272315976,-0.0102888240643324,0.003189,-0.000116,-0.000768,0.149067,0.009095,320.465312,24.365126,0.999573,0.991034,0.003724,0.428295,-0.000014,-0.000002,-0.000003,-0.000001,-0.000015,-76.444077,0.000018,
2116,2698,-3.10784146508254,1.15674140464919,-0.0226428369069822,0.002944,-0.000514,0.004376,0.122418,0.007282,320.157241,24.435495,0.999492,0.990800,0.003774,0.363758,-0.000015,-0.000010,0.000001,-0.000010,-0.000015,79.795351,0.000025,
2356,2368,2.17570267066771,-6.03884984672822,-0.00341808384985143,0.002935,0.000181,0.002031,0.127523,0.033753,325.151523,23.522369,0.999230,0.985056,0.004801,0.396186,-0.000011,-0.000026,0.000009,-0.000007,-0.000031,25.362643,0.000040,
2236,3223,-0.588504699565856,12.5624725347142,0.0359565604045997,0.002433,-0.000099,0.003050,0.102227,0.002855,311.662950,25.160754,0.999451,0.991939,0.003743,0.337707,-0.000021,-0.000010,-0.000015,0.000000,-0.000031,-55.937583,0.000036,
2041,2323,-4.67845137637127,-7.02404426322774,-0.00265558489809337,0.003044,0.000293,-0.000642,0.141783,0.020749,326.789762,24.643995,0.999060,0.983270,0.004960,0.337858,-0.000019,0.000000,-0.000005,0.000001,-0.000020,-76.778053,0.000023,
2506,3193,5.2817413964988,11.9356797169976,0.028518344504846,0.002992,-0.000415,0.001112,0.133055,-0.020728,312.211790,26.340610,0.999684,0.992550,0.003455,0.376444,-0.000006,0.000004,0.000016,0.000015,-0.000018,53.431665,0.000019,
2446,2848,4.04310938442216,4.4361503386631,-0.0155686644987441,0.003177,0.000309,-0.003221,0.158114,0.019730,317.371354,24.862878,0.999663,0.991623,0.003545,0.428463,-0.000019,-0.000021,-0.000017,-0.000002,-0.000037,-43.247778,0.000044,
2041,2353,-4.68324704919563,-6.36878978771093,-0.00911756908209327,0.003186,-0.000250,0.000233,0.145721,0.016462,326.257267,24.562106,0.998944,0.984345,0.005005,0.404471,-0.000028,-0.000023,-0.000004,-0.000021,-0.000029,-62.231606,0.000050,
2101,2563,-3.41221170338673,-1.78403017796683,-0.029124772506691,0.003133,-0.000214,0.001119,0.140807,0.008094,322.377364,24.382127,0.999233,0.989302,0.004268,0.403618,-0.000022,-0.000014,0.000004,-0.000013,-0.000024,67.787246,0.000037,
2101,2593,-3.41661847887613,-1.13136274771219,-0.0167375397348337,0.002798,-0.000082,0.002662,0.120949,0.012129,321.975787,24.387938,0.999222,0.988623,0.004316,0.405682,-0.000025,-0.000004,0.000006,-0.000003,-0.000027,74.735022,0.000033,
2176,2983,-1.85096556021674,7.35341911250353,-0.00251956592887836,0.002742,-0.000679,0.002529,0.118273,-0.010276,315.450341,24.628350,0.999191,0.992085,0.003696,0.375592,-0.000008,0.000012,0.000003,0.000013,-0.000009,81.401291,0.000013,
2461,2953,4.34828349489159,6.72141983189471,-0.0125398431858912,0.002954,-0.000430,0.000135,0.135073,-0.008116,315.687773,25.308004,0.999495,0.990990,0.003888,0.353359,-0.000007,-0.000023,0.000007,-0.000005,-0.000026,19.841952,0.000033,
2176,2923,-1.84129436279502,6.05178454884594,-0.0124465736180923,0.002925,0.000008,0.003177,0.124920,0.024522,316.351014,24.614721,0.999099,0.987384,0.004381,0.377415,-0.000007,-0.000005,0.000004,-0.000003,-0.000010,51.683506,0.000013,
2431,2758,3.73323165414689,2.47631081737519,-0.0212492435189233,0.002826,-0.000054,0.001202,0.125343,0.013331,318.733135,24.568923,0.999607,0.988771,0.004003,0.396633,-0.000006,0.000002,-0.000014,0.000013,-0.000017,-52.481070,0.000017,
2071,2413,-4.04011480273995,-5.05926863410117,-0.00334538537958906,0.002660,-0.000521,0.003597,0.111891,0.006730,325.137694,24.432638,0.998811,0.984821,0.004875,0.413911,-0.000024,-0.000036,-0.000010,-0.000018,-0.000041,-28.708907,0.000061,
2011,2203,-5.31313977936015,-9.64772926347798,-0.00621294733548439,0.003816,-0.000019,-0.001050,0.178109,0.012614,328.909062,24.796839,0.999624,0.992028,0.004054,0.367409,-0.000018,0.000034,-0.000004,0.000034,-0.000019,-85.980531,0.000034,
2026,2203,-4.9873279918468,-9.64815394382266,-0.0066804080376528,0.002897,0.000189,-0.004357,0.145072,-0.025827,328.778864,24.727389,0.999132,0.985041,0.004970,0.324728,-0.000006,0.000031,0.000011,0.000034,-0.000009,74.292294,0.000036,
2056,2338,-4.35395870666641,-6.69658349120551,-0.00280669883187556,0.003218,0.000466,-0.003726,0.158515,0.029955,326.478111,24.542679,0.999056,0.985094,0.004801,0.388317,-0.000023,-0.000022,0.000001,-0.000022,-0.000024,59.964049,0.000046,
2191,3058,-1.53667193769756,8.98087377614544,0.0170711790079281,0.002843,-0.000242,0.000294,0.130028,-0.004792,314.353558,24.717019,0.999797,0.995367,0.003054,0.400833,-0.000005,-0.000018,-0.000007,-0.000002,-0.000021,-23.318173,0.000025,
2086,2548,-3.73511502772677,-2.11354577435125,-0.0150471916010702,0.003250,-0.000684,0.004383,0.136638,-0.001980,322.807562,24.338393,0.999409,0.990818,0.004018,0.458635,-0.000027,-0.000009,0.000012,-0.000003,-0.000033,63.023184,0.000040,
2011,2173,-5.3092116877556,-10.3059718837093,0.0115745153486273,0.002644,-0.000660,0.003889,0.110728,-0.002145,329.471750,24.854601,0.998897,0.985724,0.005114,0.313046,-0.000023,-0.000021,-0.000009,-0.000013,-0.000032,-48.119859,0.000046,
2146,2758,-2.46562881425615,2.46340734770418,-0.0210819629821799,0.002935,-0.000227,0.001664,0.129996,0.006483,319.077600,24.452791,0.999394,0.990339,0.003936,0.374588,-0.000014,-0.000021,-0.000007,-0.000009,-0.000026,-31.293796,0.000036,
2266,2053,0.270925311138019,-12.9409195270807,0.0216360417779811,0.002649,-0.000056,0.001811,0.115329,0.016829,330.485988,23.271587,0.998923,0.979452,0.005532,0.343891,-0.000014,0.000002,0.000000,0.000002,-0.000014,88.399810,0.000016,
2491,3058,4.98134566236054,9.0044747374515,0.00349329180801305,0.003104,-0.000404,-0.000997,0.146331,-0.014946,314.187158,25.760767,0.999676,0.991569,0.003855,0.371421,-0.000001,0.000007,0.000009,0.000012,-0.000007,56.962723,0.000012,
2296,2173,0.903739096108712,-10.3093446349619,0.00637755539480622,0.002900,0.000152,-0.001702,0.138650,0.022138,328.415250,23.239236,0.999473,0.982158,0.005226,0.451858,-0.000025,-0.000017,-0.000022,0.000001,-0.000043,-49.919238,0.000049,
2116,2638,-3.09852444227242,-0.148653887287253,-0.0357554711141006,0.002986,0.000265,-0.002421,0.144662,0.017777,321.042106,24.392526,0.999432,0.988794,0.004117,0.402362,-0.000010,-0.000014,0.000002,-0.000009,-0.000015,20.819720,0.000024,
2476,3013,4.66291930699157,8.02609287754024,-0.00143643370375912,0.002619,-0.000534,0.002862,0.109275,-0.004921,314.807305,25.564217,0.999587,0.991167,0.003639,0.359449,0.000000,0.000005,0.000009,0.000012,-0.000007,51.940842,0.000012,
2056,2383,-4.36247067942282,-5.71199443107932,-0.0189034156090884,0.002698,0.000141,-0.001031,0.127007,0.024526,325.587563,24.538427,0.999290,0.988093,0.004521,0.377043,-0.000024,-0.000019,-0.000008,-0.000013,-0.000029,-53.651089,0.000044,
2506,3208,5.27809753852145,12.2622574905642,0.0222872688772213,0.002864,-0.000421,-0.000131,0.132107,-0.008624,311.911536,26.445957,0.999352,0.991650,0.003733,0.342880,-0.000006,0.000012,0.000015,0.000020,-0.000015,60.609910,0.000021,
2116,2713,-3.11041941615765,1.48298069082736,-0.0222654688554371,0.002683,-0.000568,0.003095,0.114160,-0.012122,319.909131,24.439707,0.999441,0.990001,0.003944,0.344020,-0.000015,-0.000017,-0.000002,-0.000014,-0.000018,-28.122289,0.000032,
2161,2848,-2.15436863255625,4.41926050069316,-0.0131410292116243,0.002932,-0.000772,0.002976,0.125623,-0.023333,317.620919,24.412010,0.999660,0.993751,0.003292,0.452474,-0.000015,-0.000013,0.000003,-0.000011,-0.000017,50.666273,0.000028,
2221,3148,-0.900579793917661,10.9347722812193,0.0275912110795389,0.002868,-0.000324,-0.000197,0.132732,-0.009966,312.888047,24.923190,0.999637,0.992471,0.003484,0.399144,-0.000028,-0.000010,-0.000011,-0.000005,-0.000033,-64.338451,0.000041,
2026,2263,-4.99593441408469,-8.33479637412331,-0.0028485447417097,0.002984,0.000717,-0.002578,0.144400,0.023148,327.845263,24.787573,0.998993,0.982250,0.005051,0.283885,-0.000023,0.000041,-0.000007,0.000042,-0.000023,-84.063647,0.000042,
2416,2698,3.41786096972845,1.16850163617968,-0.0302141657248853,0.002723,0.000153,-0.002626,0.134678,0.001883,319.623402,24.329996,0.999574,0.989780,0.004045,0.425922,-0.000015,0.000003,-0.000007,0.000006,-0.000017,-71.155809,0.000018,
2326,2218,1.55070016162941,-9.3243780224764,0.0146725979015514,0.002940,-0.000371,0.001044,0.130972,-0.007151,327.732610,23.247593,0.998821,0.979025,0.005704,0.365767,-0.000026,-0.000012,-0.000010,-0.000007,-0.000031,-63.465516,0.000040,
2401,2623,3.10675323561972,-0.467562233449833,-0.0181279373557572,0.002953,0.000160,-0.000118,0.136069,0.026966,320.928475,24.153611,0.999360,0.987697,0.004268,0.399357,-0.000009,-0.000011,-0.000008,-0.000002,-0.000018,-40.189220,0.000022,
2206,3088,-1.21603172585355,9.63360938163338,0.020414465971669,0.002984,-0.000410,0.000966,0.134350,-0.003341,313.850549,24.882119,0.999507,0.992199,0.003586,0.319663,-0.000013,-0.000015,-0.000008,-0.000006,-0.000022,-41.277602,0.000029,
2236,3238,-0.591035578235346,12.8868398040343,0.0297493273580471,0.002749,-0.000368,-0.000659,0.128721,-0.019201,311.392123,25.100462,0.999630,0.993804,0.003291,0.396073,-0.000020,-0.000012,-0.000014,-0.000001,-0.000031,-53.187436,0.000037,
2041,2368,-4.68524982263433,-6.04133024901311,-0.00271670268762136,0.003203,-0.000127,0.002881,0.139214,0.038496,326.062290,24.583302,0.998982,0.984641,0.004958,0.399362,-0.000017,-0.000015,-0.000002,-0.000013,-0.000019,-59.998286,0.000032,
2461,2968,4.34573300802012,7.04675922827488,-0.00445346330360508,0.002978,-0.000614,0.002825,0.126024,-0.000359,315.501403,25.333853,0.999526,0.990396,0.003950,0.389001,-0.000010,-0.000017,0.000006,-0.000006,-0.000021,29.991965,0.000028,
2386,2548,2.79486495281505,-2.10584682149278,-0.00906843896802911,0.002832,-0.000412,0.001845,0.123168,-0.001421,322.197156,23.927066,0.999394,0.988230,0.004500,0.390007,-0.000005,-0.000017,0.000000,-0.000005,-0.000017,-0.514382,0.000023,
2476,3028,4.66029959054083,8.35172893398923,0.00381022235984574,0.002675,-0.000586,0.003679,0.108779,-0.001177,314.605276,25.616178,0.999720,0.992382,0.003479,0.366967,-0.000004,0.000014,0.000006,0.000016,-0.000006,72.766473,0.000016,
2011,2218,-5.31542491467428,-9.32018217574389,0.0014575571574369,0.003362,-0.000230,0.000885,0.151971,0.014561,328.706071,24.811637,0.999137,0.987609,0.004728,0.345023,-0.000023,0.000049,-0.000004,0.000049,-0.000023,-86.832217,0.000049,
2071,2428,-4.04204421543325,-4.73120661879911,-0.00190842011096493,0.002932,-0.000335,0.003209,0.125563,0.013985,324.920942,24.495232,0.998981,0.986254,0.004534,0.356485,-0.000025,-0.000045,0.000004,-0.000024,-0.000046,10.745741,0.000071,
2296,2128,0.912510390870388,-11.2963395182686,0.018177772253182,0.002694,-0.000020,-0.001122,0.127186,0.000533,329.227119,23.230594,0.999097,0.981106,0.005327,0.339981,-0.000019,0.000002,-0.000019,0.000013,-0.000030,-59.310062,0.000030,
2311,2158,1.23496975572396,-10.6399918985404,0.0282707226173784,0.002915,-0.000556,0.005819,0.113512,0.015669,328.803121,23.206333,0.999339,0.985733,0.005034,0.362901,-0.000024,-0.000010,-0.000018,0.000002,-0.000037,-55.006801,0.000041,
2131,2758,-2.79205400130788,2.46308814057055,-0.0228554725499066,0.002625,-0.000435,0.003981,0.108810,-0.000737,319.102900,24.470311,0.999472,0.991134,0.003824,0.342793,-0.000014,-0.000022,-0.000004,-0.000013,-0.000024,-20.136297,0.000037,
2176,2938,-1.84321497425149,6.3770680134694,-0.00816960013742118,0.003058,-0.000120,0.000142,0.140403,0.007131,316.158148,24.622130,0.999315,0.990029,0.003957,0.364419,-0.000010,-0.000004,0.000002,-0.000004,-0.000010,72.918754,0.000014,
2506,3223,5.27469048248809,12.5874607312984,0.0248973294678763,0.002547,-0.000392,0.002494,0.107334,-0.003747,311.662209,26.486934,0.999479,0.991583,0.003768,0.366486,-0.000005,-0.000017,0.000013,0.000003,-0.000025,32.823304,0.000027,
2491,3073,4.97796194115827,9.32966011474578,0.00462224721741222,0.002886,-0.000601,0.001307,0.127372,-0.018628,313.932126,25.763089,0.999634,0.991090,0.003899,0.423387,0.000006,0.000009,0.000012,0.000020,-0.000005,49.288107,0.000021,
2266,2068,0.268571260898231,-12.610578973222,0.0207741007947106,0.002895,0.000663,0.000129,0.132371,0.056073,330.253840,23.363854,0.999176,0.981845,0.005198,0.319855,-0.000015,0.000002,0.000002,0.000002,-0.000015,82.312821,0.000017,
2221,3208,-0.910184520415111,12.2357753490361,0.0396615353861307,0.002905,0.000181,-0.001438,0.138706,0.019755,312.012654,25.048615,0.999346,0.991928,0.003716,0.374128,-0.000024,-0.000013,-0.000010,-0.000007,-0.000030,-58.983050,0.000039,
2041,2338,-4.68105013470057,-6.69754987412409,0.0026593883227406,0.002780,-0.000806,0.006179,0.110378,-0.003655,326.561927,24.603076,0.999203,0.986930,0.004490,0.348771,-0.000028,-0.000019,-0.000011,-0.000011,-0.000035,-55.022709,0.000049,
2281,2128,0.585575258666797,-11.2963270937838,0.0224875539412892,0.002931,0.000357,-0.000549,0.136212,0.026027,329.287453,23.317822,0.998572,0.978252,0.005590,0.364173,-0.000016,0.000005,-0.000011,0.000010,-0.000021,-66.721686,0.000021,
2086,2503,-3.72835990755989,-3.09362750853315,-0.0176568424524817,0.002827,0.000109,-0.000216,0.130691,0.021826,323.506498,24.391895,0.999133,0.989395,0.004124,0.428879,-0.000021,-0.000006,0.000001,-0.000006,-0.000021,86.955054,0.000029,
2341,2293,1.86283452979787,-7.6795438242623,0.000405414553029004,0.002782,0.000487,0.000747,0.125111,0.048656,326.392464,23.418084,0.998981,0.985177,0.004854,0.373387,-0.000024,-0.000041,-0.000009,-0.000020,-0.000045,-23.960357,0.000066,
2416,2713,3.4162797453776,1.49448367365193,-0.0222111801714391,0.003301,0.000011,-0.004430,0.167783,-0.003352,319.479629,24.363352,0.999686,0.990919,0.003802,0.434943,-0.000015,0.000010,-0.000012,0.000015,-0.000020,-68.296740,0.000021,
2266,2008,0.280316395414694,-13.9288864896066,0.0311738937857058,0.003105,0.000572,-0.002167,0.149474,0.043026,331.322329,23.241831,0.999178,0.982508,0.005347,0.311923,0.000000,-0.000022,-0.000013,0.000006,-0.000028,-25.120681,0.000030,
2161,2908,-2.16372407447184,5.72398650975727,-0.011637484027176,0.003210,-0.000027,-0.002178,0.154560,0.002734,316.685340,24.506404,0.999589,0.991257,0.003744,0.423099,-0.000007,-0.000011,-0.000001,-0.000007,-0.000011,-12.699536,0.000019,
2236,3283,-0.600426126038094,13.8637765496831,0.0101907400573396,0.002788,0.000012,-0.000328,0.129596,-0.007495,310.490462,25.218359,0.999333,0.992590,0.003567,0.348516,-0.000027,0.000018,-0.000014,0.000022,-0.000031,-74.112351,0.000032,
2026,2278,-4.99765658113042,-8.00789557062628,-0.0035370125733607,0.003262,0.000775,-0.006643,0.168315,-0.003266,327.622865,24.705726,0.998534,0.983164,0.005258,0.331841,-0.000014,0.000034,-0.000008,0.000036,-0.000016,-80.863045,0.000036,
2446,2863,4.04021809394093,4.76176197622952,-0.0108843225378905,0.002957,-0.000041,-0.002511,0.145225,0.001012,317.153233,24.889341,0.999770,0.993403,0.003254,0.435141,-0.000021,-0.000012,-0.000017,0.000001,-0.000034,-52.361861,0.000039,
2116,2728,-3.11284770780582,1.81017927828125,-0.0290323770389591,0.002918,0.000175,0.000000,0.134432,0.021484,319.629083,24.426181,0.999406,0.989557,0.004053,0.394960,-0.000019,-0.000024,0.000000,-0.000019,-0.000024,-4.347042,0.000043,
2131,2698,-2.78157869293114,1.15683399780997,-0.02328933713585,0.003104,-0.000277,0.000782,0.140440,0.006385,320.104613,24.385052,0.999594,0.990368,0.003788,0.411853,-0.000010,-0.000005,0.000001,-0.000005,-0.000011,80.204295,0.000016,
2371,2473,2.48257031779884,-3.74462038136513,-0.00245916008861968,0.002725,-0.000544,0.003664,0.111774,0.002457,323.448780,23.728563,0.999449,0.987553,0.004414,0.405781,-0.000007,-0.000016,0.000016,0.000004,-0.000028,37.219683,0.000030,
2071,2458,-4.04647890261874,-4.07721919388776,-0.00623885677828184,0.003112,-0.000145,-0.001266,0.146652,-0.005486,324.422421,24.406302,0.999528,0.989361,0.004254,0.422748,-0.000030,-0.000044,-0.000015,-0.000021,-0.000054,-32.034334,0.000077,
2026,2398,-5.01584959864893,-5.38698167899028,-0.00451247815215083,0.003259,0.000009,-0.000105,0.150149,0.000077,325.665709,24.588527,0.999454,0.989732,0.003983,0.389373,-0.000014,-0.000039,-0.000031,0.000007,-0.000060,-33.814829,0.000066,
2101,2608,-3.41874173102767,-0.80490083591949,-0.0158510511417376,0.002808,-0.000118,-0.000415,0.130393,0.003042,321.750020,24.373798,0.999026,0.986611,0.004641,0.412557,-0.000022,-0.000007,0.000007,-0.000005,-0.000024,68.917688,0.000031,
2206,3133,-1.22292165127607,10.6085203974933,0.0323542844888607,0.003081,-0.000158,0.000600,0.140089,0.005829,313.221055,24.880918,0.999617,0.993923,0.003380,0.377151,-0.000023,-0.000016,-0.000012,-0.000007,-0.000033,-52.962745,0.000042,
2101,2578,-3.41430373332544,-1.45854285906518,-0.0182780928407169,0.002793,-0.000162,0.002174,0.122125,0.011514,322.207017,24.344778,0.999233,0.988491,0.004298,0.446122,-0.000028,-0.000018,0.000000,-0.000018,-0.000028,87.104490,0.000046,
2491,3088,4.97535865585749,9.65604384421488,0.0104486245899125,0.002800,-0.000192,0.000551,0.126570,0.004750,313.733827,25.882481,0.999538,0.990933,0.003740,0.385188,0.000010,0.000009,0.000019,0.000029,-0.000010,44.491121,0.000029,
2416,2728,3.41249839028619,1.8218917104119,-0.0281189859821893,0.003028,0.000002,-0.003353,0.151315,-0.012284,319.169264,24.423330,0.999637,0.990685,0.003848,0.414352,-0.000015,0.000004,-0.000011,0.000009,-0.000020,-65.624829,0.000020,
2161,2863,-2.15767777448702,4.74699634827211,-0.0190692514794932,0.002612,-0.000790,0.004002,0.107743,-0.020775,317.308796,24.529473,0.999451,0.991526,0.003615,0.347528,-0.000012,-0.000014,0.000002,-0.000011,-0.000015,30.126071,0.000026,
2236,3298,-0.603865688691247,14.1889838716132,0.000313267629564962,0.002662,-0.000095,-0.001198,0.126597,-0.010330,310.158556,25.215176,0.999384,0.992429,0.003525,0.368634,-0.000026,0.000028,-0.000017,0.000033,-0.000030,-74.202498,0.000037,
2146,2773,-2.46789636463743,2.79085279376702,-0.0292484061504297,0.003361,0.000378,-0.003350,0.165043,0.027141,318.800188,24.479255,0.999654,0.993319,0.003360,0.376905,-0.000014,-0.000022,-0.000005,-0.000011,-0.000025,-26.456090,0.000036,
2116,2653,-3.10097860415067,0.178291372772613,-0.034845351872832,0.003021,-0.000041,-0.000457,0.140380,0.012469,320.802288,24.434601,0.999548,0.989591,0.003901,0.358781,-0.000015,-0.000006,-0.000001,-0.000006,-0.000015,-81.282610,0.000022,
2041,2383,-4.68789961507767,-5.71434329658672,-0.00413781547121062,0.002833,-0.000447,0.001967,0.124631,-0.005171,325.794891,24.555672,0.999314,0.987779,0.004353,0.377413,-0.000019,-0.000017,-0.000013,-0.000004,-0.000031,-46.649843,0.000039,
2131,2773,-2.79432430121416,2.78915457167639,-0.0244022062993281,0.002709,-0.000214,0.000877,0.122017,-0.002955,318.859743,24.444603,0.999608,0.992414,0.003516,0.371994,-0.000014,-0.000022,-0.000001,-0.000014,-0.000022,-9.512486,0.000036,
2146,2818,-2.47560745678375,3.76909752075088,-0.0242772344093396,0.003040,0.000128,0.000619,0.138225,0.028062,318.083934,24.501834,0.999589,0.992535,0.003542,0.378563,-0.000013,-0.000013,0.000000,-0.000013,-0.000014,46.397978,0.000027,
2161,2923,-2.16661213599758,6.05050821741418,-0.0082654813322165,0.002868,-0.000012,0.001498,0.127573,0.022299,316.441897,24.580254,0.999272,0.988453,0.004218,0.378171,-0.000007,-0.000008,0.000001,-0.000007,-0.000009,36.666545,0.000015,
2191,3028,-1.53253952501268,8.33032903776687,0.00982816927017893,0.002527,-0.000477,0.003534,0.105217,0.002749,314.757744,24.685463,0.999577,0.992262,0.003754,0.412780,-0.000008,-0.000003,-0.000005,0.000000,-0.000011,-59.321871,0.000012,
2026,2293,-5.00072860144233,-7.6797417926345,-0.00208977373853259,0.002622,0.000401,-0.001545,0.124851,0.031199,327.350165,24.704542,0.998664,0.982925,0.005232,0.359893,0.000003,0.000044,0.000002,0.000044,0.000003,87.434414,0.000052,
2311,2173,1.23187786285067,-10.3103067409234,0.0196782121149113,0.002891,-0.000404,0.001473,0.127267,0.008877,328.503332,23.241296,0.999257,0.982083,0.005202,0.356451,-0.000017,-0.000014,-0.000013,-0.000003,-0.000028,-48.074538,0.000035,
2506,3238,5.27164081398475,12.912749009598,0.0210556303538851,0.002865,-0.000196,0.001957,0.124065,-0.007007,311.400296,26.510735,0.999505,0.990965,0.003835,0.399225,-0.000004,-0.000018,0.000012,0.000003,-0.000024,29.884284,0.000027,
2221,3163,-0.902870451557543,11.2600230587904,0.0329381514585521,0.002824,-0.000332,-0.000504,0.131726,-0.000627,312.686296,24.961487,0.999566,0.992324,0.003518,0.387892,-0.000026,-0.000003,-0.000010,0.000000,-0.000029,-69.461164,0.000034,
2446,2878,4.03616270919671,5.08915549191268,-0.0185942251751499,0.002815,-0.000435,0.000916,0.125774,-0.001178,316.823804,24.976103,0.999552,0.991613,0.003629,0.397941,-0.000027,-0.000009,-0.000013,-0.000002,-0.000034,-61.646096,0.000040,
2401,2638,3.10353350949996,-0.140427636458263,-0.0203903420717779,0.002949,-0.000184,0.001324,0.130543,0.010718,320.660252,24.195985,0.999320,0.986574,0.004368,0.386754,-0.000015,-0.000011,-0.000009,-0.000004,-0.000022,-51.097889,0.000028,
2281,2083,0.593223592270647,-12.2826876905945,0.0206564346843265,0.002773,0.000092,0.000968,0.123815,0.014463,329.983959,23.261684,0.999187,0.982002,0.005200,0.316186,-0.000017,0.000013,-0.000002,0.000013,-0.000017,-85.521009,0.000018,
2341,2308,1.86075668212184,-7.35307946463226,0.0123130612831233,0.002888,-0.000778,0.004490,0.116467,0.002605,326.241540,23.457234,0.998286,0.980851,0.005361,0.326445,-0.000021,-0.000044,-0.000006,-0.000020,-0.000045,-14.857321,0.000067,
2011,2188,-5.31297105899533,-9.97392784553435,-0.0149661634192739,0.002433,-0.000305,0.000427,0.110517,-0.018085,329.009297,24.926778,0.999579,0.991517,0.004227,0.216734,-0.000018,0.000031,0.000003,0.000031,-0.000018,86.367794,0.000032,
2296,2188,0.902341275284062,-9.98040834694405,0.0151290655849152,0.003392,0.000644,-0.004192,0.169794,0.022291,328.277056,23.388659,0.999010,0.979468,0.005527,0.334642,-0.000031,-0.000013,-0.000023,0.000003,-0.000046,-55.465861,0.000052,
2491,3103,4.97258386831884,9.98174612889067,0.0134878859415721,0.002780,-0.000019,-0.000138,0.128381,0.009450,313.515166,25.943363,0.999491,0.990072,0.003749,0.386892,0.000006,0.000008,0.000028,0.000035,-0.000021,45.869974,0.000035,
2176,2998,-1.85311129430498,7.6788255841905,0.00376860295745018,0.002679,-0.000435,0.001860,0.117580,0.006842,315.257578,24.641072,0.999415,0.991529,0.003761,0.391503,-0.000009,0.000010,0.000004,0.000011,-0.000010,79.619095,0.000012,
2266,2083,0.264993689984042,-12.2807035014245,0.0134649222276835,0.002676,0.000442,0.002502,0.114497,0.044736,329.933770,23.398983,0.999388,0.983355,0.005035,0.302637,-0.000014,0.000012,0.000000,0.000012,-0.000014,-89.768994,0.000015,
2476,3043,4.65726860965525,8.6781918561122,-9.63552673738377E-06,0.002800,-0.000316,0.001175,0.124212,0.010948,314.342728,25.679795,0.999744,0.992501,0.003500,0.371483,-0.000005,0.000017,0.000007,0.000019,-0.000007,74.211967,0.000019,
2386,2563,2.79136066619779,-1.77730459872154,-0.0137559769765971,0.002684,-0.000322,0.002976,0.112399,0.009916,321.903090,24.024485,0.999430,0.989338,0.004208,0.348456,-0.000010,-0.000022,-0.000005,-0.000008,-0.000024,-20.680433,0.000033,
2416,2743,3.4094483812524,2.1489129206919,-0.0252285169343622,0.002909,-0.000346,-0.000720,0.136086,-0.009026,318.933664,24.510978,0.999530,0.989627,0.003966,0.377658,-0.000013,0.000001,-0.000012,0.000008,-0.000020,-60.403585,0.000020,
2236,3253,-0.593950073768593,13.2122550399275,0.0233937255597425,0.002983,-0.000161,-0.000282,0.138373,-0.010150,311.102461,25.109625,0.999587,0.993517,0.003301,0.415695,-0.000021,-0.000004,-0.000013,0.000003,-0.000028,-62.498976,0.000031,
2326,2233,1.54708968214299,-8.99538485726077,0.0135374322799748,0.002527,-0.000563,0.005442,0.096858,0.013023,327.446682,23.294288,0.998449,0.975481,0.006140,0.376467,-0.000031,-0.000022,-0.000013,-0.000013,-0.000040,-54.298170,0.000055,
2401,2653,3.10056559913548,0.186522444404282,-0.0194918990104043,0.002872,-0.000242,0.001844,0.125127,0.023571,320.418376,24.223801,0.999335,0.987375,0.004407,0.417868,-0.000018,-0.000008,-0.000010,-0.000002,-0.000024,-59.151196,0.000029,
2086,2578,-3.74003140568046,-1.45865330410019,-0.0174263327916151,0.003060,-0.000432,0.002165,0.134401,0.001425,322.299889,24.408641,0.999059,0.988051,0.004437,0.391479,-0.000035,-0.000020,0.000002,-0.000020,-0.000035,83.464677,0.000056,
2431,2773,3.73004265248666,2.80291619562259,-0.0212832191476764,0.002577,-0.000173,0.000750,0.115535,0.011514,318.478581,24.608800,0.999554,0.988812,0.004124,0.404885,-0.000009,-0.000007,-0.000014,0.000006,-0.000022,-46.695528,0.000022,
2266,2203,0.244208678239161,-9.65110429934997,0.00830744205183009,0.003392,0.000070,0.000712,0.153152,0.009405,327.997875,23.553994,0.998592,0.981284,0.005554,0.339635,-0.000027,-0.000011,-0.000015,-0.000002,-0.000036,-59.111611,0.000043,
2296,2143,0.909723619021033,-10.9650742032091,0.0125396924076426,0.003006,0.000005,-0.001837,0.143892,-0.002834,328.954170,23.426653,0.999344,0.982346,0.005267,0.173633,-0.000026,-0.000015,-0.000022,0.000002,-0.000043,-52.531603,0.000049,
2281,2143,0.582745515986023,-10.965934663463,0.0198893534553122,0.003117,-0.000072,0.001155,0.138945,0.021192,329.026281,23.467861,0.999242,0.981925,0.005263,0.240208,-0.000023,-0.000012,-0.000014,-0.000003,-0.000033,-56.147872,0.000040,
2131,2713,-2.78453278588575,1.48422426092667,-0.0277705386347975,0.002849,-0.000071,0.000064,0.130953,0.007635,319.814088,24.435312,0.999478,0.990245,0.003948,0.368919,-0.000010,-0.000012,-0.000001,-0.000009,-0.000012,-29.491717,0.000022,
2041,2473,-4.70204654342209,-3.74886903200631,-0.0157125794778494,0.002858,-0.000240,0.000649,0.129586,0.003434,324.252004,24.524867,0.998618,0.982496,0.005325,0.380525,-0.000011,-0.000040,-0.000012,-0.000007,-0.000045,-20.116397,0.000056,
2461,2983,4.34280368948045,7.37344601985824,-0.0033351985686636,0.002844,-0.000430,0.001160,0.126163,-0.009824,315.265239,25.456371,0.999487,0.990326,0.003943,0.310667,-0.000006,-0.000007,0.000006,-0.000001,-0.000012,40.344254,0.000015,
2491,3118,4.96971525504462,10.3073368109929,0.0143547546396121,0.002908,-0.000131,-0.000127,0.134153,-0.000253,313.282323,25.998386,0.999572,0.990822,0.003633,0.379777,0.000009,0.000020,0.000025,0.000040,-0.000011,51.319588,0.000041,
2086,2563,-3.73696685391052,-1.78624034820145,-0.00985052842264622,0.003049,-0.000330,-0.001624,0.144859,-0.003639,322.616231,24.417579,0.998872,0.987219,0.004625,0.377324,-0.000029,-0.000017,0.000008,-0.000013,-0.000033,64.838733,0.000047,
2371,2488,2.47976405970351,-3.41700371962265,-0.00142092942132876,0.002745,-0.000395,0.004216,0.110839,0.014165,323.213233,23.766621,0.999528,0.987322,0.004337,0.421776,-0.000005,-0.000007,0.000012,0.000007,-0.000018,43.157807,0.000018,
2281,2158,0.579680225881393,-10.637826509378,0.0177376054852516,0.002922,-0.000117,0.001596,0.128526,0.022523,328.756768,23.413855,0.999567,0.982786,0.005155,0.326329,-0.000025,-0.000013,-0.000014,-0.000004,-0.000034,-57.346669,0.000042,
2056,2353,-4.35669845052407,-6.36760407380807,-0.016931802893339,0.003408,0.000952,-0.007237,0.177285,0.050752,326.137321,24.498946,0.998905,0.983218,0.005106,0.449955,-0.000026,-0.000029,0.000005,-0.000022,-0.000032,36.317990,0.000054,
2116,2743,-3.11589413643996,2.13742493541417,-0.0329769817568604,0.002753,-0.000180,0.002990,0.117885,0.025266,319.335917,24.474724,0.999448,0.990237,0.003957,0.353763,-0.000020,-0.000023,-0.000003,-0.000019,-0.000025,-30.642205,0.000044,
2011,2233,-5.31853732005402,-8.99212190757245,0.00515902253494005,0.002490,-0.000564,0.005687,0.098825,0.027513,328.442988,24.825646,0.999290,0.984356,0.004964,0.334483,-0.000025,0.000051,-0.000013,0.000053,-0.000027,-80.330379,0.000053,
2011,2323,-5.33095037878126,-7.02521587801385,0.00458569276435128,0.002809,0.000052,-0.000766,0.131216,0.026234,327.024090,24.726376,0.998837,0.984678,0.005079,0.373774,-0.000023,0.000022,-0.000021,0.000030,-0.000031,-68.483704,0.000035,
2206,3103,-1.21808646335348,9.95770518409548,0.0231829154911338,0.003303,-0.000548,0.000329,0.150970,-0.022656,313.645891,24.812451,0.999419,0.990817,0.003953,0.386029,-0.000016,-0.000016,-0.000007,-0.000008,-0.000023,-45.116691,0.000032,
2161,2878,-2.15953708256219,5.07251898155195,-0.0127951667536763,0.002800,-0.000604,0.003265,0.118792,-0.000756,317.128193,24.520610,0.999520,0.992718,0.003477,0.385953,-0.000009,-0.000001,0.000003,0.000000,-0.000010,72.002555,0.000012,
2251,1993,-0.0476323169459327,-14.2542173502154,-0.000387239762915215,0.002660,-0.000022,0.001113,0.118151,0.015098,331.292611,23.314483,0.999701,0.990114,0.004336,0.289731,0.000034,-0.000027,-0.000036,0.000051,-0.000044,-24.743754,0.000055,
2071,2473,-4.04855613916698,-3.74981003613519,-0.0043521131271973,0.003196,-0.000060,-0.001889,0.152369,0.004656,324.201548,24.425120,0.999385,0.988861,0.004452,0.411875,-0.000030,-0.000034,-0.000009,-0.000023,-0.000042,-39.262912,0.000065,
2071,2503,-4.05439635081855,-3.09455362565526,-0.0135981720624727,0.002670,0.000019,-0.000348,0.123830,0.013837,323.611480,24.409877,0.999348,0.989831,0.004156,0.432812,-0.000028,-0.000005,-0.000003,-0.000004,-0.000028,-82.494473,0.000036,
2251,2008,-0.0496774443000412,-13.9266974220449,0.00830095094443095,0.002627,-0.000606,0.001396,0.115526,-0.006778,331.122082,23.298341,0.999571,0.988292,0.004603,0.310718,0.000021,-0.000047,-0.000022,0.000027,-0.000054,-16.434977,0.000054,
2221,3223,-0.913681750158464,12.5610588599818,0.0385630339730483,0.002416,-0.000055,0.002610,0.103029,0.013993,311.722150,25.081212,0.999575,0.993380,0.003413,0.352786,-0.000022,-0.000012,-0.000014,-0.000002,-0.000032,-54.679686,0.000039,
2026,2413,-5.01870540738789,-5.05845824257143,-0.0111484670052278,0.003061,0.000153,0.000385,0.139788,0.030100,325.357966,24.588464,0.999271,0.987454,0.004397,0.411457,-0.000011,-0.000036,-0.000020,0.000000,-0.000047,-28.975559,0.000054,
2506,3253,5.26836959951197,13.2389230756397,0.0157677593667813,0.003022,-0.000048,0.000649,0.136455,0.002084,311.121283,26.600254,0.999716,0.992685,0.003496,0.378466,-0.000003,-0.000026,0.000003,-0.000003,-0.000026,6.651729,0.000032,
2131,2788,-2.79667436735334,3.11517745101482,-0.022381781740421,0.002622,-0.000187,-0.000083,0.120959,0.010379,318.631955,24.431722,0.999623,0.992781,0.003403,0.403794,-0.000017,-0.000014,0.000000,-0.000014,-0.000017,87.818315,0.000031,
2161,2938,-2.16884089747512,6.37557385937357,-0.00222470294875166,0.002922,-0.000314,0.003953,0.122436,0.011316,316.243307,24.573158,0.999305,0.988601,0.004245,0.383820,-0.000009,-0.000006,0.000000,-0.000006,-0.000009,87.775826,0.000015,
2026,2308,-5.0031724299151,-7.35176131695145,-0.00575483523425646,0.002909,-0.000521,0.003358,0.124314,0.005810,327.078043,24.700948,0.998733,0.983536,0.005133,0.330403,0.000000,0.000041,-0.000001,0.000041,0.000000,-88.039781,0.000047,
2056,2398,-4.36403768175696,-5.38635856447034,-0.0122926035539876,0.002824,0.000393,-0.003810,0.140643,0.000418,325.415313,24.450944,0.998967,0.986165,0.004747,0.436557,-0.000029,-0.000033,-0.000017,-0.000014,-0.000048,-41.166136,0.000065,
2266,2098,0.26240695422705,-11.9513064033871,0.00993642263904349,0.002899,-0.000014,0.001017,0.129441,0.018423,329.678021,23.453117,0.999115,0.980721,0.005434,0.250847,-0.000015,0.000008,-0.000003,0.000008,-0.000015,-82.866158,0.000015,
2491,3133,4.96667307027243,10.6328671752376,0.0134184865382281,0.003023,-0.000446,-0.000006,0.138936,0.002088,313.033260,26.028562,0.999566,0.990905,0.003573,0.409636,0.000010,0.000006,0.000013,0.000022,-0.000006,40.405817,0.000022,
2116,2848,-3.13199670400629,4.41889910354147,-0.0213561277607823,0.002751,-0.000074,0.000121,0.126407,0.011072,317.736786,24.438558,0.999691,0.993223,0.003391,0.399269,-0.000017,-0.000012,0.000001,-0.000012,-0.000017,80.324660,0.000029,
2176,3013,-1.85528281986472,8.00444240782165,0.00545377125058621,0.002885,-0.000263,0.000921,0.130036,-0.001093,315.039443,24.670476,0.999333,0.989627,0.004028,0.365574,-0.000009,0.000007,0.000000,0.000007,-0.000009,-89.939493,0.000009,
2146,2833,-2.47716260329223,4.09349270920359,-0.011847346623199,0.002978,-0.000001,-0.001928,0.143024,0.005706,317.949479,24.466466,0.999554,0.993177,0.003446,0.398909,-0.000014,-0.000009,0.000000,-0.000009,-0.000014,84.954508,0.000023,
2311,2188,1.22989000230634,-9.98202717117729,0.0253591102419932,0.002890,0.000273,-0.002949,0.142557,0.009037,328.324148,23.297769,0.999259,0.981209,0.005158,0.334701,-0.000022,-0.000012,-0.000012,-0.000004,-0.000029,-56.557936,0.000036,
2476,3058,4.65519170696473,9.00332043773151,0.00985997271146744,0.002640,-0.000298,-0.002507,0.130763,-0.016635,314.186762,25.753553,0.999629,0.990384,0.003976,0.325773,-0.000001,0.000008,0.000010,0.000015,-0.000008,56.327285,0.000015,
2191,3073,-1.53859579983513,9.30570556586423,0.0227698200687314,0.003038,-0.000228,-0.000814,0.142498,-0.006443,314.168972,24.708717,0.999673,0.993913,0.003281,0.420915,-0.000006,-0.000013,-0.000006,-0.000002,-0.000017,-30.172436,0.000021,
2506,3268,5.26460959544041,13.5648301525035,0.0116474166396756,0.002969,-0.000653,0.003790,0.121677,-0.003167,310.824939,26.690472,0.999829,0.995525,0.002876,0.342535,-0.000002,-0.000021,0.000006,0.000000,-0.000023,16.004856,0.000027,
2416,2758,3.40665605555686,2.4758047188158,-0.0256212646174845,0.002975,0.000288,-0.002188,0.144774,0.017389,318.694463,24.541702,0.999532,0.988666,0.004110,0.421521,-0.000010,0.000002,-0.000012,0.000010,-0.000017,-57.451355,0.000017,
2356,2383,2.17214620995752,-5.7096037166481,-0.0057612400707967,0.002537,-0.000232,0.003716,0.103213,0.027212,324.864326,23.661099,0.999378,0.982732,0.004976,0.291733,-0.000010,-0.000024,0.000004,-0.000009,-0.000025,13.801633,0.000035,
2371,2503,2.47658041563833,-3.08891461537011,-0.00482895115470683,0.002694,-0.000637,0.004172,0.108544,-0.000899,322.939085,23.839099,0.999511,0.987670,0.004383,0.376475,-0.000008,-0.000003,0.000013,0.000008,-0.000018,50.655290,0.000018,
2146,2788,-2.47086843092929,3.11631261806534,-0.0274666095456269,0.003022,-0.000150,0.000707,0.136988,0.016029,318.543892,24.437933,0.999606,0.992351,0.003558,0.414947,-0.000017,-0.000015,-0.000004,-0.000012,-0.000020,-51.768961,0.000032,
2296,2203,0.899344984560873,-9.65094527773138,0.00687321948220188,0.003721,0.000616,-0.004285,0.185186,0.004488,327.981699,23.430392,0.998292,0.975840,0.006065,0.308157,-0.000035,-0.000005,-0.000026,0.000010,-0.000050,-59.918362,0.000052,
2446,2893,4.03185867323832,5.41612434714749,-0.029616116191221,0.002544,-0.000996,0.002519,0.107124,-0.019928,316.467677,25.021683,0.999427,0.990756,0.003909,0.385648,-0.000022,-0.000022,-0.000009,-0.000013,-0.000031,-44.794830,0.000045,
2086,2593,-3.74287890946909,-1.13139490368268,-0.0177240957562503,0.002598,-0.000122,0.002288,0.112918,0.021793,322.033072,24.423111,0.999122,0.988166,0.004347,0.397241,-0.000031,-0.000004,0.000007,-0.000002,-0.000033,75.769527,0.000040,
2101,2653,-3.42691954525347,0.177180653319027,-0.0305760063974958,0.002833,-0.000193,0.000908,0.127703,0.006908,320.895156,24.429282,0.999469,0.989427,0.003955,0.366716,-0.000018,-0.000007,0.000000,-0.000007,-0.000018,88.183600,0.000026,
2071,2488,-4.05153554407758,-3.42197214253518,-0.00896327647058115,0.002922,0.000054,-0.000323,0.135365,0.024154,323.903762,24.419210,0.999458,0.990284,0.004286,0.435655,-0.000030,-0.000030,-0.000009,-0.000021,-0.000039,-44.783725,0.000062,
2221,3238,-0.916522581269501,12.8861104419106,0.0312232516236008,0.002585,-0.000297,0.000444,0.117651,-0.013267,311.429738,25.082394,0.999689,0.994030,0.003224,0.341916,-0.000021,-0.000015,-0.000013,-0.000005,-0.000032,-51.196159,0.000040,
2281,2278,0.556711525211423,-8.00880882037067,0.00139957797591705,0.002782,-0.000394,0.003114,0.117046,0.008717,326.674226,23.594314,0.999680,0.988027,0.004454,0.374857,-0.000028,-0.000032,-0.000025,-0.000005,-0.000055,-42.845393,0.000066,
2206,3148,-1.22589896593741,10.9340899671973,0.0257972821094654,0.002987,-0.000111,-0.002111,0.144393,-0.000557,312.925104,24.887925,0.999516,0.993200,0.003494,0.379391,-0.000022,-0.000011,-0.000009,-0.000005,-0.000027,-60.622251,0.000035,
2071,2518,-4.05680718729824,-2.76692975063269,-0.0186181657072666,0.002859,-0.000004,-0.000949,0.134239,0.002506,323.337624,24.422273,0.999403,0.990609,0.003970,0.407161,-0.000035,-0.000002,0.000009,0.000000,-0.000037,75.108401,0.000043,
2326,2248,1.54424449205568,-8.6660710261885,0.00868910785357002,0.002607,-0.000151,0.002526,0.110742,0.018168,327.177699,23.352415,0.998893,0.980387,0.005387,0.360314,-0.000027,-0.000030,-0.000012,-0.000017,-0.000040,-42.035034,0.000058,
2176,2953,-1.84606723139617,6.70194514410357,-0.00390509033394437,0.002727,-0.000492,0.004000,0.113062,0.001561,315.922557,24.584035,0.999342,0.991700,0.003642,0.408333,-0.000009,-0.000005,0.000002,-0.000004,-0.000010,70.937128,0.000014,
2101,2623,-3.42220746114001,-0.476702533504827,-0.0342159014490448,0.002800,-0.000031,-0.002089,0.134970,-0.001621,321.358284,24.355145,0.999168,0.987055,0.004493,0.428813,-0.000019,-0.000015,0.000003,-0.000014,-0.000020,63.659363,0.000034,
2431,2788,3.72737603938175,3.12990731477674,-0.0217505280847945,0.002805,-0.000315,-0.000726,0.131393,-0.005697,318.245907,24.700535,0.999467,0.989761,0.004076,0.345914,-0.000010,-0.000008,-0.000014,0.000005,-0.000023,-47.562102,0.000024,
2266,2218,0.241389101656342,-9.322864341886,0.0110969377420815,0.002938,0.000144,-0.000560,0.136585,0.026067,327.762760,23.570399,0.998707,0.979960,0.005574,0.368026,-0.000027,-0.000011,-0.000017,0.000000,-0.000037,-57.602610,0.000043,
2161,2953,-2.17111790006705,6.70063277117659,0.0022036191397774,0.002862,-0.000452,0.003789,0.120149,0.008163,316.033985,24.549718,0.999468,0.991019,0.003757,0.413499,-0.000008,-0.000006,0.000000,-0.000006,-0.000008,-77.450592,0.000014,
2221,3178,-0.905152041523507,11.5849093855553,0.0372545029266576,0.002742,-0.000334,-0.002509,0.134326,-0.019272,312.479787,24.991086,0.999423,0.991255,0.003680,0.357213,-0.000024,-0.000009,-0.000011,-0.000003,-0.000030,-62.233289,0.000037,
2026,2428,-5.02142706008057,-4.73091786946986,-0.0148892129879528,0.002790,0.000003,0.000319,0.127462,0.029429,325.072838,24.562226,0.999076,0.985266,0.004747,0.428907,-0.000005,-0.000045,-0.000008,-0.000003,-0.000046,-10.485073,0.000055,
2086,2698,-3.75971323446977,1.15519429999743,-0.0239754177583791,0.002860,-0.000510,0.004530,0.118460,0.008533,320.286269,24.389869,0.999431,0.991158,0.003743,0.414022,-0.000024,-0.000015,0.000001,-0.000015,-0.000024,83.884716,0.000039,
2191,3103,-1.54338483558007,9.95666984788755,0.0262935494672547,0.003258,-0.000271,0.000258,0.149258,-0.013655,313.715031,24.775964,0.999497,0.992398,0.003594,0.373566,-0.000012,-0.000017,-0.000005,-0.000008,-0.000020,-32.648650,0.000029,
2386,2578,2.78857074508182,-1.4505170416937,-0.0129482543451331,0.002787,-0.000765,0.003774,0.114082,-0.001299,321.668229,24.036815,0.999394,0.988089,0.004400,0.369046,-0.000008,-0.000005,0.000002,-0.000004,-0.000009,65.414665,0.000013,
2206,3178,-1.23128062944466,11.5847866355776,0.0254549594552032,0.002913,-0.000121,-0.001443,0.138836,-0.009271,312.425802,24.947238,0.999708,0.994739,0.003127,0.342078,-0.000021,-0.000008,-0.000010,-0.000002,-0.000027,-61.359475,0.000032,
2041,2488,-4.70344733018399,-3.42261272032382,-0.00867555522262364,0.003302,-0.000249,0.000832,0.149512,0.009465,324.088610,24.494043,0.999376,0.987922,0.004483,0.410975,-0.000009,-0.000036,-0.000012,-0.000005,-0.000040,-20.694311,0.000049,
2131,2728,-2.7865623950467,1.80987402238414,-0.0275934694882949,0.002986,0.000563,-0.004040,0.149763,0.021948,319.591255,24.355302,0.999352,0.989107,0.004191,0.469078,-0.000013,-0.000018,0.000000,-0.000013,-0.000018,-2.933424,0.000031,
2176,3028,-1.85772103337053,8.32927265558797,0.0100376322076841,0.002968,-0.000794,0.004969,0.121176,0.002627,314.824513,24.639005,0.999481,0.991527,0.003846,0.412236,-0.000009,0.000001,-0.000002,0.000001,-0.000010,-77.859404,0.000011,
2296,2158,0.906958713165938,-10.6373994821432,0.0113312967730508,0.003063,0.000336,-0.001431,0.145285,0.006797,328.704415,23.335542,0.999431,0.983256,0.005171,0.307412,-0.000031,-0.000015,-0.000026,0.000004,-0.000050,-53.436338,0.000056,
2461,2998,4.33989831951682,7.69844668020422,-7.37055913191398E-05,0.002892,-0.000219,0.003668,0.119025,0.010283,315.040355,25.412515,0.999405,0.989868,0.003988,0.428223,-0.000001,-0.000006,0.000007,0.000005,-0.000011,35.573710,0.000011,
2011,2248,-5.32026667521572,-8.66508139622997,0.0077661043727062,0.002741,-0.000432,0.005120,0.111980,0.016981,328.237280,24.763211,0.999214,0.983849,0.004954,0.376884,-0.000026,0.000056,-0.000026,0.000063,-0.000034,-73.721001,0.000063,
2311,2203,1.2263762292161,-9.65288983924473,0.0180059337299099,0.002852,-0.000197,-0.000596,0.132647,-0.009326,328.011138,23.319339,0.998875,0.978916,0.005612,0.329953,-0.000026,-0.000004,-0.000014,0.000003,-0.000034,-63.824668,0.000037,
2071,2623,-4.07356916105815,-0.47794752185203,-0.0272858615501264,0.003058,-0.000077,0.000784,0.138567,0.028446,321.571515,24.381152,0.999167,0.988997,0.004203,0.457878,-0.000032,-0.000017,0.000001,-0.000017,-0.000032,87.306327,0.000050,
2041,2398,-4.689918338735,-5.38716293961335,-0.00924440808694271,0.003319,-0.000283,0.001089,0.149491,-0.018764,325.535797,24.485607,0.999293,0.988791,0.004182,0.428093,-0.000021,-0.000036,-0.000022,-0.000005,-0.000051,-35.570359,0.000063,
2251,2023,-0.0512654177362499,-13.5981099951313,0.0212090568148824,0.002696,-0.000009,0.000887,0.120568,0.017667,330.993310,23.385097,0.999084,0.982160,0.005417,0.274601,0.000010,-0.000040,-0.000016,0.000015,-0.000045,-16.125502,0.000045,
2401,2668,3.09756745272037,0.513727987494306,-0.0202169567745614,0.002736,-0.000274,0.000360,0.124230,-0.000302,320.167440,24.302759,0.999340,0.988101,0.004414,0.360950,-0.000018,-0.000015,-0.000013,-0.000004,-0.000030,-48.526613,0.000036,
2026,2323,-5.00505525960942,-7.02477337226821,-0.00440699176505177,0.002923,-0.000304,-0.000499,0.135635,-0.012742,326.859640,24.655058,0.998918,0.984990,0.004906,0.350032,-0.000009,0.000010,-0.000013,0.000016,-0.000015,-62.364228,0.000018,
2221,3253,-0.919646409129893,13.2109287756896,0.0248189047391634,0.002627,-0.000300,0.001438,0.116358,-0.020664,311.129175,25.052299,0.999647,0.993981,0.003221,0.382265,-0.000022,-0.000007,-0.000013,0.000000,-0.000029,-59.709004,0.000034,
2056,2413,-4.3661526509519,-5.05851584940714,-0.010904513417529,0.002931,0.000552,-0.003429,0.144558,0.017675,325.188637,24.478554,0.998350,0.982509,0.005322,0.422378,-0.000029,-0.000036,-0.000013,-0.000020,-0.000046,-37.207814,0.000067,
2116,2863,-3.13387420843537,4.74412017752949,-0.013042969726655,0.002928,-0.000428,0.002453,0.127509,-0.003846,317.563774,24.447306,0.999675,0.992556,0.003491,0.378673,-0.000015,-0.000013,0.000000,-0.000013,-0.000015,-87.990484,0.000029,
2266,2113,0.260939477916136,-11.6241181841387,0.0223678594393846,0.002966,0.000436,-0.001886,0.142257,0.026544,329.553390,23.450841,0.999057,0.980551,0.005441,0.289371,-0.000014,0.000002,-0.000003,0.000003,-0.000015,-80.294359,0.000016,
2071,2533,-4.05859467022436,-2.4395051036351,-0.0153230559570261,0.003227,0.000221,-0.000391,0.149674,0.022021,323.137702,24.465406,0.999418,0.990328,0.004033,0.381298,-0.000041,-0.000008,0.000009,-0.000006,-0.000044,75.231365,0.000054,
2131,2803,-2.79901851443211,3.44083262259477,-0.0189184602837145,0.002702,-0.000395,0.002853,0.115757,-0.005313,318.412320,24.429210,0.999583,0.992166,0.003562,0.396144,-0.000015,-0.000014,0.000002,-0.000012,-0.000017,46.648416,0.000029,
2056,2428,-4.36867318743347,-4.7299978184836,-0.0136175523681459,0.003112,0.000472,0.000557,0.141691,0.059421,324.920627,24.509737,0.998866,0.985165,0.004796,0.429032,-0.000027,-0.000045,0.000000,-0.000027,-0.000045,1.514850,0.000073,
2506,3283,5.26114641982795,13.8895527489718,0.0052942593968055,0.002934,-0.000828,0.001475,0.128910,-0.028241,310.532549,26.683169,0.999831,0.995876,0.002729,0.384303,0.000007,-0.000041,0.000009,0.000009,-0.000043,10.799136,0.000045,
2491,3148,4.9638912053956,10.958597529485,0.019953908610546,0.002977,-0.000390,0.002568,0.126906,0.000874,312.829812,26.130193,0.999578,0.990153,0.003716,0.364608,0.000012,-0.000013,0.000011,0.000016,-0.000017,20.533588,0.000019,
2476,3073,4.65241931591693,9.32832485608638,0.0144768098211898,0.002782,-0.000455,0.000580,0.125467,-0.022824,313.974797,25.763439,0.999606,0.990660,0.003871,0.365073,0.000006,0.000010,0.000015,0.000022,-0.000007,48.991619,0.000023,
2341,2323,1.85736405650407,-7.02325694398012,0.00256566610738673,0.002874,0.000080,0.002204,0.124152,0.037012,325.924717,23.512010,0.999077,0.985987,0.004762,0.345040,-0.000022,-0.000043,-0.000002,-0.000022,-0.000043,-4.977966,0.000067,
2281,2173,0.576173571781933,-10.3104478387637,0.0143487513512923,0.002603,-0.000681,0.005174,0.101771,0.012979,328.461022,23.296681,0.999397,0.982017,0.005254,0.464673,-0.000018,-0.000015,-0.000011,-0.000006,-0.000027,-49.918914,0.000035,
2101,2668,-3.42889438035425,0.503270396105968,-0.028678580289295,0.003071,0.000035,0.000024,0.141322,0.009324,320.681724,24.397227,0.999556,0.990769,0.003769,0.402828,-0.000020,-0.000008,0.000001,-0.000008,-0.000020,85.043044,0.000029,
2506,3298,5.25821044564271,14.2149081280419,0.00873416362628632,0.002739,-0.000481,0.000839,0.122578,-0.017704,310.308161,26.755877,0.999737,0.993789,0.003186,0.381508,0.000013,-0.000078,-0.000005,0.000013,-0.000078,-2.963904,0.000084,
2011,2338,-5.333659831926,-6.69742862561473,-0.000425302727080634,0.002669,0.000091,0.000684,0.120871,0.017339,326.730962,24.685405,0.998978,0.986350,0.004784,0.396010,-0.000033,-0.000003,-0.000031,0.000016,-0.000052,-57.821752,0.000053,
2206,3193,-1.23290131297094,11.9091517268979,0.0289872111766272,0.003443,-0.000102,-0.004676,0.173630,-0.001016,312.244872,24.901072,0.999790,0.996095,0.002930,0.412131,-0.000022,-0.000013,-0.000011,-0.000005,-0.000030,-56.170575,0.000037,
2266,2233,0.238899030784776,-8.99393347211409,0.00361272369627841,0.003368,0.000315,-0.004486,0.169326,0.003273,327.491334,23.587907,0.998809,0.979118,0.005520,0.355928,-0.000032,-0.000016,-0.000019,-0.000003,-0.000045,-56.014186,0.000053,
2011,2263,-5.32195407466594,-8.33675480272773,0.00347553365139674,0.003180,0.000016,-0.000039,0.146233,-0.001292,327.994683,24.760398,0.998881,0.979940,0.005186,0.351455,-0.000035,0.000043,-0.000027,0.000052,-0.000044,-72.970723,0.000056,
2146,2848,-2.48024118495914,4.41983773360121,-0.0192680159173051,0.002978,-0.000454,-0.000495,0.138535,-0.006150,317.639167,24.454191,0.999598,0.993004,0.003436,0.407263,-0.000015,-0.000012,0.000002,-0.000011,-0.000017,62.837869,0.000027,
2026,2443,-5.02347154208134,-4.40233146710862,-0.0173778383734202,0.002984,0.000512,-0.002111,0.143211,0.013291,324.825433,24.664051,0.999344,0.989758,0.004161,0.302676,-0.000007,-0.000044,-0.000013,-0.000003,-0.000048,-17.939094,0.000058,
2146,2803,-2.47278909013638,3.44144737513116,-0.0203595175560736,0.003143,-0.000247,0.001159,0.141164,0.004954,318.364167,24.411623,0.999677,0.992792,0.003435,0.438000,-0.000015,-0.000016,-0.000002,-0.000013,-0.000018,-44.026607,0.000031,
2161,2968,-2.17366067797336,7.02671697826415,0.000853621839496554,0.002858,-0.000626,0.002577,0.123630,-0.002117,315.781633,24.591291,0.999616,0.992743,0.003435,0.371211,-0.000007,0.000005,-0.000001,0.000005,-0.000007,-87.138406,0.000007,
2446,2908,4.02954612884205,5.74194557508179,-0.0197846708578595,0.002575,-0.000799,0.004372,0.101709,-0.014417,316.299625,25.093115,0.999408,0.990321,0.003973,0.371387,-0.000019,-0.000017,-0.000003,-0.000014,-0.000022,-54.117073,0.000036,
2356,2398,2.17024516562011,-5.38319970981794,-0.000171441147301721,0.002923,-0.000182,0.002295,0.125926,0.016378,324.691591,23.624950,0.999543,0.986859,0.004581,0.357302,-0.000008,-0.000013,0.000007,-0.000003,-0.000018,36.308081,0.000023,
2041,2503,-4.70643670298814,-3.09502826017727,-0.0155444945280578,0.003009,-0.000055,0.001052,0.135523,0.013049,323.775291,24.465145,0.999466,0.989447,0.004135,0.437064,-0.000008,-0.000007,-0.000006,-0.000001,-0.000013,-45.594986,0.000016,
2026,2338,-5.00717736643393,-6.69759243446354,-0.000261893855338258,0.002865,-0.000170,0.001166,0.128463,-0.014097,326.645773,24.642085,0.999031,0.987194,0.004553,0.353744,-0.000018,-0.000016,-0.000021,0.000004,-0.000038,-45.962209,0.000042,
2371,2518,2.47352782897916,-2.76157451222559,-0.00910747011090507,0.002736,-0.000510,0.002879,0.115162,0.007313,322.666792,23.817129,0.999461,0.985877,0.004712,0.448931,-0.000009,-0.000006,0.000010,0.000003,-0.000018,49.527196,0.000019,
2116,2758,-3.11711874472086,2.46204833217716,-0.020348356896875,0.002839,0.000071,-0.001599,0.135513,0.014998,319.216116,24.432172,0.999528,0.990888,0.003787,0.389489,-0.000022,-0.000026,-0.000004,-0.000019,-0.000029,-32.778654,0.000048,
2281,2293,0.554132001063813,-7.68025743879554,0.000497330973985299,0.002917,-0.000310,0.002477,0.125381,0.010425,326.432740,23.642648,0.999441,0.985454,0.004826,0.357989,-0.000027,-0.000033,-0.000017,-0.000013,-0.000047,-39.492121,0.000063,
2251,2128,-0.0699418734563189,-11.2958100992353,0.0207490221123976,0.002676,-0.000461,0.004459,0.107890,0.005667,329.289022,23.496833,0.998664,0.979213,0.005643,0.337401,-0.000006,0.000003,-0.000012,0.000011,-0.000015,-54.298162,0.000015,
2416,2773,3.4036811853982,2.8014801750576,-0.0182414785782044,0.002652,-0.000079,0.001546,0.116154,0.016204,318.483520,24.553646,0.999578,0.988447,0.004138,0.455868,-0.000012,-0.000006,-0.000012,0.000003,-0.000022,-51.667900,0.000023,
2296,2218,0.896037347862318,-9.32250263390935,0.0090701071196122,0.003136,0.000485,-0.002040,0.150761,0.021804,327.723617,23.459111,0.998713,0.978396,0.005693,0.329298,-0.000032,-0.000008,-0.000027,0.000010,-0.000050,-56.993314,0.000053,
2101,2638,-3.42496797783518,-0.149577107652412,-0.0330088688984347,0.002488,0.000010,-0.000011,0.114532,0.008821,321.104812,24.395608,0.999241,0.987672,0.004270,0.400654,-0.000012,-0.000015,0.000004,-0.000010,-0.000017,36.650650,0.000027,
2266,2128,0.257557861732192,-11.2957629395621,0.0187890093981764,0.002838,-0.000464,0.002794,0.120637,0.006029,329.261067,23.414429,0.998945,0.980583,0.005428,0.333905,-0.000013,0.000006,-0.000008,0.000009,-0.000016,-70.946494,0.000016,
2131,2818,-2.80087971834208,3.76695031772756,-0.0157673669053793,0.002909,0.000070,0.000007,0.134002,0.008222,318.212964,24.441497,0.999425,0.990627,0.003928,0.403048,-0.000011,-0.000013,0.000004,-0.000009,-0.000016,35.791340,0.000025,
2056,2548,-4.38756100155073,-2.1129866912087,-0.0228124408149029,0.003120,-0.000120,0.000374,0.142464,0.005158,322.908235,24.427625,0.999369,0.989270,0.004123,0.423596,-0.000031,-0.000012,0.000008,-0.000009,-0.000034,69.678544,0.000045,
2191,3088,-1.54123094547911,9.63169501367457,0.0210839820177284,0.003213,-0.000238,0.000727,0.145706,-0.007782,313.912797,24.763051,0.999502,0.992139,0.003623,0.378787,-0.000008,-0.000015,-0.000006,-0.000005,-0.000018,-29.290015,0.000024,
2191,3118,-1.54573037016919,10.2816353103075,0.0329493911980308,0.003198,-0.000272,0.002462,0.139565,-0.003780,313.515989,24.784544,0.999456,0.992949,0.003547,0.388093,-0.000017,-0.000016,-0.000011,-0.000005,-0.000028,-46.053507,0.000035,
2221,3268,-0.922113607873925,13.5358151485927,0.0158848633564048,0.003074,-0.000173,-0.003720,0.153592,-0.025333,310.845716,25.016328,0.999514,0.993333,0.003410,0.431231,-0.000022,0.000006,-0.000010,0.000010,-0.000025,-72.020643,0.000026,
2431,2803,3.72496796397607,3.45667077314458,-0.0174889114362031,0.002903,-0.000273,-0.002258,0.141628,0.003294,318.047023,24.786008,0.999516,0.989601,0.004077,0.319187,-0.000013,-0.000011,-0.000013,0.000001,-0.000025,-47.093154,0.000028,
2476,3088,4.64922923524987,9.65476447237177,0.0136160386354618,0.002773,-0.000272,0.001331,0.122320,-0.001950,313.718137,25.847193,0.999466,0.991769,0.003683,0.357898,0.000009,0.000010,0.000019,0.000028,-0.000009,45.891699,0.000028,
2461,3013,4.33780150019531,8.02495509268092,0.00629717987675349,0.002989,-0.000003,-0.000035,0.137583,0.014761,314.866489,25.547606,0.999456,0.989628,0.003918,0.351218,-0.000007,0.000002,0.000005,0.000004,-0.000009,65.392969,0.000009,
2251,2038,-0.0539210471083571,-13.2692322369214,0.0232121282663798,0.002810,-0.000240,0.004978,0.112383,0.029224,330.760843,23.392639,0.998941,0.979623,0.005575,0.305471,0.000005,-0.000028,-0.000012,0.000009,-0.000032,-17.987788,0.000033,
2026,2458,-5.02617413294816,-4.07558902758377,-0.0266567176790886,0.003202,0.000111,0.000126,0.146989,0.013655,324.510561,24.523228,0.999466,0.990258,0.003990,0.435779,-0.000009,-0.000051,-0.000028,0.000005,-0.000065,-26.488515,0.000072,
2011,2353,-5.33601882955183,-6.36794622274472,-0.0112610166304421,0.003045,0.000229,-0.001081,0.143007,0.004524,326.420853,24.751969,0.999086,0.988855,0.004587,0.306814,-0.000026,0.000005,-0.000015,0.000011,-0.000031,-68.383936,0.000032,
2236,2053,-0.383516866418855,-12.940569645306,0.0251338642501651,0.002830,-0.000304,0.000229,0.128813,-0.023030,330.581085,23.514772,0.998861,0.977582,0.005678,0.254729,0.000006,-0.000019,-0.000010,0.000010,-0.000022,-19.450419,0.000022,
2071,2638,-4.07556176296773,-0.151074689293601,-0.0213080340488432,0.003059,-0.000056,0.001206,0.137426,0.036272,321.377151,24.440124,0.999077,0.987344,0.004426,0.404087,-0.000023,-0.000017,0.000002,-0.000016,-0.000024,73.605184,0.000040,
2011,2278,-5.32420034358898,-8.00893751084703,-0.00117056108030056,0.003316,-0.000346,-0.001278,0.155732,-0.016278,327.724698,24.710112,0.998700,0.980797,0.005477,0.377390,-0.000026,0.000045,-0.000025,0.000053,-0.000035,-72.272843,0.000054,
2086,2608,-3.7451088041367,-0.804318905574945,-0.0200097531034658,0.002861,-0.000311,0.002082,0.125599,0.015727,321.783856,24.434765,0.999135,0.988214,0.004344,0.379253,-0.000028,-0.000006,0.000008,-0.000003,-0.000030,72.416826,0.000037,
2026,2353,-5.00941201232901,-6.36843327143552,-0.00985009000504533,0.003114,0.000332,-0.004093,0.154486,0.007354,326.349826,24.657495,0.999066,0.986574,0.004767,0.352001,-0.000015,-0.000014,-0.000007,-0.000007,-0.000022,-45.953381,0.000030,
2116,2773,-3.11966981152981,2.78807264191462,-0.0211183827280479,0.002870,-0.000220,-0.000035,0.132225,0.004651,318.963112,24.416337,0.999683,0.992420,0.003479,0.398441,-0.000022,-0.000024,-0.000003,-0.000020,-0.000026,-36.299712,0.000046,
2326,2263,1.54192790815726,-8.33788793176866,0.0105015629217746,0.002885,0.000089,0.001945,0.125553,0.013595,326.965522,23.390625,0.999255,0.983011,0.004882,0.354233,-0.000028,-0.000038,-0.000017,-0.000016,-0.000050,-37.250059,0.000069,
2041,2518,-4.70857256984278,-2.76724918199493,-0.0209231227609052,0.003236,0.000521,-0.002796,0.156814,0.021644,323.509187,24.468118,0.999332,0.990019,0.004121,0.436441,-0.000016,-0.000006,0.000011,0.000001,-0.000023,57.139621,0.000025,
2341,2338,1.85508250093276,-6.69595100356067,0.00791709392086659,0.002826,0.000254,0.000086,0.129361,0.030249,325.732364,23.532721,0.999397,0.986959,0.004680,0.355844,-0.000019,-0.000040,-0.000004,-0.000018,-0.000040,-10.780707,0.000060,
2041,2413,-4.69333318965417,-5.05789325068773,-0.0161979978130375,0.002761,-0.000061,0.003938,0.116048,0.042232,325.201875,24.520659,0.999083,0.985084,0.004679,0.448413,-0.000018,-0.000036,-0.000014,-0.000011,-0.000043,-28.465442,0.000057,
2176,3043,-1.85966245093309,8.65590270687836,0.0148542583761468,0.002979,-0.000006,0.000790,0.134825,0.005874,314.633003,24.778508,0.999660,0.995131,0.003246,0.287324,-0.000009,-0.000008,-0.000006,-0.000002,-0.000015,-47.149336,0.000019,
2071,2548,-4.06124258836013,-2.11262455974436,-0.0210956776272155,0.003330,-0.000088,0.000659,0.151335,0.010473,322.849085,24.413758,0.999485,0.990416,0.004044,0.419214,-0.000036,-0.000010,0.000009,-0.000007,-0.000039,73.761150,0.000049,
2101,2683,-3.43136772102188,0.829247836063658,-0.0260081639134455,0.002873,-0.000029,0.000842,0.129810,0.016049,320.449665,24.361347,0.999502,0.991365,0.003677,0.447021,-0.000023,-0.000010,-0.000003,-0.000009,-0.000023,-79.436734,0.000034,
2251,2143,-0.0722121731570802,-10.9666867309195,0.0175388421553748,0.003070,-0.000462,0.001719,0.134888,0.000363,329.047770,23.524548,0.998777,0.980966,0.005418,0.330440,-0.000013,-0.000012,-0.000012,0.000000,-0.000025,-46.253939,0.000029,
2176,3148,-1.87722811742567,10.9314786362938,0.0277513638441178,0.002656,-0.000570,0.003220,0.112327,-0.002826,313.004101,24.756134,0.999426,0.993027,0.003613,0.379605,-0.000025,-0.000014,-0.000008,-0.000009,-0.000029,-62.009095,0.000040,
2446,2923,4.02736614855636,6.06864118331121,-0.0172026661199993,0.002880,-0.000532,0.000648,0.129705,-0.020722,316.103941,25.207989,0.999634,0.992999,0.003661,0.301976,-0.000017,-0.000016,-0.000002,-0.000014,-0.000018,-50.852305,0.000032,
2206,3208,-1.23606058317638,12.234183225018,0.0322977668857334,0.003028,-0.000300,0.000392,0.138336,0.005443,311.991807,24.920358,0.999622,0.994246,0.003294,0.414449,-0.000021,-0.000010,-0.000011,-0.000003,-0.000028,-58.037627,0.000035,
2191,3223,-1.56400262412283,12.5582957356233,0.032646823296318,0.003079,-0.000517,0.001875,0.135911,-0.015726,311.791924,24.914877,0.999730,0.994615,0.003141,0.338344,-0.000023,-0.000009,-0.000018,0.000003,-0.000035,-55.660345,0.000039,
2296,2233,0.893647315206554,-8.99370692278813,0.00768649023081025,0.003489,0.000530,-0.003116,0.170632,0.033700,327.489808,23.493246,0.998864,0.980013,0.005460,0.339541,-0.000038,-0.000015,-0.000028,0.000004,-0.000057,-55.908845,0.000064,
2476,3103,4.64659162447606,9.98001659243952,0.0176479504669373,0.002701,-0.000432,-0.000382,0.125458,-0.018182,313.509498,25.893331,0.999429,0.990977,0.003805,0.351109,0.000006,0.000006,0.000027,0.000033,-0.000021,44.967651,0.000033,
2146,2878,-2.48488617679872,5.07154406860266,-0.011400811491626,0.002910,-0.000161,0.001225,0.130273,-0.001403,317.208680,24.493319,0.999553,0.991629,0.003647,0.387683,-0.000013,0.000000,0.000002,0.000001,-0.000013,79.766814,0.000015,
2161,3073,-2.1894419388776,9.30339609305144,0.027189937809851,0.002807,-0.000056,-0.000937,0.132276,0.000643,314.298482,24.614012,0.999635,0.994208,0.003297,0.415593,-0.000008,-0.000006,-0.000006,-0.000001,-0.000013,-48.358044,0.000016,
2011,2443,-5.34889614840929,-4.40434827183417,-0.000667293327182961,0.003106,-0.000534,0.005280,0.128426,0.022585,325.045022,24.685344,0.999313,0.989435,0.004161,0.328977,-0.000017,-0.000047,-0.000024,-0.000003,-0.000060,-28.692131,0.000072,
2251,2053,-0.0561231814888394,-12.9404776262011,0.0237835284972334,0.002976,-0.000252,0.002008,0.129686,0.000862,330.542110,23.417927,0.998992,0.979586,0.005484,0.278568,0.000001,-0.000013,-0.000007,0.000004,-0.000016,-23.894636,0.000017,
2266,2248,0.235071889083589,-8.66598776283952,0.00851886819617675,0.002726,-0.000805,0.007615,0.099581,0.014079,327.220697,23.615587,0.998947,0.982003,0.005297,0.367214,-0.000026,-0.000023,-0.000018,-0.000006,-0.000043,-47.623472,0.000054,
2131,2833,-2.803654838152,4.0936165898244,-0.0198856707453388,0.002799,-0.000088,-0.001083,0.132141,0.004068,317.932732,24.471026,0.999567,0.992415,0.003592,0.374831,-0.000012,-0.000011,0.000002,-0.000009,-0.000013,51.985318,0.000022,
2491,3163,4.96061750601872,11.2841379253136,0.0190985954225766,0.002598,-0.000055,-0.000331,0.120668,-0.007688,312.570266,26.180275,0.999628,0.991501,0.003497,0.363520,0.000014,-0.000008,0.000012,0.000019,-0.000014,23.835122,0.000020,
2161,2983,-2.17637760669053,7.35314759486995,-0.00438206800748731,0.003043,-0.000269,0.002907,0.131273,0.008674,315.500613,24.621508,0.999536,0.993062,0.003454,0.361254,-0.000007,0.000012,0.000002,0.000012,-0.000007,85.345597,0.000012,
2311,2218,1.22288369135502,-9.3235618980237,0.00996042380188555,0.002763,0.000182,0.000145,0.126170,0.024014,327.695371,23.305792,0.998831,0.976856,0.005792,0.411962,-0.000025,-0.000006,-0.000016,0.000003,-0.000034,-60.963523,0.000038,
2461,3028,4.33483600010504,8.35063727161342,0.0119688128974644,0.002738,-0.000293,0.001900,0.118605,0.004782,314.649581,25.619720,0.999677,0.991342,0.003761,0.322701,-0.000012,0.000009,0.000002,0.000009,-0.000012,84.827834,0.000013,
2386,2593,2.78570825082226,-1.12281335626906,-0.0140977001398142,0.002947,-0.000211,0.004276,0.119830,0.012583,321.420434,24.095786,0.999462,0.988053,0.004412,0.368045,-0.000007,-0.000010,0.000001,-0.000007,-0.000011,20.710468,0.000017,
2146,2863,-2.4834596433791,4.74630309349238,-0.0227188601811577,0.002756,-0.000705,0.003656,0.115631,-0.016877,317.343450,24.486639,0.999561,0.992052,0.003548,0.371601,-0.000014,-0.000013,0.000002,-0.000012,-0.000015,51.924368,0.000027,
2086,2623,-3.74776091731703,-0.477813404465039,-0.029381779507446,0.003075,-0.000294,0.000743,0.139301,0.000946,321.476963,24.347532,0.999201,0.988552,0.004270,0.451497,-0.000025,-0.000016,0.000003,-0.000015,-0.000026,74.183417,0.000041,
2131,2923,-2.81689574534938,6.04762514897484,-0.00699851030236687,0.003409,-0.000316,-0.002886,0.165650,-0.010007,316.610395,24.457225,0.999253,0.988962,0.004216,0.406118,-0.000016,-0.000011,-0.000002,-0.000010,-0.000017,-68.468433,0.000027,
2416,2788,3.40030351404818,3.12983130040461,-0.0240451251578406,0.002661,-0.000421,0.001085,0.118120,-0.000980,318.191684,24.728699,0.999532,0.988469,0.004209,0.311421,-0.000013,-0.000007,-0.000012,0.000002,-0.000022,-51.483865,0.000024,
2281,2188,0.574139974784295,-9.9807604643195,0.0164935327468356,0.002992,-0.000312,0.003581,0.125067,0.002199,328.259853,23.455276,0.999016,0.978665,0.005657,0.325527,-0.000024,-0.000014,-0.000014,-0.000004,-0.000034,-54.718716,0.000042,
2446,2938,4.02433438318137,6.39479157103145,-0.0221387037241243,0.003027,-0.000237,-0.002042,0.146672,-0.003846,315.834379,25.200413,0.999612,0.992223,0.003725,0.378178,-0.000015,-0.000018,-0.000005,-0.000012,-0.000022,-35.831410,0.000034,
2401,2683,3.09420444700504,0.841641730193871,-0.0243764903931947,0.002578,0.000323,-0.000236,0.119399,0.026420,319.883200,24.372657,0.999381,0.988012,0.004348,0.363921,-0.000019,0.000001,-0.000010,0.000005,-0.000023,-67.934172,0.000024,
2041,2428,-4.69569001254298,-4.73002769630379,-0.0165873865608432,0.002573,0.000105,0.002058,0.112674,0.054538,324.953163,24.543410,0.998958,0.984805,0.004786,0.431812,-0.000014,-0.000043,0.000000,-0.000014,-0.000043,-0.385242,0.000059,
2206,3163,-1.22864614162821,11.2590456835191,0.0284005837226573,0.002894,-0.000404,0.001020,0.130018,-0.018181,312.687402,24.909357,0.999777,0.995139,0.003045,0.355688,-0.000022,-0.000003,-0.000009,0.000000,-0.000025,-68.550391,0.000029,
2296,2353,0.870752629345628,-6.36857884831461,0.00524874917783791,0.002753,0.000095,-0.000278,0.127261,0.009667,325.488941,23.684930,0.999593,0.988412,0.004214,0.380778,-0.000022,-0.000037,-0.000017,-0.000011,-0.000048,-32.693398,0.000063,
2026,2368,-5.01168881580339,-6.04198419100562,-0.00240860397241249,0.002920,0.000079,0.001133,0.131193,0.040470,326.147310,24.585220,0.999198,0.986361,0.004758,0.449293,-0.000004,-0.000007,-0.000005,-0.000001,-0.000011,-35.305604,0.000013,
2221,3283,-0.925591489404436,13.8632389549069,0.00299100499239557,0.003066,0.000069,-0.004985,0.157493,0.000565,310.494342,25.167479,0.999458,0.992262,0.003451,0.323171,-0.000025,0.000017,-0.000012,0.000020,-0.000029,-74.788164,0.000030,
2431,2818,3.72122559741015,3.78320660969194,-0.0252450576083447,0.002558,0.000275,-0.004706,0.135042,0.006146,317.730918,24.769103,0.999556,0.990596,0.003969,0.389126,-0.000014,-0.000018,-0.000011,-0.000005,-0.000028,-39.796863,0.000035,
2116,2788,-3.12240453128679,3.11414767695764,-0.0215131720393629,0.002757,-0.000420,0.002491,0.119501,0.006613,318.703661,24.400374,0.999636,0.992256,0.003526,0.419916,-0.000024,-0.000013,-0.000002,-0.000012,-0.000025,-79.809032,0.000038,
2086,2713,-3.76191478170788,1.48136305023013,-0.022027907325139,0.002910,-0.000385,0.004585,0.120676,0.013411,320.061637,24.375550,0.999401,0.990545,0.003854,0.432573,-0.000023,-0.000022,-0.000003,-0.000020,-0.000026,-51.441268,0.000046,
2056,2563,-4.38938457146012,-1.78652899560838,-0.0164596936988346,0.003163,-0.000040,-0.000307,0.146450,0.018036,322.722721,24.424792,0.999315,0.988599,0.004247,0.434944,-0.000029,-0.000019,0.000004,-0.000018,-0.000030,70.716973,0.000049,
2236,2068,-0.385629101685446,-12.6123080073489,0.0327724842108523,0.002939,-0.000422,0.002643,0.125959,-0.001704,330.400781,23.528973,0.999092,0.979462,0.005473,0.285877,0.000004,-0.000013,-0.000007,0.000007,-0.000016,-20.001200,0.000016,
2191,3238,-1.56563859777744,12.8818987827811,0.0416080007333335,0.003271,-0.000613,-0.000427,0.151967,-0.026036,311.637990,24.857465,0.999780,0.994514,0.003072,0.399005,-0.000024,-0.000012,-0.000019,0.000002,-0.000037,-53.933056,0.000042,
2056,2443,-4.37104544504786,-4.40299457988117,-0.0139004061908281,0.003010,0.000037,0.000016,0.138393,0.014780,324.673464,24.516446,0.999175,0.987094,0.004542,0.373931,-0.000028,-0.000044,-0.000005,-0.000026,-0.000046,-17.123964,0.000073,
2281,2308,0.552244284708319,-7.35296181911762,0.00709668026399868,0.003189,-0.000527,0.001817,0.140011,0.005949,326.260460,23.662409,0.999329,0.983225,0.005191,0.363484,-0.000026,-0.000044,-0.000013,-0.000019,-0.000051,-27.459126,0.000073,
2491,3178,4.95873208984372,11.6089739389228,0.0321222517744104,0.002709,-0.000182,-0.000044,0.124700,0.000148,312.437595,26.235166,0.999633,0.990856,0.003701,0.374056,0.000010,-0.000006,0.000012,0.000016,-0.000012,28.292955,0.000017,
2476,3118,4.64370412374567,10.3053940252894,0.0196867780686034,0.002797,-0.000415,0.000942,0.124894,-0.003176,313.280139,25.910836,0.999543,0.990723,0.003697,0.404391,0.000010,0.000014,0.000027,0.000039,-0.000014,47.171978,0.000040,
2191,3133,-1.54834740366487,10.6075598721055,0.0301856906169178,0.003211,-0.000263,0.000246,0.147239,0.002984,313.254994,24.829705,0.999384,0.992719,0.003668,0.363077,-0.000018,-0.000017,-0.000011,-0.000007,-0.000029,-46.364758,0.000038,
2086,2638,-3.75001664691882,-0.150653337804833,-0.0249856986889654,0.003014,-0.000294,0.002413,0.131688,0.005653,321.262839,24.423079,0.999262,0.988311,0.004212,0.380110,-0.000018,-0.000015,0.000004,-0.000012,-0.000021,54.306759,0.000033,
2116,2878,-3.13650885138842,5.06988104698253,-0.0118843784126739,0.002757,-0.000215,0.003953,0.115250,0.001511,317.317361,24.436224,0.999584,0.992100,0.003681,0.398101,-0.000014,0.000004,0.000001,0.000004,-0.000014,86.649938,0.000015,
2296,2248,0.890343107358863,-8.66606906887284,0.0063592937735848,0.003106,0.000142,-0.001664,0.148020,0.015224,327.214683,23.458090,0.999076,0.982577,0.005176,0.388773,-0.000033,-0.000021,-0.000026,-0.000001,-0.000053,-51.232959,0.000062,
2446,2953,4.02119282219159,6.7206446506851,-0.0195333445241204,0.002789,-0.000340,-0.000572,0.130221,-0.004510,315.594600,25.240660,0.999699,0.993404,0.003504,0.388857,-0.000014,-0.000025,-0.000002,-0.000013,-0.000025,-9.008898,0.000040,
2311,2233,1.22030332752948,-8.99410089553374,0.00959376135858747,0.002948,0.000218,-0.000087,0.135479,0.031300,327.459078,23.415979,0.998735,0.978267,0.005695,0.343644,-0.000030,-0.000015,-0.000018,-0.000003,-0.000043,-56.277357,0.000051,
2026,2473,-5.0286572621333,-3.74820021795679,-0.0218381566262451,0.002946,-0.000154,0.004766,0.122410,0.020279,324.284037,24.571233,0.999042,0.986066,0.004629,0.385755,-0.000007,-0.000050,-0.000023,0.000003,-0.000059,-23.394455,0.000067,
2011,2368,-5.33777296538886,-6.04134030242191,-0.0094142718336343,0.003297,0.000173,-0.002310,0.157912,0.004639,326.210023,24.672316,0.999152,0.988015,0.004667,0.376442,-0.000014,0.000002,-0.000012,0.000009,-0.000021,-60.634831,0.000021,
2146,2998,-2.50296549730397,7.67668311152495,0.00544932181492186,0.003317,0.000411,-0.004814,0.167683,0.019635,315.432568,24.541124,0.999638,0.993202,0.003418,0.419426,-0.000021,0.000007,0.000001,0.000007,-0.000021,87.038971,0.000021,
2206,3223,-1.23965256753155,12.5610180256037,0.022176836829658,0.002845,-0.000228,0.001576,0.126135,0.000618,311.648502,25.043628,0.999814,0.995622,0.002967,0.301533,-0.000020,-0.000009,-0.000017,0.000003,-0.000032,-53.669364,0.000036,
2221,3298,-0.929215497779328,14.1876719292979,-0.000877998827036208,0.002737,-0.000251,0.000331,0.125061,-0.012329,310.183864,25.135439,0.999456,0.992658,0.003333,0.359373,-0.000022,0.000028,-0.000017,0.000034,-0.000027,-72.557727,0.000036,
2041,2533,-4.71121586451023,-2.44040975085796,-0.0154982969581283,0.002915,-0.000297,0.003437,0.124519,0.017920,323.279985,24.499511,0.999274,0.989424,0.004037,0.394528,-0.000020,-0.000018,0.000012,-0.000007,-0.000031,47.122793,0.000040,
2026,2383,-5.01425439326098,-5.71434749575835,-0.000263414204880519,0.002454,0.000005,0.001201,0.109574,0.024667,325.902068,24.623170,0.999472,0.989130,0.004040,0.387508,-0.000008,-0.000013,-0.000019,0.000008,-0.000030,-41.169099,0.000031,
2176,3163,-1.87878562669228,11.2565531246158,0.0310287110854688,0.003143,-0.000453,-0.001277,0.148722,-0.022008,312.822655,24.793221,0.999813,0.996396,0.002863,0.334308,-0.000026,-0.000005,-0.000008,-0.000002,-0.000029,-71.415632,0.000034,
2266,2143,0.255548355712005,-10.9645824131063,0.0159182397959512,0.003654,-0.000386,0.001991,0.160721,0.019140,329.034479,23.615411,0.999487,0.984317,0.005039,0.174555,-0.000021,-0.000012,-0.000009,-0.000007,-0.000027,-58.692285,0.000036,
2161,3088,-2.19224907291167,9.63025352461328,0.0166318787836417,0.003163,-0.000034,-0.002240,0.152683,-0.002179,313.984981,24.692471,0.999425,0.990878,0.003812,0.343552,-0.000011,-0.000010,-0.000006,-0.000004,-0.000016,-47.529272,0.000021,
2341,2353,1.85233024218006,-6.36774751938705,0.00275282215841344,0.002994,0.000500,-0.003584,0.149926,0.022166,325.467379,23.538402,0.999322,0.985653,0.004719,0.380728,-0.000013,-0.000041,0.000001,-0.000013,-0.000041,2.589487,0.000056,
2266,2263,0.233242649809164,-8.33747363216225,0.0166966411561589,0.002615,-0.000059,0.002716,0.110912,0.025898,327.057791,23.731655,0.999635,0.989107,0.004405,0.290309,-0.000024,-0.000034,-0.000020,-0.000008,-0.000049,-37.966500,0.000062,
2101,2773,-3.44573216182309,2.78843273040022,-0.0278995957040706,0.003055,-0.000138,0.001031,0.137691,0.020744,318.981473,24.433127,0.999626,0.991168,0.003725,0.388456,-0.000024,-0.000024,-0.000004,-0.000020,-0.000028,-44.503714,0.000048,
2251,2158,-0.0748095999092335,-10.6381255717756,0.0194713279503276,0.002647,0.000231,-0.002624,0.129972,0.003036,328.817474,23.553776,0.998249,0.980226,0.005547,0.330100,-0.000015,-0.000011,-0.000012,-0.000001,-0.000025,-49.231010,0.000030,
2056,2578,-4.39166238952393,-1.45888925604109,-0.0213235810870174,0.003527,0.000345,0.000314,0.161570,0.028153,322.454398,24.439004,0.999045,0.988360,0.004343,0.426166,-0.000037,-0.000023,-0.000004,-0.000022,-0.000039,-73.983983,0.000062,
2086,2728,-3.76415226566662,1.80824840072699,-0.0239643398826388,0.003017,-0.000120,0.002142,0.132749,0.022922,319.814011,24.395410,0.999366,0.989523,0.004031,0.421369,-0.000029,-0.000028,-0.000001,-0.000027,-0.000030,-56.956634,0.000057,
2206,3298,-1.25396702462551,14.1857196389604,0.00270696100540135,0.002958,-0.000329,0.000780,0.133852,-0.014962,310.264123,25.022374,0.999335,0.992730,0.003390,0.383570,-0.000023,0.000022,-0.000022,0.000031,-0.000031,-67.913632,0.000036,
2026,2488,-5.03007492395772,-3.42308689320858,-0.0147147631068947,0.003223,-0.000432,0.002969,0.140004,-0.000144,324.119786,24.463089,0.999417,0.987259,0.004272,0.464542,-0.000007,-0.000045,-0.000021,0.000002,-0.000054,-23.514090,0.000061,
2281,2203,0.571382543646038,-9.65173790116796,0.0111943338988567,0.003145,-0.000280,0.001287,0.139770,-0.014878,327.988628,23.486665,0.998691,0.979166,0.005682,0.307552,-0.000028,-0.000009,-0.000018,0.000002,-0.000039,-58.753379,0.000044,
2431,2833,3.7183887455433,4.11023896700466,-0.0176211162280993,0.002855,-0.000445,0.004824,0.113209,0.013959,317.527728,24.914434,0.999372,0.989375,0.004021,0.301312,-0.000018,-0.000020,-0.000009,-0.000010,-0.000029,-41.466638,0.000040,
2401,2698,3.09064664998069,1.16851640610903,-0.030697728800078,0.002697,-0.000225,0.002946,0.113120,0.027700,319.580038,24.360064,0.999423,0.989916,0.004055,0.423905,-0.000020,0.000006,-0.000008,0.000008,-0.000023,-74.974917,0.000023,
2191,3148,-1.55147794756596,10.9331606003666,0.0268647824331651,0.002865,-0.000252,-0.000298,0.132971,-0.000519,312.967592,24.856262,0.999035,0.991268,0.004067,0.346474,-0.000019,-0.000012,-0.000008,-0.000006,-0.000024,-55.643959,0.000032,
2416,2803,3.39754604851646,3.45571666191947,-0.0245698941902219,0.002739,-0.000090,-0.000766,0.128591,0.001927,317.953550,24.702734,0.999471,0.987937,0.004364,0.388135,-0.000013,-0.000012,-0.000010,-0.000002,-0.000022,-47.343288,0.000027,
2131,2848,-2.80684859940341,4.42018913658934,-0.0283360008276077,0.002612,-0.000452,-0.001292,0.124055,-0.008345,317.610181,24.472802,0.999615,0.993037,0.003457,0.366081,-0.000013,-0.000014,0.000003,-0.000010,-0.000017,43.210917,0.000027,
2011,2293,-5.32731124284085,-7.67854898200186,-0.0127708611499315,0.003205,-0.000163,0.000752,0.145208,0.039316,327.375430,24.760375,0.999056,0.986022,0.004823,0.373395,-0.000008,0.000057,-0.000011,0.000059,-0.000010,-80.336285,0.000063,
2071,2563,-4.06397281560708,-1.78500736722722,-0.0257830816200908,0.003227,-0.000229,0.000712,0.146419,0.014775,322.562384,24.428894,0.999171,0.988641,0.004348,0.406303,-0.000037,-0.000018,0.000003,-0.000018,-0.000038,82.669235,0.000057,
2071,2653,-4.07821630102115,0.175722921297101,-0.0286058024275349,0.003230,-0.000377,0.001701,0.143789,0.013325,321.079953,24.415534,0.999267,0.988968,0.004170,0.403223,-0.000031,-0.000011,-0.000004,-0.000010,-0.000031,-80.350617,0.000043,
2026,2518,-5.03551835180338,-2.76777937453681,-0.0247101307823527,0.002769,-0.000092,0.001403,0.123543,0.016695,323.535537,24.447896,0.999739,0.993718,0.003379,0.479807,-0.000015,-0.000013,0.000006,-0.000008,-0.000020,49.933818,0.000029,
2101,2698,-3.43393345775823,1.15594585634197,-0.0203528180948069,0.002548,-0.000463,0.003997,0.105525,0.014915,320.229330,24.427960,0.999359,0.990553,0.003862,0.380798,-0.000017,-0.000013,0.000001,-0.000013,-0.000018,77.460826,0.000030,
2041,2443,-4.69677702842121,-4.40412696322642,-0.00722077690778633,0.002979,0.000361,-0.001059,0.140095,0.031880,324.817121,24.517284,0.998700,0.982846,0.005259,0.428707,-0.000017,-0.000042,-0.000007,-0.000015,-0.000044,-13.953041,0.000061,
2221,1993,-0.699819094229337,-14.2583597518673,0.0409541059244702,0.002730,-0.000172,0.002125,0.118191,0.015455,331.698093,23.543726,0.999679,0.988382,0.004504,0.270587,0.000033,-0.000056,-0.000027,0.000041,-0.000064,-15.441590,0.000065,
2371,2533,2.47045440218003,-2.43261252200741,-0.0144206460494161,0.002703,0.000202,-0.000267,0.125097,0.031645,322.388171,23.923922,0.999402,0.986539,0.004652,0.408825,-0.000008,-0.000007,0.000008,0.000001,-0.000015,47.138105,0.000017,
2116,2803,-3.12400105825864,3.43990578112986,-0.0130945486768042,0.002983,-0.000422,0.001436,0.132987,-0.008433,318.543898,24.444252,0.999607,0.992464,0.003481,0.364134,-0.000019,-0.000011,0.000001,-0.000011,-0.000019,83.491251,0.000031,
2251,2068,-0.0584750052646292,-12.6113766770709,0.0255352151727379,0.002944,0.000503,-0.000436,0.136424,0.038902,330.322047,23.427029,0.999243,0.981688,0.005150,0.334140,-0.000002,-0.000008,-0.000005,0.000001,-0.000011,-29.447771,0.000013,
2326,2278,1.53827159638063,-8.00842739340053,0.000480254282138048,0.002584,0.000054,-0.000496,0.120189,0.011747,326.634081,23.428210,0.999127,0.983381,0.004959,0.351851,-0.000030,-0.000032,-0.000019,-0.000012,-0.000050,-43.156631,0.000066,
2056,2458,-4.3735861613488,-4.07652565761614,-0.0110409110777709,0.002649,-0.000245,0.001154,0.118495,0.011002,324.435868,24.467726,0.999203,0.986531,0.004730,0.414763,-0.000026,-0.000044,-0.000017,-0.000016,-0.000054,-31.195890,0.000074,
2206,3238,-1.24174414059565,12.8846514670437,0.0286560731569807,0.002873,-0.000299,0.000800,0.129842,-0.009223,311.461446,24.975606,0.999770,0.994803,0.003053,0.375174,-0.000020,-0.000014,-0.000017,0.000001,-0.000034,-49.640203,0.000039,
2476,3133,4.6408186883627,10.6315848305459,0.020520334301068,0.002909,-0.000584,0.001178,0.129124,-0.002647,313.045066,26.014084,0.999534,0.990002,0.003753,0.357294,0.000013,0.000003,0.000017,0.000025,-0.000010,37.095003,0.000026,
2251,2173,-0.0780628069746108,-10.3091615838364,0.0123579149047259,0.002558,-0.000075,-0.002302,0.124699,0.007924,328.511487,23.526780,0.999009,0.984020,0.005065,0.388463,-0.000011,-0.000010,-0.000008,-0.000003,-0.000018,-45.654512,0.000023,
2041,2548,-4.71404033446714,-2.11290061061263,-0.0266531351467734,0.002897,-0.000256,0.001062,0.130318,0.000639,322.950574,24.462805,0.999499,0.989743,0.003907,0.407751,-0.000017,-0.000020,0.000008,-0.000010,-0.000027,39.221968,0.000038,
2386,2608,2.78285638595553,-0.79595034007081,-0.0150932417842,0.002922,-0.000212,0.002453,0.125290,0.036200,321.173940,24.074102,0.999319,0.987733,0.004368,0.457458,-0.000010,-0.000012,-0.000002,-0.000009,-0.000013,-30.797528,0.000022,
2056,2593,-4.39490946669704,-1.13064240294044,-0.0298100029892225,0.003211,-0.000250,0.001866,0.142492,0.007713,322.121702,24.513468,0.998733,0.987357,0.004471,0.327010,-0.000035,-0.000004,0.000001,-0.000004,-0.000035,87.861963,0.000044,
2176,3058,-1.86176464882987,8.97947797462826,0.0217315893727914,0.003025,-0.000340,0.001646,0.134224,0.000351,314.445975,24.662370,0.999710,0.995115,0.003180,0.409338,-0.000008,-0.000013,-0.000007,-0.000003,-0.000018,-35.187447,0.000023,
2191,3253,-1.56937680558382,13.2078799332048,0.0306669559266766,0.002963,-0.000223,0.000710,0.134348,-0.008212,311.282574,24.882888,0.999677,0.993955,0.003210,0.404130,-0.000026,-0.000004,-0.000019,0.000007,-0.000036,-60.343619,0.000039,
2011,2308,-5.32984406298556,-7.35168638805961,-0.0060658124439783,0.002592,-0.000457,0.003049,0.110765,0.018655,327.156141,24.753858,0.998997,0.987072,0.004745,0.349219,-0.000012,0.000052,-0.000010,0.000054,-0.000013,-80.997412,0.000056,
2161,2998,-2.17827655468381,7.67826471446757,0.00216633605577954,0.003077,-0.000088,0.000544,0.140170,0.017870,315.319790,24.617081,0.999618,0.992946,0.003574,0.383946,-0.000008,0.000012,0.000003,0.000012,-0.000008,81.237292,0.000012,
2146,2893,-2.48722638399328,5.39715342067699,-0.0116636728666322,0.002971,-0.000370,-0.000459,0.138112,-0.013926,316.970442,24.480442,0.999520,0.990117,0.003977,0.395658,-0.000018,-0.000006,0.000001,-0.000006,-0.000018,85.866249,0.000025,
2461,3043,4.33206249391854,8.6759697242276,0.0108341849080489,0.002898,-0.000072,-0.000248,0.134202,0.014212,314.410323,25.598708,0.999567,0.990124,0.003898,0.406858,-0.000017,0.000015,0.000002,0.000015,-0.000017,86.789101,0.000018,
2071,2578,-4.06668245214475,-1.4578057359613,-0.026616355974113,0.003067,-0.000134,0.003391,0.131444,0.025037,322.297797,24.439070,0.999010,0.988328,0.004477,0.403998,-0.000046,-0.000021,-0.000002,-0.000021,-0.000046,-84.617547,0.000068,
2026,2503,-5.03335612741628,-3.09318188956472,-0.0276248202569604,0.002902,-0.000227,0.001883,0.128320,0.026371,323.757339,24.569007,0.999718,0.992740,0.003563,0.376976,-0.000007,-0.000016,-0.000012,0.000002,-0.000024,-35.479554,0.000027,
2176,3178,-1.88076563604928,11.5804534348153,0.0419813348271987,0.003159,-0.000383,0.001205,0.141780,-0.014908,312.662528,24.744936,0.999756,0.995127,0.003058,0.400774,-0.000029,-0.000008,-0.000010,-0.000005,-0.000033,-68.386939,0.000041,
2011,2458,-5.35088342074924,-4.07752893471848,-0.00343070694498238,0.003133,0.000399,-0.000597,0.145891,0.036795,324.797778,24.596588,0.999453,0.990131,0.003979,0.421485,-0.000017,-0.000060,-0.000036,0.000004,-0.000081,-29.735976,0.000091,
2086,2743,-3.76661085803406,2.1339976770061,-0.0191666316325154,0.002676,-0.000399,0.002852,0.114939,0.015605,319.593287,24.386230,0.999462,0.989428,0.004040,0.422537,-0.000029,-0.000022,-0.000004,-0.000020,-0.000031,-66.679457,0.000051,
2266,2278,0.230250640525963,-8.00925899913693,0.00554160611369525,0.003010,-0.000296,0.001598,0.132649,-0.001122,326.745010,23.667653,0.999483,0.986687,0.004691,0.355329,-0.000023,-0.000035,-0.000023,-0.000006,-0.000053,-37.179972,0.000064,
2266,2158,0.252824358595475,-10.6368581302251,0.0166280324962713,0.003258,0.000408,-0.001670,0.154953,0.034940,328.793527,23.542510,0.999209,0.982948,0.005180,0.291739,-0.000023,-0.000013,-0.000007,-0.000009,-0.000027,-62.365297,0.000038,
2041,2458,-4.69933929603943,-4.0769611087,-0.00994666879279293,0.002906,0.000097,-0.000026,0.133780,0.026355,324.546373,24.481417,0.998907,0.982573,0.005256,0.453174,-0.000016,-0.000044,-0.000019,-0.000006,-0.000054,-26.507477,0.000066,
2026,2533,-5.03745520286134,-2.440592585772,-0.018870362692212,0.002859,-0.000436,0.003578,0.121659,0.016982,323.339845,24.510592,0.999436,0.989595,0.004028,0.408337,-0.000016,-0.000029,0.000008,-0.000012,-0.000032,25.247586,0.000046,
2236,1993,-0.372500522683591,-14.2586340944295,0.034183627471748,0.002992,-0.000042,0.002549,0.128763,0.032183,331.620038,23.357301,0.999691,0.988420,0.004546,0.368127,0.000040,-0.000042,-0.000038,0.000055,-0.000057,-21.359787,0.000065,
2296,2368,0.868029298794589,-6.04192947647806,0.011743299954901,0.002493,-0.000436,0.002743,0.104928,-0.003779,325.278896,23.671987,0.999394,0.985669,0.004668,0.411752,-0.000024,-0.000026,-0.000018,-0.000007,-0.000043,-43.818068,0.000054,
2131,2863,-2.80846131231712,4.74505999976681,-0.0131828205415445,0.002715,-0.000474,0.002428,0.117646,-0.004547,317.486763,24.482135,0.999616,0.992319,0.003520,0.365790,-0.000012,-0.000015,0.000002,-0.000011,-0.000016,21.756483,0.000028,
2476,3148,4.63767890226231,10.9572465203201,0.0233213175361584,0.002699,-0.000477,0.002608,0.114045,0.000476,312.807305,26.081744,0.999539,0.989483,0.003797,0.347892,0.000014,-0.000012,0.000014,0.000020,-0.000018,23.713845,0.000022,
2131,2938,-2.81900255336033,6.37360361145653,0.00278750257024285,0.003327,-0.000317,-0.000001,0.153236,-0.005321,316.435325,24.544139,0.999632,0.991788,0.003750,0.328766,-0.000017,-0.000009,-0.000002,-0.000009,-0.000017,-75.182339,0.000027,
2101,2713,-3.4364708527226,1.48222874062724,-0.0211161555594117,0.002519,-0.000443,0.004956,0.101316,-0.001378,319.975759,24.423354,0.999396,0.989995,0.003945,0.370565,-0.000017,-0.000020,-0.000002,-0.000016,-0.000021,-30.915431,0.000037,
2056,2608,-4.39694316972452,-0.805337710818357,-0.0242862324595876,0.003054,-0.000188,0.000481,0.139148,0.002526,321.922436,24.429229,0.998982,0.988745,0.004284,0.401215,-0.000028,-0.000005,0.000004,-0.000004,-0.000029,81.494625,0.000036,
2086,2653,-3.75183513543015,0.175129882974943,-0.0174778359575498,0.003282,-0.000713,0.005514,0.134973,0.012733,321.086053,24.400090,0.999529,0.989676,0.003881,0.409634,-0.000025,-0.000009,-0.000001,-0.000009,-0.000025,-87.863589,0.000035,
2191,3268,-1.57284398563568,13.5331422313335,0.0171588695711762,0.002948,-0.000393,-0.000413,0.137146,-0.020423,310.926441,24.863040,0.999399,0.991675,0.003692,0.424976,-0.000027,0.000007,-0.000014,0.000012,-0.000032,-70.193721,0.000033,
2101,2788,-3.44783545347907,3.11343224053003,-0.0207868482906406,0.002975,-0.000428,0.002176,0.130571,0.008715,318.790786,24.390654,0.999629,0.991360,0.003741,0.419897,-0.000026,-0.000011,-0.000004,-0.000010,-0.000027,-76.458163,0.000038,
2311,2248,1.21753053214809,-8.66617693822491,0.00907121306602221,0.002799,0.000264,-0.002222,0.135946,0.027158,327.213433,23.400874,0.998798,0.980718,0.005389,0.389231,-0.000026,-0.000022,-0.000016,-0.000008,-0.000040,-49.337897,0.000051,
2446,2968,4.01893455197006,7.04683877175469,-0.0111866161357739,0.002899,-0.000301,0.000055,0.132966,-0.000889,315.421832,25.351464,0.999676,0.992609,0.003570,0.332996,-0.000015,-0.000019,-0.000003,-0.000014,-0.000020,-29.580590,0.000034,
2356,2413,2.16736997997985,-5.05466422283794,-0.00535194171879994,0.003198,-0.000074,0.001137,0.142628,0.008763,324.422009,23.682728,0.999761,0.989628,0.004177,0.332297,-0.000009,-0.000004,0.000013,0.000006,-0.000020,50.760392,0.000020,
2296,2263,0.886385104844617,-8.33559183490012,-0.00221810269653133,0.002765,-0.000101,0.001711,0.120982,0.025286,326.873197,23.585473,0.999522,0.987795,0.004605,0.304125,-0.000032,-0.000029,-0.000028,-0.000003,-0.000058,-46.428863,0.000069,
2116,2893,-3.139472618569,5.39664526968015,-0.0191082524684703,0.002649,-0.000069,0.003044,0.113030,0.014049,317.010422,24.453458,0.999407,0.991899,0.003989,0.396592,-0.000021,-0.000005,-0.000001,-0.000004,-0.000021,-87.305399,0.000027,
2221,2008,-0.703670053410828,-13.9268155318943,0.0276969556909989,0.002432,-0.000083,0.002860,0.102224,0.019765,331.330445,23.615534,0.999650,0.987693,0.004648,0.226509,0.000017,-0.000071,-0.000015,0.000020,-0.000073,-9.583408,0.000076,
2191,3163,-1.55460049026312,11.2593253945809,0.0171974008781035,0.003045,-0.000256,0.000347,0.139152,-0.016612,312.647216,24.913579,0.999616,0.994817,0.003207,0.286167,-0.000019,-0.000004,-0.000008,-0.000001,-0.000022,-67.967157,0.000026,
2146,3013,-2.50532094925872,8.00273045852081,0.00579855629058557,0.003426,0.000324,-0.005146,0.173661,0.006818,315.196702,24.605356,0.999435,0.990902,0.003878,0.349511,-0.000019,0.000003,0.000000,0.000003,-0.000019,-89.456300,0.000020,
2371,2548,2.46762428702016,-2.10588150301971,-0.0105727729957721,0.002625,-0.000142,0.002135,0.112836,0.007764,322.164991,23.961176,0.999269,0.985537,0.004855,0.389603,-0.000007,-0.000011,0.000003,-0.000006,-0.000013,25.854235,0.000019,
2401,2713,3.08767010507477,1.49541197546704,-0.036257817533567,0.002758,-0.000005,-0.001122,0.130748,0.011010,319.307140,24.378862,0.999590,0.990527,0.003880,0.434325,-0.000021,0.000012,-0.000012,0.000016,-0.000025,-72.100501,0.000025,
2341,2368,1.84818987818221,-6.03827974383983,-0.0106192824109712,0.002875,0.000532,-0.001110,0.135906,0.037180,325.098674,23.563027,0.999162,0.984754,0.004804,0.410045,-0.000015,-0.000026,0.000001,-0.000015,-0.000027,7.023343,0.000042,
2386,2623,2.77923684694917,-0.468690919603326,-0.0206115224082168,0.002610,-0.000327,0.002202,0.111819,0.010820,320.870721,24.104115,0.999234,0.987043,0.004400,0.445932,-0.000012,-0.000011,-0.000007,-0.000004,-0.000019,-48.292198,0.000024,
2041,2593,-4.72029036643463,-1.13186270092722,-0.0239217439884669,0.003223,0.000135,-0.000413,0.149567,0.015648,322.264729,24.500450,0.998847,0.988852,0.004305,0.364581,-0.000024,-0.000008,0.000002,-0.000008,-0.000025,83.617511,0.000034,
2116,2818,-3.126569713841,3.76657231807093,-0.0189509957307905,0.003126,-0.000028,-0.000162,0.144491,0.015307,318.262475,24.427594,0.999544,0.992020,0.003644,0.408034,-0.000015,-0.000011,0.000001,-0.000010,-0.000015,76.457914,0.000025,
2206,3253,-1.244557463651,13.2095123768494,0.0289107031268259,0.002835,-0.000171,0.003223,0.120377,-0.010222,311.208443,24.980100,0.999797,0.995046,0.002949,0.384826,-0.000020,-0.000007,-0.000018,0.000006,-0.000033,-55.234958,0.000035,
2161,3103,-2.19485632774628,9.95490027234104,0.0228528413126128,0.002701,0.000147,-0.001892,0.130414,0.004939,313.770074,24.668392,0.999615,0.993547,0.003293,0.383796,-0.000015,-0.000014,-0.000005,-0.000009,-0.000020,-47.000024,0.000029,
2011,2383,-5.34021560854216,-5.71376057377923,-0.00256795209276106,0.002932,-0.000022,0.002521,0.128025,0.039324,325.995379,24.700189,0.999214,0.988178,0.004379,0.372649,-0.000022,-0.000011,-0.000034,0.000018,-0.000051,-49.841015,0.000052,
2056,2623,-4.39921397960272,-0.478673773350792,-0.0226347947581189,0.002889,0.000009,-0.001163,0.136284,0.017171,321.690581,24.420699,0.999199,0.990564,0.003997,0.419668,-0.000027,-0.000020,0.000000,-0.000020,-0.000027,88.857729,0.000047,
2041,2563,-4.71585561992415,-1.78669889527912,-0.0192667098951915,0.002966,-0.000400,0.002038,0.130724,0.005168,322.770293,24.453882,0.999500,0.989758,0.003908,0.414189,-0.000016,-0.000024,0.000004,-0.000014,-0.000026,24.324729,0.000041,
2266,2293,0.227645994005616,-7.68017945759033,-0.00146183573724556,0.003228,0.000327,-0.003230,0.158835,0.010902,326.470398,23.692107,0.999280,0.984945,0.005007,0.370922,-0.000022,-0.000036,-0.000015,-0.000012,-0.000045,-32.811180,0.000061,
2056,2473,-4.37540350019146,-3.74825639872495,-0.0115549026731401,0.003083,-0.000270,-0.000083,0.141955,0.008990,324.212356,24.555189,0.999202,0.987095,0.004867,0.321234,-0.000023,-0.000036,-0.000011,-0.000017,-0.000042,-30.163247,0.000061,
2281,2218,0.568083585851216,-9.32248361291533,0.00994687390857507,0.002591,0.000050,0.000745,0.116281,0.024084,327.712410,23.531551,0.998865,0.980876,0.005453,0.332030,-0.000027,-0.000010,-0.000019,0.000002,-0.000039,-56.535665,0.000044,
2086,2668,-3.75448537223229,0.501974788690639,-0.0208813624200275,0.003037,-0.000088,0.002736,0.131923,0.029102,320.811525,24.378196,0.999445,0.990270,0.003868,0.447472,-0.000028,-0.000009,0.000001,-0.000009,-0.000028,87.307651,0.000038,
2101,2728,-3.4390944186084,1.80954383015681,-0.030522323331013,0.002669,-0.000041,0.001370,0.118865,0.008259,319.671137,24.422837,0.999383,0.988882,0.004119,0.382248,-0.000022,-0.000025,0.000000,-0.000022,-0.000026,-6.678508,0.000047,
2296,2383,0.864768127464465,-5.71204478460927,0.00178459769540495,0.002663,-0.000446,0.002184,0.114631,0.009010,324.962161,23.774460,0.999173,0.983358,0.005099,0.354267,-0.000024,-0.000024,-0.000020,-0.000004,-0.000044,-44.969121,0.000053,
2146,2908,-2.48934253436704,5.72297486648903,-0.00769778173582836,0.002993,-0.000228,-0.001908,0.143597,-0.007182,316.764837,24.502546,0.999387,0.989176,0.004113,0.387785,-0.000017,-0.000013,-0.000003,-0.000012,-0.000018,-61.520489,0.000030,
2011,2683,-5.3853984783458,0.825168992478623,-0.0181064774988045,0.002970,-0.000412,0.001631,0.132320,0.009643,321.027302,24.382218,0.999786,0.995902,0.002926,0.441926,-0.000008,-0.000040,0.000010,-0.000006,-0.000043,16.158382,0.000053,
2491,3193,4.95639382357936,11.9340953724364,0.036820457398278,0.002970,-0.000053,-0.000892,0.140055,0.006900,312.246254,26.270694,0.999539,0.991213,0.003696,0.402915,0.000010,0.000005,0.000010,0.000018,-0.000003,39.280991,0.000019,
2416,2818,3.39485096064463,3.7817305553507,-0.0217024571673505,0.002675,-0.000090,-0.001810,0.129485,-0.009150,317.734097,24.732885,0.999338,0.988667,0.004274,0.394332,-0.000013,-0.000017,-0.000008,-0.000007,-0.000023,-37.782381,0.000031,
2011,2473,-5.35385528399466,-3.7499190981382,-0.00629720002393697,0.002791,-0.000070,0.003613,0.118635,0.030433,324.504840,24.605072,0.999159,0.988059,0.004317,0.396137,-0.000017,-0.000060,-0.000032,0.000000,-0.000077,-28.079346,0.000089,
2236,2083,-0.389135452179485,-12.2817135202489,0.0244378619802887,0.002668,-0.000380,0.003218,0.111691,0.014253,330.075451,23.589791,0.999366,0.981553,0.005285,0.266046,0.000004,0.000000,-0.000007,0.000010,-0.000006,-37.207764,0.000010,
2206,3268,-1.24766732366581,13.5355135053331,0.00947370971829287,0.003277,-0.000113,-0.002884,0.160249,-0.011434,310.839177,24.985101,0.999515,0.993034,0.003393,0.394221,-0.000021,0.000005,-0.000016,0.000012,-0.000028,-64.492710,0.000028,
2221,2023,-0.70547582221732,-13.5979714554039,0.0246681368913073,0.003221,0.000028,0.000371,0.146356,0.002546,331.108849,23.585432,0.999082,0.982007,0.005342,0.261743,0.000007,-0.000065,-0.000015,0.000010,-0.000068,-10.967750,0.000074,
2251,2188,-0.0809023668338789,-9.97800223083578,0.00686773159571885,0.002882,0.000119,-0.000566,0.134000,0.028192,328.232167,23.708148,0.999480,0.988939,0.004475,0.253532,-0.000016,-0.000011,-0.000010,-0.000003,-0.000023,-52.380273,0.000029,
2086,2758,-3.76925504520728,2.46097392176375,-0.0300228191988481,0.002999,-0.000325,0.001307,0.134295,0.009739,319.278496,24.368482,0.999551,0.990424,0.003866,0.433675,-0.000027,-0.000025,-0.000006,-0.000020,-0.000033,-50.727025,0.000053,
2431,2848,3.71571497523282,4.43609902572531,-0.0165285880033821,0.002885,0.000062,0.002662,0.122811,0.034067,317.301890,24.894025,0.999361,0.987584,0.004127,0.391502,-0.000023,-0.000021,-0.000015,-0.000007,-0.000037,-46.331492,0.000047,
2311,2263,1.21480522184592,-8.33751552019152,0.0121702944044273,0.002946,0.000024,0.002488,0.126592,0.032322,326.987532,23.486047,0.999213,0.983819,0.004914,0.343628,-0.000026,-0.000031,-0.000018,-0.000010,-0.000047,-41.411588,0.000061,
2071,2668,-4.08117609475761,0.502171300147467,-0.0257268148511685,0.002681,-0.000464,0.005696,0.107084,0.021728,320.824488,24.417946,0.999175,0.988775,0.004251,0.406299,-0.000033,-0.000011,-0.000001,-0.000011,-0.000033,-88.438894,0.000046,
2026,2758,-5.07149887035426,2.4576591165375,-0.0228597244251887,0.002922,-0.000465,0.002936,0.126456,0.003046,319.671065,24.336561,0.999128,0.989621,0.004232,0.429663,-0.000033,-0.000008,0.000006,-0.000007,-0.000034,77.828559,0.000044,
2236,2008,-0.375658292480271,-13.9293892874045,0.0298925022997878,0.002714,-0.000384,0.002333,0.116610,0.012032,331.331684,23.346557,0.999603,0.988169,0.004592,0.383806,0.000023,-0.000061,-0.000026,0.000031,-0.000068,-15.980954,0.000069,
2041,2608,-4.72261290987805,-0.805745095644895,-0.0241621915935752,0.003187,-0.000112,-0.000521,0.148160,0.005926,322.019127,24.445003,0.998803,0.987531,0.004547,0.403613,-0.000018,-0.000006,0.000006,-0.000003,-0.000020,66.881092,0.000026,
2446,2983,4.01544377397511,7.37280077494687,-0.0128028934902318,0.002661,-0.000465,0.001565,0.116323,0.001186,315.146302,25.377357,0.999625,0.991399,0.003772,0.360757,-0.000012,-0.000011,-0.000003,-0.000009,-0.000015,-48.666019,0.000023,
2326,2293,1.53542546988706,-7.67992438000525,0.00152589499691658,0.002585,0.000152,0.001450,0.113574,0.034563,326.393637,23.471378,0.999017,0.983448,0.005049,0.368050,-0.000028,-0.000036,-0.000013,-0.000019,-0.000045,-36.452853,0.000066,
2011,2398,-5.3420452172467,-5.38705250676012,-0.00419532494197483,0.003276,-0.000166,0.000547,0.149110,-0.000207,325.761843,24.645245,0.999237,0.987886,0.004384,0.377814,-0.000031,-0.000052,-0.000051,0.000011,-0.000093,-39.371912,0.000102,
2476,3163,4.63442537019951,11.2834312454162,0.0182234796896523,0.002544,-0.000092,-0.001831,0.123986,-0.000293,312.528079,26.157603,0.999546,0.990358,0.003767,0.326883,0.000015,-0.000004,0.000015,0.000023,-0.000012,28.500786,0.000023,
2176,3073,-1.86444978449877,9.30369201813537,0.0251586359647717,0.002805,-0.000471,0.003688,0.117737,0.006007,314.213843,24.574823,0.999710,0.995115,0.003091,0.513909,-0.000010,-0.000010,-0.000007,-0.000003,-0.000016,-45.025746,0.000021,
2011,2698,-5.38765769362784,1.15181100512791,-0.0185321862603587,0.003007,-0.000011,0.002151,0.132733,0.025086,320.781124,24.374914,0.999789,0.995651,0.002979,0.453082,-0.000009,-0.000033,0.000022,0.000004,-0.000046,30.464757,0.000051,
2026,2548,-5.03911091942349,-2.11359969874589,-0.0189070595588419,0.003200,-0.000001,-0.000598,0.148928,0.012073,323.124369,24.512553,0.999545,0.990242,0.003764,0.392572,-0.000010,-0.000033,0.000005,-0.000010,-0.000034,11.118056,0.000045,
2401,2728,3.0851890724388,1.82194601104137,-0.0303413671739463,0.002814,-0.000379,-0.000075,0.129341,-0.010651,319.111131,24.466959,0.999605,0.989886,0.004064,0.370166,-0.000022,0.000006,-0.000011,0.000010,-0.000025,-71.485824,0.000025,
2086,2683,-3.75708143682083,0.828635904154389,-0.0258442078278449,0.002988,-0.000085,0.000583,0.135867,0.016628,320.531126,24.360383,0.999520,0.991861,0.003573,0.452354,-0.000030,-0.000012,-0.000003,-0.000011,-0.000030,-80.829265,0.000043,
2101,2743,-3.44123554832966,2.13564251275728,-0.0254789402116558,0.002649,-0.000355,0.002004,0.116063,0.010421,319.467127,24.438959,0.999451,0.989577,0.004001,0.369597,-0.000022,-0.000023,-0.000003,-0.000020,-0.000025,-42.756021,0.000045,
2101,2803,-3.45056334754414,3.43992517175919,-0.0248103056303535,0.002868,-0.000361,0.001457,0.127721,-0.011271,318.510794,24.411140,0.999511,0.991667,0.003685,0.380826,-0.000019,-0.000008,-0.000001,-0.000008,-0.000019,-86.162251,0.000028,
2056,2488,-4.37797415712228,-3.4211798348807,-0.012986001014383,0.002858,-0.000155,-0.000616,0.133142,0.008583,323.949655,24.528653,0.999359,0.988584,0.004470,0.343054,-0.000024,-0.000031,-0.000011,-0.000016,-0.000039,-35.594600,0.000057,
2281,2323,0.549391598308755,-7.02466929026549,0.00535556932084091,0.003081,-0.000429,0.000753,0.138618,-0.012743,326.002347,23.709146,0.999042,0.982299,0.005341,0.327709,-0.000022,-0.000049,-0.000008,-0.000020,-0.000051,-14.946386,0.000074,
2416,2833,3.39185391110164,4.10859241696219,-0.0200103374169771,0.002841,-0.000468,0.002522,0.121072,-0.016832,317.494970,24.832799,0.998839,0.987160,0.004445,0.334379,-0.000015,-0.000017,-0.000005,-0.000011,-0.000022,-38.885700,0.000033,
2206,3283,-1.25067041098358,13.8612055831206,0.00713879307630805,0.003094,-0.000005,-0.002463,0.150550,-0.004666,310.563629,25.053175,0.999349,0.992080,0.003522,0.347891,-0.000025,0.000013,-0.000016,0.000019,-0.000031,-69.794367,0.000031,
2266,2173,0.248912899333778,-10.3089211639939,0.009629353958303,0.002664,-0.000045,0.000537,0.120315,0.028516,328.459708,23.434848,0.999533,0.984461,0.004978,0.421815,-0.000018,-0.000015,-0.000004,-0.000012,-0.000021,-54.144623,0.000033,
2071,2593,-4.06915123506938,-1.13096039822678,-0.0269426964407558,0.002912,-0.000136,0.002767,0.126059,0.007302,322.047196,24.453676,0.999014,0.988345,0.004354,0.369191,-0.000040,-0.000003,0.000004,-0.000003,-0.000040,84.187618,0.000048,
2026,2773,-5.07418626630557,2.78561755316159,-0.0305068045381063,0.002902,-0.000193,0.001707,0.129012,0.005770,319.365837,24.429610,0.999408,0.990723,0.004070,0.329634,-0.000031,0.000000,0.000008,0.000001,-0.000032,76.598926,0.000037,
2176,3193,-1.88251884763063,11.903463952233,0.0559850677794884,0.003044,-0.000640,0.001446,0.135682,-0.021984,312.529202,24.648919,0.999817,0.996384,0.002853,0.500782,-0.000033,-0.000014,-0.000011,-0.000008,-0.000038,-64.923074,0.000049,
2191,3178,-1.55673127457548,11.5835740220006,0.0253985821024116,0.003087,-0.000254,0.002405,0.134640,-0.013289,312.466326,24.886114,0.999841,0.996466,0.002855,0.330213,-0.000021,-0.000008,-0.000009,-0.000003,-0.000025,-62.957539,0.000031,
2116,2833,-3.1296444913158,4.09336154548468,-0.0216874454505387,0.002857,-0.000383,0.002741,0.123423,0.008123,317.974634,24.481823,0.999674,0.992819,0.003538,0.349657,-0.000015,-0.000009,-0.000001,-0.000009,-0.000015,-82.904392,0.000024,
2266,2308,0.225362581486628,-7.35261338748969,0.00596349200765189,0.003185,0.000287,-0.001654,0.151642,0.032377,326.282956,23.718939,0.998959,0.982076,0.005372,0.392795,-0.000022,-0.000045,-0.000012,-0.000017,-0.000051,-23.323000,0.000070,
2251,2203,-0.0836008005761038,-9.65182730694297,0.00969496649162238,0.002847,-0.000181,0.002964,0.120796,0.036205,328.001993,23.539868,0.999012,0.984312,0.005077,0.455722,-0.000019,-0.000007,-0.000014,0.000002,-0.000029,-56.604389,0.000032,
2011,2713,-5.3908596372112,1.47931820136904,-0.0298545759454214,0.002602,0.000049,0.000132,0.119556,0.005504,320.430476,24.398304,0.999624,0.994036,0.003491,0.398491,-0.000018,-0.000039,0.000020,-0.000006,-0.000051,31.066964,0.000063,
2161,3013,-2.18081175764823,8.00400194090578,0.000913798310705261,0.003075,0.000191,-0.000679,0.143946,0.025172,315.068358,24.622560,0.999435,0.990641,0.003958,0.395364,-0.000006,0.000009,0.000001,0.000009,-0.000006,87.070885,0.000009,
2116,2908,-3.14095139818029,5.72211178677765,-0.0101570302601885,0.002851,0.000132,0.000158,0.131012,0.026492,316.859031,24.472959,0.999254,0.990367,0.004126,0.392452,-0.000019,-0.000013,-0.000005,-0.000010,-0.000021,-60.117476,0.000032,
2221,2038,-0.708734670979123,-13.2686823427083,0.022003244673158,0.002826,0.000033,0.002034,0.122984,0.019910,330.822434,23.571675,0.998822,0.977702,0.005738,0.315678,0.000004,-0.000049,-0.000010,0.000006,-0.000051,-10.083688,0.000056,
2011,2488,-5.3560895624068,-3.42228771429487,-0.016757058381188,0.003264,0.000059,0.001547,0.146032,0.021269,324.203087,24.554057,0.999409,0.987755,0.004272,0.427559,-0.000021,-0.000058,-0.000029,-0.000005,-0.000074,-28.997834,0.000088,
2386,2638,2.77672037222646,-0.141698623145459,-0.0177375408190983,0.002835,-0.000649,0.003109,0.118785,-0.000514,320.657934,24.171846,0.999235,0.986824,0.004439,0.410781,-0.000017,-0.000011,-0.000008,-0.000006,-0.000023,-55.380015,0.000031,
2041,2578,-4.71816480649861,-1.45926544707542,-0.0275490038318935,0.003317,-0.000061,0.000074,0.152460,0.005685,322.480336,24.428811,0.999122,0.989155,0.004176,0.433172,-0.000024,-0.000028,-0.000003,-0.000022,-0.000030,-29.586684,0.000053,
2146,3028,-2.50791901236753,8.32747627756971,0.0093100572074718,0.003376,-0.000188,-0.001038,0.158739,0.000365,314.966941,24.568558,0.999450,0.991166,0.003813,0.386733,-0.000019,0.000001,0.000000,0.000001,-0.000019,-88.777790,0.000021,
2371,2563,2.46475562636244,-1.77808903506126,-0.0126899766593169,0.002853,-0.000342,0.002926,0.120439,0.013443,321.911193,24.017937,0.999364,0.987931,0.004467,0.380468,-0.000012,-0.000017,-0.000002,-0.000011,-0.000018,-23.560009,0.000029,
2476,3178,4.63157302693361,11.6084535036006,0.0243982758993866,0.002612,-0.000241,0.002883,0.109137,0.008921,312.318969,26.187706,0.999658,0.991754,0.003582,0.361344,0.000010,0.000000,0.000013,0.000019,-0.000009,34.493546,0.000019,
2461,3058,4.3287676700578,9.00211676108336,0.0111230517071021,0.002563,0.000088,-0.000705,0.120582,0.011534,314.153271,25.678443,0.999506,0.989299,0.004148,0.377965,-0.000015,0.000008,0.000006,0.000009,-0.000016,76.937130,0.000016,
2251,2083,-0.0621251203115953,-12.2805808408281,0.0133599736334418,0.002946,0.000143,0.001586,0.129838,0.024549,329.972510,23.494888,0.999309,0.981666,0.005273,0.279211,-0.000003,0.000003,-0.000008,0.000009,-0.000008,-55.944719,0.000010,
2491,3208,4.95280996055255,12.2606001107159,0.027966647304936,0.002937,0.000296,-0.004008,0.150633,0.012410,311.935681,26.359934,0.999416,0.991876,0.003697,0.376869,0.000010,0.000014,0.000008,0.000020,0.000004,51.923133,0.000025,
2011,2413,-5.34463968900813,-5.05990508248717,-0.00385300332419547,0.002927,-0.000197,0.001703,0.129952,0.004192,325.504128,24.610722,0.999181,0.988189,0.004354,0.406391,-0.000028,-0.000040,-0.000039,0.000006,-0.000074,-40.373765,0.000082,
2056,2638,-4.40172188301701,-0.151339153067141,-0.0266051872033586,0.002962,0.000094,-0.000768,0.138595,0.013587,321.416792,24.448744,0.999171,0.989289,0.004208,0.383312,-0.000018,-0.000019,0.000002,-0.000017,-0.000020,31.089469,0.000037,
2026,2563,-5.04149182109963,-1.78741368582341,-0.0147265976380595,0.002969,-0.000497,0.001971,0.131147,0.012088,322.899451,24.477716,0.999503,0.989594,0.003936,0.418422,-0.000011,-0.000030,0.000004,-0.000010,-0.000031,10.656405,0.000043,
2086,2773,-3.77098511007034,2.78743354457548,-0.0269430256816463,0.003312,-0.000206,-0.000979,0.155326,-0.003137,319.081613,24.425145,0.999684,0.991131,0.003789,0.363077,-0.000028,-0.000022,-0.000006,-0.000018,-0.000032,-57.908493,0.000050,
2041,2623,-4.72511448298961,-0.479047465807895,-0.0256270934898453,0.002972,0.000133,-0.001903,0.142173,0.001539,321.758383,24.431669,0.998836,0.987555,0.004546,0.405685,-0.000018,-0.000023,0.000005,-0.000015,-0.000026,33.807445,0.000042,
2341,2383,1.84488200020377,-5.71025452478505,-0.00784024868704591,0.002600,-0.000490,0.004509,0.103362,0.018209,324.846595,23.652090,0.999416,0.985541,0.004735,0.340559,-0.000013,-0.000024,-0.000004,-0.000012,-0.000026,-17.705128,0.000038,
2236,2098,-0.39112636677579,-11.9528535710424,0.0210786660142617,0.003120,0.000421,-0.002207,0.150201,0.026387,329.844850,23.557098,0.999253,0.980392,0.005465,0.335253,0.000003,0.000004,-0.000005,0.000009,-0.000002,-49.594285,0.000009,
2296,2278,0.884251429739042,-8.0092223414985,0.00779086522192074,0.002825,-0.000704,0.004692,0.113452,0.006533,326.707781,23.560483,0.999488,0.986299,0.004622,0.342150,-0.000032,-0.000027,-0.000033,0.000004,-0.000062,-47.313956,0.000070,
2101,2758,-3.44280409626794,2.46107435838987,-0.0187625155047044,0.002969,-0.000009,0.000703,0.134699,0.021128,319.298597,24.402260,0.999510,0.989762,0.003889,0.418221,-0.000023,-0.000026,-0.000004,-0.000020,-0.000029,-35.060080,0.000049,
2281,2233,0.565781319666403,-8.99368063610589,0.00893016580755557,0.002854,0.000088,-0.002023,0.137596,0.015894,327.483218,23.589899,0.998914,0.980447,0.005421,0.295830,-0.000034,-0.000018,-0.000020,-0.000004,-0.000048,-55.831304,0.000057,
2296,2398,0.861871106131229,-5.38424406841455,-0.000463874252147889,0.002516,-0.000243,0.000304,0.114333,0.009602,324.700593,23.778569,0.999274,0.985753,0.004861,0.382334,-0.000023,-0.000018,-0.000016,-0.000005,-0.000037,-49.330354,0.000045,
2311,2278,1.21223353254101,-8.0086145030366,0.0105942216125641,0.003033,0.000232,-0.000348,0.140325,0.027064,326.745705,23.560907,0.999276,0.983752,0.004779,0.298067,-0.000027,-0.000027,-0.000023,-0.000004,-0.000050,-44.902545,0.000060,
2086,2818,-3.77772601888487,3.76566973819683,-0.0213083811659658,0.003271,0.000251,-0.002468,0.157997,0.025546,318.400548,24.419993,0.999485,0.992137,0.003650,0.393767,-0.000016,-0.000003,-0.000003,-0.000002,-0.000017,-76.180987,0.000020,
2131,2953,-2.82177331434027,6.69870964635056,0.00207625031015368,0.003121,-0.000340,0.000666,0.141749,-0.001443,316.173962,24.481260,0.999662,0.991972,0.003553,0.400699,-0.000016,-0.000012,-0.000002,-0.000011,-0.000017,-66.220781,0.000028,
2446,2998,4.01352202685888,7.69791274443822,-0.000512060819801263,0.002870,-0.000425,0.003293,0.119541,0.009789,315.007409,25.416855,0.999393,0.988059,0.004141,0.381220,-0.000006,-0.000008,-0.000002,-0.000005,-0.000009,-34.479741,0.000015,
2431,2863,3.71270567633099,4.76210226254676,-0.016260815184296,0.002600,-0.000219,-0.000143,0.119948,0.006823,317.056759,24.932231,0.999550,0.990268,0.003747,0.375728,-0.000027,-0.000012,-0.000016,-0.000002,-0.000037,-56.996930,0.000044,
2281,2338,0.546719636081939,-6.69543731718396,-0.00101349987772892,0.003254,0.000585,-0.003560,0.161365,0.016902,325.729075,23.753287,0.999170,0.983874,0.004993,0.343105,-0.000019,-0.000040,-0.000012,-0.000014,-0.000045,-24.102144,0.000062,
2161,3118,-2.19699196008576,10.2802513114301,0.026824334857281,0.002908,-0.000011,-0.000925,0.136957,0.005220,313.564697,24.704989,0.999619,0.993217,0.003358,0.356505,-0.000018,-0.000013,-0.000009,-0.000006,-0.000026,-53.093069,0.000033,
2476,3193,4.62875905699128,11.9335501089329,0.0259846795250382,0.002811,-0.000319,0.004122,0.113572,0.013213,312.090629,26.205621,0.999521,0.991732,0.003581,0.403111,0.000009,0.000009,0.000012,0.000021,-0.000003,45.694514,0.000023,
2161,3028,-2.18311730246086,8.32870149826569,0.00871913320509066,0.003010,-0.000374,0.002756,0.130238,0.014250,314.875674,24.615046,0.999356,0.989090,0.004354,0.401075,-0.000007,0.000004,0.000000,0.000004,-0.000007,-88.322593,0.000007,
2011,2503,-5.35903391816111,-3.09365917463034,-0.0241640504509064,0.002902,-0.000164,0.000250,0.132850,0.025141,323.885664,24.615403,0.999692,0.992545,0.003668,0.359465,-0.000021,-0.000032,-0.000021,-0.000005,-0.000049,-37.801323,0.000059,
2071,2683,-4.0831357044862,0.828226703489975,-0.0239584757661078,0.002763,-0.000406,0.002650,0.119571,0.013092,320.608915,24.396159,0.999376,0.990744,0.003875,0.416711,-0.000033,-0.000014,-0.000003,-0.000014,-0.000033,-80.746042,0.000048,
2191,3193,-1.55865049308172,11.9076284236316,0.0316816019198995,0.003032,-0.000216,-0.001990,0.145988,-0.009486,312.285224,24.831655,0.999747,0.995571,0.003050,0.401937,-0.000023,-0.000013,-0.000011,-0.000006,-0.000030,-57.663627,0.000038,
2041,2833,-4.75688394585282,4.0889674005512,-0.0194392623446333,0.003223,-0.000303,0.001755,0.143637,0.010705,318.407973,24.347697,0.999076,0.988636,0.004171,0.395261,-0.000039,0.000013,-0.000001,0.000013,-0.000039,-89.014124,0.000040,
2176,3208,-1.88651346814632,12.2314201350388,0.0377599520330705,0.002878,-0.000360,0.001647,0.127479,-0.010450,312.121689,24.805505,0.999667,0.994702,0.003150,0.366504,-0.000032,-0.000012,-0.000012,-0.000007,-0.000038,-65.375739,0.000048,
2056,2503,-4.38125888287241,-3.09462738372068,-0.0193876475365187,0.002460,-0.000507,0.002680,0.105459,0.004902,323.627107,24.417488,0.999399,0.989034,0.004244,0.446597,-0.000022,-0.000004,-0.000005,-0.000003,-0.000023,-75.391032,0.000028,
2356,2428,2.16440314768019,-4.72902263283765,-0.00699101383145262,0.003237,-0.000324,0.001895,0.141693,0.013445,324.165637,23.502356,0.999540,0.989320,0.004297,0.557814,-0.000009,-0.000004,0.000009,0.000003,-0.000016,53.063626,0.000017,
2146,2923,-2.49168154416337,6.04874005660995,-0.0030366870466878,0.002875,0.000022,-0.001415,0.136803,0.008289,316.552704,24.519455,0.999097,0.986570,0.004504,0.393549,-0.000017,-0.000011,-0.000001,-0.000010,-0.000017,-82.787326,0.000028,
2386,2653,2.7737454282206,0.185009746135627,-0.0175186460437544,0.002830,-0.000906,0.004298,0.114188,-0.009482,320.411483,24.193193,0.999186,0.985805,0.004639,0.424161,-0.000020,-0.000008,-0.000009,-0.000003,-0.000024,-61.469790,0.000030,
2461,3073,4.32540256205296,9.32766279117351,0.00725819966169183,0.002821,-0.000310,0.002742,0.119250,-0.004578,313.874033,25.693484,0.999602,0.991836,0.003724,0.400076,-0.000011,0.000010,0.000009,0.000013,-0.000014,70.222337,0.000016,
2071,2608,-4.071714827941,-0.803535597807326,-0.028720244101919,0.002907,-0.000431,0.004546,0.120756,0.022601,321.784059,24.480766,0.999192,0.989528,0.004119,0.355092,-0.000034,-0.000004,0.000006,-0.000003,-0.000035,79.982620,0.000043,
2251,2098,-0.0639351123248595,-11.951527070187,0.0125623822576131,0.003423,0.001013,-0.003879,0.169825,0.049360,329.764400,23.496246,0.999237,0.980068,0.005623,0.328789,-0.000005,0.000003,-0.000009,0.000009,-0.000011,-55.817765,0.000012,
2116,2923,-3.14293888912468,6.0471753444701,-0.00767739335788065,0.002910,0.000055,-0.003553,0.144696,0.007698,316.649687,24.443488,0.998943,0.988731,0.004380,0.406236,-0.000018,-0.000010,-0.000003,-0.000008,-0.000019,-70.206139,0.000028,
2101,2893,-3.4638846754872,5.39410157996765,-0.00764496136616799,0.003065,-0.000523,0.003414,0.131067,-0.009941,317.195312,24.377038,0.999446,0.992330,0.003823,0.421818,-0.000019,-0.000004,-0.000003,-0.000003,-0.000020,-78.915286,0.000025,
2236,2023,-0.37709263739324,-13.6001723502383,0.0348794125642371,0.003154,0.000576,-0.002767,0.153552,0.024477,331.168917,23.411340,0.998933,0.981751,0.005516,0.355865,0.000013,-0.000053,-0.000021,0.000020,-0.000059,-16.503527,0.000060,
2401,2743,3.08226376438494,2.14855859587807,-0.0323208890175692,0.003058,-0.000461,0.001089,0.136322,-0.008030,318.857348,24.478824,0.999536,0.989655,0.004048,0.406473,-0.000022,0.000003,-0.000012,0.000009,-0.000027,-67.605339,0.000027,
2491,3223,4.94963724212738,12.5860941137806,0.0279517238353719,0.003070,-0.000176,-0.001181,0.145750,0.001586,311.684256,26.427829,0.999460,0.991520,0.003730,0.355270,0.000012,-0.000007,0.000005,0.000013,-0.000008,15.384637,0.000013,
2101,2818,-3.45254681493366,3.76637547549412,-0.0248972715055515,0.003170,-0.000011,-0.000607,0.147808,0.006816,318.286152,24.424604,0.999470,0.992171,0.003628,0.386494,-0.000016,-0.000007,-0.000001,-0.000007,-0.000016,-85.083479,0.000023,
2446,3013,4.01063475457751,8.02412761150411,-0.00152664809877479,0.002835,-0.000063,0.000514,0.128498,0.021751,314.762226,25.467846,0.999154,0.986134,0.004284,0.393748,-0.000009,0.000000,-0.000003,0.000000,-0.000010,-74.011475,0.000012,
2116,2968,-3.15002559588184,7.02401328328421,0.00135246634448549,0.002832,-0.000223,0.000100,0.130179,-0.004414,315.978064,24.496636,0.999690,0.992519,0.003382,0.349183,-0.000014,-0.000003,-0.000004,-0.000001,-0.000015,-71.472624,0.000018,
2011,2428,-5.34703140243186,-4.73248135076448,-0.00219326232439698,0.002793,-0.000372,0.004293,0.116743,0.017160,325.262974,24.610182,0.999128,0.987366,0.004457,0.409616,-0.000019,-0.000051,-0.000025,-0.000005,-0.000065,-29.040632,0.000078,
2266,2188,0.246934669615467,-9.97971423322413,0.0171636732021057,0.003055,-0.000103,0.003949,0.126943,0.044056,328.286780,23.580238,0.999155,0.983337,0.005166,0.319711,-0.000024,-0.000015,-0.000009,-0.000009,-0.000030,-57.042126,0.000041,
2296,2413,0.859033044524715,-5.05647346912656,0.000207723304754381,0.002581,-0.000687,0.003348,0.106900,-0.012620,324.456213,23.835726,0.999353,0.986847,0.004670,0.334613,-0.000022,-0.000014,-0.000014,-0.000004,-0.000032,-53.724036,0.000039,
2056,2653,-4.40430664759683,0.175099153931164,-0.0344919515490574,0.003144,-0.000262,-0.001279,0.148249,-0.025976,321.118277,24.402867,0.999286,0.990076,0.004124,0.384996,-0.000027,-0.000014,-0.000005,-0.000012,-0.000028,-72.581723,0.000042,
2191,3283,-1.5754294728019,13.8581793808977,0.018908584957785,0.002704,-0.000376,-0.002533,0.132568,-0.022562,310.690599,24.900920,0.999565,0.994089,0.003244,0.397779,-0.000033,0.000013,-0.000012,0.000016,-0.000035,-76.617838,0.000035,
2251,2218,-0.0854901077924133,-9.32313745284576,0.0142483417198491,0.003036,0.000087,-0.000267,0.140090,0.025545,327.817238,23.642447,0.998563,0.978562,0.005771,0.368119,-0.000019,-0.000005,-0.000016,0.000005,-0.000030,-56.988510,0.000032,
2011,2518,-5.36119601446076,-2.76848369403275,-0.017410708906425,0.002621,-0.000205,0.001512,0.116482,0.022370,323.684339,24.500626,0.999731,0.993048,0.003525,0.460240,-0.000028,-0.000030,-0.000002,-0.000027,-0.000031,-30.032093,0.000059,
2221,2098,-0.718738654416544,-11.9527671471385,0.0191230873352879,0.003134,-0.000250,-0.000128,0.143909,0.003617,329.855417,23.632033,0.999037,0.978667,0.005664,0.327940,-0.000006,-0.000002,-0.000002,-0.000001,-0.000007,-64.170436,0.000009,
2146,3043,-2.51088308586235,8.65302803890377,0.00836564458063549,0.003048,-0.000383,-0.000106,0.140723,-0.004395,314.696405,24.578587,0.999484,0.992850,0.003377,0.378807,-0.000018,-0.000004,-0.000004,-0.000003,-0.000019,-75.967495,0.000024,
2131,2878,-2.81003517506489,5.06915137121933,-0.00307089144467909,0.002892,-0.000432,0.001658,0.128064,-0.019101,317.338489,24.403314,0.999611,0.991630,0.003585,0.435111,-0.000011,0.000000,0.000002,0.000001,-0.000011,77.855807,0.000012,
2161,3133,-2.19965242958681,10.6049575124729,0.0289579045572168,0.002856,-0.000367,0.002172,0.124945,0.001708,313.325731,24.678130,0.999511,0.992819,0.003574,0.388653,-0.000020,-0.000014,-0.000009,-0.000007,-0.000027,-52.785202,0.000036,
2131,2968,-2.82448099285081,7.02481662945758,0.00119896580196155,0.002825,-0.000196,-0.001241,0.133878,-0.005604,315.914279,24.521526,0.999807,0.994081,0.003051,0.361266,-0.000016,-0.000002,-0.000004,-0.000001,-0.000017,-76.109843,0.000020,
2296,2293,0.881365138201726,-7.68068367648749,0.0114408498409944,0.002607,-0.000800,0.007584,0.093703,0.014612,326.475997,23.646898,0.999475,0.985620,0.004651,0.296102,-0.000030,-0.000029,-0.000026,-0.000004,-0.000056,-45.483395,0.000067,
2026,2788,-5.07593397390059,3.11141738176354,-0.0286934142699806,0.003263,0.000067,0.000702,0.148544,0.025880,319.157104,24.386009,0.999488,0.991712,0.003749,0.383741,-0.000028,0.000019,0.000010,0.000021,-0.000030,79.109366,0.000031,
2266,2323,0.222205710936411,-7.02386830243259,0.00655307419572182,0.002869,-0.000074,0.001259,0.127413,0.018541,326.021186,23.825241,0.998632,0.979493,0.005809,0.300485,-0.000018,-0.000050,-0.000009,-0.000016,-0.000052,-14.354277,0.000071,
2056,2518,-4.3825340325892,-2.76709192172608,-0.018152467936261,0.003055,0.000277,-0.002982,0.149058,0.011470,323.438206,24.460169,0.999328,0.989496,0.004158,0.406176,-0.000030,-0.000003,0.000010,0.000001,-0.000033,72.109053,0.000038,
2176,3088,-1.86724984125716,9.63128803918441,0.0156845687578766,0.003055,-0.000288,0.001321,0.136638,-0.004840,313.907533,24.736603,0.999562,0.992955,0.003445,0.352425,-0.000012,-0.000012,-0.000007,-0.000005,-0.000019,-45.412157,0.000025,
2011,2728,-5.39290595251968,1.80513207732297,-0.0269487107846658,0.002740,-0.000041,0.002021,0.120762,0.016338,320.213048,24.356318,0.999546,0.991942,0.003774,0.439558,-0.000024,-0.000031,0.000028,0.000000,-0.000056,41.413003,0.000064,
2311,2293,1.208796257059,-7.68088140001635,0.00876245540337095,0.002727,0.000023,0.002992,0.114852,0.028385,326.463069,23.525423,0.999282,0.984900,0.004823,0.369359,-0.000025,-0.000031,-0.000017,-0.000010,-0.000045,-40.166191,0.000059,
2476,3208,4.62643093092106,12.2587057278057,0.0262697395067448,0.003078,-0.000206,-0.000975,0.145193,-0.009883,311.878664,26.252323,0.999358,0.991478,0.003700,0.388548,0.000009,0.000015,0.000009,0.000022,0.000002,54.490289,0.000026,
2221,2053,-0.712378171619296,-12.9389828588614,0.0158657772126389,0.002110,-0.000080,0.001037,0.093315,0.011571,330.500768,23.588142,0.998840,0.976843,0.005777,0.313447,-0.000001,-0.000032,-0.000005,0.000000,-0.000033,-9.214875,0.000038,
2491,3238,4.94568145188819,12.9121055553293,0.0179034346655271,0.003026,-0.000127,-0.001168,0.143652,-0.004661,311.351072,26.486069,0.999580,0.991835,0.003690,0.348554,0.000012,-0.000009,0.000004,0.000013,-0.000010,10.498179,0.000013,
2191,3208,-1.56131682214701,12.2325924438796,0.0319876065885296,0.003044,-0.000542,-0.000527,0.141810,-0.025483,312.038250,24.849145,0.999538,0.993337,0.003562,0.381281,-0.000023,-0.000010,-0.000012,-0.000003,-0.000030,-59.851510,0.000036,
2086,2833,-3.78027431094263,4.091309617965,-0.0148452655183178,0.002956,-0.000129,0.001545,0.131770,0.021198,318.184874,24.434699,0.999758,0.994744,0.003070,0.373254,-0.000016,-0.000004,-0.000008,0.000000,-0.000020,-64.790872,0.000023,
2101,2908,-3.46586145206581,5.72026933115391,-0.00447225683137731,0.003056,-0.000227,-0.000534,0.142365,0.000969,316.988777,24.419873,0.999323,0.992078,0.003906,0.390651,-0.000018,-0.000013,-0.000009,-0.000006,-0.000024,-53.368717,0.000032,
2236,2038,-0.380235151964005,-13.270920356327,0.0300778209389136,0.003191,-0.000020,0.000708,0.143874,0.006730,330.878598,23.404707,0.998889,0.979164,0.005626,0.369777,0.000010,-0.000036,-0.000015,0.000015,-0.000041,-17.003806,0.000041,
2101,2833,-3.45492334882187,4.09216418542056,-0.0224181237754806,0.003190,-0.000375,0.001615,0.142132,-0.003153,318.057647,24.429067,0.999675,0.993554,0.003329,0.373119,-0.000017,-0.000007,-0.000004,-0.000006,-0.000018,-71.249946,0.000025,
2221,2113,-0.722201321156295,-11.6243899242002,0.0212039413869434,0.002265,-0.000293,0.002397,0.096077,-0.002721,329.584031,23.639017,0.999089,0.980950,0.005320,0.336516,-0.000006,-0.000006,-0.000004,-0.000002,-0.000010,-47.681037,0.000013,
2131,2893,-2.8126060078013,5.39614652198608,-0.00663592564097826,0.002930,-0.000250,0.000172,0.134385,-0.009249,317.070432,24.470637,0.999470,0.990601,0.003945,0.382921,-0.000016,-0.000007,0.000000,-0.000007,-0.000016,88.624455,0.000024,
2146,3058,-2.51314823671321,8.97818127211345,0.0135836413580819,0.002906,-0.000119,-0.000742,0.136231,0.003177,314.490843,24.583745,0.999555,0.994075,0.003335,0.388330,-0.000017,-0.000006,-0.000005,-0.000004,-0.000019,-69.469272,0.000025,
2011,2743,-5.39579112164651,2.13289179038745,-0.0364933694489764,0.002781,-0.000519,0.003834,0.117599,-0.003440,319.886804,24.428366,0.999577,0.992417,0.003535,0.336235,-0.000029,-0.000003,0.000022,0.000009,-0.000041,60.023185,0.000043,
2326,2308,1.53254363129191,-7.35176546817488,0.00125316561491218,0.002671,-0.000419,0.003649,0.109757,0.018183,326.145310,23.514051,0.998892,0.983278,0.005143,0.345435,-0.000023,-0.000040,-0.000009,-0.000019,-0.000044,-23.593335,0.000065,
2356,2443,2.16158460585084,-4.40076278826024,-0.00246437321561643,0.002776,-0.000261,0.000111,0.126829,-0.000308,323.945257,23.643041,0.998957,0.982078,0.005194,0.443678,-0.000008,-0.000009,0.000009,0.000001,-0.000018,42.711638,0.000020,
2236,2113,-0.394333681476024,-11.6261220752029,0.0256733116061127,0.002532,-0.000606,0.002851,0.106605,-0.005508,329.599462,23.466913,0.999372,0.981283,0.005287,0.417591,0.000002,0.000001,-0.000005,0.000007,-0.000004,-43.901020,0.000007,
2296,2308,0.87867071603484,-7.35297114514003,0.00226306624978179,0.003099,-0.000602,0.004790,0.125726,0.007001,326.189785,23.549928,0.999300,0.984557,0.005007,0.417506,-0.000030,-0.000039,-0.000022,-0.000012,-0.000056,-38.894955,0.000073,
2401,2758,3.07968692426153,2.47535761713019,-0.0306685901819037,0.003065,0.000165,-0.001484,0.146228,0.010451,318.636561,24.525403,0.999413,0.987820,0.004330,0.424114,-0.000019,0.000004,-0.000013,0.000010,-0.000025,-65.040332,0.000025,
2191,3298,-1.57941618429247,14.1849353535823,-0.000229744469436355,0.002714,-0.000298,-0.001415,0.129509,-0.022149,310.280489,24.986180,0.999766,0.995995,0.002817,0.325750,-0.000034,0.000021,-0.000017,0.000026,-0.000039,-74.411836,0.000039,
2431,2878,3.70979024126035,5.08853008991152,-0.0154009609178729,0.002747,-0.000461,0.001810,0.119422,0.008664,316.818470,24.989062,0.999568,0.990923,0.003627,0.370532,-0.000032,-0.000011,-0.000014,-0.000004,-0.000039,-63.394041,0.000047,
2146,2938,-2.49402003697228,6.37517063055677,-0.00347949257468372,0.003045,-0.000005,-0.001765,0.145647,-0.004491,316.313311,24.593241,0.999411,0.989498,0.004051,0.314162,-0.000019,-0.000009,-0.000001,-0.000008,-0.000019,-83.267884,0.000029,
2026,2578,-5.04426408707008,-1.45960481959225,-0.0216092232871574,0.002873,-0.000330,0.002154,0.126285,0.013135,322.594547,24.498128,0.999089,0.988833,0.004304,0.390412,-0.000018,-0.000031,-0.000004,-0.000018,-0.000032,-14.187901,0.000051,
2416,2848,3.38929024907108,4.43468589877249,-0.0171064279756479,0.002936,-0.000266,0.001855,0.128025,0.004187,317.281526,24.846488,0.999301,0.988531,0.004127,0.389344,-0.000019,-0.000020,-0.000011,-0.000009,-0.000030,-44.099398,0.000041,
2161,3043,-2.18483205429772,8.65388536782235,0.0202006221234683,0.002964,-0.000160,0.001300,0.132620,0.012530,314.729361,24.669929,0.999543,0.992979,0.003577,0.353352,-0.000007,-0.000004,-0.000005,0.000000,-0.000010,-55.044913,0.000012,
2116,2983,-3.15152377009652,7.34852581222075,0.0111807805851072,0.003164,0.000045,0.000310,0.144987,0.013821,315.830894,24.445023,0.999739,0.993929,0.003147,0.422042,-0.000015,0.000004,-0.000002,0.000004,-0.000015,-85.061640,0.000016,
2281,2353,0.543533906491042,-6.36879108409722,0.00342637323637973,0.002864,-0.000109,0.002331,0.123582,0.004024,325.486638,23.715147,0.999272,0.984447,0.004887,0.398011,-0.000019,-0.000043,-0.000012,-0.000014,-0.000048,-22.904150,0.000065,
2281,2248,0.563137633966686,-8.66637620630935,0.0107832298135122,0.002947,-0.000072,0.000568,0.133178,0.021736,327.252790,23.532235,0.999120,0.981780,0.005250,0.389482,-0.000029,-0.000024,-0.000019,-0.000007,-0.000046,-49.105424,0.000058,
2206,2023,-1.03182569387204,-13.6005930329119,0.040147034187612,0.003407,-0.000460,0.002891,0.146788,0.000366,331.275917,23.590456,0.998923,0.980882,0.005468,0.355076,0.000009,-0.000061,-0.000019,0.000014,-0.000066,-14.122854,0.000069,
2026,2803,-5.07833302782218,3.43657338821394,-0.0271161959718711,0.003180,-0.000450,0.002867,0.138565,0.000126,318.917563,24.331409,0.999552,0.992190,0.003569,0.402549,-0.000021,0.000019,0.000017,0.000025,-0.000027,69.959525,0.000030,
2461,3088,4.3221566399841,9.65397470015617,0.00606511726476811,0.002754,-0.000488,0.003432,0.113522,-0.005810,313.612213,25.785808,0.999641,0.994062,0.003427,0.360130,-0.000008,0.000010,0.000011,0.000016,-0.000014,64.572315,0.000017,
2071,2743,-4.09182992539736,2.13354497529987,-0.0244915470377691,0.003316,-0.000155,-0.000172,0.153131,-0.012095,319.665563,24.382738,0.999429,0.990274,0.003918,0.393284,-0.000030,-0.000019,-0.000001,-0.000019,-0.000030,-83.165122,0.000049,
2266,2563,0.178087541453834,-1.7818702599106,-0.0147485228781647,0.002904,-0.000050,-0.000641,0.135494,0.001886,321.968897,24.077668,0.999532,0.989979,0.004066,0.463165,-0.000013,-0.000008,-0.000004,-0.000006,-0.000015,-62.615329,0.000022,
2266,2338,0.218768836699368,-6.69468508311175,-0.00530427014598445,0.002654,0.000708,-0.002923,0.131652,0.027743,325.684001,23.831135,0.998988,0.982465,0.005291,0.331627,-0.000015,-0.000040,-0.000011,-0.000011,-0.000044,-20.971159,0.000058,
2251,2233,-0.0889240895982262,-8.99408916614932,0.0029001740097101,0.002908,-0.000115,-0.002244,0.140629,-0.008007,327.481636,23.641229,0.998671,0.979696,0.005571,0.361914,-0.000023,-0.000008,-0.000016,0.000002,-0.000033,-58.054790,0.000037,
2371,2578,2.46198512047602,-1.45114788792075,-0.0142959289443638,0.002948,-0.000414,0.001334,0.130448,0.000162,321.664511,24.025061,0.999381,0.987884,0.004474,0.402156,-0.000010,-0.000001,0.000004,0.000001,-0.000012,68.989517,0.000013,
2341,2398,1.84264138365093,-5.38279774112439,-0.00605170071520433,0.002836,-0.000311,0.001993,0.123037,0.005742,324.638681,23.677567,0.999600,0.987504,0.004559,0.340559,-0.000013,-0.000014,0.000000,-0.000012,-0.000014,-16.615831,0.000026,
2131,2983,-2.8268258180355,7.3504791377237,0.000252648533546562,0.003077,0.000134,-0.000379,0.143035,0.010614,315.670992,24.504369,0.999761,0.994242,0.003104,0.399766,-0.000017,0.000006,-0.000001,0.000006,-0.000017,-87.288107,0.000018,
2041,2638,-4.72722814532653,-0.152355482023445,-0.0228972148871094,0.003083,0.000420,-0.000158,0.142513,0.025954,321.538565,24.429363,0.999120,0.989172,0.004283,0.425121,-0.000008,-0.000021,0.000009,-0.000003,-0.000026,27.491072,0.000031,
2011,2533,-5.36314667721281,-2.44134782517731,-0.0156998504750163,0.002729,-0.000198,0.000533,0.124117,0.014608,323.463931,24.528940,0.999319,0.987695,0.004415,0.413243,-0.000030,-0.000050,0.000001,-0.000030,-0.000050,3.137110,0.000080,
2386,2668,2.77071693334272,0.51260649748599,-0.0210186925429525,0.002785,-0.000422,0.001925,0.120808,-0.011445,320.144647,24.262768,0.999348,0.987424,0.004413,0.396552,-0.000019,-0.000012,-0.000012,-0.000003,-0.000028,-53.804900,0.000034,
2086,2788,-3.77323450139826,3.11252039707628,-0.0211569444008433,0.003188,-0.000306,0.000800,0.144456,-0.003956,318.876075,24.368881,0.999528,0.990557,0.003862,0.417582,-0.000027,-0.000007,-0.000006,-0.000005,-0.000029,-74.297182,0.000037,
2491,3253,4.94134913293491,13.2378531497308,0.00673557264587998,0.002676,-0.000096,-0.001415,0.128504,-0.009074,310.995426,26.517099,0.999718,0.992900,0.003448,0.370364,0.000011,-0.000016,-0.000004,0.000011,-0.000016,-9.317644,0.000017,
2071,2698,-4.08523283754032,1.15440156556353,-0.023029727084122,0.003008,-0.000527,0.003545,0.128239,-0.001339,320.382443,24.388566,0.999443,0.991673,0.003683,0.407105,-0.000025,-0.000017,0.000002,-0.000017,-0.000025,76.293071,0.000043,
2296,2428,0.856880290942939,-4.72827265881023,-0.00174738994581958,0.003151,-0.000183,0.001335,0.140015,0.013257,324.229955,23.864231,0.999511,0.988676,0.004350,0.363444,-0.000016,-0.000025,-0.000016,-0.000003,-0.000038,-36.668604,0.000045,
2206,2038,-1.03549665878495,-13.2691456931322,0.0265656664952303,0.002974,0.000451,-0.000606,0.138307,0.040245,330.912803,23.627030,0.998933,0.979711,0.005491,0.379317,0.000006,-0.000049,-0.000014,0.000009,-0.000053,-13.484159,0.000056,
2026,2593,-5.04696567953432,-1.13151536881341,-0.0301718410030958,0.002885,0.000095,0.001224,0.129514,0.037042,322.283360,24.512624,0.998955,0.988437,0.004494,0.391054,-0.000017,-0.000012,0.000003,-0.000011,-0.000018,66.896637,0.000029,
2416,2863,3.38634278587228,4.76112381999151,-0.0160123656292512,0.002687,-0.000281,-0.000165,0.124026,0.004818,317.041836,24.902819,0.999503,0.989162,0.003978,0.380849,-0.000023,-0.000010,-0.000012,-0.000003,-0.000030,-59.188628,0.000037,
2311,2308,1.20495678787952,-7.35100093780748,-0.00792582547137499,0.002943,-0.000323,0.003661,0.122374,0.018036,326.088777,23.554980,0.999359,0.986778,0.004815,0.364246,-0.000023,-0.000040,-0.000014,-0.000016,-0.000047,-29.484073,0.000065,
2101,2923,-3.46838233410763,6.04612525612877,-0.00556646852248832,0.002949,-0.000180,-0.001782,0.141108,-0.002485,316.734319,24.421846,0.999197,0.990589,0.004045,0.386039,-0.000019,-0.000011,-0.000007,-0.000006,-0.000023,-58.967958,0.000031,
2011,2923,-5.42051741905915,6.04143015914838,-0.00409227605234719,0.003029,0.000103,-0.000318,0.140652,0.023974,317.259180,24.266330,0.999296,0.992773,0.003424,0.378687,-0.000020,-0.000039,-0.000012,-0.000014,-0.000045,-24.688412,0.000061,
2221,2068,-0.714525830678557,-12.6098847925348,0.0177803980006388,0.002466,-0.000164,0.002061,0.106354,0.009002,330.288596,23.639367,0.998899,0.977026,0.005778,0.281996,-0.000003,-0.000025,-0.000005,-0.000002,-0.000026,-12.090985,0.000032,
2056,2533,-4.38473231707386,-2.44129845796625,-0.00797992188523722,0.002967,-0.000327,0.004184,0.124670,0.032725,323.256679,24.413426,0.999177,0.988322,0.004296,0.469573,-0.000036,-0.000011,0.000011,-0.000007,-0.000040,69.885343,0.000051,
2236,2173,-0.405252439491253,-10.307290776939,0.00695049025387107,0.002718,0.000948,-0.006093,0.144584,0.022292,328.514326,23.690271,0.998775,0.982454,0.005259,0.318727,-0.000002,-0.000001,-0.000005,0.000003,-0.000006,-48.366051,0.000006,
2041,2848,-4.7590823794489,4.41490091504033,-0.0285685634514721,0.003664,-0.000321,-0.002012,0.174373,-0.021203,318.119086,24.302997,0.999282,0.990200,0.004002,0.400328,-0.000040,0.000008,-0.000001,0.000008,-0.000040,-88.783101,0.000042,
2461,3103,4.31990332977599,9.97868610465414,0.0156257394576755,0.002607,-0.000563,0.001928,0.112350,-0.020410,313.445869,25.815551,0.999596,0.992162,0.003639,0.368881,-0.000010,0.000006,0.000019,0.000019,-0.000023,56.178335,0.000025,
2446,3028,4.00835247622382,8.34999329886715,0.00269057667156858,0.002963,-0.000098,-0.002472,0.145446,-0.000343,314.569128,25.559591,0.999416,0.987992,0.004118,0.331082,-0.000013,0.000006,-0.000005,0.000007,-0.000014,-76.798460,0.000014,
2071,2758,-4.09448797061051,2.4602410552486,-0.0286528600431666,0.003228,-0.000171,-0.000861,0.151126,0.004906,319.385324,24.369397,0.999548,0.991375,0.003747,0.420501,-0.000028,-0.000022,-0.000004,-0.000020,-0.000030,-64.944095,0.000050,
2041,2653,-4.73006841332013,0.175060881261516,-0.0353347817224972,0.003231,0.000185,-0.001087,0.151857,-0.000840,321.201391,24.421729,0.999371,0.989758,0.004079,0.399411,-0.000017,-0.000014,0.000003,-0.000012,-0.000018,60.030575,0.000031,
2101,2848,-3.45733083472132,4.41808493845101,-0.0259867781307435,0.003207,0.000250,-0.001761,0.153018,0.020834,317.794891,24.370642,0.999798,0.994482,0.003080,0.456663,-0.000017,-0.000010,-0.000002,-0.000010,-0.000018,-76.241772,0.000028,
2281,2263,0.558931533498306,-8.33466012364739,-0.00313876112284106,0.002619,-0.000001,0.002603,0.111426,0.026751,326.871640,23.722886,0.999489,0.986677,0.004679,0.234428,-0.000028,-0.000032,-0.000021,-0.000009,-0.000052,-42.632816,0.000065,
2011,2758,-5.39768155945118,2.45814025338625,-0.0338958830506613,0.002898,-0.000536,0.002399,0.126913,-0.005686,319.675038,24.354105,0.999447,0.991907,0.003705,0.396264,-0.000031,-0.000003,0.000015,0.000003,-0.000037,66.627244,0.000041,
2176,3103,-1.86997162206631,9.95602495335859,0.0208108899171862,0.002526,-0.000198,0.000966,0.113356,-0.004781,313.682433,24.721354,0.999612,0.993686,0.003253,0.378910,-0.000017,-0.000016,-0.000006,-0.000010,-0.000023,-47.203268,0.000033,
2176,3223,-1.88850045635863,12.5568854479448,0.0411082872289512,0.003121,-0.000144,-0.000132,0.144384,0.005678,311.920697,24.857545,0.999788,0.994988,0.002964,0.341580,-0.000030,-0.000013,-0.000016,-0.000004,-0.000040,-59.498704,0.000048,
2026,2608,-5.04915563221608,-0.804238792984954,-0.0364041510086395,0.003298,-0.000124,0.000771,0.149745,0.029428,322.008900,24.509878,0.998892,0.986838,0.004683,0.377299,-0.000009,-0.000010,0.000007,-0.000003,-0.000017,43.152280,0.000021,
2086,2848,-3.78219338183984,4.41621209898035,-0.0117222419672203,0.003087,0.000098,-0.000640,0.144171,0.013591,317.980110,24.363311,0.999670,0.993534,0.003329,0.435942,-0.000016,-0.000009,-0.000006,-0.000005,-0.000019,-60.132588,0.000026,
2206,1993,-1.02804581415534,-14.2567935883374,0.0263633785345405,0.002884,0.000058,-0.000072,0.132312,0.014536,331.627586,23.588070,0.999375,0.983480,0.005030,0.331629,0.000030,-0.000060,-0.000033,0.000041,-0.000071,-18.177706,0.000071,
2161,3058,-2.18631864115786,8.97785988806379,0.0306368503390786,0.003104,0.000145,-0.001791,0.148618,0.005200,314.588440,24.614696,0.999672,0.994846,0.003330,0.410470,-0.000006,-0.000008,-0.000006,-0.000001,-0.000013,-40.190347,0.000016,
2386,2683,2.76700350437587,0.842198303330775,-0.0353600770088747,0.002776,0.000363,-0.002228,0.135654,0.019625,319.794280,24.398337,0.999379,0.987554,0.004247,0.336069,-0.000020,0.000004,-0.000011,0.000008,-0.000025,-69.000427,0.000025,
2296,2323,0.876036604974711,-7.02477532378443,0.000852721156263669,0.002982,-0.000586,0.000589,0.134558,-0.017895,325.944662,23.597802,0.999037,0.982603,0.005370,0.376705,-0.000027,-0.000042,-0.000015,-0.000017,-0.000051,-31.780349,0.000071,
2296,2443,0.853002680479992,-4.40166497162495,-0.00902559385173163,0.003010,-0.001074,0.007803,0.111425,-0.002199,323.898712,23.743830,0.999557,0.989288,0.004246,0.500321,-0.000015,-0.000024,-0.000013,-0.000006,-0.000033,-35.593041,0.000042,
2221,2128,-0.724526589547096,-11.2951376710659,0.0219022579071293,0.002324,0.000296,0.000456,0.105165,0.021649,329.357286,23.685075,0.998925,0.980814,0.005304,0.336868,-0.000005,-0.000003,-0.000006,0.000002,-0.000010,-50.150481,0.000011,
2086,2803,-3.77540336379989,3.43923493450806,-0.0206305245469594,0.003242,-0.000080,-0.001250,0.152976,0.002741,318.645084,24.417703,0.999338,0.990672,0.003892,0.374437,-0.000019,-0.000004,-0.000003,-0.000003,-0.000019,-80.409029,0.000024,
2236,2128,-0.397231265807712,-11.2953146514279,0.0224578701202631,0.002472,-0.000455,0.002823,0.104022,0.002834,329.327829,23.628490,0.998917,0.980354,0.005419,0.288595,0.000002,0.000005,-0.000007,0.000010,-0.000004,-50.583431,0.000010,
2476,3223,4.62326511476765,12.5847370824132,0.0233055339129464,0.003017,-0.000189,-0.003210,0.150996,-0.006778,311.612897,26.338970,0.999280,0.991700,0.003721,0.360317,0.000009,0.000000,0.000008,0.000014,-0.000005,30.871789,0.000014,
2401,2773,3.07716881967971,2.80109851859785,-0.0193225182256356,0.002806,-0.000032,0.001545,0.123283,0.013390,318.464405,24.570422,0.999500,0.988105,0.004219,0.427568,-0.000021,-0.000004,-0.000015,0.000005,-0.000030,-59.444777,0.000032,
2251,2113,-0.0669630212126684,-11.6235468006543,0.0171019747477317,0.002905,0.000441,-0.000934,0.136298,0.031647,329.527813,23.505990,0.999082,0.980279,0.005498,0.327978,-0.000005,-0.000003,-0.000009,0.000005,-0.000014,-48.839474,0.000014,
2146,2953,-2.49682739216766,6.70045847012538,-0.005248997505646,0.002990,-0.000180,0.000281,0.136910,0.006122,316.045683,24.533723,0.999611,0.991033,0.003706,0.391619,-0.000019,-0.000010,-0.000002,-0.000009,-0.000019,-80.270704,0.000029,
2326,2323,1.52968212375164,-7.02322457789715,-0.00283411261978017,0.002703,0.000074,0.001103,0.120188,0.026071,325.879116,23.534738,0.998906,0.982036,0.005347,0.369129,-0.000023,-0.000040,-0.000004,-0.000022,-0.000041,-14.069327,0.000063,
2116,2998,-3.15471054025932,7.67478397021856,0.00397422383275625,0.002866,-0.000096,-0.000252,0.132885,0.008580,315.513987,24.464912,0.999563,0.992769,0.003405,0.399325,-0.000017,0.000004,0.000000,0.000004,-0.000017,-89.619997,0.000018,
2206,2053,-1.0390636014766,-12.9381424101524,0.0127729630655722,0.002690,0.000388,-0.003756,0.135234,0.011846,330.553730,23.696306,0.998780,0.975063,0.005914,0.302454,0.000000,-0.000030,-0.000006,0.000001,-0.000031,-10.749444,0.000035,
2146,3073,-2.51588176318107,9.30408183559169,0.0061249467290736,0.003217,-0.000224,-0.000209,0.148813,-0.017963,314.196128,24.608194,0.999732,0.995992,0.002954,0.349486,-0.000018,-0.000003,-0.000004,-0.000002,-0.000019,-75.868802,0.000023,
2116,2938,-3.1455631788968,6.37333059846149,-0.00835453038871492,0.002908,0.000054,-0.001587,0.138746,0.003445,316.393765,24.481566,0.999368,0.990482,0.003959,0.366713,-0.000017,-0.000008,-0.000002,-0.000007,-0.000018,-77.407048,0.000025,
2041,2668,-4.73173346608001,0.500486903955327,-0.0245784962826292,0.003316,-0.000154,0.000823,0.150322,-0.009395,321.047089,24.412359,0.999367,0.988887,0.004235,0.392767,-0.000024,-0.000014,0.000006,-0.000012,-0.000027,65.877770,0.000039,
2161,3148,-2.202600925609,10.9302243151285,0.0228136317276721,0.002798,-0.000648,0.001167,0.125179,-0.028594,313.029580,24.682944,0.999432,0.991708,0.003845,0.362364,-0.000021,-0.000012,-0.000008,-0.000007,-0.000026,-58.630762,0.000034,
2356,2458,2.15820501987544,-4.07111982781477,-0.0107955271044489,0.002973,-0.000319,0.001221,0.131955,-0.007278,323.637002,23.788535,0.999334,0.986037,0.004595,0.331558,-0.000008,-0.000006,0.000012,0.000005,-0.000019,48.200618,0.000019,
2431,2893,3.70676917449856,5.4149407027883,-0.0182654730569425,0.002783,-0.000362,-0.000012,0.127826,0.002061,316.557949,25.029858,0.999538,0.990592,0.003795,0.372670,-0.000030,-0.000024,-0.000010,-0.000016,-0.000038,-54.444803,0.000055,
2011,2938,-5.42285470526177,6.36713340127714,-0.00847954416065022,0.003176,0.000022,-0.001209,0.149843,0.018400,316.987889,24.235359,0.999556,0.993363,0.003358,0.391833,-0.000013,-0.000031,0.000000,-0.000013,-0.000031,0.614601,0.000046,
2281,2368,0.540933600356841,-6.04189359502925,0.0109490600492563,0.002676,-0.000669,0.006001,0.102500,-0.008548,325.286293,23.733901,0.999163,0.982553,0.005145,0.395948,-0.000022,-0.000030,-0.000014,-0.000011,-0.000040,-37.110564,0.000054,
2266,2353,0.215860539276477,-6.36767803894219,-0.0035038352843344,0.002638,-0.000133,0.002019,0.114313,0.012920,325.439907,23.802167,0.999161,0.982951,0.005195,0.373197,-0.000017,-0.000043,-0.000012,-0.000012,-0.000048,-21.005535,0.000063,
2011,2773,-5.39967331929394,2.78490649987813,-0.0321171644297351,0.002881,0.000018,-0.000525,0.134187,-0.003141,319.453568,24.411983,0.999507,0.991043,0.003881,0.328847,-0.000029,0.000006,0.000017,0.000013,-0.000036,68.365214,0.000036,
2041,2863,-4.76122796970644,4.74069091243989,-0.0198081138820498,0.003340,-0.000102,-0.001380,0.157795,-0.000409,317.931873,24.330656,0.999322,0.989749,0.004203,0.385536,-0.000039,0.000004,-0.000001,0.000004,-0.000039,-88.519396,0.000043,
2371,2593,2.45918719147365,-1.12383870355033,-0.0177458454612065,0.003156,-0.000228,-0.000322,0.145927,-0.000875,321.407589,24.042690,0.999322,0.987505,0.004457,0.425310,-0.000010,-0.000007,0.000003,-0.000006,-0.000011,56.481508,0.000017,
2056,2908,-4.4428375520765,5.71855149709294,-0.0110698419197774,0.002908,0.000008,0.000553,0.132555,0.018815,317.160679,24.345123,0.999512,0.992138,0.003640,0.395491,-0.000037,-0.000016,-0.000020,-0.000004,-0.000049,-59.110577,0.000058,
2446,3043,4.00535852572041,8.67547189388448,0.0063637894996873,0.002790,-0.000098,-0.000930,0.131767,0.007958,314.340754,25.585318,0.999339,0.987353,0.004183,0.365012,-0.000016,0.000013,-0.000004,0.000014,-0.000017,-82.353994,0.000018,
2101,2863,-3.45907740486409,4.7436465995989,-0.0146109846142508,0.003282,-0.000104,0.000286,0.150360,0.004986,317.643521,24.434264,0.999646,0.992654,0.003520,0.377884,-0.000015,-0.000012,-0.000002,-0.000011,-0.000016,-62.836231,0.000027,
2131,2908,-2.81463433879448,5.72119212649408,-0.00394026327239771,0.003101,-0.000296,-0.001263,0.146600,-0.001794,316.861351,24.410922,0.999342,0.988759,0.004229,0.455344,-0.000015,-0.000014,-0.000004,-0.000011,-0.000019,-48.191388,0.000030,
2491,3268,4.93779865517365,13.5637050574811,0.00556073539422641,0.002679,-0.000584,0.003193,0.110784,-0.013191,310.720908,26.617800,0.999823,0.994983,0.002955,0.322775,0.000010,-0.000017,-0.000002,0.000010,-0.000017,-3.755283,0.000017,
2311,2323,1.20264621378388,-7.02313822925094,-0.00582464369972513,0.003049,-0.000264,0.001301,0.135298,0.006865,325.876989,23.594405,0.999103,0.983656,0.005133,0.347862,-0.000022,-0.000041,-0.000007,-0.000019,-0.000044,-17.944352,0.000065,
2026,2818,-5.08078802156504,3.76215924454886,-0.0235764508475427,0.002864,-0.000480,0.004014,0.120846,-0.003782,318.686253,24.313603,0.999408,0.992044,0.003603,0.406627,-0.000024,0.000016,0.000011,0.000018,-0.000026,75.939629,0.000027,
2461,3118,4.31728205640546,10.3041485177079,0.015547752045677,0.003028,-0.000496,0.002138,0.130969,-0.018015,313.218048,25.840272,0.999593,0.990387,0.003827,0.399887,-0.000005,0.000012,0.000021,0.000026,-0.000019,55.907254,0.000027,
2476,3238,4.61914665987699,12.9107517530886,0.0098191427355232,0.003006,-0.000344,-0.003920,0.153149,-0.009062,311.255146,26.374291,0.999663,0.993674,0.003275,0.378104,0.000008,-0.000001,0.000008,0.000012,-0.000005,29.698608,0.000012,
2266,2578,0.174814199909903,-1.45328928758646,-0.0207200876718048,0.002844,0.000049,0.000693,0.128419,0.019533,321.668068,24.164916,0.999352,0.988078,0.004344,0.420062,-0.000012,0.000005,0.000000,0.000005,-0.000012,88.343592,0.000012,
2011,2953,-5.42476236533643,6.69238180337925,-0.00247896802090963,0.003149,0.000007,-0.001926,0.150550,0.009076,316.794886,24.243583,0.999693,0.994488,0.003022,0.361741,-0.000005,-0.000035,-0.000001,-0.000005,-0.000035,-2.415385,0.000044,
2131,2998,-2.82907121964734,7.67524430926237,0.0016025430364266,0.002997,0.000219,-0.003831,0.149706,0.001858,315.444890,24.449358,0.999782,0.994487,0.003109,0.450924,-0.000019,0.000005,0.000001,0.000005,-0.000019,87.762960,0.000019,
2236,2143,-0.399479993854289,-10.9668176010011,0.020055705855043,0.002885,-0.000260,0.001370,0.127699,0.016971,329.090255,23.588014,0.998707,0.980105,0.005444,0.367379,-0.000004,-0.000007,-0.000006,0.000001,-0.000012,-37.703328,0.000013,
2251,2248,-0.091921724373929,-8.66413098341452,0.00345726960460979,0.002833,-0.000272,0.002176,0.122716,0.027654,327.225520,23.782966,0.998222,0.978007,0.006014,0.281774,-0.000019,-0.000017,-0.000013,-0.000005,-0.000031,-47.547307,0.000039,
2161,3193,-2.20944788815644,11.9046561235773,0.0310788099502588,0.002946,-0.000658,-0.000283,0.136494,-0.028900,312.374481,24.665641,0.999597,0.993714,0.003270,0.406111,-0.000026,-0.000010,-0.000016,0.000000,-0.000036,-58.649809,0.000042,
2116,3013,-3.15646872744363,7.99959491163516,0.00887305756464229,0.003195,-0.000245,-0.001081,0.150480,-0.000391,315.328307,24.441473,0.999081,0.989347,0.004059,0.416673,-0.000015,0.000002,0.000000,0.000002,-0.000015,-88.780285,0.000016,
2236,2188,-0.407548212824143,-9.97861751298596,0.0106440686424776,0.003049,0.000199,-0.002134,0.146731,0.007126,328.305564,23.776912,0.999160,0.985205,0.004900,0.240788,-0.000008,-0.000001,-0.000005,0.000002,-0.000011,-63.426501,0.000011,
2176,3118,-1.87183711771141,10.2809269092728,0.0269717133676295,0.002801,-0.000167,0.000848,0.126452,0.002307,313.502035,24.723819,0.999528,0.993147,0.003459,0.394845,-0.000022,-0.000016,-0.000011,-0.000007,-0.000030,-52.632718,0.000040,
2041,2878,-4.76423775392389,5.06723787405036,-0.0206109813095168,0.002943,-0.000170,0.002632,0.128302,0.008211,317.651769,24.373039,0.999063,0.986377,0.004590,0.343827,-0.000034,0.000017,-0.000003,0.000017,-0.000034,-86.686757,0.000034,
2281,2398,0.534270698929529,-5.38407408384069,-0.000669190599921876,0.002402,-0.000948,0.007808,0.083858,0.031009,324.684778,23.832050,0.999195,0.985269,0.004980,0.396935,-0.000020,-0.000020,-0.000008,-0.000012,-0.000027,-45.157246,0.000040,
2431,2908,3.70355840460399,5.74072991446248,-0.0198994107271346,0.002776,-0.000436,0.001253,0.122799,-0.006032,316.294506,25.028524,0.999627,0.990384,0.003787,0.415431,-0.000031,-0.000019,-0.000006,-0.000017,-0.000034,-66.932947,0.000051,
2281,2383,0.537554957311166,-5.7124848840678,0.00100831295719672,0.002619,-0.000350,0.004516,0.104965,0.020226,324.962707,23.776907,0.999006,0.982659,0.005202,0.411813,-0.000021,-0.000026,-0.000013,-0.000010,-0.000037,-40.415738,0.000050,
2416,2878,3.38340173215787,5.0880010701247,-0.0171708699643887,0.002890,0.000064,0.001116,0.128822,0.034931,316.791660,24.957756,0.999542,0.990481,0.003766,0.403724,-0.000027,-0.000011,-0.000010,-0.000006,-0.000032,-63.964081,0.000041,
2071,2713,-4.08803091958167,1.48164035067388,-0.0303445971779297,0.003078,-0.000623,0.004547,0.128577,-0.003049,320.078392,24.403625,0.999297,0.990340,0.003906,0.387398,-0.000025,-0.000025,-0.000002,-0.000023,-0.000027,-45.100552,0.000050,
2056,2668,-4.40616157948205,0.500676897439611,-0.0200502339939703,0.002850,-0.000410,0.000930,0.128457,-0.014651,320.976269,24.418529,0.999298,0.989601,0.004150,0.375147,-0.000031,-0.000013,0.000000,-0.000013,-0.000031,-88.615485,0.000046,
2056,2923,-4.44477288561283,6.04409707777889,-0.00796809259429665,0.003062,0.000218,-0.000550,0.142822,0.016784,316.952907,24.346441,0.999508,0.992217,0.003624,0.386300,-0.000040,-0.000020,-0.000019,-0.000009,-0.000051,-58.993143,0.000065,
2146,2968,-2.49921427309781,7.02584465027941,-0.00198157294005341,0.002914,-0.000430,0.000650,0.132219,-0.005065,315.824107,24.544146,0.999688,0.993083,0.003326,0.377323,-0.000019,0.000000,-0.000002,0.000001,-0.000019,-83.441777,0.000022,
2341,2413,1.84143168795406,-5.05601870110719,0.00553390767493056,0.003177,0.000031,-0.002870,0.155700,-0.003696,324.525529,23.735622,0.999628,0.989427,0.004302,0.310853,-0.000013,-0.000004,0.000004,-0.000002,-0.000015,68.566327,0.000018,
2011,2548,-5.36501760974391,-2.11425629904416,-0.019049159816575,0.003204,0.000259,-0.000639,0.149294,0.024542,323.218783,24.495272,0.999455,0.988494,0.004063,0.445861,-0.000018,-0.000049,0.000002,-0.000018,-0.000049,2.936239,0.000069,
2161,3163,-2.20462010818022,11.2554986253748,0.0276855851911364,0.002929,-0.000395,0.000108,0.134636,-0.009035,312.834315,24.709524,0.999595,0.992782,0.003499,0.364367,-0.000022,-0.000002,-0.000010,0.000002,-0.000026,-67.176636,0.000029,
2071,2773,-4.09634292587237,2.78648910041268,-0.0244206594768457,0.003321,0.000190,-0.003145,0.162023,0.000747,319.188047,24.406575,0.999495,0.989975,0.003943,0.376106,-0.000028,-0.000017,-0.000004,-0.000015,-0.000030,-73.084639,0.000046,
2356,2473,2.15535283521536,-3.74346674635297,-0.00869024139689145,0.002826,-0.000281,0.001604,0.123934,0.011251,323.403315,23.828576,0.999664,0.988291,0.004135,0.350221,-0.000009,-0.000011,0.000012,0.000002,-0.000021,41.934545,0.000024,
2446,3058,4.00230048220699,9.00137517420483,0.00633403008890809,0.002797,-0.000329,-0.000132,0.129028,-0.003076,314.092138,25.648980,0.999535,0.990076,0.003929,0.341552,-0.000015,0.000007,0.000000,0.000007,-0.000015,-89.408769,0.000015,
2011,2968,-5.42685549574998,7.01754638393518,0.00022189219947677,0.003235,-0.000073,-0.000945,0.151821,0.003172,316.574887,24.221239,0.999662,0.994707,0.002967,0.365568,-0.000013,-0.000043,-0.000007,-0.000012,-0.000044,-11.966422,0.000059,
2041,2683,-4.7345209090509,0.828035888995515,-0.0312445904742731,0.003211,0.000166,0.000566,0.146359,0.017589,320.744141,24.421937,0.999405,0.991066,0.003920,0.403067,-0.000025,-0.000024,0.000004,-0.000020,-0.000028,49.066984,0.000049,
2221,2143,-0.726560072243622,-10.966128255208,0.0191580211462679,0.003083,0.000280,0.000883,0.138583,0.040787,329.126342,23.682440,0.998928,0.982175,0.005259,0.380550,-0.000009,-0.000014,-0.000005,-0.000006,-0.000017,-31.485217,0.000024,
2026,2623,-5.05074744639324,-0.479150100270914,-0.0264234204844911,0.003355,-0.000197,0.000720,0.152458,0.003254,321.852894,24.468694,0.999013,0.986901,0.004675,0.382672,-0.000011,-0.000030,0.000007,-0.000008,-0.000032,17.744110,0.000043,
2491,3283,4.93464346840997,13.8882033544038,0.00230486781629224,0.002755,-0.000599,0.001953,0.118991,-0.025552,310.455567,26.594181,0.999838,0.995543,0.002888,0.391361,0.000016,-0.000032,0.000001,0.000016,-0.000032,0.845229,0.000032,
2371,2608,2.45651923096698,-0.79648595675981,-0.0182333456002652,0.003366,-0.000107,-0.000669,0.156885,0.003681,321.170702,24.089386,0.999092,0.986857,0.004523,0.424929,-0.000013,-0.000010,0.000000,-0.000010,-0.000013,-81.444673,0.000023,
2206,2008,-1.03024035172582,-13.9288436743514,0.0334957385344978,0.002857,-0.000171,0.001925,0.124751,-0.000165,331.439134,23.583690,0.999319,0.980845,0.005289,0.341462,0.000019,-0.000067,-0.000018,0.000022,-0.000071,-11.522897,0.000072,
2011,2788,-5.40151457125614,3.11046373572736,-0.0250701528860873,0.002909,0.000108,0.000055,0.134018,0.021173,319.268947,24.382275,0.999510,0.990993,0.003869,0.371008,-0.000028,0.000026,0.000016,0.000030,-0.000032,74.890412,0.000036,
2236,2158,-0.403115475152692,-10.6360760207017,0.00756786521463937,0.002583,0.000264,-0.000862,0.121275,0.031430,328.737721,23.650272,0.998628,0.981675,0.005394,0.344199,-0.000005,-0.000003,-0.000008,0.000004,-0.000012,-48.944097,0.000012,
2476,3253,4.61539762315973,13.2363974310202,0.00600423422804397,0.002740,-0.000152,-0.002424,0.135311,-0.002372,310.958531,26.426226,0.999702,0.993109,0.003278,0.388015,0.000006,-0.000006,0.000002,0.000006,-0.000006,10.137793,0.000007,
2401,2788,3.07349710709286,3.12851812945837,-0.0208356764130713,0.002521,-0.000556,0.005818,0.094530,0.006060,318.178135,24.683247,0.999611,0.987733,0.004259,0.352891,-0.000021,-0.000007,-0.000015,0.000003,-0.000030,-57.206168,0.000034,
2266,2368,0.213018390940995,-6.03914151054166,-0.00818645521042072,0.002924,-0.000312,0.003641,0.122024,0.022079,325.165942,23.830991,0.999051,0.983163,0.005163,0.381037,-0.000021,-0.000029,-0.000013,-0.000011,-0.000039,-35.980790,0.000052,
2116,3028,-3.15919392073664,8.3252518786293,0.0109209180761809,0.003008,-0.000367,0.002147,0.132230,-0.000112,315.082603,24.471256,0.999371,0.991466,0.003702,0.389506,-0.000014,0.000002,-0.000001,0.000002,-0.000014,-86.958289,0.000015,
2266,2593,0.171758373969848,-1.12649116844451,-0.0201046321140552,0.002707,-0.000384,0.004616,0.109014,0.021526,321.410694,24.166949,0.999220,0.986368,0.004581,0.446483,-0.000016,-0.000001,-0.000004,-0.000001,-0.000016,-76.013880,0.000019,
2161,3208,-2.21157143121454,12.2300289874458,0.0365302462770387,0.003016,-0.000230,-0.000184,0.139594,-0.010260,312.177450,24.715472,0.999526,0.994098,0.003222,0.383616,-0.000026,-0.000009,-0.000018,0.000003,-0.000038,-57.400000,0.000043,
2461,3133,4.31432155494025,10.6301911609184,0.0180434222327222,0.002926,-0.000478,0.002651,0.124393,-0.010921,312.986144,25.933662,0.999539,0.989341,0.003918,0.366902,-0.000003,0.000003,0.000013,0.000013,-0.000014,51.807342,0.000016,
2116,2953,-3.14780970335893,6.69916405951882,-0.00715221339498839,0.003105,0.000013,-0.000522,0.144699,0.011494,316.165373,24.495173,0.999600,0.990984,0.003706,0.363955,-0.000014,-0.000011,-0.000002,-0.000010,-0.000016,-63.370336,0.000026,
2386,2698,2.76493675532604,1.16745923921957,-0.0263673188343887,0.003051,-0.000135,-0.000213,0.140836,0.007822,319.631339,24.376243,0.999455,0.989649,0.003949,0.389883,-0.000022,0.000008,-0.000011,0.000011,-0.000026,-72.090624,0.000026,
2326,2338,1.52811899136605,-6.69671210825487,0.0111400514932143,0.002863,0.000002,0.001165,0.127274,0.020874,325.760763,23.566296,0.999151,0.983544,0.004987,0.368092,-0.000021,-0.000036,-0.000008,-0.000017,-0.000039,-23.117440,0.000058,
2206,2068,-1.04058000732254,-12.6109469913908,0.0261977375035372,0.003059,0.000144,0.000425,0.138894,0.014499,330.428561,23.696420,0.999031,0.978375,0.005631,0.324436,-0.000002,-0.000023,-0.000004,-0.000001,-0.000023,-11.707056,0.000028,
2416,2893,3.38077706292672,5.41416188901445,-0.0168043651469816,0.003009,-0.000093,-0.001066,0.142174,0.004562,316.563397,25.022698,0.999532,0.990306,0.003856,0.355823,-0.000026,-0.000023,-0.000007,-0.000017,-0.000032,-52.115643,0.000049,
2176,3238,-1.89134464083244,12.8816665475234,0.0354202574822011,0.003156,-0.000116,-0.001367,0.149818,-0.001707,311.633072,24.822279,0.999757,0.994610,0.003057,0.380523,-0.000030,-0.000015,-0.000015,-0.000006,-0.000039,-58.275162,0.000049,
2146,2983,-2.50131700722058,7.35137204425673,-0.00219442714825391,0.003352,-0.000294,0.001002,0.151366,-0.005595,315.597016,24.536758,0.999718,0.994473,0.003111,0.391419,-0.000020,0.000007,0.000000,0.000007,-0.000020,89.482542,0.000020,
2161,3178,-2.20700664738582,11.5802668773681,0.0343325864431563,0.002892,-0.000515,0.003788,0.121647,0.000410,312.631753,24.713317,0.999552,0.991262,0.003662,0.378703,-0.000023,-0.000006,-0.000013,0.000001,-0.000030,-62.205507,0.000034,
2086,3058,-3.8136706561664,8.9730248610864,0.018223705196192,0.003257,-0.000007,-0.002404,0.157159,-0.006350,314.825583,24.337125,0.999585,0.992475,0.003403,0.420013,-0.000014,0.000002,-0.000006,0.000004,-0.000016,-71.200621,0.000016,
2101,2938,-3.47078431555958,6.37238586407348,-0.00492183848103878,0.002999,0.000161,-0.000731,0.140487,0.021777,316.494554,24.450028,0.999298,0.990423,0.004001,0.382811,-0.000018,-0.000008,-0.000005,-0.000006,-0.000020,-66.269846,0.000027,
2281,2638,0.490778048591306,-0.144565938053489,-0.0221701236160357,0.003120,-0.000157,-0.000592,0.145286,0.001921,320.677591,24.275786,0.999205,0.985458,0.004521,0.385769,-0.000016,-0.000004,-0.000005,-0.000002,-0.000018,-69.568751,0.000023,
2311,2338,1.20018929034952,-6.6954923617694,-0.00373729284734736,0.003381,-0.000415,0.003924,0.141532,0.016580,325.658335,23.597836,0.999108,0.983209,0.004998,0.388240,-0.000019,-0.000038,-0.000010,-0.000014,-0.000043,-23.336642,0.000060,
2101,2878,-3.46197296341508,5.0689263724304,-0.0158483643281784,0.002945,-0.000445,0.001263,0.131821,-0.017300,317.371311,24.388786,0.999642,0.992317,0.003658,0.401990,-0.000014,0.000006,-0.000001,0.000006,-0.000014,-86.961960,0.000014,
2491,3298,4.93168769112194,14.2141565381181,0.000865247916351564,0.002796,-0.000067,-0.000313,0.129846,0.003390,310.207074,26.677557,0.999703,0.993207,0.003414,0.394505,0.000017,-0.000060,-0.000014,0.000019,-0.000062,-10.119650,0.000064,
2131,3013,-2.83126005463546,8.00133798658319,0.00653090035746118,0.003091,-0.000080,-0.002010,0.148569,0.009644,315.240052,24.527956,0.999456,0.991639,0.003672,0.384948,-0.000017,0.000003,0.000000,0.000003,-0.000017,89.520057,0.000019,
2011,2563,-5.36768706186742,-1.78784786605988,-0.0150684493083304,0.002740,-0.000497,0.003056,0.117740,0.020561,322.978469,24.482731,0.999305,0.987416,0.004312,0.443303,-0.000018,-0.000037,0.000001,-0.000017,-0.000037,1.869763,0.000055,
2146,3088,-2.51819135704892,9.62982342522982,0.00809081839463488,0.003231,-0.000312,-0.001162,0.152404,-0.013182,313.971018,24.657062,0.999696,0.994613,0.003170,0.312205,-0.000021,-0.000005,-0.000003,-0.000004,-0.000022,-79.053226,0.000028,
2056,2683,-4.40788734566841,0.8272779457685,-0.0189442171549672,0.003037,0.000407,-0.004501,0.152673,0.019918,320.766390,24.397521,0.999365,0.990666,0.003993,0.425856,-0.000031,-0.000019,-0.000001,-0.000019,-0.000031,-83.637601,0.000050,
2296,2338,0.872757657082257,-6.69553035945363,-0.00511859270739023,0.002804,-0.000079,-0.000320,0.129642,0.009534,325.647013,23.649896,0.999227,0.984524,0.004894,0.384431,-0.000023,-0.000034,-0.000018,-0.000010,-0.000048,-36.675672,0.000062,
2221,2083,-0.717164588423053,-12.2813685038445,0.0184496028944636,0.002386,-0.000480,0.002646,0.100702,-0.005369,330.047735,23.640894,0.999068,0.978718,0.005619,0.288154,-0.000004,-0.000009,-0.000005,-0.000001,-0.000012,-32.038386,0.000014,
2476,3268,4.61193585644694,13.5620449854833,0.00802577292284923,0.002740,-0.000574,0.004608,0.108277,-0.013146,310.701677,26.532224,0.999839,0.995280,0.002851,0.326092,0.000006,-0.000009,0.000007,0.000008,-0.000012,22.173126,0.000012,
2176,3133,-1.87380751016527,10.6062086721837,0.0325623358461939,0.002981,-0.000297,0.000271,0.136604,0.007196,313.313691,24.763021,0.999427,0.992736,0.003677,0.371683,-0.000024,-0.000018,-0.000010,-0.000010,-0.000031,-53.583704,0.000043,
2026,2638,-5.05273657573077,-0.153671238595109,-0.0171859081486332,0.003063,0.000090,0.000683,0.139210,0.017729,321.674371,24.419805,0.999260,0.989847,0.004129,0.436783,0.000000,-0.000028,0.000012,0.000004,-0.000032,20.139299,0.000035,
2236,2413,-0.450187420869259,-5.05264124905086,-0.0324040380870088,0.002720,-0.000224,-0.000459,0.126310,0.004751,324.294785,24.102803,0.999576,0.990852,0.003893,0.261945,-0.000020,-0.000019,-0.000012,-0.000007,-0.000032,-46.607136,0.000042,
2056,2938,-4.44706773332095,6.36901536447856,-0.00326248585514577,0.002987,-0.000316,0.002032,0.131915,-0.001621,316.737771,24.321554,0.999341,0.991754,0.003704,0.386642,-0.000036,-0.000018,-0.000012,-0.000012,-0.000042,-63.587112,0.000056,
2221,2158,-0.729409010270533,-10.6369525740855,0.0147277939198034,0.002988,0.000284,-0.000963,0.140160,0.020772,328.849640,23.721921,0.998783,0.983913,0.005325,0.342916,-0.000008,-0.000010,-0.000010,0.000001,-0.000019,-41.613543,0.000021,
2071,2788,-4.09843058640891,3.11155477888647,-0.018382202891587,0.003396,-0.000127,-0.000172,0.156913,0.000315,318.990382,24.349415,0.999460,0.989067,0.004025,0.429451,-0.000027,-0.000001,-0.000004,0.000000,-0.000028,-81.947094,0.000032,
2461,3148,4.3115978187461,10.9556124308967,0.0208770065210047,0.002847,-0.000375,0.000937,0.127262,-0.012083,312.766821,25.983569,0.999472,0.988967,0.003897,0.369160,-0.000001,-0.000008,0.000012,0.000008,-0.000017,37.297110,0.000017,
2041,2698,-4.73668360392108,1.15437316007123,-0.0297986994527832,0.003306,-0.000122,0.001423,0.148329,0.023824,320.515188,24.412755,0.999309,0.991607,0.003817,0.411333,-0.000023,-0.000026,0.000012,-0.000012,-0.000036,40.515794,0.000051,
2116,3208,-3.18644741413466,12.2258005605926,0.0423018526084888,0.003255,-0.000404,0.000032,0.150027,-0.007258,312.424004,24.490120,0.999636,0.993977,0.003234,0.391784,-0.000029,0.000004,-0.000027,0.000019,-0.000044,-60.808400,0.000044,
2296,2458,0.850048060097304,-4.07201865107611,-0.0118623185768456,0.002817,-0.000563,0.005283,0.111286,0.012364,323.630999,23.918748,0.999371,0.987324,0.004540,0.371283,-0.000018,-0.000025,-0.000008,-0.000013,-0.000030,-31.878140,0.000044,
2011,2983,-5.4297916666299,7.34334508057696,-0.000940867810356849,0.002995,-0.000260,0.004833,0.125042,0.021248,316.294286,24.210755,0.999230,0.992124,0.003524,0.381387,-0.000018,-0.000042,0.000004,-0.000017,-0.000043,8.639566,0.000062,
2026,2833,-5.08271720292543,4.08885906240785,-0.0258530147303873,0.003114,-0.000136,-0.000074,0.143768,0.009434,318.446170,24.340925,0.999718,0.993898,0.003403,0.382588,-0.000031,0.000020,0.000003,0.000020,-0.000032,86.846246,0.000032,
2341,2428,1.83910242746498,-4.7294095620859,0.00856921132566413,0.003333,0.000424,-0.003952,0.166784,0.019162,324.319523,23.668743,0.999722,0.993346,0.003795,0.438481,-0.000010,-0.000006,0.000000,-0.000006,-0.000010,86.956650,0.000016,
2506,1993,5.53063324850197,-14.2656178573792,0.0332130889538576,0.002288,0.000564,-0.003681,0.118887,0.021961,331.763598,21.525935,0.999144,0.972856,0.006295,0.272640,-0.000046,-0.000186,0.000155,0.000055,-0.000286,32.912084,0.000304,
2476,3283,4.6102090602894,13.8863733938765,0.0181793468922251,0.002948,-0.000565,0.001482,0.129703,-0.034621,310.562294,26.574514,0.999826,0.995770,0.002874,0.317229,0.000014,-0.000020,0.000010,0.000017,-0.000022,15.913102,0.000023,
2431,2923,3.70101980869189,6.06750999864884,-0.0151438860791018,0.002896,-0.000465,0.002082,0.125239,-0.008560,316.091369,25.162807,0.999660,0.991757,0.003692,0.328043,-0.000030,-0.000018,-0.000006,-0.000016,-0.000032,-66.543962,0.000049,
2011,2578,-5.37002205024247,-1.4605501557718,-0.0196023420982669,0.002832,-0.000284,0.001950,0.125023,0.014667,322.705489,24.483344,0.998978,0.985557,0.004834,0.425684,-0.000024,-0.000036,-0.000009,-0.000019,-0.000042,-28.793831,0.000062,
2131,3028,-2.83395624574496,8.32610213673167,0.0110002749674436,0.002958,-0.000663,0.003657,0.125182,-0.012009,315.009971,24.513998,0.999524,0.991821,0.003642,0.381852,-0.000018,0.000002,0.000000,0.000002,-0.000018,89.513221,0.000019,
2281,2413,0.531775362972205,-5.05678299984601,0.000608548338334458,0.002437,-0.000886,0.006834,0.088717,0.005916,324.458023,23.853680,0.999317,0.986981,0.004633,0.379382,-0.000017,-0.000014,-0.000007,-0.000008,-0.000023,-52.366083,0.000032,
2236,2203,-0.410045499405246,-9.6525593034214,0.0154925480240991,0.002916,0.000524,-0.000339,0.134969,0.032335,328.093629,23.601461,0.999412,0.988463,0.004506,0.464817,-0.000012,0.000000,-0.000008,0.000004,-0.000016,-64.869537,0.000016,
2086,2863,-3.78451264693788,4.74314302148213,-0.0138732155716639,0.003284,0.000150,-0.000863,0.153926,0.016756,317.727612,24.432378,0.999468,0.991263,0.003851,0.368791,-0.000013,-0.000010,-0.000006,-0.000005,-0.000018,-51.293295,0.000024,
2251,2488,-0.134765042542202,-3.41907041529667,-0.00735151487589292,0.002925,-0.000009,0.001155,0.130549,0.006559,323.266463,24.010457,0.999680,0.989405,0.003954,0.434823,-0.000016,-0.000002,-0.000002,-0.000002,-0.000016,-83.358171,0.000020,
2446,3073,3.99895017565191,9.32654086150962,0.00326288536848551,0.002840,-0.000694,0.001677,0.124061,-0.022093,313.816148,25.637142,0.999655,0.993326,0.003449,0.385706,-0.000011,0.000010,0.000003,0.000011,-0.000011,82.912647,0.000013,
2146,3118,-2.5226009060986,10.2793478101134,0.0214149275796558,0.002949,0.000045,-0.001524,0.140715,0.014737,313.581077,24.625571,0.999681,0.994650,0.003148,0.385334,-0.000027,-0.000006,-0.000007,-0.000004,-0.000029,-73.051457,0.000036,
2101,2953,-3.47349899888099,6.69807478107613,-0.0076357708274486,0.003028,-0.000221,0.001494,0.135197,0.015094,316.222497,24.437181,0.999469,0.991146,0.003755,0.389635,-0.000013,-0.000013,-0.000004,-0.000009,-0.000018,-45.987128,0.000027,
2176,3253,-1.89475784638782,13.2068829909516,0.0283620120086425,0.002947,-0.000354,0.000780,0.133384,-0.011240,311.311895,24.826246,0.999733,0.994587,0.003126,0.377801,-0.000029,-0.000005,-0.000013,0.000000,-0.000035,-66.463346,0.000040,
2206,2263,-1.07522827361199,-8.33734969638535,0.00539090325014513,0.002901,-0.000184,0.000304,0.132080,0.008696,327.110466,23.897143,0.998833,0.981569,0.005350,0.372345,-0.000017,-0.000019,-0.000006,-0.000012,-0.000024,-38.023403,0.000037,
2161,3223,-2.21387686435376,12.554730485997,0.0407590371825677,0.003021,-0.000401,0.000418,0.138003,-0.006219,311.965854,24.714029,0.999651,0.994371,0.003097,0.397739,-0.000025,-0.000012,-0.000023,0.000006,-0.000043,-52.328013,0.000046,
2356,2488,2.15288832543032,-3.41740070381362,-0.00112999150138648,0.002880,-0.000666,0.005098,0.113970,0.006657,323.213972,23.800755,0.999536,0.987707,0.004284,0.413241,-0.000007,-0.000002,0.000009,0.000006,-0.000014,52.664342,0.000014,
2401,2803,3.07093866968751,3.45486255452578,-0.023799683388404,0.002785,-0.000237,0.001641,0.121947,0.009760,317.936382,24.679499,0.999607,0.989914,0.004066,0.405646,-0.000019,-0.000013,-0.000014,-0.000002,-0.000030,-51.040817,0.000035,
2041,2893,-4.76589518216432,5.3919037326643,-0.00960072333873541,0.002955,-0.000293,0.002977,0.127884,0.006259,317.499893,24.343151,0.999304,0.991361,0.003785,0.363607,-0.000039,0.000001,-0.000010,0.000003,-0.000041,-76.984028,0.000046,
2011,2803,-5.40409377318056,3.43603817256995,-0.0314725348729894,0.002923,-0.000237,-0.000653,0.136423,-0.007304,318.975138,24.306924,0.999516,0.991642,0.003720,0.405672,-0.000019,0.000022,0.000023,0.000032,-0.000029,65.655077,0.000036,
2461,3163,4.3092145272386,11.2809593304448,0.0239903291727046,0.002995,-0.000427,-0.001884,0.144692,-0.018692,312.564423,26.037175,0.999575,0.990299,0.003818,0.362090,0.000002,0.000001,0.000013,0.000015,-0.000012,43.909191,0.000016,
2071,2728,-4.08972736269231,1.8080943537099,-0.0300730500468944,0.003375,0.000036,-0.000852,0.157895,0.005933,319.866546,24.402357,0.999217,0.989236,0.004112,0.394751,-0.000030,-0.000029,0.000000,-0.000029,-0.000030,83.558058,0.000059,
2251,2263,-0.0942368245495366,-8.33611604899135,0.0033709227983536,0.002749,0.000855,-0.003419,0.137542,0.049081,326.997747,23.759853,0.999057,0.983606,0.005163,0.352107,-0.000017,-0.000029,-0.000015,-0.000007,-0.000039,-33.830675,0.000050,
2371,2623,2.45302362910256,-0.468860259866773,-0.0241532443736787,0.003160,0.000064,-0.001178,0.149287,0.005763,320.869732,24.122175,0.999165,0.987173,0.004448,0.436188,-0.000015,-0.000010,-0.000007,-0.000005,-0.000019,-55.212740,0.000026,
2131,3043,-2.83607761969598,8.65165876190932,0.016883249271018,0.002911,-0.000562,0.003227,0.124330,-0.011537,314.813542,24.563526,0.999487,0.992634,0.003524,0.337669,-0.000017,-0.000002,-0.000003,-0.000001,-0.000018,-80.866427,0.000021,
2086,3073,-3.81655172611942,9.29890029422614,0.0182445223715604,0.002929,-0.000234,-0.000263,0.135782,-0.014485,314.559624,24.392747,0.999562,0.991537,0.003470,0.354263,-0.000014,0.000007,-0.000004,0.000008,-0.000015,-80.827170,0.000015,
2056,2698,-4.41052211812778,1.15409843435135,-0.0235954571421075,0.003137,0.000249,-0.002414,0.151358,0.016206,320.483228,24.392278,0.999311,0.990963,0.003867,0.422482,-0.000024,-0.000022,0.000005,-0.000017,-0.000028,51.067822,0.000046,
2116,3043,-3.16113078019763,8.65157344463661,0.0187430472300889,0.002996,-0.000391,0.001602,0.133233,-0.016084,314.903964,24.619933,0.999608,0.993255,0.003401,0.227237,-0.000014,-0.000001,-0.000003,-0.000001,-0.000015,-77.428121,0.000017,
2326,2353,1.5246790512883,-6.3667826037181,-0.000172021794412558,0.002856,0.000536,-0.001586,0.136651,0.040256,325.432488,23.642032,0.999192,0.981972,0.004924,0.348412,-0.000015,-0.000037,-0.000004,-0.000015,-0.000038,-10.822880,0.000054,
2266,2383,0.210262276937836,-5.71134747041593,-0.0119128882797668,0.003079,-0.000412,0.003284,0.130319,0.023003,324.900840,23.815000,0.998493,0.979455,0.005585,0.425187,-0.000020,-0.000023,-0.000011,-0.000010,-0.000033,-41.430496,0.000045,
2026,2653,-5.0554590347454,0.173790750379709,-0.0287783612128578,0.003224,-0.000038,-0.000566,0.150034,0.000898,321.345682,24.412745,0.999326,0.990770,0.003903,0.417964,-0.000009,-0.000020,0.000006,-0.000006,-0.000022,24.419480,0.000030,
2266,2608,0.169042331385235,-0.798843242681663,-0.0243710314844066,0.002789,-0.000395,0.001929,0.121648,0.002493,321.144220,24.230483,0.999260,0.986962,0.004502,0.390260,-0.000019,-0.000007,-0.000002,-0.000007,-0.000020,-79.977378,0.000028,
2176,2113,-1.70370405778115,-11.6229001135661,0.0112561438560874,0.002892,-0.000261,-0.000919,0.135356,-0.009151,329.665232,23.869720,0.999100,0.979916,0.005551,0.363848,0.000004,0.000004,0.000016,0.000020,-0.000012,44.871701,0.000020,
2416,2908,3.37785829624227,5.7398408538002,-0.0177064653641992,0.003199,-0.000367,0.000068,0.146639,-0.005378,316.315684,25.018015,0.999602,0.990827,0.003777,0.397902,-0.000027,-0.000020,-0.000005,-0.000017,-0.000029,-62.943646,0.000047,
2011,2818,-5.4067252235697,3.76115880064783,-0.027737433951927,0.002670,-0.000762,0.005128,0.108896,-0.017978,318.736012,24.254624,0.999174,0.990666,0.003895,0.435125,-0.000021,0.000015,0.000015,0.000021,-0.000026,69.614322,0.000028,
2101,3133,-3.50035024082912,10.6008138944268,0.0278985452632696,0.003041,-0.000164,-0.000604,0.141965,-0.014599,313.591857,24.490011,0.999799,0.995450,0.002833,0.311184,-0.000020,0.000002,-0.000006,0.000004,-0.000021,-75.751852,0.000023,
2341,2443,1.83498087306133,-4.39945589613793,-0.00585014720127219,0.003169,0.000197,-0.003484,0.157591,0.009825,323.946287,23.781664,0.999398,0.987873,0.004444,0.354820,-0.000007,-0.000009,0.000000,-0.000007,-0.000009,5.725249,0.000016,
2206,2083,-1.04386327734205,-12.2815002079891,0.0182139786173252,0.002891,0.000035,0.000795,0.130007,0.012237,330.112312,23.674623,0.998971,0.977627,0.005748,0.364418,-0.000003,-0.000005,-0.000004,0.000000,-0.000008,-35.994632,0.000009,
2386,2713,2.76273671484513,1.49329185136465,-0.0203126221529146,0.003190,-0.000299,-0.001178,0.150647,-0.008374,319.448164,24.390510,0.999646,0.991387,0.003598,0.402833,-0.000022,0.000012,-0.000015,0.000017,-0.000028,-69.491825,0.000028,
2476,3298,4.60628856450344,14.2126509172921,0.00167153116666441,0.003119,-0.000142,-0.002418,0.152631,-0.020055,310.199392,26.620080,0.999566,0.993233,0.003532,0.341685,0.000013,-0.000040,-0.000001,0.000013,-0.000040,-1.590003,0.000040,
2146,3103,-2.52077848153824,9.95386204024199,0.0139353039616026,0.002853,-0.000162,0.000080,0.131324,0.007842,313.754389,24.561078,0.999802,0.996406,0.002749,0.436149,-0.000025,-0.000009,-0.000003,-0.000008,-0.000025,-79.553028,0.000035,
2131,3283,-2.87605758738318,13.8533690643017,0.0151389459701932,0.002959,-0.000266,0.001635,0.131571,-0.005760,310.882902,24.595403,0.999675,0.995105,0.002980,0.382173,-0.000029,0.000011,-0.000017,0.000018,-0.000036,-69.735506,0.000036,
2026,2848,-5.08593432548347,4.41365036861924,-0.0450777701374818,0.002877,0.000289,-0.007666,0.153727,-0.028294,318.053188,24.121995,0.999702,0.995031,0.003251,0.554097,-0.000029,0.000014,0.000004,0.000015,-0.000029,85.319428,0.000029,
2056,2713,-4.41301348080583,1.48077573565882,-0.02476261706272,0.003324,-0.000317,0.002188,0.146865,0.010619,320.225879,24.409164,0.999126,0.989905,0.003973,0.394941,-0.000028,-0.000028,0.000001,-0.000027,-0.000029,47.736718,0.000056,
2131,3058,-2.83828219755994,8.97709320686121,0.0165594105849323,0.002968,-0.000217,-0.000549,0.138430,-0.004498,314.580119,24.558186,0.999334,0.992611,0.003677,0.354760,-0.000016,-0.000004,-0.000004,-0.000003,-0.000017,-74.784066,0.000021,
2281,2653,0.488177629268044,0.182358657412458,-0.0227982162177227,0.003157,-0.000024,-0.002184,0.152361,-0.013081,320.435930,24.314726,0.999414,0.988373,0.004205,0.360044,-0.000015,-0.000001,-0.000004,0.000000,-0.000016,-76.734905,0.000018,
2011,2998,-5.43139159476895,7.66830971484096,0.00613039757985234,0.003143,-0.000135,0.002833,0.137332,0.013041,316.121610,24.209609,0.999356,0.992569,0.003458,0.361540,-0.000023,-0.000027,0.000012,-0.000013,-0.000038,40.388243,0.000053,
2056,2953,-4.44913434358302,6.69452614372096,0.00142344668597616,0.002985,-0.000129,0.002038,0.131886,0.007140,316.532764,24.327416,0.999224,0.992287,0.003667,0.383601,-0.000027,-0.000026,-0.000013,-0.000014,-0.000039,-46.392239,0.000055,
2221,2173,-0.731725967893855,-10.3086649290962,0.0132188820090846,0.003060,0.000781,-0.005004,0.156523,0.019969,328.612199,23.698035,0.998959,0.983303,0.005173,0.387553,-0.000007,-0.000006,-0.000009,0.000002,-0.000015,-45.162779,0.000017,
2311,2353,1.1971717909915,-6.36669227379639,-0.00631288414916753,0.003057,0.000010,0.000528,0.138406,0.018361,325.390906,23.674045,0.999385,0.985487,0.004587,0.347866,-0.000015,-0.000040,-0.000008,-0.000013,-0.000042,-15.592349,0.000058,
2221,2338,-0.763371828486097,-6.69377786927738,-0.0182187962032003,0.002614,-0.000123,0.003967,0.107269,0.012615,325.640234,23.987880,0.999676,0.989868,0.004150,0.325391,-0.000006,-0.000050,-0.000009,-0.000004,-0.000052,-11.527618,0.000062,
2461,3178,4.3061139954512,11.6065885401667,0.0292541327928006,0.002890,-0.000544,0.003080,0.121136,-0.008075,312.338669,26.115945,0.999664,0.991339,0.003684,0.347087,-0.000004,0.000004,0.000011,0.000012,-0.000012,54.992022,0.000014,
2071,2803,-4.10130931527172,3.43841808386491,-0.0233254191696233,0.003262,-0.000327,0.001032,0.147272,0.006292,318.695742,24.370182,0.999370,0.990277,0.003976,0.411701,-0.000017,0.000001,0.000000,0.000001,-0.000017,88.495492,0.000019,
2356,2503,2.14954769937048,-3.08942587580521,-0.00660832261615951,0.002709,-0.000858,0.003880,0.110341,-0.014023,322.921380,23.849372,0.999473,0.987519,0.004447,0.384081,-0.000009,-0.000001,0.000010,0.000005,-0.000016,56.287411,0.000016,
2506,2008,5.52758111722494,-13.9361233016891,0.0294586372131107,0.002479,0.001039,-0.006016,0.136866,0.028803,331.508679,21.520024,0.999236,0.975213,0.006138,0.350198,-0.000053,-0.000154,0.000141,0.000047,-0.000253,35.112428,0.000269,
2176,3268,-1.89814448775739,13.5326727269225,0.011185983143605,0.003159,-0.000280,-0.001381,0.149893,-0.016824,310.938484,24.828062,0.999616,0.993796,0.003278,0.381278,-0.000027,0.000006,-0.000006,0.000007,-0.000028,-80.350038,0.000029,
2206,2098,-1.04607989141909,-11.9521248706595,0.0156303450578434,0.003268,0.000236,-0.001000,0.153025,0.023276,329.872487,23.698507,0.999122,0.981334,0.005350,0.371225,-0.000006,0.000001,-0.000001,0.000002,-0.000006,-83.646553,0.000006,
2101,2968,-3.47571957989263,7.02303060152655,0.00233071689217468,0.002600,-0.000425,0.001511,0.115359,0.000377,316.042059,24.457081,0.999613,0.991080,0.003624,0.355398,-0.000012,-0.000005,-0.000006,-0.000002,-0.000015,-60.075555,0.000018,
2296,2473,0.847221163582088,-3.7442454509467,-0.0145610528845168,0.002762,-0.000190,0.003199,0.115925,-0.005504,323.370255,23.961076,0.998776,0.982215,0.005306,0.342284,-0.000013,-0.000020,-0.000005,-0.000010,-0.000023,-28.617320,0.000034,
2236,2428,-0.451276603005233,-4.72827032806757,-0.0164635863021658,0.003270,-0.000622,0.001917,0.143747,0.000846,324.203914,23.980484,0.999416,0.989637,0.004137,0.402382,-0.000019,-0.000027,-0.000013,-0.000010,-0.000036,-35.674427,0.000049,
2401,2818,3.06867497133804,3.78113746430881,-0.0189256863321248,0.003043,-0.000338,0.001467,0.134426,0.017161,317.745097,24.730192,0.999485,0.988975,0.004316,0.407959,-0.000018,-0.000016,-0.000011,-0.000006,-0.000028,-47.189328,0.000036,
2116,3058,-3.16404759815162,8.97508074602516,0.0159206662360134,0.002648,-0.000352,0.000482,0.120537,-0.014033,314.623999,24.425680,0.999590,0.993184,0.003496,0.426475,-0.000013,-0.000003,-0.000004,-0.000002,-0.000014,-68.679568,0.000018,
2086,3088,-3.81874043170987,9.62399391343346,0.020041399149477,0.003126,-0.000218,0.000992,0.141299,0.002472,314.335393,24.366622,0.999529,0.990687,0.003679,0.395590,-0.000019,0.000006,-0.000002,0.000007,-0.000019,-84.547068,0.000019,
2011,2593,-5.37257128319579,-1.13291963300266,-0.0217187401058254,0.002598,0.000233,0.001329,0.116109,0.034003,322.436103,24.515630,0.999077,0.986624,0.004830,0.401501,-0.000021,-0.000024,-0.000003,-0.000019,-0.000026,-32.815303,0.000045,
2446,3088,3.99727473069206,9.65251452055881,0.0150639502893455,0.003206,-0.000483,0.001754,0.140782,0.010618,313.685698,25.746883,0.999676,0.993379,0.003467,0.359882,-0.000010,0.000009,0.000005,0.000010,-0.000011,76.461343,0.000012,
2236,2218,-0.412962053392096,-9.32246163804322,0.00506557163436128,0.003221,0.000050,-0.002226,0.154880,0.015018,327.784530,23.682977,0.999028,0.983070,0.005097,0.390128,-0.000013,0.000003,-0.000008,0.000007,-0.000016,-67.689473,0.000016,
2371,2638,2.45023838390151,-0.140987141046217,-0.0273022333571475,0.003335,0.000079,-0.003191,0.164536,0.005762,320.614512,24.208586,0.999198,0.987874,0.004348,0.391605,-0.000020,-0.000012,-0.000009,-0.000006,-0.000025,-57.500172,0.000033,
2296,2713,0.801858581220895,1.49118462492094,-0.0376771787562689,0.002678,-0.000097,0.000932,0.119919,0.006712,319.286239,24.384911,0.999773,0.993164,0.003468,0.422898,-0.000019,0.000008,-0.000009,0.000010,-0.000021,-73.469734,0.000021,
2266,2623,0.166469166208781,-0.472411228006116,-0.0212761161312187,0.002825,-0.000748,0.004041,0.116205,0.006774,320.921445,24.227270,0.999462,0.987992,0.004273,0.423828,-0.000018,-0.000006,-0.000004,-0.000004,-0.000020,-73.417314,0.000026,
2386,2728,2.75957362458816,1.82009756379917,-0.0185064050151595,0.003072,-0.000546,0.002523,0.131861,-0.006684,319.200239,24.445989,0.999588,0.990682,0.003847,0.392494,-0.000022,0.000006,-0.000013,0.000011,-0.000027,-68.756197,0.000027,
2056,2968,-4.45147162005913,7.01972554112723,0.00137426640645799,0.002939,-0.000160,0.000951,0.132718,-0.015981,316.289387,24.307212,0.999226,0.991210,0.003756,0.374650,-0.000031,-0.000022,-0.000014,-0.000012,-0.000041,-54.313374,0.000056,
2491,1993,5.20254364273776,-14.2668499497263,0.0426689759293595,0.002743,-0.000840,0.008150,0.093836,0.029106,331.771619,21.580103,0.998989,0.966956,0.006944,0.332483,-0.000090,-0.000106,0.000101,0.000003,-0.000200,42.804438,0.000229,
2011,2833,-5.40776070546071,4.08790911207434,-0.0158216948933045,0.002968,-0.000171,0.001343,0.133167,0.013269,318.615339,24.375436,0.999702,0.994221,0.003409,0.333264,-0.000030,0.000022,0.000009,0.000024,-0.000032,80.283526,0.000033,
2041,2908,-4.76800419951038,5.7171960323029,-0.00653357305702684,0.002896,-0.000318,0.001580,0.129064,0.003725,317.283042,24.317022,0.999517,0.991524,0.003629,0.379089,-0.000032,-0.000017,-0.000016,-0.000006,-0.000042,-56.899722,0.000053,
2161,2038,-2.0186227415119,-13.2666944604061,0.0203504500317422,0.002634,-0.000329,0.004458,0.107004,0.020593,330.966387,24.001186,0.999191,0.983276,0.005041,0.283144,0.000001,-0.000046,0.000013,0.000004,-0.000049,13.996410,0.000055,
2026,2668,-5.05768315834952,0.49936384397445,-0.0278392397258358,0.003239,-0.000539,0.000012,0.148951,-0.033735,321.110293,24.360549,0.999301,0.990718,0.003877,0.426204,-0.000011,-0.000018,0.000009,-0.000006,-0.000024,34.070536,0.000032,
2251,2278,-0.0967175346975644,-8.00931967644262,0.00964869709889626,0.002979,-0.000354,0.003944,0.123613,0.025502,326.794869,23.739935,0.999336,0.984669,0.004898,0.373481,-0.000017,-0.000034,-0.000020,-0.000004,-0.000047,-33.195955,0.000057,
2431,2938,3.69848057426866,6.39328010256848,-0.0125159081529773,0.003106,-0.000319,0.001981,0.135371,0.006826,315.878486,25.174747,0.999690,0.991715,0.003698,0.381158,-0.000028,-0.000020,-0.000009,-0.000013,-0.000034,-57.011105,0.000049,
2071,2983,-4.12828684624813,7.34611022986173,-0.00083331001269471,0.003281,-0.000404,0.000227,0.150483,-0.019809,315.960942,24.318653,0.999317,0.991263,0.003715,0.393891,-0.000023,-0.000011,-0.000007,-0.000007,-0.000026,-65.004790,0.000035,
2326,2368,1.52144575141493,-6.03900145645588,-0.00735327337872604,0.002952,0.000337,-0.001458,0.140518,0.018309,325.134265,23.609213,0.999381,0.985564,0.004636,0.395944,-0.000018,-0.000023,-0.000004,-0.000016,-0.000025,-26.389152,0.000041,
2146,3133,-2.52514972894033,10.6033629381612,0.0272774121429507,0.002821,-0.000641,0.002848,0.121275,-0.011137,313.366366,24.580326,0.999568,0.993617,0.003417,0.411470,-0.000026,-0.000006,-0.000008,-0.000003,-0.000029,-70.834252,0.000035,
2116,3223,-3.18926688201693,12.5501584640202,0.042109219817803,0.003016,-0.000785,0.001327,0.134958,-0.030552,312.162447,24.457661,0.999657,0.994657,0.003127,0.403046,-0.000029,-0.000001,-0.000030,0.000018,-0.000047,-57.705610,0.000048,
2281,2428,0.530138386399205,-4.72803340818525,-0.00791596149286988,0.003432,0.000361,-0.002586,0.166295,0.020319,324.221337,23.881571,0.999548,0.988817,0.004313,0.395149,-0.000012,-0.000024,-0.000009,-0.000007,-0.000029,-28.582965,0.000039,
2461,3193,4.30343178270769,11.9313265850024,0.0319164535258665,0.003068,-0.000712,0.003828,0.126445,-0.008925,312.120470,26.111700,0.999599,0.990700,0.003744,0.403446,-0.000007,0.000012,0.000011,0.000017,-0.000012,65.282651,0.000017,
2161,3238,-2.21698461843807,12.8801872028146,0.0336352791025547,0.002924,-0.000469,0.000087,0.134458,-0.022471,311.657040,24.741505,0.999726,0.994350,0.003066,0.362564,-0.000024,-0.000015,-0.000024,0.000005,-0.000044,-50.325481,0.000048,
2026,2863,-5.08710710085151,4.74093782163814,-0.026492103766941,0.003323,-0.000006,-0.000405,0.154334,0.011943,317.964058,24.341166,0.999362,0.991375,0.003973,0.364610,-0.000024,0.000009,0.000006,0.000010,-0.000025,79.874172,0.000026,
2221,2188,-0.734461091444519,-9.97945420698726,0.01110832214232,0.003239,0.000501,-0.002302,0.156061,0.004947,328.352460,23.771815,0.998973,0.980965,0.005358,0.320456,-0.000010,-0.000004,-0.000009,0.000002,-0.000016,-55.004075,0.000018,
2041,2713,-4.73951901167963,1.48119786036538,-0.0344215813593678,0.003028,-0.000250,0.001094,0.136417,0.013756,320.221698,24.419793,0.999177,0.989853,0.004122,0.387026,-0.000030,-0.000032,0.000008,-0.000022,-0.000039,41.426602,0.000062,
2281,2668,0.485805030358051,0.510477621123471,-0.0252393206448005,0.003577,0.000030,-0.003581,0.176391,-0.011097,320.195306,24.435919,0.999618,0.990933,0.004000,0.269224,-0.000014,0.000006,-0.000007,0.000008,-0.000016,-73.071059,0.000016,
2251,2503,-0.137902586770497,-3.08990161512087,-0.014430759890331,0.002874,0.000120,0.000079,0.131794,0.014210,322.964988,24.124542,0.999543,0.988844,0.004176,0.353063,-0.000014,0.000001,-0.000001,0.000002,-0.000014,-86.397417,0.000016,
2071,2818,-4.10330484149855,3.76426248542225,-0.0184508321573844,0.003282,0.000017,0.000397,0.150132,0.020914,318.495678,24.368495,0.999376,0.990963,0.004009,0.424439,-0.000015,0.000002,-0.000001,0.000002,-0.000015,-86.838701,0.000017,
2101,2983,-3.47796757531964,7.34820547881825,0.00456681088314781,0.002773,-0.000620,0.003603,0.117185,0.005164,315.818398,24.427534,0.999616,0.992768,0.003400,0.390380,-0.000013,0.000000,-0.000002,0.000001,-0.000014,-81.602071,0.000015,
2491,2008,5.19953566074022,-13.9364242146179,0.0356102875477973,0.002820,0.000066,0.000908,0.125381,0.031476,331.502462,21.625176,0.999167,0.972202,0.006347,0.352403,-0.000085,-0.000089,0.000089,0.000002,-0.000176,44.483293,0.000202,
2101,3148,-3.50259613295367,10.9246145443416,0.0357319025249581,0.002989,-0.000226,0.003237,0.128332,-0.002466,313.399282,24.401170,0.999852,0.996548,0.002695,0.412214,-0.000022,0.000005,-0.000007,0.000007,-0.000023,-76.369838,0.000024,
2221,2353,-0.765365822600344,-6.36798181519499,-0.011571620508505,0.002803,-0.000799,0.005026,0.112324,-0.014613,325.459560,23.907981,0.999452,0.988301,0.004406,0.398436,-0.000011,-0.000052,-0.000014,-0.000006,-0.000056,-17.198072,0.000069,
2131,3298,-2.87829744572817,14.178121757514,0.0158840515824181,0.003100,-0.000018,0.000315,0.142196,0.012602,310.653842,24.583652,0.999607,0.993879,0.003233,0.416786,-0.000033,0.000023,-0.000021,0.000030,-0.000039,-71.766981,0.000041,
2161,2053,-2.02029832791067,-12.9387657122864,0.0250182899962965,0.002884,-0.000130,0.001475,0.127621,0.020885,330.785433,23.967013,0.999224,0.982919,0.005039,0.330808,-0.000005,-0.000028,0.000019,0.000006,-0.000039,29.264555,0.000042,
2131,3073,-2.84042079619783,9.30226586388673,0.0186826383039715,0.003260,-0.000163,0.000678,0.148199,-0.009098,314.362928,24.560117,0.999652,0.994174,0.003369,0.352891,-0.000017,0.000000,-0.000002,0.000001,-0.000017,-81.977109,0.000019,
2446,3103,3.99441295500813,9.97688875062438,0.0185475368995753,0.002937,-0.000583,0.000356,0.133552,-0.010552,313.462610,25.713172,0.999720,0.993223,0.003496,0.423336,-0.000010,0.000006,0.000013,0.000013,-0.000018,60.563029,0.000019,
2056,2983,-4.45392274971099,7.34563277910613,0.00183063627042657,0.002892,-0.000145,0.002152,0.127214,-0.004236,316.043295,24.324986,0.999187,0.989458,0.003939,0.362578,-0.000036,-0.000019,-0.000010,-0.000015,-0.000041,-65.318972,0.000058,
2086,2878,-3.78686181329204,5.06801813784126,-0.0119131914105992,0.003168,-0.000090,-0.001411,0.150033,-0.002367,317.496852,24.369576,0.999446,0.991426,0.003879,0.411340,-0.000012,0.000008,-0.000006,0.000009,-0.000014,-75.429701,0.000014,
2206,2278,-1.07753426621857,-8.00944932819006,0.00880905709004765,0.003095,-0.000617,0.002981,0.132370,0.000792,326.897507,23.932601,0.998875,0.982740,0.005210,0.347637,-0.000015,-0.000035,-0.000013,-0.000009,-0.000041,-26.298378,0.000054,
2296,2488,0.844843602323198,-3.41700006001155,-0.0132877913988523,0.002897,0.000123,0.001587,0.127684,0.008583,323.149714,23.964703,0.999392,0.988129,0.004337,0.384141,-0.000013,-0.000010,-0.000008,-0.000004,-0.000019,-51.258400,0.000024,
2086,3103,-3.82129490448777,9.94921590263045,0.0221010522077449,0.002874,-0.000141,0.001153,0.129245,0.009698,314.095788,24.367412,0.999743,0.993603,0.003187,0.399900,-0.000019,0.000003,-0.000001,0.000003,-0.000019,-87.947973,0.000021,
2011,3013,-5.43368134709614,7.99295722724113,0.00735122455182591,0.002970,-0.000403,0.001163,0.133806,-0.003136,315.884567,24.151229,0.999481,0.993319,0.003446,0.390965,-0.000020,-0.000016,0.000024,0.000006,-0.000042,47.127434,0.000045,
2506,2023,5.52452555860489,-13.6057881604872,0.0283824697179398,0.003088,0.000514,-0.000914,0.144833,0.025104,331.265451,21.637719,0.999211,0.971904,0.006413,0.293549,-0.000024,-0.000085,0.000093,0.000043,-0.000152,35.794653,0.000157,
2296,2728,0.799736975054365,1.81707278522889,-0.026595280016295,0.002711,-0.000510,0.004115,0.110527,0.002274,319.125806,24.436645,0.999598,0.991188,0.003773,0.396580,-0.000017,-0.000001,-0.000005,0.000001,-0.000019,-73.314196,0.000022,
2026,2683,-5.06166924333049,0.828617271003537,-0.0440129863494576,0.002616,-0.000444,0.001991,0.114896,-0.004143,320.697541,24.445518,0.999769,0.995807,0.002994,0.361827,-0.000008,-0.000032,0.000008,-0.000005,-0.000035,17.354130,0.000043,
2176,3283,-1.90125364711128,13.8577299687437,0.00897048551422586,0.002768,-0.000369,-0.001594,0.132520,-0.021845,310.656740,24.849286,0.999696,0.994592,0.003085,0.365522,-0.000027,0.000012,0.000002,0.000012,-0.000027,87.728262,0.000027,
2191,2188,-1.38918107865513,-9.9794735689712,0.0151232231451672,0.002886,-0.000479,0.004186,0.119115,0.015390,328.428463,23.930607,0.998570,0.976789,0.005835,0.326316,-0.000011,0.000004,-0.000004,0.000005,-0.000012,-75.482371,0.000012,
2416,2923,3.37525093893625,6.06640621241223,-0.0126946167074493,0.003208,-0.000372,0.000923,0.143961,-0.004059,316.109689,25.130197,0.999688,0.991929,0.003620,0.334043,-0.000026,-0.000019,-0.000006,-0.000015,-0.000030,-58.608982,0.000046,
2011,2848,-5.4101750796723,4.41232201698701,-0.0181943118458889,0.002967,-0.000590,0.001577,0.132331,-0.018569,318.352184,24.240643,0.999716,0.995025,0.003306,0.424264,-0.000027,0.000021,0.000011,0.000023,-0.000029,78.074023,0.000031,
2056,2728,-4.41560738527332,1.80786749448957,-0.0312034122018758,0.003292,0.000040,-0.000392,0.152748,0.008125,319.934646,24.423343,0.999308,0.990316,0.003888,0.373177,-0.000037,-0.000030,0.000004,-0.000027,-0.000039,63.858219,0.000067,
2116,3073,-3.16667057527725,9.30179747349292,0.0077969677334977,0.002902,-0.000011,-0.001319,0.137698,-0.006756,314.327811,24.491838,0.999714,0.992920,0.003681,0.369966,-0.000014,0.000001,-0.000003,0.000001,-0.000015,-80.136229,0.000016,
2311,2368,1.19419110208572,-6.0394666292977,-0.00891564676766166,0.002966,-0.000163,-0.000166,0.136527,0.002137,325.125319,23.629334,0.999647,0.988353,0.004214,0.410355,-0.000017,-0.000027,-0.000009,-0.000012,-0.000032,-30.800892,0.000046,
2266,2398,0.207403767182555,-5.38378336245983,-0.00574563370764736,0.002704,-0.000915,0.006841,0.101183,0.009946,324.680704,23.892143,0.999014,0.985161,0.004900,0.362064,-0.000018,-0.000015,-0.000005,-0.000012,-0.000022,-52.950976,0.000034,
2266,2638,0.164155094919536,-0.145497915940247,-0.0211739387413559,0.003136,-0.000643,0.003375,0.132749,-0.001195,320.695418,24.259296,0.999300,0.987247,0.004345,0.409895,-0.000021,-0.000008,-0.000006,-0.000006,-0.000023,-68.203815,0.000031,
2146,1993,-2.33791633491057,-14.2550712510452,0.0287087268772552,0.002588,-0.000034,0.001374,0.114424,0.022370,331.819541,24.035027,0.999205,0.982210,0.005108,0.314795,0.000021,-0.000065,0.000009,0.000022,-0.000066,6.085272,0.000067,
2491,2023,5.19706851143235,-13.6069578503208,0.041585744324891,0.002743,0.000453,-0.001586,0.131552,0.026144,331.316486,21.744391,0.999213,0.971985,0.006243,0.290068,-0.000053,-0.000035,0.000054,0.000010,-0.000098,49.784383,0.000108,
2386,2743,2.75687168635212,2.14638719724596,-0.0151321073308281,0.002944,-0.000442,0.001840,0.128529,0.010610,318.980980,24.455153,0.999595,0.991285,0.003833,0.443940,-0.000022,0.000003,-0.000014,0.000009,-0.000028,-65.666212,0.000029,
2236,2443,-0.453713376673765,-4.4000302283853,-0.00536449497082003,0.002939,-0.000510,0.005711,0.116285,0.000735,324.025888,24.166110,0.999637,0.991327,0.003980,0.238821,-0.000022,-0.000017,-0.000012,-0.000007,-0.000032,-51.096248,0.000041,
2056,2998,-4.45590031045934,7.67116692906152,0.00371809741631068,0.003003,-0.000079,-0.000359,0.139552,0.008899,315.826967,24.320765,0.999240,0.989968,0.003925,0.373869,-0.000037,-0.000013,-0.000005,-0.000012,-0.000038,-79.194704,0.000052,
2071,2833,-4.10564735537869,4.09016393595379,-0.00894306475140638,0.002989,-0.000441,0.004862,0.123719,0.001053,318.305177,24.445056,0.999454,0.991725,0.003692,0.324520,-0.000017,0.000001,-0.000006,0.000003,-0.000019,-73.846702,0.000021,
2131,3088,-2.84237410549203,9.6267537222201,0.0243025972463897,0.003259,-0.000352,-0.001940,0.155925,-0.024297,314.173220,24.535455,0.999826,0.995174,0.003166,0.366966,-0.000019,-0.000001,-0.000001,-0.000001,-0.000020,-86.828748,0.000023,
2401,2833,3.06531442280464,4.10811139549963,-0.021403943653695,0.002994,-0.000428,0.003882,0.123369,0.001078,317.468496,24.816994,0.999352,0.988549,0.004242,0.350245,-0.000019,-0.000016,-0.000008,-0.000009,-0.000026,-51.511203,0.000036,
2161,2068,-2.02249091543103,-12.6101139604462,0.0249305469566252,0.003127,-0.000172,0.001264,0.139391,0.023447,330.555818,23.948626,0.999459,0.983901,0.004943,0.364992,-0.000006,-0.000018,0.000018,0.000007,-0.000031,35.273461,0.000033,
2026,2878,-5.08941987437336,5.06640444115358,-0.0196513917565539,0.003012,0.000076,0.001604,0.134510,0.019220,317.757815,24.341735,0.998944,0.988032,0.004440,0.361159,-0.000017,0.000017,0.000003,0.000017,-0.000017,84.826948,0.000020,
2176,2128,-1.70642333182517,-11.2933822769716,0.00992886256256043,0.002812,-0.000294,0.000008,0.128814,-0.015354,329.406238,23.948619,0.998958,0.980676,0.005465,0.294085,0.000002,0.000005,0.000014,0.000017,-0.000010,48.516052,0.000017,
2326,2383,1.51836039255654,-5.7109435372039,-0.00403485672927673,0.002867,-0.000603,0.004687,0.115154,0.003731,324.893865,23.701605,0.999523,0.987176,0.004602,0.324908,-0.000015,-0.000023,-0.000007,-0.000011,-0.000027,-29.378198,0.000040,
2281,2443,0.526569012487851,-4.40134811422058,-0.00557465710534188,0.002931,-0.000673,0.004811,0.118225,0.013891,323.950619,23.849500,0.999622,0.989336,0.004210,0.449965,-0.000013,-0.000022,-0.000007,-0.000009,-0.000026,-29.179543,0.000037,
2491,2038,5.19359538961627,-13.2776712554515,0.0390233134594382,0.002357,0.001214,-0.004183,0.124164,0.042140,331.045962,21.734754,0.999248,0.972415,0.006308,0.378113,-0.000038,-0.000036,0.000044,0.000007,-0.000080,45.672222,0.000089,
2146,2008,-2.33902848227359,-13.9269003051708,0.0315823913119289,0.003405,0.000782,-0.002847,0.164909,0.015374,331.653716,23.993315,0.998922,0.982589,0.005226,0.360602,0.000009,-0.000058,0.000026,0.000018,-0.000067,19.241609,0.000070,
2011,2863,-5.41234153932896,4.73867979191506,-0.0166323231874799,0.003141,-0.000749,0.004367,0.132779,-0.005738,318.121772,24.273642,0.999392,0.991033,0.004049,0.391459,-0.000024,0.000015,0.000015,0.000020,-0.000029,71.398329,0.000029,
2221,2203,-0.73739499433842,-9.6507330603634,0.00776722850946499,0.003118,0.000753,-0.002204,0.150270,0.044885,328.077121,23.738836,0.999114,0.983037,0.005101,0.415242,-0.000013,-0.000001,-0.000011,0.000006,-0.000019,-59.099053,0.000020,
2101,2998,-3.48025100779806,7.67446453303566,-0.00428616696740391,0.003068,-0.000278,-0.002982,0.150131,-0.011410,315.532688,24.447653,0.999650,0.993315,0.003306,0.354419,-0.000016,0.000001,0.000000,0.000001,-0.000016,89.632750,0.000018,
2341,2458,1.83120351282176,-4.07168478643089,-0.0101556279651049,0.002985,-0.000387,0.002464,0.128249,0.003368,323.638105,23.792742,0.999541,0.988115,0.004279,0.375595,-0.000008,-0.000006,0.000005,-0.000002,-0.000012,48.948894,0.000015,
2056,3013,-4.45832463420695,7.99654663501959,0.00521951363344897,0.003025,-0.000029,0.002529,0.132469,0.022985,315.588094,24.302708,0.998987,0.987392,0.004515,0.399917,-0.000034,-0.000007,0.000000,-0.000007,-0.000034,-89.007475,0.000044,
2431,2953,3.69452757012685,6.7197218979251,-0.0167816005126724,0.002593,-0.000432,0.003475,0.106217,0.008259,315.568224,25.218352,0.999752,0.993066,0.003492,0.388125,-0.000027,-0.000025,-0.000007,-0.000020,-0.000033,-49.487884,0.000053,
2416,2938,3.3722204802488,6.39192560250412,-0.00779691775670699,0.002946,-0.000342,0.003617,0.122046,0.005387,315.883896,25.140765,0.999677,0.991615,0.003716,0.379935,-0.000022,-0.000019,-0.000010,-0.000011,-0.000031,-49.345126,0.000043,
2011,2608,-5.37561662585927,-0.804524801987995,-0.0362065845463917,0.002779,-0.000153,0.003593,0.118191,0.021916,322.074522,24.548083,0.999523,0.991611,0.003889,0.346140,-0.000013,-0.000023,0.000003,-0.000012,-0.000024,16.320518,0.000037,
2116,3238,-3.19232528280715,12.8757098683551,0.0356779249254373,0.002945,-0.000705,0.002642,0.127779,-0.029360,311.855785,24.479331,0.999654,0.994874,0.002974,0.384591,-0.000029,-0.000007,-0.000031,0.000015,-0.000051,-55.111465,0.000052,
2506,2038,5.52136121044,-13.2782202284418,0.0371477300571996,0.002690,-0.000319,0.003667,0.108647,0.017528,331.061046,21.623250,0.999213,0.970335,0.006488,0.364816,-0.000012,-0.000075,0.000074,0.000037,-0.000123,33.472562,0.000127,
2071,2998,-4.129750403285,7.67119485060246,0.0144880627557882,0.003139,0.000002,-0.001490,0.149048,0.011354,315.843058,24.346584,0.999584,0.992630,0.003356,0.392954,-0.000024,-0.000007,-0.000003,-0.000007,-0.000025,-79.867959,0.000033,
2041,2728,-4.74124772937973,1.80703128850494,-0.0289030347161088,0.003233,-0.000051,0.000669,0.147112,0.019036,320.035388,24.407064,0.999400,0.991067,0.003693,0.397420,-0.000038,-0.000030,0.000012,-0.000021,-0.000047,54.090422,0.000070,
2461,3208,4.30034985366695,12.2571952199524,0.0302616379192955,0.002989,-0.000374,0.001971,0.129934,-0.007529,311.863581,26.188032,0.999486,0.988490,0.004121,0.381922,-0.000006,0.000015,0.000010,0.000019,-0.000010,69.231256,0.000019,
2101,3163,-3.50555857508327,11.2502107942746,0.030669760517867,0.002783,-0.000281,0.002911,0.119748,-0.013058,313.103203,24.425738,0.999767,0.995204,0.002941,0.376945,-0.000027,0.000019,-0.000011,0.000021,-0.000030,-77.026360,0.000031,
2041,2923,-4.7700054756203,6.04213042967922,-0.00517840759857791,0.003088,-0.000367,0.000810,0.139984,-0.017252,317.061802,24.267952,0.999452,0.991936,0.003627,0.399108,-0.000034,-0.000024,-0.000016,-0.000013,-0.000046,-53.833258,0.000062,
2251,2518,-0.140678249598604,-2.76265877546996,-0.0166288155803045,0.002830,0.000088,-0.000944,0.133118,0.009658,322.705172,24.124156,0.999291,0.986546,0.004547,0.373526,-0.000011,0.000002,-0.000002,0.000002,-0.000012,-82.022748,0.000012,
2026,2698,-5.06373482039037,1.15437805613566,-0.0422402759423335,0.002686,-0.000184,0.001640,0.119199,0.011898,320.473889,24.376944,0.999794,0.995426,0.003051,0.436903,-0.000007,-0.000032,0.000017,0.000002,-0.000041,27.051658,0.000046,
2296,2743,0.797896238014289,2.14338398369936,-0.0212237305924532,0.003011,-0.000099,0.001427,0.133578,0.009119,318.949804,24.473366,0.999392,0.989841,0.004052,0.396767,-0.000019,-0.000009,-0.000009,-0.000004,-0.000024,-60.077886,0.000030,
2116,3088,-3.16866099788764,9.6267526965735,0.015523431687825,0.002979,-0.000276,0.000219,0.136664,-0.008985,314.146689,24.511120,0.999703,0.992615,0.003542,0.351144,-0.000019,0.000000,-0.000001,0.000000,-0.000019,-86.606137,0.000022,
2131,3103,-2.8450716091397,9.95231965529282,0.0263480234731333,0.003001,-0.000079,-0.000706,0.140523,0.000531,313.929793,24.550968,0.999791,0.995597,0.003007,0.380914,-0.000023,-0.000006,-0.000001,-0.000006,-0.000023,-86.592665,0.000030,
2251,2293,-0.09968107979698,-7.68047178348436,0.00358112483155537,0.002877,0.000238,0.001050,0.128651,0.032795,326.507114,23.756910,0.999110,0.983945,0.005008,0.389586,-0.000016,-0.000036,-0.000012,-0.000010,-0.000042,-25.923592,0.000055,
2056,3028,-4.4608457864898,8.32173152312966,0.00567149077971862,0.002907,-0.000062,0.003630,0.123864,0.013010,315.339102,24.287603,0.999454,0.991773,0.003687,0.398872,-0.000030,0.000000,-0.000002,0.000001,-0.000031,-86.420793,0.000035,
2176,2143,-1.70851275696277,-10.9651836901808,0.0177605051738396,0.002964,-0.000155,0.004346,0.122448,0.033748,329.223671,23.955888,0.998747,0.980313,0.005495,0.350925,-0.000002,-0.000004,0.000012,0.000009,-0.000015,42.787780,0.000015,
2296,2503,0.841468099038249,-3.08791044527509,-0.0219971027497081,0.003017,-0.000048,0.003111,0.128019,0.033402,322.833563,24.040759,0.999698,0.992314,0.003719,0.364300,-0.000013,-0.000008,-0.000008,-0.000002,-0.000019,-53.453945,0.000023,
2176,3298,-1.90446541272274,14.1830849176286,0.000956975432643503,0.002677,-0.000270,-0.001690,0.128616,-0.024776,310.339642,24.868728,0.999826,0.996317,0.002577,0.353878,-0.000026,0.000021,-0.000001,0.000021,-0.000026,-88.389742,0.000028,
2116,3253,-3.19512428186453,13.2018829808056,0.0305008316242947,0.002780,-0.000199,-0.000283,0.129172,0.006267,311.567539,24.535623,0.999710,0.996188,0.002663,0.365691,-0.000030,-0.000001,-0.000030,0.000017,-0.000048,-57.853363,0.000049,
2071,2848,-4.10881001547599,4.41745665266468,-0.020300292370564,0.002804,-0.000055,0.003312,0.119783,0.021930,317.962213,24.456050,0.999655,0.993647,0.003316,0.331153,-0.000017,-0.000005,-0.000004,-0.000004,-0.000019,-73.147922,0.000024,
2161,2083,-2.02476041260268,-12.2797105807548,0.0231262918678112,0.003149,0.000546,-0.002985,0.153637,0.019771,330.313454,24.082618,0.999358,0.983377,0.005098,0.240655,-0.000005,0.000003,0.000017,0.000017,-0.000018,51.598554,0.000020,
2386,2758,2.75334412612144,2.47431326079644,-0.0270920932784406,0.003127,-0.000098,0.000209,0.142877,0.006992,318.650549,24.518567,0.999400,0.988493,0.004140,0.420681,-0.000019,0.000005,-0.000014,0.000011,-0.000025,-65.309191,0.000025,
2221,2218,-0.740115595823941,-9.32177353379712,0.00823906682529696,0.002922,0.000426,-0.002537,0.142265,0.032864,327.831205,23.824779,0.999049,0.982156,0.005131,0.338739,-0.000014,0.000005,-0.000011,0.000010,-0.000019,-65.836210,0.000019,
2356,2518,2.14691249963009,-2.76180481959844,-0.00773563110232089,0.002778,-0.000435,0.001020,0.123723,-0.004085,322.681986,23.879716,0.999316,0.985653,0.004666,0.403767,-0.000010,-0.000006,0.000006,-0.000001,-0.000015,53.327396,0.000018,
2056,2743,-4.41842477323618,2.13380286937863,-0.0315356290046225,0.002893,-0.000018,0.000818,0.130945,0.008857,319.667188,24.382312,0.999491,0.991056,0.003774,0.409662,-0.000038,-0.000016,0.000002,-0.000016,-0.000038,85.897265,0.000055,
2146,3148,-2.52797806473459,10.9292942029053,0.019935280504626,0.002871,-0.000247,0.000878,0.129630,-0.011693,313.067835,24.609215,0.999559,0.992609,0.003537,0.388547,-0.000027,-0.000004,-0.000008,-0.000002,-0.000029,-73.315610,0.000035,
2101,3013,-3.48253167887771,7.99943486805461,-0.000820205456648182,0.003065,0.000112,-0.001937,0.147001,-0.004497,315.314274,24.413795,0.999426,0.992002,0.003532,0.395432,-0.000014,0.000001,0.000000,0.000001,-0.000014,89.839002,0.000015,
2161,3253,-2.22036541295908,13.2057021209474,0.0201599683479117,0.002953,-0.000337,-0.000652,0.138098,-0.020226,311.302011,24.725237,0.999680,0.994203,0.003150,0.389841,-0.000023,-0.000007,-0.000022,0.000009,-0.000039,-55.111297,0.000041,
2101,3178,-3.50809359486111,11.574674633183,0.0251081868409528,0.002942,-0.000449,0.001093,0.132339,-0.022536,312.824461,24.346449,0.999814,0.995629,0.002791,0.446983,-0.000025,0.000013,-0.000014,0.000017,-0.000030,-71.483327,0.000030,
2446,3118,3.99182872402916,10.3029808345741,0.0162990824461531,0.003292,-0.000283,-0.002596,0.161047,-0.007517,313.225202,25.781447,0.999674,0.991645,0.003662,0.409388,-0.000005,0.000010,0.000016,0.000020,-0.000015,57.779714,0.000021,
2311,2383,1.19210707489626,-5.71193704295176,0.000377234398854398,0.002874,0.000223,-0.001014,0.135406,0.026955,324.958966,23.691366,0.999430,0.986606,0.004652,0.406717,-0.000017,-0.000026,-0.000011,-0.000009,-0.000034,-34.222267,0.000045,
2266,2413,0.205432880134349,-5.05740856525408,0.00229947114655715,0.002656,-0.000780,0.004665,0.106219,-0.009074,324.510880,23.888188,0.999173,0.986992,0.004569,0.373904,-0.000017,-0.000008,-0.000006,-0.000005,-0.000020,-63.323513,0.000026,
2461,3223,4.29706665984825,12.5832761234221,0.0235037560978526,0.003046,-0.000152,-0.000915,0.143528,-0.004667,311.573821,26.257338,0.999509,0.991283,0.003733,0.368432,-0.000005,0.000004,0.000010,0.000011,-0.000011,55.902151,0.000013,
2011,2878,-5.41458179722147,5.06571603655163,-0.0212908877528548,0.003136,0.000332,-0.000844,0.147042,0.019568,317.852788,24.315029,0.999056,0.989958,0.004166,0.363167,-0.000015,0.000019,0.000008,0.000021,-0.000016,77.475749,0.000022,
2206,2113,-1.04893324275119,-11.623968261071,0.0171743131360813,0.002886,0.000003,-0.000372,0.133463,0.012466,329.625041,23.683881,0.999021,0.983037,0.005024,0.395142,-0.000007,-0.000001,-0.000003,0.000000,-0.000008,-66.836277,0.000009,
2491,2053,5.18862290029672,-12.9451263656292,0.0178214302297874,0.002470,0.000420,-0.002050,0.120908,0.005804,330.623210,21.872570,0.999206,0.977056,0.005828,0.267243,-0.000028,-0.000046,0.000042,0.000006,-0.000080,39.139996,0.000089,
2011,2623,-5.37693811063641,-0.479462738098178,-0.0274436160058826,0.003011,0.000045,0.001057,0.135844,0.016557,321.923174,24.472976,0.999535,0.991507,0.003816,0.404307,-0.000013,-0.000043,0.000007,-0.000012,-0.000045,11.847694,0.000060,
2416,2953,3.36860731436821,6.71865105802087,-0.0107225556971002,0.002642,-0.000664,0.005161,0.102332,-0.000272,315.594243,25.226381,0.999767,0.991909,0.003709,0.335803,-0.000022,-0.000024,-0.000008,-0.000015,-0.000031,-41.872559,0.000047,
2281,2458,0.523914589498791,-4.07294003419145,-0.005209925419706,0.002985,-0.000453,0.005243,0.119399,0.034219,323.711525,23.934514,0.999750,0.990337,0.004047,0.414650,-0.000016,-0.000023,-0.000004,-0.000015,-0.000024,-23.757917,0.000040,
2371,2653,2.44667604192024,0.186082750643159,-0.0287690003031571,0.003041,-0.000285,0.000462,0.137907,0.010770,320.331730,24.235628,0.999322,0.987216,0.004464,0.411277,-0.000022,-0.000008,-0.000010,-0.000003,-0.000027,-62.893803,0.000033,
2026,2893,-5.09162669727946,5.39151464538511,-0.0128351627561756,0.002694,-0.000185,0.001656,0.119602,0.002735,317.556486,24.336336,0.999299,0.992373,0.003615,0.339907,-0.000022,-0.000003,-0.000003,-0.000003,-0.000023,-80.525733,0.000028,
2086,2893,-3.78909632584876,5.39367388496139,-0.00873686801725171,0.003232,-0.000373,0.000242,0.148151,-0.013001,317.277716,24.382834,0.999413,0.993025,0.003738,0.385831,-0.000018,-0.000003,-0.000008,0.000001,-0.000021,-66.769322,0.000024,
2041,2938,-4.77301048670365,6.36781276487579,-0.00817327609979657,0.002768,-0.000639,0.003716,0.117093,-0.016996,316.770125,24.239945,0.999241,0.991427,0.003782,0.419295,-0.000031,-0.000020,-0.000007,-0.000016,-0.000034,-63.946520,0.000052,
2326,2398,1.51658837781982,-5.38482833583934,0.00424664834218902,0.002853,-0.000013,-0.000412,0.132288,0.002263,324.738111,23.654910,0.999483,0.987362,0.004633,0.405957,-0.000014,-0.000016,-0.000002,-0.000013,-0.000017,-31.084002,0.000029,
2206,2293,-1.07969661496498,-7.68054039839452,0.00352129979637539,0.003374,0.000298,-0.003881,0.167189,0.007181,326.646047,23.963087,0.999101,0.985262,0.004850,0.342350,-0.000013,-0.000038,-0.000002,-0.000013,-0.000038,-5.466348,0.000053,
2041,2743,-4.7440404302477,2.13277383506379,-0.0280332572096995,0.002835,-0.000510,0.003114,0.121811,0.004625,319.774681,24.372487,0.999514,0.991164,0.003762,0.410202,-0.000041,-0.000012,0.000008,-0.000010,-0.000043,75.823584,0.000056,
2146,2023,-2.34267008523014,-13.5963116287416,0.025939580756301,0.002930,0.000045,0.002707,0.126109,0.030923,331.327004,24.058726,0.998610,0.981536,0.005352,0.322831,-0.000001,-0.000056,0.000017,0.000004,-0.000061,15.732358,0.000068,
2401,2848,3.06286590024754,4.43367862434667,-0.0158772644585383,0.002941,-0.000253,0.002826,0.124856,0.015021,317.271839,24.808880,0.999503,0.990218,0.003960,0.417701,-0.000022,-0.000020,-0.000012,-0.000009,-0.000033,-47.669323,0.000044,
2011,3028,-5.43496866771831,8.31757196971045,0.0171519130259981,0.003481,-0.000981,0.002632,0.153251,-0.013488,315.741783,24.144680,0.999466,0.993331,0.003538,0.374309,-0.000019,0.000005,0.000026,0.000022,-0.000036,57.262909,0.000036,
2011,2638,-5.37944468024675,-0.152403748324971,-0.0325665627172498,0.003055,-0.000161,0.001266,0.137235,0.015706,321.639148,24.462637,0.999103,0.986274,0.004548,0.402552,-0.000004,-0.000040,0.000012,0.000000,-0.000044,17.108792,0.000051,
2131,3118,-2.84789488071499,10.2781596045295,0.0201119291047007,0.002974,0.000116,-0.002358,0.144329,0.014134,313.636159,24.555111,0.999734,0.995360,0.003068,0.395002,-0.000024,-0.000003,-0.000006,-0.000002,-0.000026,-75.694881,0.000031,
2221,2368,-0.767383764952907,-6.03943546821162,-0.00451586663371017,0.002756,-0.000419,0.003249,0.115999,0.021425,325.279086,24.024534,0.999522,0.989265,0.004328,0.338253,-0.000013,-0.000035,-0.000016,-0.000005,-0.000043,-28.021002,0.000053,
2056,3043,-4.46327727742337,8.64703832130193,0.00684182546382317,0.002808,-0.000407,0.004240,0.117469,0.002255,315.098161,24.293172,0.999685,0.994263,0.003235,0.376190,-0.000031,0.000004,-0.000006,0.000005,-0.000032,-79.944126,0.000034,
2116,3268,-3.19772771980416,13.5266486415956,0.0262913490719257,0.002786,-0.000233,-0.002636,0.136333,-0.016753,311.294055,24.530366,0.999738,0.995692,0.002808,0.350099,-0.000030,0.000009,-0.000023,0.000019,-0.000040,-65.352073,0.000040,
2386,2773,2.75029448846883,2.80068877503805,-0.0235845624405329,0.002862,-0.000206,0.002312,0.123106,0.004400,318.415837,24.565699,0.999399,0.988419,0.004149,0.414233,-0.000021,-0.000002,-0.000015,0.000006,-0.000029,-60.891601,0.000031,
2491,2068,5.18513584470653,-12.6153816381518,0.0123241483166225,0.002657,0.000097,-0.000742,0.124313,0.011539,330.338723,21.895446,0.999395,0.978758,0.005683,0.312601,-0.000021,-0.000040,0.000038,0.000008,-0.000069,37.775287,0.000076,
2341,2473,1.8285833891709,-3.74393251375895,-0.00997424746719844,0.002929,0.000006,-0.000580,0.136430,0.021115,323.404595,23.824620,0.999555,0.987969,0.004209,0.399344,-0.000006,-0.000010,0.000004,-0.000003,-0.000013,32.287326,0.000017,
2161,2098,-2.02715987042659,-11.951798912207,0.0236251352256431,0.003297,0.000300,-0.000908,0.154024,0.018946,330.077573,24.017640,0.999573,0.984253,0.004988,0.318022,-0.000003,0.000008,0.000020,0.000023,-0.000019,52.609325,0.000025,
2026,2713,-5.06563393464932,1.48110037654659,-0.0400457970012553,0.002832,0.000055,0.000081,0.130284,0.017305,320.259970,24.414777,0.999641,0.994222,0.003446,0.394872,-0.000016,-0.000036,0.000013,-0.000010,-0.000042,25.742831,0.000056,
2026,2908,-5.0930203360372,5.71619747924361,-0.00270589294507317,0.002933,-0.000379,0.000734,0.133136,-0.000239,317.411083,24.305223,0.999425,0.992238,0.003545,0.357667,-0.000015,-0.000022,-0.000011,-0.000007,-0.000030,-36.950144,0.000040,
2446,3133,3.98823805218582,10.6292996734375,0.0173488367871073,0.002907,-0.000252,0.000988,0.129978,0.003999,312.956513,25.886889,0.999557,0.988008,0.004194,0.366381,-0.000002,0.000003,0.000008,0.000009,-0.000008,53.554712,0.000010,
2191,1993,-1.3551426430825,-14.2563557302465,0.0276550302846204,0.003052,0.000372,-0.001751,0.145394,0.010044,331.692434,23.714717,0.999473,0.984776,0.004979,0.305936,0.000039,-0.000068,0.000002,0.000039,-0.000068,0.854430,0.000068,
2236,2233,-0.416584117831352,-8.99358992125866,-0.00261461458723034,0.002867,-0.000348,-0.000570,0.133173,-0.000900,327.457225,23.686390,0.999090,0.983099,0.004979,0.394701,-0.000017,0.000001,-0.000004,0.000002,-0.000018,-78.010173,0.000019,
2206,2128,-1.05157709063856,-11.2948675218926,0.017445184233793,0.002761,0.000256,-0.000405,0.127946,0.016344,329.380395,23.732045,0.998995,0.982238,0.005176,0.370544,-0.000008,0.000001,-0.000004,0.000002,-0.000009,-69.265788,0.000010,
2506,2053,5.51744034358272,-12.9476531563492,0.030308478860718,0.002608,-0.001083,0.005016,0.099379,-0.021863,330.752535,21.744229,0.999338,0.980858,0.005474,0.269077,-0.000006,-0.000088,0.000063,0.000028,-0.000122,28.366187,0.000127,
2326,2413,1.51310202363136,-5.05696289259723,-0.00707058723958198,0.002905,0.000110,-0.001650,0.138961,-0.006937,324.407905,23.594007,0.999431,0.987231,0.004679,0.493915,-0.000014,-0.000007,0.000003,-0.000006,-0.000015,70.525843,0.000021,
2071,2863,-4.11037707938487,4.74206537908972,-0.0156976732869225,0.003157,-0.000178,0.000813,0.143125,0.001672,317.780813,24.385340,0.999444,0.991240,0.003817,0.378236,-0.000016,-0.000007,-0.000005,-0.000005,-0.000018,-66.539073,0.000024,
2011,2653,-5.38139552690941,0.173700060376859,-0.0390068031273927,0.003555,-0.000424,-0.001489,0.167649,-0.013756,321.373537,24.387476,0.999002,0.986284,0.004588,0.436760,-0.000013,-0.000032,0.000005,-0.000012,-0.000033,15.113770,0.000047,
2086,3118,-3.82357100525588,10.2742572734697,0.0245697682837545,0.002925,-0.000324,0.002093,0.128821,-0.002198,313.871285,24.376769,0.999750,0.993960,0.003061,0.376381,-0.000023,0.000006,-0.000004,0.000006,-0.000024,-82.152000,0.000025,
2101,3193,-3.51015165131056,11.8999845226173,0.0375570975845108,0.002764,-0.000224,0.004492,0.114324,0.008609,312.665020,24.414766,0.999640,0.994207,0.003125,0.409454,-0.000028,0.000008,-0.000021,0.000018,-0.000038,-65.362319,0.000038,
2041,2953,-4.77474742768983,6.69390006096793,-0.00350814644730235,0.002806,-0.000027,-0.000748,0.131506,0.008367,316.578951,24.282063,0.999442,0.992933,0.003409,0.394438,-0.000022,-0.000029,-0.000008,-0.000017,-0.000034,-32.158139,0.000052,
2281,2683,0.482882861698844,0.836245988301101,-0.0236982723265555,0.003465,-0.000076,-0.000597,0.161251,-0.000514,319.949832,24.370700,0.999664,0.991341,0.003785,0.373077,-0.000014,0.000015,-0.000011,0.000019,-0.000018,-72.418508,0.000021,
2086,2908,-3.7917323715783,5.71979519545405,-0.00780247757211328,0.003008,-0.000341,0.001390,0.134534,0.001094,317.027766,24.401988,0.999376,0.992090,0.003790,0.379367,-0.000017,-0.000014,-0.000014,-0.000001,-0.000029,-48.441896,0.000035,
2461,3238,4.29434107855705,12.9090502645985,0.0216036849137708,0.003289,-0.000134,-0.003446,0.164322,-0.003267,311.332088,26.331929,0.999749,0.993770,0.003243,0.348414,-0.000002,0.000001,0.000010,0.000010,-0.000011,49.107925,0.000012,
2041,2758,-4.74584728289185,2.45754346412842,-0.0230896311287552,0.003019,-0.000797,0.003024,0.130487,-0.003021,319.582021,24.278249,0.999369,0.990801,0.004032,0.489187,-0.000042,-0.000015,0.000001,-0.000015,-0.000042,88.084001,0.000059,
2191,2203,-1.39178042982883,-9.65024699058879,0.00784916972884275,0.003056,0.000276,0.000647,0.138260,0.033694,328.145312,23.923347,0.998640,0.978180,0.005759,0.369192,-0.000013,0.000010,-0.000006,0.000011,-0.000014,-76.248996,0.000015,
2071,3013,-4.13226309868576,7.99641236637589,0.0183423031045322,0.002839,0.000179,-0.000394,0.132161,0.020217,315.614146,24.334171,0.999478,0.991861,0.003538,0.410375,-0.000022,-0.000004,-0.000001,-0.000004,-0.000022,-88.033134,0.000028,
2251,2533,-0.144126798230442,-2.43448218211516,-0.0220197733600003,0.002808,-0.000502,0.004425,0.114338,0.010846,322.398111,24.180287,0.999620,0.991732,0.003708,0.343219,-0.000012,0.000001,-0.000004,0.000002,-0.000013,-75.087199,0.000014,
2011,2893,-5.41669786587043,5.3907599519107,-0.0187327677670623,0.003058,-0.000018,-0.002194,0.146974,-0.007764,317.630856,24.283165,0.999246,0.992286,0.003639,0.355351,-0.000018,-0.000006,0.000001,-0.000006,-0.000018,86.356175,0.000025,
2296,2758,0.794765735145148,2.46990299443355,-0.0236733595202168,0.002940,-0.000420,0.003290,0.123911,0.005699,318.675735,24.481593,0.999433,0.989935,0.004032,0.415364,-0.000018,-0.000005,-0.000004,-0.000004,-0.000019,-75.659360,0.000025,
2371,2668,2.44391680531833,0.512523574627444,-0.0250855148167943,0.002954,-0.000533,0.001651,0.129577,-0.017133,320.110626,24.285331,0.999488,0.988238,0.004351,0.374943,-0.000022,-0.000009,-0.000013,-0.000001,-0.000030,-57.826957,0.000035,
2056,2758,-4.4201820958383,2.45929728132761,-0.0233582477212053,0.002924,-0.000153,0.000267,0.133901,0.002877,319.495354,24.378990,0.999425,0.990390,0.003941,0.401711,-0.000037,-0.000018,-0.000003,-0.000018,-0.000038,-82.652667,0.000057,
2146,2038,-2.3456229189456,-13.2670824429224,0.0233132414467718,0.002659,-0.000389,0.004092,0.109392,0.011295,331.048023,24.075439,0.998972,0.982292,0.005285,0.298083,-0.000005,-0.000055,0.000015,-0.000001,-0.000059,15.242003,0.000069,
2416,2968,3.36658246668851,7.04411970694024,-0.00582977538067553,0.002823,-0.000478,0.000821,0.126636,-0.001172,315.414612,25.249973,0.999828,0.994106,0.003308,0.358483,-0.000024,-0.000018,-0.000010,-0.000010,-0.000032,-52.938015,0.000044,
2056,3058,-4.46533923714058,8.97260333479557,0.00606744632352729,0.002974,-0.000274,0.001180,0.133829,0.004841,314.863333,24.300399,0.999566,0.993003,0.003434,0.365405,-0.000028,0.000008,-0.000009,0.000011,-0.000030,-76.307666,0.000030,
2266,2653,0.161417493538604,0.182911249387999,-0.0278221948308328,0.003305,-0.000214,-0.000255,0.152677,-0.004791,320.415640,24.372292,0.999558,0.989258,0.004116,0.319548,-0.000017,-0.000005,-0.000004,-0.000004,-0.000019,-73.268595,0.000024,
2131,3133,-2.85035145353664,10.6028503906828,0.026289068761514,0.002781,-0.000229,0.000264,0.127441,-0.002590,313.426268,24.564672,0.999703,0.994860,0.003083,0.373361,-0.000023,-0.000003,-0.000008,0.000000,-0.000025,-71.279001,0.000029,
2506,2068,5.51630419113755,-12.6196432410306,0.0506383927496472,0.003028,-0.000737,0.006876,0.111560,0.025656,330.692060,21.852647,0.999480,0.982870,0.005172,0.271776,-0.000004,-0.000074,0.000049,0.000022,-0.000100,27.248873,0.000105,
2011,2668,-5.38356082243507,0.499681199428167,-0.0299223845581764,0.003249,-0.000387,0.001252,0.146154,0.000064,321.185159,24.392472,0.999027,0.987449,0.004374,0.433890,-0.000017,-0.000023,0.000009,-0.000011,-0.000029,34.657617,0.000041,
2221,2233,-0.742702659526554,-8.99460506829643,0.0111665378995554,0.002890,0.000008,0.000186,0.131947,0.001885,327.604305,23.796615,0.999057,0.982476,0.005187,0.357078,-0.000017,0.000004,-0.000004,0.000005,-0.000018,-78.752322,0.000019,
2296,2518,0.838332349262529,-2.76051489387937,-0.0288710346906669,0.002987,0.000066,0.001361,0.132609,0.019813,322.537906,24.022509,0.999655,0.991171,0.003814,0.400140,-0.000009,-0.000011,-0.000010,0.000000,-0.000020,-42.664846,0.000023,
2431,2968,3.69161586668699,7.04526635331466,-0.0162792922737935,0.002493,-0.000388,0.002022,0.106974,-0.004264,315.328263,25.230886,0.999852,0.995237,0.003055,0.412645,-0.000029,-0.000019,-0.000008,-0.000015,-0.000034,-60.497440,0.000050,
2251,2308,-0.101753971831005,-7.35225431826181,0.00475962593731083,0.003167,0.000507,-0.001606,0.150715,0.038379,326.296767,23.796142,0.998595,0.980640,0.005479,0.381260,-0.000016,-0.000047,-0.000012,-0.000012,-0.000051,-18.638239,0.000067,
2236,2248,-0.418311207083352,-8.66548834687633,0.00380540873391055,0.003359,0.000071,0.000453,0.152628,0.017631,327.288159,23.735708,0.998815,0.981515,0.005396,0.387109,-0.000013,-0.000009,-0.000001,-0.000008,-0.000014,-77.994608,0.000022,
2236,2458,-0.456307353511736,-4.07333197205534,-0.0064288556159795,0.002719,-0.000416,0.001285,0.120549,-0.001825,323.779117,24.103452,0.999547,0.989652,0.004199,0.321719,-0.000023,-0.000015,-0.000007,-0.000011,-0.000028,-60.069933,0.000040,
2161,3268,-2.22312094408274,13.530675851932,0.0189578640160448,0.002960,-0.000404,0.001190,0.132740,-0.018315,311.040850,24.732603,0.999636,0.994332,0.003208,0.392752,-0.000021,0.000004,-0.000016,0.000011,-0.000028,-64.205275,0.000029,
2041,2968,-4.77683119855105,7.018497802712,-0.00160600374465503,0.002846,-0.000119,-0.002216,0.137357,-0.014849,316.357155,24.220110,0.999458,0.992880,0.003377,0.424863,-0.000029,-0.000029,-0.000008,-0.000021,-0.000037,-46.003698,0.000059,
2341,2488,1.82609999382234,-3.41742267779853,-0.00480091552879003,0.002972,-0.000065,0.000947,0.133094,0.022902,323.201777,23.809139,0.999479,0.987695,0.004216,0.454440,-0.000006,0.000001,0.000003,0.000002,-0.000007,66.706225,0.000007,
2491,2083,5.18329116526411,-12.2875156197743,0.0184778315463632,0.003286,0.000206,-0.001886,0.157500,0.016083,330.181787,21.882566,0.999457,0.978165,0.005551,0.391523,-0.000015,-0.000028,0.000038,0.000017,-0.000060,40.009960,0.000062,
2281,2473,0.520687104781697,-3.74557255256276,-0.00761941367147756,0.002700,-0.000533,0.006159,0.103218,0.027967,323.432602,23.930144,0.999507,0.988655,0.004308,0.441964,-0.000012,-0.000017,-0.000001,-0.000012,-0.000018,-13.952136,0.000030,
2071,2878,-4.11295455394022,5.06799762707752,-0.0180352690338168,0.003082,-0.000258,0.000630,0.140174,-0.003885,317.514611,24.374452,0.999262,0.989099,0.004268,0.380159,-0.000016,0.000010,-0.000005,0.000011,-0.000017,-78.556462,0.000017,
2011,3043,-5.4376769548656,8.6426755497759,0.0196559402235152,0.002930,-0.000552,0.002853,0.127268,-0.013494,315.492655,24.127768,0.999445,0.993551,0.003564,0.378406,-0.000019,0.000022,0.000021,0.000031,-0.000028,67.260131,0.000034,
2221,2383,-0.770140509869378,-5.71263684396374,-0.00498692159254688,0.002634,-0.000444,0.003584,0.109287,0.002660,325.026815,23.967560,0.999418,0.988581,0.004365,0.397262,-0.000011,-0.000024,-0.000014,-0.000003,-0.000033,-32.530216,0.000039,
2041,2773,-4.74855610786253,2.78524273497339,-0.0263304030941072,0.002878,-0.000544,0.004052,0.121164,0.001839,319.301729,24.380212,0.999135,0.989367,0.004177,0.384492,-0.000042,-0.000007,0.000002,-0.000006,-0.000042,86.131055,0.000053,
2116,3283,-3.20025717317678,13.8511359541219,0.0233073621412245,0.003026,-0.000298,-0.001321,0.143443,-0.020147,311.030688,24.490838,0.999760,0.995484,0.002902,0.388290,-0.000035,0.000013,-0.000016,0.000018,-0.000039,-73.113932,0.000039,
2086,2923,-3.79434557935867,6.04595835021119,-0.0102902411761079,0.002913,-0.000182,0.000785,0.131973,0.007692,316.760219,24.412186,0.999222,0.991126,0.003894,0.374365,-0.000019,-0.000014,-0.000013,-0.000003,-0.000030,-50.624291,0.000036,
2311,2398,1.19102780953742,-5.38685701979654,0.0183495092915678,0.003119,0.000043,-0.002010,0.149942,0.021623,324.881803,23.645907,0.999377,0.987538,0.004694,0.480085,-0.000016,-0.000019,-0.000006,-0.000011,-0.000024,-39.582128,0.000036,
2026,2728,-5.06706066977294,1.80614761600462,-0.028060778091799,0.002984,0.000084,0.000585,0.135914,0.020256,320.122856,24.384196,0.999559,0.992093,0.003680,0.418665,-0.000025,-0.000030,0.000018,-0.000010,-0.000046,41.167431,0.000059,
2026,2923,-5.09533679989141,6.04177916824482,-0.00177727020673046,0.002998,-0.000320,0.003039,0.129785,-0.000854,317.171710,24.291744,0.999442,0.992538,0.003540,0.360189,-0.000020,-0.000034,-0.000011,-0.000014,-0.000040,-29.305769,0.000056,
2011,2908,-5.41817453702757,5.71603085265404,-0.00936832807872179,0.003366,-0.000053,-0.001069,0.158160,0.012293,317.476347,24.277720,0.999227,0.992524,0.003567,0.368318,-0.000013,-0.000025,-0.000010,-0.000007,-0.000030,-29.318674,0.000040,
2386,2788,2.74711078280188,3.1280892883389,-0.0268541216297535,0.002824,-0.000334,0.002166,0.121849,-0.003279,318.142468,24.663512,0.999677,0.991392,0.003766,0.352059,-0.000020,-0.000005,-0.000015,0.000004,-0.000029,-58.570046,0.000032,
2191,2008,-1.3583008120323,-13.9282387430838,0.0294381286479393,0.002739,-0.000591,0.005134,0.109269,0.008950,331.431137,23.651066,0.999381,0.984411,0.005007,0.387014,0.000024,-0.000066,0.000015,0.000027,-0.000068,9.052347,0.000069,
2116,3103,-3.17021300084934,9.95184180434574,0.0229893185556875,0.003342,-0.000063,-0.000896,0.156760,-0.004864,313.984251,24.537576,0.999802,0.995447,0.003047,0.331059,-0.000022,-0.000005,-0.000001,-0.000005,-0.000022,-86.413626,0.000028,
2041,2983,-4.77887999967515,7.34422205471711,0.00345480692868705,0.003025,-0.000416,0.001100,0.136382,-0.004494,316.154087,24.253750,0.999276,0.992031,0.003643,0.393270,-0.000035,-0.000028,-0.000003,-0.000027,-0.000037,-68.921539,0.000064,
2506,2083,5.51273373634792,-12.2907201389339,0.0391459656675011,0.003071,0.000204,0.001318,0.135352,0.046530,330.378509,21.722844,0.999522,0.984372,0.004837,0.487384,-0.000002,-0.000061,0.000046,0.000023,-0.000086,28.697317,0.000089,
2266,2668,0.158678943770607,0.509231208173652,-0.0297645013307033,0.003315,-0.000179,-0.001252,0.156441,-0.008616,320.159920,24.338534,0.999549,0.990656,0.003943,0.375459,-0.000016,0.000000,-0.000008,0.000003,-0.000019,-67.199019,0.000020,
2056,3073,-4.46734357721242,9.29683910649981,0.00930424337292379,0.002920,-0.000223,-0.002363,0.141422,0.006185,314.653820,24.216453,0.999446,0.991564,0.003825,0.444296,-0.000028,0.000014,-0.000009,0.000016,-0.000029,-78.489562,0.000029,
2206,2143,-1.05386064085497,-10.9651687434249,0.0181824511734021,0.003163,0.000036,0.002294,0.137771,0.024157,329.154490,23.841103,0.999297,0.983868,0.004963,0.288919,-0.000013,-0.000009,-0.000004,-0.000007,-0.000015,-58.042565,0.000023,
2446,3148,3.98571034538655,10.9545537990923,0.0225684423904795,0.002869,-0.000055,0.000023,0.131911,0.005728,312.756345,25.932856,0.999582,0.990163,0.003833,0.373219,0.000000,-0.000005,0.000008,0.000006,-0.000011,34.739591,0.000011,
2416,2983,3.3638268989267,7.36935369406827,-0.0048954381172166,0.002987,-0.000331,0.001466,0.131887,0.004385,315.182793,25.221964,0.999837,0.994351,0.003262,0.439202,-0.000022,-0.000014,-0.000010,-0.000007,-0.000028,-55.728804,0.000038,
2101,3028,-3.48505102341779,8.32445933455517,0.00413180050736628,0.002835,-0.000189,0.000713,0.128547,-0.008853,315.092969,24.409614,0.999270,0.991440,0.003707,0.395671,-0.000013,0.000003,-0.000001,0.000003,-0.000013,-86.867004,0.000014,
2176,2158,-1.71446024866951,-10.6304269271807,-0.0293228324489405,0.002616,-0.000087,0.002862,0.111095,0.022031,328.577746,24.040933,0.999403,0.958543,0.006958,0.271514,-0.000002,-0.000010,0.000002,-0.000001,-0.000010,16.346067,0.000013,
2146,3163,-2.52969026169296,11.2541240446305,0.0323029856014045,0.002909,-0.000200,0.001563,0.129399,0.000774,312.925849,24.646783,0.999581,0.991760,0.003628,0.370100,-0.000029,0.000007,-0.000009,0.000009,-0.000031,-75.917769,0.000032,
2251,2548,-0.146418669334533,-2.10845896064657,-0.0178116639453947,0.002885,-0.000733,0.004782,0.116643,0.004468,322.193055,24.137163,0.999740,0.993445,0.003442,0.403947,-0.000013,-0.000001,-0.000002,0.000000,-0.000013,-79.255404,0.000015,
2146,2053,-2.3477757851241,-12.9386788809507,0.0254377980083973,0.002613,-0.000090,0.001646,0.114780,0.017215,330.830613,24.050161,0.998909,0.980885,0.005358,0.340606,-0.000010,-0.000040,0.000018,-0.000001,-0.000049,25.143204,0.000057,
2011,3058,-5.43927375631263,8.96729274101234,0.026914630270312,0.002997,-0.000454,-0.000544,0.139581,-0.028598,315.321466,24.115532,0.999298,0.993119,0.003454,0.362606,-0.000019,0.000034,0.000017,0.000039,-0.000024,73.759571,0.000039,
2206,2308,-1.08231962481936,-7.35322547648237,0.00503217570036441,0.003126,0.000323,-0.004846,0.158894,-0.007424,326.408861,23.942685,0.999008,0.985048,0.004797,0.367007,-0.000014,-0.000051,-0.000007,-0.000012,-0.000053,-10.243952,0.000069,
2101,3208,-3.51179402785759,12.225308798238,0.0404589397912218,0.003154,-0.000293,0.000699,0.143441,-0.003648,312.472888,24.474329,0.999621,0.994095,0.003171,0.337784,-0.000030,0.000004,-0.000026,0.000018,-0.000044,-61.755252,0.000044,
2281,2698,0.480047244840407,1.16244134223103,-0.0147993437490754,0.002996,-0.000434,0.003592,0.125597,0.012770,319.744906,24.406480,0.999824,0.993437,0.003437,0.378642,-0.000019,0.000012,-0.000011,0.000015,-0.000022,-72.640872,0.000023,
2461,3253,4.29040254553889,13.2346447879292,0.0145473830569927,0.003049,-0.000071,-0.002251,0.148850,0.006884,311.010714,26.356608,0.999757,0.993770,0.003151,0.386859,0.000001,-0.000002,0.000007,0.000007,-0.000008,40.343584,0.000009,
2041,2788,-4.75015859423899,3.11209400991162,-0.0263803128536324,0.003389,0.000002,0.000830,0.153888,0.021009,319.090053,24.419597,0.999151,0.988466,0.004163,0.356718,-0.000041,0.000012,0.000005,0.000012,-0.000041,84.947884,0.000042,
2071,3028,-4.13483378463924,8.32184648931022,0.0143017747284375,0.003024,-0.000266,0.001458,0.135218,-0.007318,315.339227,24.329089,0.999633,0.993512,0.003225,0.383929,-0.000020,0.000002,-0.000002,0.000002,-0.000020,-84.040703,0.000022,
2161,2113,-2.02991954025293,-11.6226422742191,0.0181379807181656,0.003297,0.000127,-0.001796,0.156708,0.006505,329.793704,24.017985,0.999315,0.982415,0.005243,0.318842,-0.000001,0.000002,0.000018,0.000019,-0.000018,47.609009,0.000021,
2266,2428,0.203170950293494,-4.72791572538524,-0.00906618910528323,0.003414,0.000315,-0.001930,0.163194,0.006215,324.229634,23.956203,0.999290,0.987758,0.004429,0.348308,-0.000013,-0.000018,-0.000007,-0.000008,-0.000023,-34.441018,0.000032,
2071,2893,-4.11541955125375,5.39403627044133,-0.0150071711597093,0.002980,-0.000464,0.003531,0.127178,0.001429,317.282936,24.406071,0.999424,0.991733,0.003829,0.349973,-0.000023,-0.000002,-0.000009,0.000001,-0.000027,-69.440946,0.000030,
2011,3163,-5.45490308680464,11.2430570037296,0.0387423291998061,0.002872,-0.000095,0.000579,0.131009,0.001808,313.699112,24.060058,0.999458,0.993587,0.003462,0.356903,-0.000037,0.000061,-0.000016,0.000064,-0.000040,-80.724944,0.000064,
2281,2488,0.517305425306017,-3.4191289176893,-0.0110208343470504,0.002541,-0.000911,0.009973,0.083024,0.020455,323.141820,23.838565,0.999715,0.990547,0.004010,0.554970,-0.000012,-0.000008,-0.000005,-0.000005,-0.000015,-57.243957,0.000021,
2161,3283,-2.225664068547,13.8557307683767,0.0210866709820721,0.002872,-0.000214,0.001751,0.127073,-0.002375,310.807043,24.755440,0.999684,0.994768,0.003047,0.394517,-0.000019,0.000009,-0.000008,0.000012,-0.000022,-75.000758,0.000022,
2401,2863,3.0598418258494,4.76063106675919,-0.0186283834610776,0.002922,-0.000156,0.001089,0.130325,0.013828,317.009266,24.885612,0.999536,0.990025,0.003866,0.384917,-0.000026,-0.000011,-0.000013,-0.000003,-0.000034,-60.444873,0.000041,
2356,2533,2.14400533432118,-2.43420277928804,-0.0122547270585187,0.002959,-0.000112,-0.000239,0.136597,0.009654,322.413731,23.879200,0.999356,0.986043,0.004663,0.457821,-0.000009,-0.000009,0.000003,-0.000006,-0.000012,46.493781,0.000018,
2056,2773,-4.42252626130878,2.78498560522746,-0.0192291814643681,0.002523,-0.000070,-0.001840,0.121410,-0.004383,319.274293,24.366465,0.999290,0.988330,0.004210,0.401533,-0.000039,-0.000011,-0.000002,-0.000011,-0.000039,-86.003369,0.000053,
2431,2983,3.68984256999873,7.37002465034761,-0.00145776866230563,0.002649,-0.000505,0.004001,0.106849,0.005186,315.207467,25.251081,0.999676,0.991455,0.003652,0.450758,-0.000026,-0.000013,-0.000008,-0.000010,-0.000030,-64.015078,0.000041,
2221,2398,-0.772191002396173,-5.38340115887849,-0.00575299647499605,0.002942,0.000101,-0.000543,0.136823,0.008694,324.804775,24.110880,0.999600,0.991180,0.003900,0.280321,-0.000010,-0.000020,-0.000010,-0.000004,-0.000026,-30.227905,0.000032,
2311,2413,1.18666392606756,-5.05684438267209,0.00150014910144591,0.002749,0.000420,-0.002353,0.134308,0.015305,324.482216,23.725070,0.999437,0.987842,0.004554,0.429135,-0.000016,-0.000013,-0.000003,-0.000011,-0.000018,-61.047791,0.000029,
2506,2098,5.50825748177713,-11.9570910929101,0.0280517579932962,0.002859,0.000245,0.003195,0.118483,0.045429,330.024933,22.056249,0.999549,0.985677,0.004861,0.217679,0.000000,-0.000039,0.000041,0.000026,-0.000065,32.285904,0.000066,
2416,2998,3.36116929119202,7.69538957739588,-0.00029889792369886,0.003107,-0.000592,0.003910,0.128325,-0.002939,314.972372,25.309518,0.999554,0.988640,0.004051,0.391437,-0.000018,-0.000009,-0.000010,-0.000003,-0.000024,-56.757858,0.000030,
2146,2068,-2.34988621471838,-12.6088420805848,0.0229919597246067,0.002977,0.000252,0.000008,0.136506,0.034293,330.590747,24.098810,0.998848,0.980216,0.005459,0.320238,-0.000011,-0.000031,0.000017,-0.000002,-0.000041,29.874194,0.000048,
2026,2938,-5.09780000201431,6.36761582944517,-0.00310388018772301,0.002954,-0.000403,0.003664,0.126051,0.001037,316.912939,24.287392,0.999207,0.991072,0.003891,0.356120,-0.000016,-0.000028,0.000000,-0.000016,-0.000028,-0.825244,0.000045,
2251,2323,-0.105182120654593,-7.02418609724438,0.00142526190080616,0.002992,-0.000482,0.003604,0.125336,-0.003963,326.001794,23.830005,0.998748,0.982592,0.005289,0.330453,-0.000013,-0.000052,-0.000010,-0.000011,-0.000055,-12.907884,0.000070,
2236,2263,-0.421027862581969,-8.33645810358114,0.00476519795830654,0.002995,0.000603,-0.002211,0.144729,0.036351,327.045907,23.818513,0.999035,0.982642,0.005335,0.346393,-0.000011,-0.000022,-0.000004,-0.000010,-0.000023,-15.961220,0.000034,
2326,2428,1.50919739990712,-4.72605775559148,-0.0199204532952422,0.003005,-0.000015,0.001459,0.132871,0.031320,324.050242,23.756209,0.999528,0.989571,0.004289,0.406276,-0.000010,-0.000011,-0.000001,-0.000009,-0.000012,-31.047196,0.000021,
2101,3223,-3.51409584811154,12.5493100522871,0.0466336746983416,0.003048,-0.000576,0.002737,0.132482,-0.014253,312.268766,24.432553,0.999623,0.993923,0.003221,0.368742,-0.000031,-0.000001,-0.000028,0.000016,-0.000048,-58.852577,0.000049,
2206,2158,-1.05694234489685,-10.6375302490045,0.0138737712191528,0.002813,-0.000145,0.000862,0.126213,0.004838,328.866564,23.740843,0.999156,0.984614,0.004995,0.389735,-0.000012,-0.000006,-0.000008,0.000000,-0.000018,-54.364535,0.000021,
2266,2683,0.155731688398784,0.836424174774024,-0.0308945795012505,0.003135,0.000096,-0.001237,0.148231,-0.001246,319.898421,24.385325,0.999502,0.991695,0.003765,0.362009,-0.000015,0.000009,-0.000014,0.000015,-0.000021,-65.745988,0.000022,
2206,2323,-1.08491350374434,-7.02541701571824,0.00477902539483921,0.003324,-0.000049,-0.001653,0.157755,-0.011809,326.163772,23.944583,0.999111,0.985453,0.004589,0.379331,-0.000009,-0.000060,-0.000009,-0.000008,-0.000061,-10.164889,0.000076,
2086,3133,-3.82552123485,10.5995207192291,0.0265340829611773,0.003122,0.000035,-0.000359,0.145072,-0.002942,313.658906,24.395892,0.999729,0.993625,0.003062,0.354507,-0.000022,0.000005,-0.000008,0.000007,-0.000024,-75.489226,0.000025,
2221,2248,-0.745761068092655,-8.66661940693798,0.00494913167875666,0.002976,-0.000381,0.002125,0.129574,-0.006686,327.308836,23.731766,0.998912,0.982314,0.005255,0.434915,-0.000014,-0.000004,-0.000001,-0.000003,-0.000014,-82.460502,0.000019,
2296,2773,0.792316270734155,2.79664869701415,-0.0251550692718752,0.002957,-0.000160,-0.001902,0.142376,0.002980,318.437636,24.522223,0.999373,0.988797,0.004206,0.402098,-0.000017,-0.000011,-0.000003,-0.000010,-0.000018,-68.209054,0.000029,
2101,3043,-3.48699921970788,8.65010343337343,0.011679953629482,0.002868,-0.000352,0.001076,0.128976,-0.010754,314.911735,24.480304,0.999558,0.992740,0.003444,0.323433,-0.000015,0.000001,-0.000003,0.000002,-0.000015,-80.183080,0.000017,
2191,2023,-1.36056919792662,-13.5986715514334,0.0304894325698228,0.002919,-0.000753,0.005319,0.116885,-0.007026,331.206584,23.731124,0.999128,0.983582,0.005088,0.308917,0.000014,-0.000060,0.000009,0.000015,-0.000061,6.555022,0.000064,
2401,2878,3.05651596609977,5.08757498441915,-0.0223804105687577,0.002905,-0.000181,0.002183,0.125641,0.030410,316.727986,24.941232,0.999566,0.991533,0.003601,0.391325,-0.000030,-0.000013,-0.000012,-0.000007,-0.000036,-62.908980,0.000046,
2041,2998,-4.7810327016132,7.66966136059676,0.00805263564086545,0.002974,-0.000578,0.001839,0.131928,-0.005508,315.943827,24.272808,0.999203,0.990393,0.003889,0.364617,-0.000039,-0.000019,0.000002,-0.000019,-0.000039,84.053801,0.000060,
2491,2098,5.18156241158698,-11.9604529442105,0.0426270754193752,0.002956,-0.000131,0.002106,0.127017,0.012300,330.110863,22.006622,0.999582,0.983470,0.005075,0.324693,-0.000012,-0.000018,0.000033,0.000018,-0.000048,42.087783,0.000048,
2011,3073,-5.44166419500302,9.29292100829542,0.0217447229495633,0.003196,-0.000319,-0.000795,0.149606,-0.006102,315.043557,24.082147,0.999401,0.993497,0.003422,0.405671,-0.000017,0.000040,0.000016,0.000044,-0.000021,75.084517,0.000044,
2056,3088,-4.46952629512487,9.62233468722838,0.0144912306461151,0.002929,-0.000207,-0.000129,0.135452,-0.001858,314.446468,24.273684,0.999483,0.992150,0.003566,0.372657,-0.000028,0.000012,-0.000010,0.000014,-0.000030,-77.351752,0.000030,
2011,3178,-5.45692291632519,11.5677938707073,0.0399483970603001,0.002970,0.000088,-0.001531,0.141339,0.000879,313.474661,24.034821,0.999743,0.995311,0.002793,0.368229,-0.000039,0.000053,-0.000022,0.000058,-0.000044,-77.026974,0.000061,
2071,2908,-4.11783910506145,5.71962548247816,-0.0144343360689732,0.002843,-0.000246,0.002688,0.123346,0.008177,317.040041,24.381143,0.999546,0.992132,0.003622,0.378125,-0.000021,-0.000015,-0.000015,-0.000003,-0.000033,-50.566513,0.000040,
2446,3163,3.98292121512626,11.2802250875264,0.0271669939122035,0.002742,-0.000029,0.000514,0.124248,0.010423,312.541058,26.013812,0.999616,0.990534,0.003924,0.347814,0.000004,0.000003,0.000008,0.000012,-0.000004,43.006541,0.000012,
2086,2938,-3.79581725506006,6.37102515855809,0.000680497595567431,0.003118,0.000212,0.000314,0.142942,0.029574,316.618723,24.405727,0.999319,0.991182,0.003832,0.401073,-0.000018,-0.000011,-0.000009,-0.000005,-0.000025,-54.165214,0.000031,
2161,3298,-2.22841336491123,14.1803663419453,0.0184564015023625,0.002839,-0.000364,0.001433,0.126426,-0.018444,310.538722,24.749325,0.999815,0.996300,0.002595,0.392982,-0.000018,0.000020,-0.000011,0.000023,-0.000021,-75.123577,0.000025,
2386,2803,2.74395156637037,3.45468953605391,-0.0350383432714239,0.002942,-0.000122,-0.001136,0.139229,-0.006797,317.846991,24.650686,0.999861,0.995013,0.003325,0.404888,-0.000018,-0.000014,-0.000013,-0.000002,-0.000030,-49.931603,0.000036,
2026,2743,-5.06945761948696,2.13198897780132,-0.0236083396201252,0.002815,-0.000320,0.004290,0.117841,0.010023,319.899116,24.382569,0.999405,0.989932,0.004058,0.400316,-0.000030,-0.000006,0.000012,0.000000,-0.000035,67.307462,0.000041,
2131,3148,-2.85254297717603,10.9277554726075,0.0289300304780227,0.002883,-0.000024,-0.000220,0.133638,-0.000235,313.209526,24.556467,0.999653,0.993351,0.003259,0.388184,-0.000024,-0.000001,-0.000008,0.000001,-0.000026,-73.139908,0.000030,
2461,3268,4.2853682511928,13.5608374350798,-0.00219134426248502,0.002742,-0.000340,0.001720,0.119605,-0.003272,310.594005,26.408302,0.999797,0.994099,0.003003,0.377786,0.000008,-0.000006,0.000013,0.000016,-0.000014,31.591158,0.000017,
2191,2218,-1.39387336442341,-9.32178295384443,0.00566164156964533,0.003379,0.000590,-0.002992,0.164567,0.016014,327.911940,23.941429,0.998706,0.979577,0.005753,0.350417,-0.000017,0.000014,-0.000008,0.000016,-0.000019,-77.043394,0.000020,
2341,2503,1.82220699114628,-3.08925689605852,-0.0124864695165456,0.002504,-0.000227,0.001264,0.110443,0.010555,322.871686,23.847046,0.999320,0.986552,0.004430,0.442223,-0.000008,0.000000,0.000005,0.000002,-0.000010,64.155996,0.000011,
2071,3043,-4.13767566715766,8.64776533718282,0.0117022155178574,0.002792,-0.000471,0.002352,0.121941,-0.001568,315.059565,24.349569,0.999598,0.993047,0.003344,0.365078,-0.000021,0.000004,-0.000004,0.000004,-0.000022,-80.023118,0.000023,
2266,2443,0.199946411044568,-4.40006689413072,-0.00363080099674562,0.002674,-0.000133,0.000842,0.119907,-0.008417,323.988909,24.067602,0.999633,0.988900,0.004235,0.249169,-0.000014,-0.000015,-0.000006,-0.000009,-0.000020,-41.408819,0.000030,
2206,2173,-1.05968128281722,-10.3089836848961,0.0136578329972963,0.002527,-0.000173,-0.000662,0.117873,0.000270,328.615124,23.757941,0.999307,0.985878,0.004752,0.387531,-0.000012,-0.000001,-0.000008,0.000004,-0.000016,-61.968912,0.000017,
2296,2533,0.835253809683604,-2.43365862405552,-0.0400001317784699,0.003066,0.000445,-0.003892,0.154092,0.007330,322.223868,23.921418,0.999722,0.993269,0.003479,0.519862,-0.000010,-0.000013,-0.000012,0.000001,-0.000023,-41.675454,0.000026,
2026,2953,-5.09940695839748,6.69293123090137,0.00022524069680685,0.003070,-0.000011,-0.002668,0.148972,0.000880,316.719636,24.273934,0.999405,0.992171,0.003578,0.358990,-0.000010,-0.000038,-0.000002,-0.000010,-0.000038,-4.639606,0.000050,
2416,3013,3.35816810591911,8.02194891161317,-0.00322733098602157,0.002934,-0.000250,-0.000528,0.136790,-0.001937,314.710626,25.390008,0.999428,0.985846,0.004357,0.358728,-0.000020,-0.000003,-0.000010,0.000002,-0.000024,-65.023915,0.000027,
2056,2788,-4.42488088844887,3.11227416462646,-0.0256505900300112,0.002955,-0.000001,-0.000913,0.138713,-0.001473,318.994080,24.412734,0.999302,0.989067,0.004094,0.352988,-0.000038,0.000006,-0.000002,0.000006,-0.000038,-87.164027,0.000041,
2041,3013,-4.78398181394076,7.99647412437064,0.00362230414901887,0.002682,-0.000117,0.002632,0.116384,0.015242,315.646381,24.339542,0.999425,0.991850,0.003729,0.310389,-0.000035,-0.000010,0.000008,-0.000007,-0.000038,73.609537,0.000049,
2116,3118,-3.17311831864289,10.276845217087,0.0202858279042175,0.002959,-0.000011,-0.002804,0.144794,-0.002397,313.704929,24.497684,0.999788,0.995609,0.002922,0.375861,-0.000024,-0.000002,-0.000006,-0.000001,-0.000025,-75.583188,0.000030,
2371,2683,2.43997709943661,0.840953867481588,-0.0367437423736305,0.002862,-0.000420,0.002514,0.122387,0.001500,319.761310,24.348940,0.999460,0.988837,0.004108,0.371783,-0.000022,0.000007,-0.000013,0.000012,-0.000027,-68.785036,0.000027,
2011,3088,-5.44383184028609,9.61789146534841,0.0282241412406847,0.002964,-0.000365,-0.000489,0.138110,0.007059,314.841719,24.076216,0.999625,0.995075,0.003001,0.411544,-0.000018,0.000031,0.000011,0.000034,-0.000020,78.054819,0.000034,
2221,2413,-0.774665667121024,-5.05627144455475,-0.00374467732439143,0.002982,0.000005,0.000485,0.135397,0.027678,324.577850,24.080162,0.999611,0.990853,0.003955,0.350741,-0.000012,-0.000019,-0.000013,-0.000002,-0.000029,-36.863659,0.000034,
2176,2173,-1.7186009368544,-10.296075226919,-0.0692317883959959,0.003244,0.000828,-0.003653,0.160393,0.037818,328.051571,24.149349,0.999799,0.924271,0.008997,0.195297,-0.000001,-0.000004,0.000002,0.000000,-0.000005,27.054169,0.000006,
2236,2473,-0.458748260171323,-3.74756693025381,-0.00224616450333315,0.002676,-0.000463,0.002513,0.114635,0.004835,323.566187,23.999527,0.999592,0.990756,0.003978,0.454377,-0.000018,-0.000009,0.000001,-0.000009,-0.000018,82.230999,0.000028,
2221,2263,-0.748473914656163,-8.33618865249053,-0.00161985768897921,0.003047,0.000158,-0.001654,0.145129,0.019603,327.026770,23.857882,0.998904,0.982427,0.005274,0.356621,-0.000010,-0.000018,-0.000004,-0.000008,-0.000020,-23.615909,0.000029,
2266,2698,0.153396903970101,1.1622710180508,-0.021262261643983,0.003028,-0.000258,0.002102,0.132176,0.007347,319.719412,24.399987,0.999632,0.992298,0.003594,0.381744,-0.000018,0.000007,-0.000015,0.000014,-0.000025,-65.442672,0.000025,
2161,2128,-2.03348764376195,-11.293257642064,0.0103364223398899,0.002839,0.000096,0.000229,0.129522,0.018766,329.460565,23.995785,0.999247,0.981243,0.005397,0.366745,-0.000003,0.000006,0.000015,0.000017,-0.000014,52.823584,0.000018,
2146,3178,-2.53195276827836,11.5787616795861,0.038104976513182,0.002942,-0.000292,0.003890,0.123857,0.011354,312.723729,24.631751,0.999474,0.991069,0.003663,0.402338,-0.000027,0.000002,-0.000014,0.000007,-0.000032,-68.415960,0.000034,
2251,2338,-0.108447060045005,-6.69518521109168,-0.00270465990973889,0.002473,0.000225,0.000946,0.110441,0.003958,325.709858,23.896688,0.998988,0.983541,0.005168,0.297274,-0.000010,-0.000045,-0.000011,-0.000007,-0.000048,-16.586219,0.000060,
2176,1993,-1.68208215527726,-14.2572125780041,0.0390793056625967,0.002891,-0.000013,0.000084,0.132187,0.009158,331.819906,23.835811,0.999302,0.982258,0.005205,0.289206,0.000050,-0.000059,0.000014,0.000051,-0.000061,7.145566,0.000065,
2026,2998,-5.10618909071491,7.66863872293403,0.0106049381630555,0.002957,-0.000396,0.003445,0.126802,-0.005788,316.052301,24.242790,0.999373,0.992541,0.003518,0.351832,-0.000030,-0.000028,0.000011,-0.000018,-0.000040,47.211451,0.000059,
2281,2713,0.477403086388062,1.48860277790641,-0.0149907484254754,0.002916,-0.000289,0.001423,0.129196,0.003664,319.503442,24.391047,0.999775,0.993013,0.003468,0.412852,-0.000018,0.000006,-0.000010,0.000009,-0.000021,-69.987666,0.000021,
2191,2038,-1.36368450092461,-13.2669813763806,0.0175428998589382,0.002918,-0.000200,0.001111,0.130172,0.004279,330.870474,23.825779,0.999209,0.985198,0.004843,0.244046,0.000010,-0.000053,0.000008,0.000011,-0.000054,7.440262,0.000057,
2461,3283,4.28225944922977,13.8862606018392,-0.00547974036362575,0.003002,-0.000309,0.002682,0.127902,-0.011966,310.328050,26.466506,0.999551,0.991329,0.003668,0.363515,0.000026,-0.000013,0.000017,0.000032,-0.000020,20.319743,0.000033,
2146,2083,-2.35315592506427,-12.2784082722349,0.0119871258384592,0.002829,0.000119,-0.000483,0.131207,0.011521,330.252863,24.153348,0.998848,0.980586,0.005466,0.254628,-0.000012,-0.000010,0.000016,0.000005,-0.000027,47.168042,0.000029,
2356,2548,2.14120280740309,-2.10720480277232,-0.00933767167373389,0.003000,-0.000345,0.002752,0.127904,0.006137,322.186166,23.911972,0.999265,0.985656,0.004720,0.461407,-0.000007,-0.000012,-0.000002,-0.000006,-0.000013,-22.447571,0.000020,
2116,3298,-3.20272980748308,14.1763823670242,0.0205535317810472,0.003302,-0.000069,-0.000123,0.152773,-0.001021,310.770867,24.504173,0.999652,0.993898,0.003283,0.396018,-0.000039,0.000027,-0.000017,0.000031,-0.000043,-76.340922,0.000045,
2026,3238,-5.14072777741899,12.8677900299813,0.0537185742888369,0.002876,0.000098,-0.000526,0.134347,0.010245,312.505561,24.063918,0.999625,0.994727,0.003005,0.373002,-0.000037,0.000004,-0.000069,0.000055,-0.000088,-53.375983,0.000089,
2491,2113,5.17858143944283,-11.6327425708046,0.044575748254374,0.002763,-0.000432,0.000494,0.124253,-0.005667,329.882989,21.964256,0.999553,0.983784,0.005063,0.411026,-0.000011,-0.000032,0.000029,0.000009,-0.000052,35.053675,0.000056,
2011,3193,-5.45915296705817,11.892499253963,0.038236947934422,0.003159,-0.000184,-0.001540,0.149986,-0.011283,313.224180,24.004436,0.999735,0.995232,0.002763,0.373221,-0.000043,0.000053,-0.000035,0.000064,-0.000054,-72.042349,0.000069,
2071,3058,-4.13968255182206,8.97271380965569,0.0107924713000216,0.003070,-0.000231,-0.000243,0.142263,-0.004624,314.827853,24.304809,0.999427,0.992100,0.003472,0.402801,-0.000017,0.000005,-0.000006,0.000007,-0.000019,-74.898763,0.000019,
2101,3238,-3.51664632818261,12.8744120615856,0.0413248647418527,0.003242,-0.000464,0.001831,0.144099,-0.014729,311.990463,24.420108,0.999654,0.994352,0.003097,0.380651,-0.000032,-0.000008,-0.000030,0.000012,-0.000052,-55.990805,0.000055,
2446,3178,3.97968045269487,11.6060643137415,0.0262816769896972,0.002671,-0.000157,0.001742,0.116348,0.003589,312.279469,26.092515,0.999673,0.991217,0.003679,0.312994,0.000002,0.000006,0.000005,0.000010,-0.000002,53.593376,0.000010,
2386,2818,2.74148507305647,3.78118380054844,-0.0332892423974158,0.003170,-0.000145,-0.001959,0.152673,-0.008926,317.630516,24.707894,0.999695,0.991718,0.003804,0.388656,-0.000019,-0.000016,-0.000011,-0.000006,-0.000028,-48.412136,0.000037,
2056,3103,-4.47106322015257,9.94704169839372,0.023252429872457,0.003202,0.000018,-0.000513,0.149270,0.012418,314.288794,24.261743,0.999488,0.992188,0.003517,0.392442,-0.000023,0.000012,-0.000007,0.000014,-0.000025,-79.521846,0.000025,
2311,2428,1.18306253300357,-4.72737640258628,-0.00861694538690472,0.002853,0.000221,0.000125,0.130562,0.033551,324.150556,23.800590,0.999586,0.989753,0.004172,0.405811,-0.000011,-0.000021,-0.000007,-0.000008,-0.000024,-27.407951,0.000033,
2131,1993,-2.66543022655398,-14.254139151788,0.0271880207973254,0.002438,0.000204,0.000680,0.109733,0.034513,331.860401,24.158478,0.999148,0.980855,0.005311,0.308994,0.000017,-0.000076,0.000014,0.000019,-0.000078,8.639396,0.000081,
2251,2563,-0.148730757833501,-1.78153262461813,-0.017204092445013,0.003078,-0.000369,0.003407,0.130156,0.006655,321.968624,24.140728,0.999590,0.991165,0.003802,0.426871,-0.000015,-0.000007,-0.000006,-0.000004,-0.000018,-62.147584,0.000024,
2086,3148,-3.82777263877542,10.924257944767,0.0336702526152521,0.002824,0.000113,-0.000737,0.132560,0.019988,313.461137,24.378066,0.999775,0.995425,0.002839,0.393225,-0.000023,0.000008,-0.000010,0.000010,-0.000026,-73.859549,0.000026,
2461,3298,4.27967008156579,14.2114379159284,-0.00733332842469281,0.003104,-0.000041,-0.003135,0.154742,-0.002210,310.092653,26.495344,0.999513,0.992821,0.003572,0.397557,0.000036,-0.000026,0.000010,0.000037,-0.000027,8.893539,0.000038,
2221,2278,-0.750684149872836,-8.0086113860398,0.00557048144850114,0.003109,-0.000289,0.001154,0.138825,0.024161,326.838609,23.890304,0.998837,0.983182,0.005157,0.349641,-0.000009,-0.000031,-0.000012,-0.000004,-0.000037,-23.841978,0.000045,
2026,2968,-5.10154870565244,7.01791582526984,0.00250294830698294,0.003123,-0.000038,-0.002236,0.150173,-0.006333,316.496105,24.233601,0.999415,0.992272,0.003497,0.381685,-0.000019,-0.000042,-0.000005,-0.000018,-0.000043,-10.622311,0.000063,
2176,2188,-1.71676677905617,-9.9774960260302,0.00363052094951399,0.002913,0.000362,0.001195,0.130056,0.033786,328.389281,24.036072,0.999093,0.947032,0.007628,0.316675,-0.000003,0.000004,0.000002,0.000004,-0.000003,74.461645,0.000004,
2176,2008,-1.68584550732868,-13.9261921339431,0.0214182510597425,0.002773,0.000255,-0.000284,0.128001,0.037991,331.427952,23.784827,0.999262,0.984288,0.004970,0.385889,0.000034,-0.000057,0.000028,0.000042,-0.000065,15.589710,0.000066,
2296,2788,0.789697321638709,3.1230128411305,-0.0212816044580109,0.003043,-0.000208,0.001480,0.134919,0.024864,318.218315,24.549491,0.999350,0.989760,0.004057,0.426594,-0.000016,-0.000015,0.000000,-0.000014,-0.000016,79.620130,0.000030,
2131,3163,-2.85495625919961,11.2523948202651,0.031203138624619,0.002867,-0.000485,0.000478,0.130662,-0.018895,312.980746,24.546040,0.999530,0.991602,0.003572,0.384320,-0.000027,0.000011,-0.000010,0.000014,-0.000030,-76.094665,0.000030,
2026,3253,-5.14363200094052,13.1931035694229,0.0419765434929786,0.003069,-0.000025,0.000172,0.141223,-0.005307,312.168896,24.051946,0.999816,0.996146,0.002672,0.358250,-0.000028,0.000001,-0.000069,0.000057,-0.000084,-50.920094,0.000086,
2326,2443,1.50710418454186,-4.39931419631157,-0.0132245863372873,0.003102,0.000134,0.000385,0.141071,0.020544,323.871831,23.775788,0.999371,0.987954,0.004510,0.411520,-0.000008,-0.000013,-0.000001,-0.000008,-0.000013,-9.103987,0.000022,
2506,2113,5.50515910771131,-11.6294923428728,0.0241706104378636,0.002864,0.000142,-0.000787,0.134013,0.011223,329.767039,21.957567,0.999575,0.986011,0.004868,0.346183,0.000000,-0.000058,0.000033,0.000016,-0.000073,24.389815,0.000077,
2086,2953,-3.7985299009473,6.69653020630309,-0.00186300747071755,0.003014,-0.000326,0.001032,0.135935,0.008544,316.346597,24.390734,0.999365,0.992097,0.003689,0.393486,-0.000013,-0.000017,-0.000009,-0.000006,-0.000024,-39.754424,0.000032,
2056,2803,-4.42726616071719,3.43843407491511,-0.0276844528484617,0.003114,-0.000339,0.000467,0.142099,0.006092,318.737002,24.389823,0.999306,0.990408,0.003977,0.377839,-0.000028,0.000007,0.000002,0.000007,-0.000028,87.373016,0.000029,
2011,3103,-5.44562734885118,9.94307731885386,0.0277951876539646,0.003308,-0.000297,-0.003669,0.162709,0.004010,314.618022,24.065830,0.999553,0.994901,0.003053,0.406073,-0.000021,0.000039,0.000011,0.000041,-0.000024,79.703695,0.000041,
2191,2053,-1.3667051866673,-12.9379632915316,0.0111451629169892,0.002659,0.000247,-0.001436,0.126399,0.016200,330.572876,23.756780,0.999200,0.981914,0.005164,0.343409,0.000003,-0.000032,0.000014,0.000008,-0.000036,19.106333,0.000038,
2371,2698,2.43768879672429,1.16663532958094,-0.030328870956339,0.002872,-0.000375,0.001677,0.125867,0.007665,319.574872,24.326380,0.999372,0.989740,0.003897,0.441857,-0.000024,0.000009,-0.000014,0.000014,-0.000029,-70.055495,0.000029,
2191,2233,-1.39648532551043,-8.99308130167411,0.00708990856008995,0.003263,0.000627,-0.001919,0.155927,0.029221,327.673352,23.993387,0.998933,0.981328,0.005412,0.328566,-0.000021,0.000011,-0.000006,0.000012,-0.000022,-80.240147,0.000022,
2041,2803,-4.75266276369334,3.43725907074204,-0.0244939249000709,0.003169,-0.000497,0.002372,0.139308,-0.006671,318.848482,24.370317,0.999338,0.990458,0.003814,0.370815,-0.000032,0.000011,0.000010,0.000014,-0.000035,77.239033,0.000035,
2236,2278,-0.424186428729893,-8.008752518899,0.00229222602882828,0.002983,-0.000427,0.002935,0.127222,0.010293,326.766389,23.795357,0.999109,0.984004,0.005009,0.367113,-0.000011,-0.000032,-0.000011,-0.000006,-0.000036,-22.760105,0.000046,
2131,2008,-2.66695511960603,-13.9261654386732,0.0303245045633957,0.002968,0.000332,-0.001026,0.139200,0.017657,331.675995,24.111559,0.999227,0.983876,0.005202,0.348114,0.000005,-0.000063,0.000030,0.000016,-0.000074,20.658564,0.000078,
2281,2503,0.51505505024825,-3.0887706271576,-0.0154945174031127,0.002951,-0.000376,0.004707,0.119679,0.033115,322.896639,24.080849,0.999714,0.991619,0.003867,0.354416,-0.000010,-0.000005,-0.000005,-0.000002,-0.000013,-59.280908,0.000016,
2071,3073,-4.14215685659339,9.29765800559482,0.0151703869783546,0.002774,-0.000412,0.000674,0.125968,-0.003397,314.603742,24.293549,0.999443,0.991473,0.003638,0.411052,-0.000017,0.000011,-0.000006,0.000012,-0.000018,-79.338478,0.000019,
2491,2128,5.17572168559979,-11.3040770740127,0.0521861977738922,0.002573,-0.000268,0.003050,0.105842,0.037795,329.685598,22.014071,0.999600,0.987806,0.004575,0.466562,-0.000005,-0.000037,0.000028,0.000011,-0.000053,29.962399,0.000056,
2386,2833,2.73810137137671,4.10790609067359,-0.0302351806351453,0.002632,-0.000253,0.000421,0.119384,0.000321,317.377924,24.788877,0.999582,0.987844,0.004247,0.360144,-0.000020,-0.000014,-0.000009,-0.000007,-0.000026,-55.086862,0.000035,
2011,3208,-5.46135273075161,12.2173406414925,0.0381209416692627,0.003220,-0.000252,-0.002653,0.155905,-0.004566,312.984040,23.981056,0.999592,0.993340,0.003254,0.389968,-0.000042,0.000034,-0.000044,0.000054,-0.000062,-65.297816,0.000067,
2101,3058,-3.4888712578526,8.97425719427617,0.0149175381277473,0.003034,-0.000156,-0.001922,0.145487,-0.014301,314.711181,24.390488,0.999706,0.993950,0.003224,0.410016,-0.000012,-0.000001,-0.000004,0.000000,-0.000013,-72.801293,0.000014,
2026,3268,-5.14691788988445,13.5182782879643,0.0296667684081626,0.002906,0.000006,0.000695,0.132342,0.011635,311.811575,23.997129,0.999812,0.996625,0.002596,0.418621,-0.000021,-0.000010,-0.000058,0.000043,-0.000074,-47.847633,0.000074,
2416,3028,3.35480687167894,8.34764218643247,-0.00303708515235712,0.002705,-0.000521,0.001964,0.117071,0.002829,314.447099,25.412240,0.999535,0.988045,0.004142,0.388367,-0.000021,0.000001,-0.000012,0.000006,-0.000027,-65.791452,0.000028,
2041,2818,-4.75500485320547,3.76303131413922,-0.0213927018007212,0.002947,-0.000339,0.002369,0.129181,0.016320,318.620792,24.339651,0.999301,0.990489,0.003881,0.416611,-0.000035,0.000011,0.000006,0.000012,-0.000036,82.464146,0.000037,
2056,3118,-4.47333197411819,10.2719524729658,0.0261825458928229,0.003191,-0.000281,0.000474,0.145835,-0.003423,314.065298,24.265108,0.999532,0.993497,0.003215,0.366906,-0.000024,0.000019,-0.000009,0.000020,-0.000026,-78.964458,0.000027,
2146,3193,-2.53422137184839,11.9038591715769,0.0338359190187134,0.003185,-0.000529,-0.000620,0.148633,-0.021329,312.467573,24.646139,0.999491,0.993112,0.003341,0.361859,-0.000028,-0.000002,-0.000019,0.000008,-0.000038,-62.572921,0.000040,
2026,2983,-5.1040303800675,7.34342486033774,0.00175512459770744,0.003144,-0.000164,0.000247,0.144294,0.000094,316.239899,24.211053,0.999211,0.992120,0.003692,0.400188,-0.000024,-0.000042,0.000003,-0.000024,-0.000043,9.891484,0.000067,
2071,2923,-4.11943894190869,6.04485574142662,-0.00804976798963253,0.003040,0.000022,-0.000160,0.140652,0.008555,316.866748,24.374995,0.999417,0.991639,0.003721,0.381111,-0.000024,-0.000018,-0.000014,-0.000006,-0.000036,-51.425189,0.000045,
2116,3133,-3.17613239642604,10.6025846883746,0.0179681052085812,0.002772,-0.000276,0.000333,0.126731,-0.018945,313.422429,24.551180,0.999857,0.997113,0.002588,0.307989,-0.000022,-0.000002,-0.000009,0.000002,-0.000025,-69.959993,0.000028,
2251,2578,-0.151227998049404,-1.4541553354116,-0.0160160183793892,0.003036,-0.000045,0.001842,0.133472,0.021628,321.738466,24.182641,0.999434,0.989152,0.004119,0.424023,-0.000013,0.000004,-0.000001,0.000004,-0.000013,-85.700078,0.000014,
2101,3253,-3.51939356739967,13.2004823830575,0.0364471039533214,0.003139,0.000053,-0.000245,0.145763,0.023524,311.705067,24.465247,0.999720,0.995293,0.002898,0.373546,-0.000032,-0.000003,-0.000029,0.000014,-0.000050,-58.683317,0.000051,
2206,2338,-1.08840463890143,-6.69608189073514,0.00154589377791581,0.002847,-0.000110,0.001649,0.125451,0.008482,325.861851,24.037379,0.999536,0.988604,0.004298,0.325826,-0.000012,-0.000055,-0.000011,-0.000010,-0.000057,-13.543369,0.000072,
2026,3013,-5.10872615687781,7.99479737320407,0.00835321255357258,0.002774,-0.000335,0.001846,0.122761,-0.011953,315.784976,24.290173,0.999523,0.993681,0.003408,0.287795,-0.000025,-0.000014,0.000020,0.000001,-0.000040,52.405200,0.000046,
2431,2998,3.68755031187181,7.69665895922276,0.0027730048488479,0.002997,-0.000466,0.004070,0.122607,0.013775,315.012917,25.375254,0.999388,0.984835,0.004519,0.384464,-0.000021,-0.000009,-0.000008,-0.000006,-0.000025,-63.434356,0.000032,
2191,2068,-1.36971580224153,-12.6097840720483,0.00975132376237298,0.002612,-0.000434,0.003938,0.107281,-0.000718,330.301879,23.701927,0.999475,0.983783,0.005082,0.399372,0.000001,-0.000025,0.000012,0.000005,-0.000029,21.708979,0.000031,
2176,2203,-1.71915876115038,-9.64985362036582,0.00721824822096551,0.002704,0.000431,0.000373,0.123044,0.032715,328.171069,24.017755,0.998263,0.975788,0.006037,0.348586,-0.000005,0.000008,0.000000,0.000008,-0.000005,89.740603,0.000008,
2131,2023,-2.66988984242639,-13.5940689224871,0.0151567444401053,0.003432,0.000129,-0.000937,0.160170,0.011963,331.329371,24.227564,0.999096,0.983426,0.005322,0.236409,-0.000005,-0.000061,0.000018,0.000000,-0.000067,16.159718,0.000077,
2011,3118,-5.44811322722009,10.2687348291286,0.0265203974125825,0.003477,-0.000114,0.000941,0.157933,0.005413,314.357747,24.093244,0.999657,0.995301,0.002931,0.367155,-0.000018,0.000054,0.000014,0.000057,-0.000021,79.752107,0.000057,
2326,2458,1.50390992545748,-4.07151168173811,-0.0144647885566656,0.002989,-0.000223,0.003068,0.126523,0.021552,323.603942,23.810998,0.999462,0.987825,0.004389,0.413298,-0.000010,-0.000013,0.000005,-0.000006,-0.000016,38.064567,0.000023,
2176,2023,-1.68772150247469,-13.5972835783312,0.0270415063278051,0.002992,0.000467,-0.000221,0.137901,0.047733,331.243791,23.831139,0.998997,0.983837,0.005034,0.364935,0.000024,-0.000053,0.000020,0.000029,-0.000058,13.869661,0.000058,
2281,2728,0.474062974391586,1.81583864051881,-0.0211699630282283,0.002874,-0.000544,0.003205,0.121224,0.002136,319.199809,24.423246,0.999742,0.992281,0.003504,0.407267,-0.000015,-0.000005,-0.000007,-0.000002,-0.000019,-63.296857,0.000023,
2311,2443,1.18089117388715,-4.40171299600676,0.00205946536311785,0.002894,-0.000414,0.003655,0.120204,0.015971,323.987359,23.764336,0.999479,0.988613,0.004373,0.457838,-0.000010,-0.000021,-0.000005,-0.000008,-0.000023,-23.369067,0.000032,
2401,2893,3.05450514686195,5.41280103007501,-0.0145243756617219,0.003099,-0.000302,0.001043,0.138644,0.015478,316.562421,24.959290,0.999539,0.991171,0.003745,0.403329,-0.000029,-0.000023,-0.000008,-0.000017,-0.000035,-53.408122,0.000053,
2101,3073,-3.49130376521505,9.29998878815678,0.0185472606218013,0.002899,-0.000324,-0.000585,0.135304,-0.015296,314.486475,24.449451,0.999613,0.991331,0.003662,0.350223,-0.000012,0.000004,-0.000001,0.000005,-0.000012,-87.183860,0.000012,
2371,2713,2.43482423900932,1.49407977763139,-0.03082851826764,0.002810,-0.000211,0.000275,0.128034,0.009843,319.328443,24.417393,0.999514,0.990576,0.003783,0.394391,-0.000024,0.000012,-0.000017,0.000018,-0.000031,-68.534904,0.000031,
2071,3088,-4.14460891871448,9.62255125871912,0.0164705394270754,0.002754,-0.000631,0.002550,0.119600,-0.007958,314.363793,24.267169,0.999338,0.990692,0.003786,0.428701,-0.000019,0.000009,-0.000006,0.000010,-0.000020,-79.371855,0.000020,
2041,3028,-4.785891845199,8.32024506544901,0.0100021957156287,0.002795,-0.000339,0.003856,0.118045,-0.007094,315.457828,24.245722,0.999509,0.991924,0.003772,0.373714,-0.000033,0.000002,0.000007,0.000004,-0.000034,78.884582,0.000037,
2221,2428,-0.776635608315036,-4.73189534954385,0.00519473405063309,0.002745,0.000760,-0.002444,0.134130,0.033192,324.410127,23.880819,0.999645,0.990044,0.004077,0.575562,-0.000010,-0.000029,-0.000012,-0.000004,-0.000035,-26.773036,0.000043,
2386,2848,2.73618359468584,4.43357973040696,-0.0231368454056451,0.003019,-0.000149,0.000020,0.138678,0.018527,317.212165,24.798412,0.999577,0.989241,0.004012,0.411620,-0.000021,-0.000019,-0.000012,-0.000008,-0.000032,-47.289391,0.000042,
2191,2248,-1.39907557273401,-8.6656119541174,0.00699299396018205,0.003133,0.000309,-0.002829,0.152682,-0.003142,327.428265,23.967637,0.998867,0.981859,0.005322,0.338965,-0.000019,0.000003,-0.000007,0.000005,-0.000021,-74.547092,0.000022,
2026,3283,-5.14878260947722,13.8427693518923,0.038585453630219,0.002946,-0.000183,0.002113,0.130246,0.004049,311.638746,24.024470,0.999787,0.996230,0.002673,0.372370,-0.000028,-0.000001,-0.000041,0.000029,-0.000058,-54.111919,0.000058,
2341,2518,1.81949365815347,-2.76088074204731,-0.0121367827043741,0.002480,0.000085,-0.000054,0.114050,0.014440,322.634483,23.966203,0.998975,0.983173,0.004842,0.364445,-0.000008,-0.000006,0.000003,-0.000004,-0.000010,54.033284,0.000015,
2131,3178,-2.85736601955345,11.5775535606472,0.0321663556828753,0.002806,-0.000383,-0.000909,0.132119,-0.003476,312.744900,24.545262,0.999272,0.988140,0.004022,0.405046,-0.000025,0.000006,-0.000014,0.000012,-0.000030,-68.438699,0.000031,
2086,3163,-3.83090492845727,11.2497573472844,0.0250887010718657,0.002725,-0.000384,0.000221,0.125006,-0.007798,313.136873,24.389550,0.999786,0.995484,0.002895,0.351750,-0.000029,0.000022,-0.000015,0.000026,-0.000033,-74.819879,0.000034,
2266,2713,0.150983774342183,1.48864114227826,-0.0165186072228494,0.002728,0.000009,-0.001050,0.128892,0.004366,319.512117,24.437801,0.999759,0.993170,0.003460,0.366500,-0.000015,0.000001,-0.000014,0.000009,-0.000023,-59.076219,0.000023,
2446,3193,3.97728781432372,11.9308769195368,0.0308869383117099,0.002819,-0.000214,0.000787,0.126708,-0.000003,312.082620,26.109305,0.999725,0.991238,0.003591,0.343789,0.000002,0.000012,0.000004,0.000013,0.000000,69.679400,0.000016,
2206,2188,-1.06196129823966,-9.98004096873418,0.0148916349336901,0.002927,-0.000533,0.002469,0.126221,-0.006009,328.392054,23.833406,0.998968,0.981049,0.005339,0.324977,-0.000014,0.000004,-0.000007,0.000006,-0.000016,-71.261035,0.000016,
2476,1993,4.87540786176276,-14.2659914571005,0.0431150365533881,0.003214,0.000402,0.000279,0.145929,0.054236,331.785419,21.703628,0.998515,0.970115,0.006483,0.340789,-0.000068,-0.000080,0.000116,0.000042,-0.000191,43.496822,0.000201,
2506,2128,5.50175556055648,-11.3003291692838,0.0217541679100464,0.003052,-0.000246,0.002272,0.130651,0.034990,329.501183,21.965600,0.999580,0.984945,0.005000,0.426402,0.000007,-0.000061,0.000032,0.000019,-0.000073,21.818680,0.000076,
2041,3073,-4.79142493151434,9.29505822310927,0.0224947500510666,0.003377,-0.000172,0.001301,0.152225,0.016212,314.863063,24.172297,0.999512,0.991844,0.003702,0.445017,-0.000030,0.000022,-0.000004,0.000022,-0.000031,-86.147225,0.000032,
2251,2353,-0.110459714643792,-6.3693042611436,0.00915845554175121,0.002607,-0.000858,0.006002,0.099708,-0.003534,325.556569,23.855229,0.999113,0.984714,0.005012,0.355869,-0.000013,-0.000047,-0.000012,-0.000009,-0.000051,-18.105172,0.000065,
2086,2968,-3.80110182981394,7.02171191099135,0.00466594963143052,0.002565,-0.000439,0.003100,0.109189,0.005456,316.130471,24.395370,0.999369,0.991536,0.003719,0.384288,-0.000013,-0.000009,-0.000010,-0.000001,-0.000021,-50.112996,0.000025,
2131,2038,-2.67293852611845,-13.2665506736068,0.0148576439274848,0.003031,-0.000490,0.002948,0.130013,-0.005980,331.057215,24.113438,0.999179,0.983470,0.005387,0.341944,-0.000009,-0.000059,0.000016,-0.000004,-0.000064,16.106691,0.000076,
2236,2488,-0.4621636633801,-3.41826267095056,-0.0131355699484743,0.002737,-0.000523,0.003590,0.113934,0.005631,323.231190,24.092052,0.999572,0.988736,0.004130,0.385556,-0.000018,-0.000003,-0.000001,-0.000003,-0.000018,-86.823109,0.000022,
2251,2593,-0.153953626663554,-1.12675054698759,-0.0230415774942685,0.003291,-0.000003,-0.000614,0.153240,0.014047,321.456343,24.183013,0.999314,0.986922,0.004484,0.440244,-0.000016,0.000000,-0.000005,0.000001,-0.000017,-74.765836,0.000020,
2266,2458,0.196429140384303,-4.07042219764347,-0.0214257145907482,0.002993,0.000209,-0.000959,0.140689,0.019124,323.617698,24.089734,0.999741,0.990392,0.004039,0.282067,-0.000015,-0.000016,-0.000001,-0.000014,-0.000017,-31.338847,0.000031,
2026,3298,-5.15140265824437,14.1678410803238,0.0310358150475736,0.002931,0.000203,-0.001314,0.139058,0.005350,311.338734,24.010522,0.999534,0.993911,0.003193,0.376394,-0.000038,0.000017,-0.000031,0.000031,-0.000052,-65.655887,0.000052,
2056,2818,-4.42953796730687,3.76428048005582,-0.0228588714585953,0.003000,-0.000188,0.002438,0.131351,0.014685,318.523059,24.393975,0.999253,0.989852,0.004060,0.376789,-0.000029,0.000008,-0.000001,0.000008,-0.000029,-88.161101,0.000030,
2296,2548,0.833412113354726,-2.106416758565,-0.0223225922417782,0.003037,0.000108,0.001281,0.135197,0.028961,322.108915,24.083445,0.999377,0.988499,0.004309,0.409974,-0.000012,-0.000008,-0.000010,0.000001,-0.000020,-50.334407,0.000023,
2026,3028,-5.11033169212564,8.31887137299918,0.0140493334220082,0.003044,-0.000401,0.000259,0.139615,-0.012525,315.605572,24.197297,0.999478,0.992268,0.003718,0.369743,-0.000023,0.000004,0.000022,0.000016,-0.000035,60.654787,0.000035,
2326,2473,1.50155320620912,-3.74493452747197,-0.00736675095100736,0.002661,0.000011,0.000243,0.121276,0.017849,323.415336,23.820513,0.999536,0.987774,0.004205,0.435493,-0.000006,-0.000015,0.000006,-0.000002,-0.000018,26.591028,0.000023,
2176,2218,-1.72186659430553,-9.32111437916849,0.000567141516171432,0.002659,0.000339,-0.003738,0.133634,-0.007875,327.885018,24.037308,0.998698,0.978924,0.005630,0.303439,-0.000010,0.000011,-0.000003,0.000011,-0.000011,-83.112109,0.000012,
2011,3223,-5.46412308849156,12.5429954735445,0.0372603501485855,0.003038,-0.000241,0.000954,0.137748,0.014852,312.713219,24.019545,0.999416,0.992674,0.003500,0.357484,-0.000041,0.000017,-0.000052,0.000048,-0.000071,-59.490901,0.000073,
2056,1993,-4.30132025637379,-14.2532078310117,0.0278131799170751,0.002543,-0.000331,0.002321,0.110000,-0.003235,332.223597,24.629922,0.998810,0.979630,0.005604,0.325642,0.000011,-0.000103,0.000037,0.000022,-0.000114,16.507787,0.000121,
2161,2143,-2.03611760736087,-10.9645851542799,0.00934556034923162,0.002819,0.000204,0.001621,0.124416,0.026310,329.206138,23.992764,0.999300,0.972013,0.006143,0.390394,-0.000005,0.000001,0.000013,0.000012,-0.000016,51.934741,0.000016,
2116,3148,-3.17817632216519,10.9269486951755,0.0215079165359953,0.003017,0.000053,0.001028,0.136150,0.010050,313.216527,24.472333,0.999744,0.995042,0.002981,0.418181,-0.000024,0.000002,-0.000009,0.000004,-0.000027,-72.315059,0.000028,
2101,3088,-3.49322772986703,9.62476411181911,0.0223030791019596,0.003174,-0.000312,-0.000652,0.148149,-0.021861,314.286155,24.430171,0.999471,0.986916,0.004274,0.363264,-0.000017,0.000004,0.000001,0.000004,-0.000017,87.387912,0.000018,
2191,2083,-1.37151340954672,-12.2798578143318,0.0149417567637329,0.002873,-0.000252,0.002439,0.123997,0.002798,330.120018,23.863827,0.999365,0.983045,0.005198,0.258273,0.000000,-0.000007,0.000010,0.000007,-0.000014,36.093158,0.000014,
2206,2353,-1.09096531616968,-6.36882714665356,-0.00136760262785174,0.002948,-0.000099,0.000349,0.134201,0.007631,325.604624,23.969560,0.999695,0.989396,0.004188,0.411374,-0.000018,-0.000055,-0.000015,-0.000013,-0.000061,-19.620346,0.000079,
2491,2143,5.17166801250344,-10.9706010507482,0.0288800562693723,0.003379,0.000117,0.000392,0.153038,0.027533,329.294696,22.228824,0.999153,0.981269,0.005422,0.303939,0.000006,-0.000029,0.000028,0.000022,-0.000044,29.007699,0.000044,
2386,2863,2.73348624057882,4.75955654193545,-0.0171150061171375,0.002758,-0.000235,0.000196,0.126069,0.020755,317.005339,24.847285,0.999574,0.989188,0.003924,0.407857,-0.000025,-0.000010,-0.000012,-0.000004,-0.000032,-60.401387,0.000039,
2221,2443,-0.77950485444202,-4.40228420826917,-0.000175133925836235,0.003194,-0.000453,0.002324,0.139099,0.012967,324.126964,24.056123,0.999293,0.987690,0.004518,0.400318,-0.000015,-0.000019,-0.000012,-0.000005,-0.000029,-40.183535,0.000037,
2041,1993,-4.6281823827181,-14.2518144510435,0.0216485468342853,0.002913,0.000252,-0.001191,0.136964,0.021959,332.283182,24.729865,0.998873,0.981073,0.005493,0.356012,0.000019,-0.000091,0.000067,0.000050,-0.000123,25.372823,0.000124,
2506,2143,5.49861178227763,-10.9704694520873,0.0217517186836744,0.003002,-0.000243,0.001799,0.130238,0.000318,329.258142,22.127371,0.999059,0.976032,0.005975,0.293775,0.000021,-0.000049,0.000031,0.000033,-0.000061,20.740379,0.000061,
2086,2983,-3.80346894012088,7.34684283778194,0.00350715139961721,0.002693,-0.000832,0.003361,0.114199,-0.020703,315.881890,24.368891,0.999461,0.992749,0.003523,0.382699,-0.000016,-0.000004,-0.000006,-0.000002,-0.000019,-67.982148,0.000023,
2446,3208,3.97431216069122,12.2561784675463,0.0277069336248132,0.002855,-0.000061,-0.002192,0.139571,0.001785,311.822653,26.123961,0.999581,0.990037,0.003897,0.381791,0.000002,0.000013,0.000003,0.000013,0.000002,75.720639,0.000016,
2056,3133,-4.47576820658181,10.59681737381,0.0241745494293468,0.003177,-0.000332,-0.000817,0.148770,-0.021008,313.806859,24.239176,0.999190,0.993049,0.003312,0.368711,-0.000023,0.000019,-0.000013,0.000022,-0.000027,-74.546687,0.000029,
2476,2008,4.87080042913885,-13.9357761568291,0.031633295502786,0.002803,-0.000265,0.002258,0.119423,0.011197,331.421710,21.724755,0.999109,0.975191,0.005884,0.337509,-0.000068,-0.000076,0.000102,0.000030,-0.000174,43.776955,0.000186,
2056,2008,-4.30315621693831,-13.9255122756664,0.0381357646870697,0.002698,-0.001479,0.008748,0.098772,-0.029762,332.058479,24.647472,0.998914,0.981398,0.005469,0.279539,0.000021,-0.000067,0.000050,0.000044,-0.000090,24.364503,0.000090,
2311,2458,1.17723227319596,-4.07322206591555,-0.00741883571441804,0.002696,-0.000695,0.003560,0.111357,0.002615,323.656385,23.799152,0.999400,0.987457,0.004563,0.443472,-0.000013,-0.000020,0.000000,-0.000013,-0.000020,-0.496186,0.000033,
2041,3088,-4.79432967581726,9.6218727158122,0.012864874292859,0.003197,0.000072,-0.002185,0.153667,0.008544,314.538842,24.255188,0.999661,0.994158,0.003134,0.345882,-0.000030,0.000017,-0.000006,0.000018,-0.000030,-82.930068,0.000031,
2176,2038,-1.69038766137442,-13.267399629154,0.0272004315472714,0.002909,0.000248,0.001445,0.128908,0.038538,330.995051,23.928726,0.999184,0.983981,0.004934,0.274035,0.000018,-0.000046,0.000018,0.000023,-0.000051,14.949992,0.000051,
2236,2293,-0.427301628719789,-7.68012160428858,-0.00485503735006887,0.002747,0.000195,-0.000345,0.127201,0.018971,326.464770,23.780585,0.999229,0.985524,0.004647,0.414000,-0.000012,-0.000036,-0.000004,-0.000011,-0.000037,-8.152370,0.000050,
2131,2053,-2.67498858583351,-12.937229850641,0.0187489673398318,0.003083,-0.000359,0.002448,0.133940,0.002027,330.852501,24.189616,0.998745,0.979589,0.005604,0.282551,-0.000013,-0.000042,0.000019,-0.000004,-0.000051,26.905564,0.000062,
2056,2833,-4.43154333501635,4.08991132970517,-0.0178577564784064,0.003065,-0.000353,0.003107,0.132349,-0.005584,318.322443,24.412039,0.999029,0.987546,0.004372,0.332875,-0.000033,0.000009,-0.000007,0.000010,-0.000034,-80.402256,0.000035,
2371,2728,2.43218047830528,1.82062259330188,-0.0241971432624268,0.002754,-0.000390,0.003291,0.114680,0.003327,319.126438,24.496197,0.999505,0.990170,0.003894,0.350069,-0.000024,0.000006,-0.000015,0.000013,-0.000030,-67.733705,0.000031,
2146,2098,-2.35533452046077,-11.95070933634,0.0176320437606705,0.002957,-0.000229,0.003547,0.124814,0.015638,330.052961,24.120864,0.999169,0.983084,0.005158,0.302101,-0.000011,-0.000006,0.000018,0.000009,-0.000026,48.829425,0.000027,
2071,2938,-4.12141133525954,6.37033016192983,-0.00338385379495776,0.003126,0.000056,-0.000592,0.145887,0.017459,316.666875,24.374039,0.999393,0.991083,0.003743,0.387158,-0.000021,-0.000015,-0.000009,-0.000008,-0.000028,-54.249848,0.000038,
2251,2608,-0.156673034245749,-0.799469092935979,-0.025986061991091,0.003080,0.000487,-0.005571,0.159920,-0.001566,321.195147,24.220861,0.999249,0.985636,0.004669,0.410825,-0.000019,-0.000006,-0.000004,-0.000005,-0.000020,-73.149520,0.000027,
2281,2518,0.512660188156538,-2.7626587496006,-0.0149914350905078,0.002942,0.000090,0.001021,0.131734,0.024701,322.670547,24.005503,0.999761,0.992021,0.003782,0.450152,-0.000006,-0.000009,-0.000006,-0.000001,-0.000013,-38.353408,0.000016,
2191,2098,-1.37458290698078,-11.9511194461966,-0.00267231739314866,0.003260,0.000129,-0.001150,0.153076,0.007305,329.762152,23.671764,0.999460,0.986005,0.004966,0.473203,-0.000002,0.000000,0.000012,0.000010,-0.000013,47.273596,0.000014,
2131,3193,-2.85999703418321,11.9025954565908,0.0338059324463416,0.002756,-0.000488,0.001911,0.121270,-0.012376,312.502572,24.565633,0.999507,0.992102,0.003501,0.380129,-0.000027,0.000002,-0.000020,0.000013,-0.000037,-62.828656,0.000038,
2221,2293,-0.753020876801159,-7.68097836572732,0.00627897111093034,0.003092,0.000375,-0.001719,0.147516,0.037324,326.611459,23.858242,0.999058,0.985182,0.004787,0.415929,-0.000008,-0.000035,-0.000003,-0.000008,-0.000036,-6.629024,0.000046,
2296,2803,0.786380891111076,3.45074450749701,-0.0300679555105035,0.002915,0.000126,-0.001324,0.138654,0.035529,317.903786,24.620281,0.999272,0.988939,0.004148,0.396589,-0.000016,-0.000024,0.000002,-0.000016,-0.000025,12.780296,0.000041,
2356,2563,2.13761487776807,-1.77829744865739,-0.0148393700121687,0.002554,-0.000150,0.001063,0.113476,0.019049,321.881552,24.033783,0.999375,0.988963,0.004332,0.392590,-0.000011,-0.000017,-0.000007,-0.000006,-0.000022,-34.708528,0.000029,
2026,3043,-5.11271737944268,8.64362483866712,0.0149217735183242,0.002801,-0.000149,-0.001755,0.134000,-0.014456,315.363215,24.139937,0.999413,0.992247,0.003776,0.414358,-0.000024,0.000017,0.000016,0.000022,-0.000029,70.599750,0.000031,
2251,2368,-0.114004902989318,-6.03892313601894,-0.00833954193137743,0.002813,-0.000528,0.003876,0.116232,0.008535,325.183988,23.924464,0.999388,0.987692,0.004728,0.324545,-0.000017,-0.000031,-0.000013,-0.000010,-0.000039,-30.780108,0.000051,
2491,2158,5.16755220841448,-10.6415023243079,0.0236789242702571,0.002674,0.000265,-0.001020,0.126315,0.004777,328.982379,22.258519,0.999116,0.979739,0.005588,0.313704,0.000009,-0.000038,0.000014,0.000013,-0.000042,15.400348,0.000043,
2011,3238,-5.46571192761155,12.8666770547359,0.0458474226217049,0.003147,-0.000155,-0.001019,0.148114,-0.002986,312.550700,23.970501,0.999554,0.993224,0.003409,0.375421,-0.000036,0.000008,-0.000068,0.000058,-0.000085,-54.013741,0.000087,
2476,2023,4.86754832907198,-13.6054083484884,0.0323840049282467,0.002604,-0.000133,0.002704,0.108702,0.022953,331.174911,21.850295,0.999389,0.981257,0.005274,0.284039,-0.000041,-0.000037,0.000071,0.000032,-0.000110,45.764129,0.000113,
2416,3043,3.35262199853367,8.67289199926419,0.00813993051013995,0.002634,-0.000357,0.002754,0.110977,0.009618,314.289328,25.467640,0.999595,0.989987,0.003963,0.386351,-0.000024,0.000008,-0.000012,0.000012,-0.000027,-71.853101,0.000027,
2236,2503,-0.46498043027341,-3.0903375384113,-0.0182080152039816,0.002785,0.000056,0.001991,0.121555,0.033411,322.953368,24.090492,0.999520,0.987829,0.004246,0.437320,-0.000014,0.000004,0.000000,0.000004,-0.000014,88.419300,0.000014,
2041,2008,-4.63157602969759,-13.9221294089301,0.0230390872538351,0.002210,-0.000859,0.008091,0.078683,0.016138,331.996360,24.806861,0.998170,0.979809,0.005854,0.269738,0.000032,-0.000050,0.000081,0.000082,-0.000100,31.560034,0.000107,
2506,2158,5.49525708877271,-10.6417575594514,0.0239356505024375,0.002534,-0.000132,0.001200,0.111203,0.000448,329.014966,22.178269,0.999211,0.978367,0.005561,0.306896,0.000026,-0.000048,0.000014,0.000029,-0.000051,9.963714,0.000051,
2086,3178,-3.83205690484158,11.5730364821218,0.036921185549545,0.003224,-0.000410,-0.000288,0.149481,-0.011714,313.015830,24.298705,0.999724,0.995412,0.002866,0.436418,-0.000026,0.000016,-0.000017,0.000022,-0.000032,-70.085591,0.000033,
2431,3013,3.68455879962734,8.02292286317708,0.000148518290473021,0.002802,-0.000230,-0.000736,0.131530,0.009881,314.754318,25.435415,0.999366,0.985989,0.004351,0.369861,-0.000022,-0.000002,-0.000008,0.000001,-0.000025,-70.146896,0.000028,
2146,3208,-2.53659553243639,12.2290763154798,0.0367838022399383,0.003150,0.000040,-0.000528,0.146985,0.010232,312.244906,24.653784,0.999555,0.993899,0.003213,0.392300,-0.000028,-0.000002,-0.000022,0.000011,-0.000041,-59.976039,0.000042,
2056,3148,-4.47771902242198,10.9215868623899,0.0331663449990742,0.002993,-0.000063,-0.001793,0.143182,-0.002520,313.631532,24.239452,0.999511,0.993826,0.003198,0.380268,-0.000024,0.000019,-0.000017,0.000025,-0.000030,-70.811055,0.000032,
2206,2203,-1.06470138756571,-9.6498902717557,0.0098677401544478,0.003130,-0.000008,0.003108,0.133719,0.034621,328.115307,23.912057,0.999023,0.980565,0.005410,0.306568,-0.000016,0.000007,-0.000008,0.000010,-0.000019,-72.020844,0.000019,
2446,3223,3.97107990229117,12.5818890582246,0.0262769408942063,0.002860,-0.000067,-0.000678,0.134168,0.008644,311.558737,26.185623,0.999521,0.991174,0.003848,0.377768,0.000004,0.000004,0.000003,0.000007,0.000001,47.366071,0.000008,
2011,3133,-5.45061701844429,10.5941417390184,0.0208573856954786,0.003408,-0.000006,-0.002577,0.164383,0.002519,314.072059,24.079028,0.999648,0.994275,0.003114,0.365331,-0.000024,0.000059,0.000008,0.000059,-0.000024,84.692598,0.000060,
2266,2473,0.194149521475865,-3.74568451299109,-0.00868486510159983,0.002674,-0.000246,0.002113,0.115728,0.016747,323.457437,23.981159,0.999788,0.991522,0.003869,0.414838,-0.000011,-0.000012,0.000003,-0.000008,-0.000015,44.462943,0.000023,
2401,2908,3.05150619119735,5.73896491948052,-0.00968866215850994,0.003112,-0.001045,0.006961,0.117435,-0.007971,316.336849,25.053741,0.999560,0.990691,0.003843,0.330333,-0.000028,-0.000022,-0.000007,-0.000017,-0.000032,-58.191542,0.000051,
2041,3103,-4.7963166362297,9.94626543881287,0.0184602028808172,0.003181,0.000176,-0.002798,0.154701,0.008241,314.342292,24.208783,0.999684,0.994618,0.003036,0.383275,-0.000028,0.000018,-0.000003,0.000019,-0.000029,-85.804846,0.000029,
2071,3103,-4.14610608541929,9.94761340921557,0.0265314386591058,0.002967,-0.000287,0.001584,0.132349,0.007977,314.215708,24.294612,0.999585,0.992645,0.003375,0.413003,-0.000017,0.000007,-0.000004,0.000008,-0.000017,-81.218514,0.000017,
2101,3103,-3.49538739117522,9.95068721084571,0.0261258455454367,0.003291,-0.000120,0.000508,0.150289,-0.001218,314.074950,24.493323,0.999694,0.992621,0.003374,0.320955,-0.000019,-0.000001,0.000002,-0.000001,-0.000019,85.239762,0.000023,
2176,2233,-1.72436619817547,-8.99311886067699,0.00220895166739865,0.002744,0.000142,-0.000650,0.127967,0.033643,327.651455,23.998865,0.998983,0.981540,0.005188,0.397960,-0.000015,0.000005,-0.000002,0.000006,-0.000015,-83.897668,0.000015,
2101,3268,-3.52187201907574,13.5251098718841,0.0327528670089805,0.003248,-0.000070,-0.002059,0.155973,0.001705,311.439024,24.448132,0.999769,0.996115,0.002783,0.368799,-0.000033,0.000005,-0.000022,0.000015,-0.000043,-65.838009,0.000043,
2041,3043,-4.78785829660729,8.64532085079312,0.0139820941602693,0.002813,-0.000258,0.001969,0.124206,-0.003741,315.252874,24.233717,0.999701,0.994514,0.003134,0.380608,-0.000033,0.000010,0.000002,0.000010,-0.000033,87.808714,0.000034,
2221,2458,-0.782329631870212,-4.07435740474286,-0.00501170609413748,0.002982,0.000005,-0.002176,0.143934,0.002912,323.848845,24.077775,0.999169,0.985718,0.004833,0.389067,-0.000017,-0.000018,-0.000009,-0.000009,-0.000027,-43.161915,0.000037,
2506,2173,5.49239033185642,-10.3134258205539,0.0277992072628876,0.002655,-0.000175,0.003506,0.107829,0.018684,328.801503,22.199098,0.998880,0.977052,0.005778,0.368058,0.000015,-0.000021,0.000009,0.000017,-0.000023,13.965971,0.000024,
2041,2023,-4.63282176574331,-13.5938343520123,0.0220941328842059,0.002868,-0.000502,0.002312,0.124961,0.014749,331.794836,24.731512,0.998388,0.979994,0.005749,0.339476,0.000017,-0.000071,0.000056,0.000044,-0.000097,25.813091,0.000098,
2386,2878,2.7304889659286,5.08646015499912,-0.0158022469445882,0.002590,-0.000121,0.000618,0.116851,0.012714,316.762050,24.960632,0.999542,0.991476,0.003691,0.329426,-0.000028,-0.000014,-0.000011,-0.000008,-0.000034,-61.337418,0.000044,
2026,3058,-5.11477267493948,8.96875855305088,0.0231513244629582,0.002888,-0.000714,0.003495,0.123410,-0.022142,315.177048,24.174883,0.999207,0.990680,0.003917,0.361006,-0.000026,0.000026,0.000010,0.000028,-0.000027,79.792785,0.000032,
2086,3193,-3.83445372031464,11.8988516942392,0.0395981582533977,0.003225,-0.000047,0.001812,0.143663,0.018811,312.786673,24.355765,0.999503,0.994289,0.003047,0.407819,-0.000028,0.000011,-0.000025,0.000023,-0.000040,-63.960986,0.000040,
2131,2068,-2.67674038296053,-12.6088397525842,0.0262325714683129,0.003187,-0.000045,0.001857,0.140564,0.027716,330.680540,24.208080,0.998177,0.975490,0.006068,0.298630,-0.000014,-0.000031,0.000018,-0.000003,-0.000042,32.647275,0.000051,
2161,2158,-2.04127376939985,-10.6286565679131,-0.0342485434672426,0.002991,0.000127,0.000368,0.136128,0.032143,328.611496,24.204603,0.999830,0.944792,0.008402,0.199092,-0.000003,-0.000004,0.000001,-0.000002,-0.000005,31.272117,0.000007,
2416,3058,3.34972447201489,8.99864412066615,0.0106413347866692,0.002746,-0.000495,0.006021,0.104117,0.013187,314.057849,25.518738,0.999628,0.990912,0.003839,0.385736,-0.000022,0.000001,-0.000008,0.000004,-0.000025,-71.991665,0.000027,
2446,3238,3.96767515362614,12.9077079588536,0.02030069575477,0.003064,-0.000146,0.000843,0.137863,0.008047,311.265709,26.243025,0.999632,0.992811,0.003460,0.370780,0.000005,0.000000,0.000002,0.000006,-0.000001,21.070996,0.000006,
2296,2563,0.831486072011547,-1.77985977321859,-0.0132138602359646,0.003188,-0.000314,0.001530,0.141155,0.005400,321.947946,24.154642,0.999044,0.986503,0.004882,0.345767,-0.000015,-0.000009,-0.000012,0.000000,-0.000025,-51.409345,0.000029,
2281,2743,0.471546340705416,2.1427376440835,-0.0224686146668773,0.003045,-0.000196,0.001564,0.134719,0.006553,318.958368,24.462721,0.999479,0.989917,0.003917,0.400262,-0.000017,-0.000013,-0.000009,-0.000005,-0.000024,-51.737963,0.000031,
2011,3148,-5.45304362320912,10.9179468233063,0.0280138353430175,0.003021,-0.000348,0.000026,0.139311,-0.009571,313.862765,24.009057,0.999608,0.993696,0.003350,0.410043,-0.000026,0.000051,-0.000002,0.000051,-0.000026,-88.207569,0.000051,
2056,3163,-4.48019962240949,11.2465648664575,0.033431782453988,0.002945,-0.000269,-0.000717,0.137901,-0.007783,313.383612,24.232861,0.999550,0.992493,0.003440,0.374893,-0.000031,0.000034,-0.000023,0.000041,-0.000038,-72.141940,0.000046,
2116,3163,-3.18044167616572,11.2518522413642,0.0285630311149134,0.002740,-0.000038,0.000526,0.124830,0.000128,313.019244,24.506429,0.999615,0.993156,0.003380,0.376415,-0.000027,0.000015,-0.000012,0.000018,-0.000030,-75.047899,0.000031,
2341,2533,1.8170642455533,-2.43360107846347,-0.0151717414420318,0.003002,-0.000011,-0.001243,0.142149,0.012199,322.394095,23.965419,0.999195,0.984249,0.004754,0.400903,-0.000006,-0.000008,-0.000001,-0.000006,-0.000008,-19.635858,0.000014,
2491,2173,5.16540378345931,-10.3143729433539,0.03148141767781,0.003101,-0.000208,0.000712,0.139044,-0.005468,328.818615,22.239584,0.998467,0.971298,0.006341,0.383586,0.000002,-0.000020,0.000012,0.000007,-0.000025,24.166241,0.000026,
2041,3118,-4.79871797454711,10.2710309318586,0.0211339059300713,0.003156,0.000002,0.000269,0.144920,0.003116,314.110380,24.186523,0.999678,0.994657,0.003019,0.391755,-0.000029,0.000028,-0.000005,0.000028,-0.000029,-84.963468,0.000033,
2401,2923,3.04916640088351,6.0644061919426,-0.00805315467368928,0.003254,-0.000588,0.003114,0.138080,-0.012458,316.126606,25.043372,0.999545,0.990752,0.003854,0.381188,-0.000026,-0.000022,-0.000009,-0.000015,-0.000033,-51.875750,0.000049,
2056,2023,-4.30543759067536,-13.5938549278943,0.0229150095463524,0.003145,-0.000268,0.001442,0.140075,0.017804,331.731986,24.667697,0.998800,0.983361,0.005287,0.305670,0.000009,-0.000082,0.000030,0.000018,-0.000092,16.691791,0.000097,
2056,2848,-4.43384406249591,4.41550707344273,-0.0198983351360766,0.003071,-0.000383,0.000567,0.139832,-0.006347,318.069447,24.358533,0.999340,0.990587,0.003881,0.380080,-0.000034,0.000002,-0.000006,0.000003,-0.000035,-80.373696,0.000039,
2176,2053,-1.69324132558578,-12.9384864944918,0.0237955487758654,0.002824,-0.000161,0.002386,0.121981,0.026330,330.719314,23.906660,0.999338,0.983612,0.004815,0.299759,0.000010,-0.000027,0.000022,0.000020,-0.000037,24.869090,0.000037,
2281,2533,0.510336046237882,-2.43672260517482,-0.0105754690505364,0.002862,-0.000054,-0.000745,0.133916,-0.003344,322.467272,23.973342,0.999659,0.992641,0.003635,0.482914,-0.000006,-0.000009,-0.000007,0.000000,-0.000015,-40.557131,0.000017,
2206,2368,-1.09370737165402,-6.03978881566443,-0.00771737826806884,0.003082,0.000268,-0.001451,0.146177,0.033265,325.320916,24.010539,0.999492,0.988267,0.004391,0.414701,-0.000019,-0.000036,-0.000016,-0.000009,-0.000046,-31.476662,0.000059,
2071,3118,-4.14757483573797,10.2720493163438,0.0377927555717861,0.003196,-0.000531,0.001579,0.142813,-0.012344,314.075817,24.310493,0.999771,0.994096,0.003010,0.372536,-0.000020,0.000011,-0.000006,0.000012,-0.000021,-78.575989,0.000021,
2101,3283,-3.52526695875904,13.8498659505015,0.0240780669243463,0.002983,-0.000232,-0.000368,0.138705,-0.010083,311.103773,24.410095,0.999710,0.996283,0.002769,0.394761,-0.000039,0.000010,-0.000014,0.000014,-0.000043,-74.694122,0.000044,
2266,2728,0.147638897598402,1.8159049271275,-0.0258444722938407,0.002837,-0.000169,0.000202,0.129743,0.006202,319.191067,24.443797,0.999562,0.990912,0.003739,0.388391,-0.000012,-0.000010,-0.000013,0.000002,-0.000024,-46.988219,0.000026,
2101,3118,-3.49821066437729,10.2756243946097,0.0230841833096633,0.003153,-0.000174,0.001191,0.141897,-0.000224,313.796445,24.446147,0.999757,0.994515,0.002986,0.369273,-0.000021,0.000002,-0.000003,0.000002,-0.000022,-83.849560,0.000024,
2026,3073,-5.11689945658179,9.29375738027996,0.0227409761549779,0.003027,-0.000617,0.002160,0.133606,-0.010143,314.939337,24.125206,0.999282,0.992113,0.003690,0.411902,-0.000023,0.000031,0.000010,0.000033,-0.000025,80.269843,0.000034,
2506,2188,5.48875425551855,-9.98334755457887,0.0200967481837893,0.002689,-0.000354,0.002131,0.114631,0.005691,328.501210,22.293622,0.998869,0.975972,0.005980,0.324632,0.000034,-0.000016,-0.000003,0.000034,-0.000017,-3.895306,0.000034,
2176,2248,-1.72675224423707,-8.66554768066283,0.00687215149417852,0.002709,-0.000233,0.001971,0.118117,0.012310,327.439200,24.020281,0.998937,0.980583,0.005333,0.369950,-0.000015,-0.000002,-0.000003,-0.000001,-0.000016,-76.262782,0.000019,
2071,2953,-4.12410069963721,6.69606104315022,-0.00499817313118456,0.003086,-0.000164,0.002139,0.136185,0.017942,316.399621,24.364823,0.999255,0.991421,0.003785,0.393040,-0.000015,-0.000021,-0.000010,-0.000008,-0.000028,-36.331269,0.000039,
2161,2173,-2.0443545853027,-10.3021139330991,-0.0500721649149796,0.003151,0.000581,-0.003353,0.154964,0.037892,328.258900,23.865871,0.999791,0.931167,0.008794,0.557132,-0.000001,0.000001,0.000003,0.000003,-0.000003,53.867964,0.000004,
2236,2308,-0.42959133977104,-7.35138996249395,-0.00730629516823456,0.003261,0.000162,-0.000099,0.149980,0.025919,326.224745,23.829610,0.998917,0.984905,0.004830,0.395267,-0.000014,-0.000050,-0.000006,-0.000013,-0.000050,-8.973394,0.000067,
2311,2473,1.17438281529285,-3.74497336377359,-0.00666201745121953,0.002318,-0.000086,0.000480,0.104713,0.014879,323.412694,23.886722,0.999273,0.986221,0.004597,0.401628,-0.000009,-0.000019,0.000001,-0.000008,-0.000019,7.933194,0.000028,
2011,3253,-5.46812584638582,13.1921136101093,0.0412707661034233,0.003117,0.000212,-0.004649,0.156726,0.005427,312.275437,23.986120,0.999819,0.995772,0.002777,0.354972,-0.000026,0.000007,-0.000072,0.000064,-0.000083,-51.412378,0.000087,
2041,3058,-4.78929532996961,8.96965090694485,0.0251370125790231,0.003209,-0.000614,0.004733,0.134706,-0.004102,315.112392,24.206793,0.999704,0.994087,0.003204,0.398497,-0.000031,0.000017,-0.000003,0.000017,-0.000032,-86.057153,0.000032,
2416,3073,3.34721651486548,9.32393384570101,0.0113457566549187,0.002863,-0.000483,0.002706,0.121574,-0.011052,313.835975,25.547049,0.999626,0.991383,0.003759,0.379828,-0.000018,0.000005,-0.000008,0.000007,-0.000020,-73.172499,0.000020,
2206,2218,-1.06739559235654,-9.32156158553661,0.00585903168092727,0.003012,0.000071,-0.000426,0.139532,0.020785,327.846407,23.895248,0.998988,0.981158,0.005419,0.328890,-0.000020,0.000011,-0.000008,0.000013,-0.000022,-75.802410,0.000022,
2056,3178,-4.48214285071731,11.5713503832212,0.0402415505707268,0.002992,0.000065,-0.000326,0.139073,0.011617,313.196620,24.226556,0.999630,0.994094,0.003178,0.394080,-0.000029,0.000028,-0.000026,0.000038,-0.000039,-68.920505,0.000044,
2356,2578,2.13522153749388,-1.45174715378283,-0.0112221347382047,0.002776,-0.000399,0.001792,0.120999,0.008627,321.676143,24.047750,0.999297,0.987310,0.004460,0.407753,-0.000010,-0.000001,-0.000001,-0.000001,-0.000010,-84.978267,0.000012,
2041,2038,-4.63531010710925,-13.265283682885,0.0211149258213368,0.002422,0.000145,-0.001222,0.114527,0.027416,331.536352,24.670912,0.998614,0.978366,0.005766,0.409012,0.000005,-0.000122,0.000038,0.000015,-0.000133,15.569060,0.000145,
2101,3298,-3.52821079639683,14.174905143638,0.0169224712108758,0.002934,-0.000103,-0.000876,0.138015,-0.002672,310.797367,24.392020,0.999512,0.994811,0.003131,0.419677,-0.000047,0.000025,-0.000016,0.000029,-0.000050,-77.775584,0.000050,
2146,2113,-2.35663295493904,-11.6237962987923,0.031704081048872,0.003112,-0.000002,0.003157,0.133187,0.026305,329.937854,24.106289,0.999342,0.984248,0.005036,0.337468,-0.000009,-0.000011,0.000016,0.000006,-0.000026,43.303769,0.000027,
2341,2548,1.81449109338308,-2.10678783409414,-0.0103152497168253,0.003159,-0.000294,0.002547,0.136051,0.022122,322.185351,23.985035,0.999059,0.982081,0.005031,0.428553,-0.000006,-0.000008,-0.000004,-0.000003,-0.000011,-35.660809,0.000015,
2191,2263,-1.40267908485389,-8.33578544995733,-0.00320931447328121,0.002612,0.000830,-0.004894,0.135421,0.023280,327.083759,24.000957,0.998847,0.981177,0.005418,0.349270,-0.000015,-0.000015,-0.000012,-0.000003,-0.000027,-45.329901,0.000033,
2326,2488,1.49920776023416,-3.41727562492643,-0.00606415386516801,0.003018,0.000029,0.000467,0.136946,0.026598,323.198694,23.867509,0.999437,0.987682,0.004238,0.432862,-0.000004,-0.000005,0.000005,0.000001,-0.000010,41.736126,0.000011,
2296,2818,0.784058200308142,3.77600498210811,-0.0224880894509738,0.002862,-0.000136,-0.000086,0.131903,0.004121,317.716784,24.636129,0.999463,0.990335,0.003899,0.379089,-0.000017,-0.000027,0.000003,-0.000016,-0.000028,13.343869,0.000045,
2116,3178,-3.18207984356134,11.5762444078052,0.0340324413562598,0.003088,-0.000121,-0.001613,0.147209,-0.008472,312.842420,24.485471,0.999581,0.992436,0.003421,0.390874,-0.000025,0.000009,-0.000016,0.000016,-0.000031,-68.294896,0.000031,
2221,2473,-0.785431307973262,-3.74655187898603,-0.00886220355903333,0.002816,0.000221,-0.001096,0.132939,0.010614,323.563015,24.085336,0.999414,0.986873,0.004546,0.409662,-0.000014,-0.000013,-0.000001,-0.000012,-0.000014,-64.282712,0.000027,
2086,3208,-3.83648147748864,12.2233875056402,0.0415332798256145,0.003224,-0.000143,-0.002740,0.156707,-0.006053,312.570945,24.349222,0.999558,0.993687,0.003230,0.387154,-0.000028,0.000005,-0.000030,0.000022,-0.000046,-59.224842,0.000046,
2431,3028,3.68198983356423,8.34864861621852,0.00405139685165068,0.002878,-0.000249,-0.000869,0.135537,0.004721,314.545637,25.495019,0.999495,0.987140,0.004243,0.354058,-0.000024,0.000003,-0.000011,0.000007,-0.000027,-71.029485,0.000029,
2221,2308,-0.755862166869942,-7.35300052423171,0.00464585240365523,0.003037,0.000086,-0.000421,0.140723,0.018683,326.349295,23.871149,0.999066,0.986762,0.004493,0.405217,-0.000009,-0.000049,-0.000007,-0.000008,-0.000050,-9.566578,0.000063,
2476,2038,4.86448416275147,-13.276253228514,0.0315998449478911,0.002522,0.000597,0.000989,0.111773,0.043264,330.929724,21.844813,0.999356,0.979631,0.005578,0.369998,-0.000029,-0.000042,0.000061,0.000026,-0.000097,41.854562,0.000100,
2071,2068,-3.98462776570075,-12.6084719599706,0.0353060944319736,0.002913,-0.000024,0.001116,0.130428,0.010224,331.024194,24.626823,0.998197,0.966564,0.007007,0.238632,0.000002,-0.000063,0.000017,0.000006,-0.000067,13.520544,0.000075,
2026,3088,-5.11915476905669,9.6200503274533,0.024448122119793,0.002851,-0.000250,-0.000260,0.132288,0.008020,314.707108,24.205946,0.999650,0.994636,0.003100,0.338462,-0.000023,0.000026,0.000006,0.000027,-0.000024,83.051655,0.000030,
2266,2743,0.1452767661319,2.14237962067097,-0.0248481052504985,0.003055,0.000033,-0.000258,0.141403,0.016811,318.967151,24.456492,0.999384,0.988042,0.004112,0.412062,-0.000014,-0.000018,-0.000015,-0.000001,-0.000031,-41.851403,0.000037,
2146,3223,-2.53897957200745,12.5537253063677,0.0395865115726792,0.003103,0.000032,-0.000652,0.145216,0.017605,312.021242,24.635712,0.999563,0.994049,0.003137,0.424214,-0.000026,-0.000006,-0.000028,0.000014,-0.000045,-54.928070,0.000046,
2491,2188,5.16101919394272,-9.98299544598045,0.0184037005511186,0.002904,-0.000283,0.000424,0.131108,0.002566,328.458120,22.374839,0.998520,0.971861,0.006262,0.318339,0.000021,-0.000014,0.000001,0.000021,-0.000015,1.411856,0.000021,
2086,2998,-3.80513167714068,7.67299477463008,0.00392482981800413,0.003110,-0.000375,-0.001454,0.147481,-0.014903,315.673822,24.419324,0.999600,0.993151,0.003310,0.336673,-0.000018,-0.000002,-0.000003,-0.000002,-0.000019,-80.571937,0.000023,
2176,2068,-1.69542511667125,-12.610985726206,0.0305969298561308,0.002924,-0.000762,0.006453,0.113844,0.016596,330.527512,23.872382,0.999456,0.984016,0.004959,0.339755,0.000007,-0.000020,0.000019,0.000016,-0.000029,27.371126,0.000029,
2251,2383,-0.116082148021864,-5.71322137699041,-0.00793867893969491,0.003186,-0.000579,0.001817,0.140069,0.004289,324.969876,23.761673,0.999102,0.985890,0.004857,0.508091,-0.000017,-0.000024,-0.000011,-0.000009,-0.000032,-35.781114,0.000044,
2191,2113,-1.37593864236591,-11.6235945111052,0.0191573434674979,0.003066,-0.000429,0.000961,0.137408,0.001710,329.686979,23.815795,0.999080,0.982548,0.005239,0.340143,-0.000003,-0.000002,0.000008,0.000006,-0.000010,46.804005,0.000010,
2056,2863,-4.43570766222274,4.74106706376264,-0.0139207115488489,0.003025,-0.000022,-0.001934,0.144920,0.009731,317.880707,24.348856,0.999392,0.990952,0.003834,0.399886,-0.000034,-0.000001,-0.000007,0.000000,-0.000035,-79.092149,0.000040,
2506,2203,5.48609133831171,-9.65503387101617,0.0233096252890164,0.002904,-0.000095,0.002520,0.123082,0.022787,328.294045,22.317419,0.999016,0.973926,0.006128,0.381547,0.000038,-0.000021,-0.000020,0.000044,-0.000027,-16.889389,0.000044,
2281,2758,0.468114781752217,2.46942197897414,-0.0241150316263088,0.002765,-0.000700,0.005870,0.107263,-0.004674,318.673231,24.500180,0.999399,0.989503,0.003999,0.379422,-0.000016,-0.000009,-0.000004,-0.000007,-0.000018,-65.796835,0.000025,
2251,2623,-0.15905726969817,-0.473394509203658,-0.0153481728836482,0.003131,-0.000180,0.002023,0.137233,0.008174,321.018185,24.243575,0.999249,0.986329,0.004513,0.421755,-0.000018,-0.000006,-0.000008,-0.000002,-0.000023,-62.579864,0.000027,
2401,2938,3.04612192994025,6.39028701043785,-0.00255580755134588,0.002804,-0.000162,0.004500,0.112491,0.005798,315.901959,25.082141,0.999562,0.990905,0.003838,0.405553,-0.000022,-0.000021,-0.000012,-0.000010,-0.000033,-45.738151,0.000045,
2116,2053,-3.0023986862881,-12.9365396760693,0.0134307838553696,0.002961,0.000283,-0.000520,0.137410,-0.004439,330.874807,24.266681,0.998713,0.978510,0.005603,0.295782,-0.000017,-0.000044,0.000010,-0.000014,-0.000048,18.968319,0.000064,
2281,2548,0.506918185761197,-2.10687968144735,-0.021408745502697,0.003016,-0.000103,0.000093,0.138205,0.009392,322.136817,24.127566,0.999421,0.989879,0.004099,0.370447,-0.000008,-0.000006,-0.000006,-0.000001,-0.000013,-48.606623,0.000015,
2071,3223,-4.16415054759703,12.5470608287005,0.0427238696632344,0.003098,-0.000297,0.000375,0.141868,-0.004992,312.400734,24.279276,0.999547,0.993176,0.003319,0.380182,-0.000020,-0.000001,-0.000040,0.000031,-0.000052,-51.619115,0.000052,
2086,3223,-3.8389131597657,12.5479895535402,0.0454355789713077,0.003092,-0.000332,-0.001025,0.145592,-0.013010,312.347399,24.345761,0.999561,0.992589,0.003491,0.381221,-0.000027,-0.000002,-0.000033,0.000021,-0.000050,-55.729627,0.000050,
2296,2578,0.8285444756205,-1.45269210807172,-0.0152092232819427,0.002973,-0.000273,-0.000538,0.138275,-0.007172,321.685216,24.177502,0.999346,0.988907,0.004265,0.341315,-0.000010,0.000004,-0.000005,0.000005,-0.000012,-72.929644,0.000012,
2266,2488,0.190887584874108,-3.41842449165226,-0.0147939723941022,0.002771,-0.000708,0.005480,0.108873,0.002440,323.157093,23.946189,0.999716,0.990767,0.003948,0.462176,-0.000012,-0.000003,0.000000,-0.000003,-0.000012,87.340529,0.000016,
2056,2038,-4.30807903526187,-13.2640249249453,0.0151530535774782,0.003008,0.000576,-0.001905,0.143464,0.037309,331.430406,24.640951,0.998563,0.981013,0.005513,0.350330,0.000002,-0.000118,0.000021,0.000005,-0.000122,9.687126,0.000138,
2236,2518,-0.467834144219587,-2.76238853267264,-0.0218968402566588,0.002741,-0.000027,0.000905,0.122992,0.011246,322.681016,24.158965,0.999466,0.988152,0.004212,0.368930,-0.000010,0.000008,0.000000,0.000008,-0.000010,88.802655,0.000011,
2206,2233,-1.06971860055589,-8.99478489646933,0.011042628298469,0.003096,-0.000487,0.002844,0.132854,-0.001808,327.642064,23.846126,0.999177,0.982336,0.005384,0.374184,-0.000023,0.000009,-0.000003,0.000009,-0.000024,-84.838953,0.000024,
2371,2743,2.42947185198169,2.14716032702185,-0.028006011333332,0.003003,-0.000334,0.000645,0.135588,0.003554,318.871448,24.488164,0.999478,0.989691,0.003917,0.399607,-0.000024,0.000003,-0.000016,0.000010,-0.000031,-65.159927,0.000032,
2131,2083,-2.68038215241535,-12.2787953778451,0.010621642810861,0.002955,-0.000246,0.001812,0.130026,-0.000324,330.299615,24.181232,0.998556,0.978477,0.005775,0.307087,-0.000015,-0.000009,0.000019,0.000007,-0.000030,49.565540,0.000032,
2296,2833,0.782004781522055,4.10221013562713,-0.0178632695244119,0.003097,-0.000058,-0.001620,0.147924,0.003808,317.527145,24.688730,0.999730,0.992823,0.003536,0.355821,-0.000016,-0.000020,0.000003,-0.000014,-0.000022,27.513413,0.000036,
2011,3268,-5.4705892175886,13.5161006842248,0.0451606751245777,0.002926,0.000107,-0.001719,0.139923,0.008980,312.046259,23.924072,0.999810,0.995783,0.002787,0.406986,-0.000018,-0.000006,-0.000061,0.000049,-0.000073,-47.755906,0.000075,
2491,2203,5.1578473235517,-9.65398567539005,0.0165177544968742,0.002988,-0.000096,0.000464,0.134856,0.014574,328.203528,22.413998,0.998462,0.973082,0.006188,0.352856,0.000024,-0.000017,-0.000012,0.000027,-0.000020,-14.635837,0.000028,
2041,2053,-4.63979874884967,-12.9308911325338,-0.0146142581230606,0.002439,0.000218,0.000475,0.110658,0.025938,330.993937,24.774915,0.999672,0.992051,0.003764,0.300870,0.000001,-0.000101,0.000031,0.000010,-0.000110,15.613392,0.000121,
2161,2188,-2.0435624133236,-9.98052618181189,-0.00289284960894065,0.003127,0.000826,-0.004535,0.157576,0.017380,328.415007,23.771564,0.999738,0.911280,0.009642,0.641578,-0.000001,0.000008,0.000006,0.000011,-0.000004,64.585995,0.000011,
2446,3253,3.96471633051683,13.2326674286188,0.0240646769668729,0.002753,-0.000250,0.000342,0.125360,0.001100,311.038525,26.286382,0.999781,0.994100,0.003080,0.370826,0.000006,-0.000002,-0.000001,0.000006,-0.000002,-6.780438,0.000006,
2071,2083,-3.98926742047943,-12.2758623560204,0.00313280577785235,0.002638,0.000317,0.002385,0.114328,0.046839,330.499394,24.585309,0.998700,0.967653,0.006740,0.318488,-0.000002,-0.000032,0.000016,0.000005,-0.000039,23.500370,0.000042,
2056,3193,-4.48476300223669,11.8967125194989,0.0374604233070954,0.002994,-0.000070,0.000698,0.136221,0.003945,312.925337,24.247027,0.999534,0.993796,0.003232,0.359113,-0.000031,0.000023,-0.000036,0.000041,-0.000049,-63.424214,0.000053,
2206,2383,-1.09702599425004,-5.71183133221441,-0.00865928622158663,0.002639,0.000164,0.002208,0.114268,0.035164,325.038939,24.034490,0.999219,0.986395,0.004583,0.411299,-0.000017,-0.000025,-0.000014,-0.000007,-0.000035,-36.456302,0.000045,
2071,2968,-4.12688715287378,7.0214902696743,-0.00694978271849322,0.002841,-0.000467,0.002780,0.122912,-0.008750,316.126215,24.357010,0.999037,0.990216,0.004040,0.370383,-0.000017,-0.000014,-0.000010,-0.000005,-0.000026,-48.595747,0.000034,
2041,3133,-4.8003637888888,10.5960586852223,0.0291127496294621,0.003377,0.000025,0.000204,0.155326,0.008233,313.942552,24.214222,0.999405,0.992761,0.003451,0.360466,-0.000029,0.000030,-0.000009,0.000031,-0.000030,-81.827398,0.000035,
2476,2053,4.86126511921776,-12.9465594493337,0.028527541886092,0.002705,0.000177,0.001847,0.116728,0.018634,330.667248,21.913484,0.999332,0.982240,0.005336,0.336786,-0.000020,-0.000049,0.000055,0.000022,-0.000092,37.770372,0.000096,
2086,3013,-3.80774325807286,7.99795838754115,0.00394406592323548,0.002947,-0.000100,-0.000783,0.138146,-0.000306,315.420471,24.353237,0.999705,0.993908,0.003055,0.415544,-0.000017,-0.000001,-0.000002,-0.000001,-0.000017,-84.253354,0.000020,
2506,2218,5.48272306274095,-9.32595648297005,0.0178028047432122,0.003069,-0.000294,0.001829,0.133227,0.000760,328.015743,22.364294,0.999178,0.975272,0.005893,0.376382,0.000030,-0.000025,-0.000013,0.000033,-0.000028,-12.498415,0.000036,
2311,2488,1.17237580536435,-3.41764331020491,-0.00244995333059705,0.002725,0.000137,0.000142,0.124671,0.023550,323.224763,23.929992,0.999379,0.987438,0.004313,0.400194,-0.000008,-0.000009,-0.000001,-0.000008,-0.000010,-30.832818,0.000018,
2386,2893,2.72802601900052,5.41226499898968,-0.0161049773046784,0.002829,0.000300,-0.002123,0.137832,0.023869,316.535859,24.945991,0.999498,0.992155,0.003680,0.398273,-0.000025,-0.000023,-0.000008,-0.000016,-0.000032,-48.399242,0.000049,
2071,3133,-4.15019657182656,10.5974227384829,0.0307325049805058,0.003258,-0.000397,-0.000972,0.152956,-0.021059,313.782044,24.291052,0.999606,0.994203,0.003022,0.379156,-0.000019,0.000011,-0.000011,0.000014,-0.000022,-71.870065,0.000023,
2191,2278,-1.40487502378613,-8.00822715996604,0.00212122032559137,0.002928,-0.000012,0.000281,0.133486,0.006186,326.884705,24.034028,0.998729,0.980945,0.005482,0.315425,-0.000014,-0.000032,-0.000021,0.000000,-0.000046,-33.688163,0.000053,
2236,2323,-0.432356834176897,-7.02381089342407,-0.00932545016127051,0.003405,-0.000341,0.002145,0.149183,0.005487,325.965423,23.810430,0.998777,0.986692,0.004700,0.417006,-0.000012,-0.000056,-0.000006,-0.000012,-0.000056,-7.152858,0.000073,
2116,1993,-2.9940506641926,-14.2494607388621,0.00667309594138032,0.002336,0.000558,-0.000811,0.109663,0.029126,331.751208,24.423646,0.999646,0.989684,0.004319,0.144800,0.000014,-0.000077,0.000003,0.000014,-0.000077,2.015553,0.000082,
2146,2128,-2.3590261549366,-11.2946768984047,0.029072805966905,0.003225,-0.000108,0.001735,0.142616,0.005068,329.684378,24.147723,0.999187,0.982262,0.005259,0.285833,-0.000011,-0.000005,0.000014,0.000006,-0.000022,51.763080,0.000023,
2086,3238,-3.84209582769445,12.8731542797582,0.0404071271186126,0.002899,-0.000633,0.002646,0.125950,-0.016823,312.040367,24.343831,0.999630,0.993601,0.003247,0.376992,-0.000027,-0.000010,-0.000035,0.000018,-0.000054,-51.912936,0.000055,
2266,2758,0.141888691560165,2.46968659022853,-0.0308266120671874,0.003040,-0.000138,0.003174,0.129248,0.011645,318.660850,24.510801,0.999326,0.988377,0.004147,0.378416,-0.000014,-0.000014,-0.000010,-0.000004,-0.000024,-44.902828,0.000030,
2056,2053,-4.31012473337309,-12.9347434117324,0.0141254984708894,0.003270,0.000818,-0.001785,0.155266,0.038041,331.193128,24.664481,0.997921,0.977442,0.006001,0.325695,0.000000,-0.000092,0.000018,0.000003,-0.000095,10.618139,0.000108,
2116,2068,-3.00456008305976,-12.6079157798862,0.0164427197186114,0.003078,0.000101,0.001276,0.137418,0.009200,330.659220,24.269075,0.998550,0.969567,0.006654,0.313907,-0.000019,-0.000032,0.000010,-0.000014,-0.000038,28.063960,0.000054,
2446,3268,3.96007105359885,13.5587212462648,0.00382888625472333,0.002787,-0.000345,0.000723,0.125472,-0.006038,310.622019,26.302034,0.999764,0.993387,0.003205,0.398940,0.000010,-0.000007,0.000002,0.000011,-0.000008,7.935784,0.000011,
2401,2953,3.04276460708476,6.71686912982103,-0.00873518696943165,0.002788,-0.000514,0.003554,0.115046,-0.013974,315.607579,25.145299,0.999624,0.991427,0.003763,0.367613,-0.000020,-0.000024,-0.000010,-0.000012,-0.000032,-39.164252,0.000046,
2056,2878,-4.43814742949449,5.06681049890366,-0.0127723023082353,0.003009,-0.000134,0.000537,0.137196,0.008307,317.638918,24.341589,0.999299,0.989777,0.004095,0.400130,-0.000033,0.000014,-0.000008,0.000015,-0.000034,-80.420632,0.000034,
2071,2098,-3.9902930885284,-11.9500877950117,0.0293758758718354,0.002391,-0.000477,0.004755,0.096047,0.001917,330.459517,24.650695,0.998661,0.977116,0.005706,0.207251,-0.000001,-0.000027,0.000016,0.000007,-0.000035,25.721692,0.000037,
2341,2563,1.81122290864753,-1.7785718059048,-0.0156876210332371,0.002913,-0.000190,-0.000138,0.134164,0.016457,321.894856,24.062961,0.999099,0.984796,0.004751,0.382719,-0.000008,-0.000010,-0.000006,-0.000003,-0.000016,-39.565779,0.000020,
2071,3238,-4.16650201761753,12.8716948368112,0.0426985984362318,0.003091,-0.000511,-0.000819,0.144892,-0.016055,312.158389,24.263687,0.999556,0.992944,0.003352,0.380292,-0.000018,-0.000010,-0.000044,0.000031,-0.000058,-47.773320,0.000058,
2221,2323,-0.759033242107165,-7.0242514398611,-0.00598315262124061,0.003377,-0.000365,0.002177,0.147889,0.010539,326.025809,23.860290,0.999158,0.987194,0.004483,0.429398,-0.000005,-0.000055,-0.000007,-0.000004,-0.000056,-8.282549,0.000067,
2176,2263,-1.72916156519266,-8.33636673248522,0.0080223505193544,0.002612,0.000221,0.000400,0.118685,0.034498,327.207061,24.114050,0.998959,0.980335,0.005518,0.312678,-0.000012,-0.000019,-0.000010,-0.000005,-0.000026,-35.879939,0.000034,
2041,2068,-4.64147655007564,-12.6040880788376,-0.00721983764537981,0.002669,-0.000029,0.003101,0.113878,0.021446,330.819038,24.678526,0.999676,0.992283,0.003645,0.388188,-0.000002,-0.000071,0.000031,0.000010,-0.000083,20.649203,0.000090,
2206,2398,-1.09899262829697,-5.38444556245864,-0.00391113037431978,0.002907,-0.000265,0.002247,0.126300,0.032917,324.848290,24.069598,0.999426,0.988500,0.004344,0.392090,-0.000016,-0.000021,-0.000010,-0.000007,-0.000029,-38.084848,0.000038,
2026,3103,-5.12124107869182,9.94468159092232,0.0248098508555472,0.003031,-0.000179,-0.000883,0.142355,0.009873,314.475771,24.145307,0.999614,0.994225,0.003211,0.390401,-0.000025,0.000032,0.000007,0.000033,-0.000026,82.696672,0.000034,
2221,2488,-0.788323377496887,-3.41888410551111,-0.0117962835317371,0.002817,-0.000283,0.000211,0.128634,0.001623,323.291535,24.110700,0.999497,0.986952,0.004342,0.395625,-0.000014,-0.000006,-0.000003,-0.000005,-0.000015,-72.131640,0.000021,
2251,2638,-0.162199261719163,-0.145289224257944,-0.0199803209782772,0.003114,-0.000258,0.003873,0.130401,0.013463,320.728745,24.331168,0.998975,0.986278,0.004470,0.363540,-0.000019,-0.000009,-0.000011,-0.000002,-0.000026,-56.946327,0.000031,
2146,3238,-2.54247414754282,12.8797416890808,0.0322381973858228,0.002810,-0.000244,0.002093,0.123294,0.010090,311.691967,24.704623,0.999627,0.994061,0.003103,0.354211,-0.000025,-0.000010,-0.000030,0.000014,-0.000049,-52.244367,0.000050,
2326,2503,1.49546214913026,-3.08873893737699,-0.0134944432799102,0.002788,-0.000534,0.002620,0.118760,0.003769,322.875103,23.952056,0.999355,0.987821,0.004216,0.361257,-0.000005,-0.000005,0.000005,0.000000,-0.000010,46.883465,0.000012,
2281,2773,0.465950242240119,2.79562895976914,-0.0211905419956793,0.002741,-0.000553,0.000957,0.122666,-0.012414,318.469171,24.530582,0.999282,0.988183,0.004230,0.369090,-0.000015,-0.000014,-0.000004,-0.000010,-0.000018,-48.369250,0.000029,
2116,2008,-2.99614148662485,-13.924169617729,0.0160151597940512,0.002259,-0.000384,0.003659,0.092677,-0.005022,331.573397,24.221591,0.999716,0.991503,0.004194,0.319530,0.000006,-0.000059,0.000017,0.000011,-0.000063,14.180291,0.000067,
2416,3088,3.3445921564387,9.64984123322436,0.0145678826076505,0.002878,-0.000441,0.002063,0.124677,-0.008888,313.620278,25.625864,0.999665,0.992457,0.003572,0.349839,-0.000017,0.000002,-0.000007,0.000005,-0.000020,-71.345411,0.000020,
2056,3208,-4.48695373232885,12.2211825196526,0.0394418571453343,0.002910,-0.000083,-0.001911,0.139677,-0.008704,312.700470,24.222014,0.999533,0.993582,0.003237,0.364886,-0.000031,0.000012,-0.000044,0.000040,-0.000058,-58.140408,0.000059,
2356,2593,2.13201713212584,-1.12362707670379,-0.0176961707356327,0.002766,-0.000373,-0.000139,0.127359,-0.002251,321.384559,24.123046,0.999354,0.987224,0.004419,0.361155,-0.000010,-0.000011,-0.000003,-0.000008,-0.000013,-38.285710,0.000021,
2476,2068,4.85875849181348,-12.6181262876546,0.0321945985957086,0.002921,-0.000395,0.001358,0.128218,-0.014911,330.467899,21.956674,0.999330,0.979331,0.005643,0.319722,-0.000013,-0.000046,0.000051,0.000024,-0.000083,36.124276,0.000085,
2131,2098,-2.6825918536517,-11.9489851763105,0.00975445411154396,0.003334,-0.000224,0.003890,0.141220,0.033170,330.062107,24.240405,0.998914,0.983249,0.005140,0.290110,-0.000012,-0.000006,0.000020,0.000011,-0.000030,49.634702,0.000030,
2131,3208,-2.86170890180443,12.2276232193921,0.0385642952418266,0.003042,-0.000253,-0.001093,0.143656,0.005450,312.319173,24.579598,0.999641,0.994339,0.003150,0.388315,-0.000027,0.000001,-0.000024,0.000015,-0.000041,-60.293533,0.000041,
2176,2083,-1.69811182510628,-12.2802644680273,0.0211445308705152,0.003066,-0.000131,0.002078,0.134060,0.016154,330.227548,23.947811,0.999552,0.984767,0.004996,0.279736,0.000005,0.000002,0.000016,0.000020,-0.000013,41.877032,0.000020,
2191,2128,-1.37837346157599,-11.2943104336593,0.0144380914061912,0.003207,0.000303,-0.002763,0.155769,0.008944,329.424738,23.822957,0.998739,0.981232,0.005415,0.358084,-0.000004,-0.000001,0.000006,0.000004,-0.000009,52.205416,0.000009,
2431,3043,3.67896034203992,8.67450700215638,0.00321993476001126,0.003087,-0.000322,0.001583,0.136002,0.004128,314.293599,25.534772,0.999517,0.988702,0.004081,0.362700,-0.000026,0.000011,-0.000010,0.000013,-0.000029,-76.243760,0.000029,
2011,3283,-5.47332486056668,13.8408805594437,0.0427387356367603,0.002815,-0.000116,0.000791,0.127928,0.008509,311.768703,23.907875,0.999798,0.996165,0.002707,0.409307,-0.000025,0.000012,-0.000044,0.000041,-0.000054,-56.152849,0.000056,
2086,3253,-3.84431656853944,13.1979995492021,0.0433221696836199,0.002901,-0.000252,0.002097,0.127807,0.002413,311.821032,24.338175,0.999747,0.994518,0.003049,0.399531,-0.000025,-0.000004,-0.000034,0.000022,-0.000051,-53.451750,0.000051,
2266,2503,0.188717349034931,-3.08955903394709,-0.0154884076183635,0.003054,-0.000091,0.001629,0.134823,0.017099,322.933483,24.084075,0.999681,0.991595,0.003957,0.365753,-0.000010,-0.000001,0.000001,-0.000001,-0.000010,84.803123,0.000012,
2116,3193,-3.1848870195087,11.9012490209326,0.037142560014388,0.002819,-0.000379,0.002383,0.122901,-0.005179,312.598964,24.498456,0.999624,0.992817,0.003490,0.383371,-0.000027,0.000006,-0.000022,0.000017,-0.000039,-63.154550,0.000039,
2056,2893,-4.44043215568141,5.39302495130941,-0.0101158767252514,0.003010,-0.000181,0.002202,0.132553,0.014962,317.412399,24.384586,0.999477,0.992678,0.003686,0.357832,-0.000040,0.000000,-0.000013,0.000004,-0.000044,-73.194580,0.000049,
2296,2593,0.826881723127546,-1.12661927221166,-0.00332702852159628,0.003140,0.000320,-0.000773,0.146976,0.018545,321.549956,24.186805,0.999628,0.991718,0.003641,0.388289,-0.000012,-0.000005,-0.000007,-0.000001,-0.000016,-57.772002,0.000019,
2071,3253,-4.16927668463052,13.1974872515099,0.0373461235205355,0.003080,-0.000161,-0.000644,0.144026,-0.000904,311.866860,24.302784,0.999697,0.994632,0.003061,0.351681,-0.000015,-0.000004,-0.000044,0.000035,-0.000053,-48.451778,0.000054,
2491,2218,5.15397318300954,-9.32356274777739,0.0113924121179707,0.002755,-0.000151,0.001707,0.119476,0.015249,327.902022,22.565628,0.999071,0.980674,0.005518,0.263546,0.000018,-0.000027,-0.000007,0.000019,-0.000028,-9.155101,0.000029,
2506,2233,5.47976406738135,-8.99619174585794,0.0206185190650672,0.002886,-0.000177,0.000429,0.130310,-0.001230,327.793019,22.546052,0.999161,0.979546,0.005457,0.256051,0.000037,-0.000016,0.000003,0.000038,-0.000016,2.956565,0.000038,
2086,2143,-3.67026323350562,-10.9639750136867,0.00753470980748716,0.003440,0.000095,-0.000412,0.159065,0.026843,329.542763,24.354749,0.999083,0.983885,0.005059,0.445312,-0.000017,0.000004,0.000015,0.000012,-0.000025,61.831673,0.000025,
2221,2578,-0.804000249648727,-1.4544868722331,-0.0219758808780739,0.003249,0.000231,-0.002339,0.156895,0.008338,321.776994,24.229390,0.999205,0.988572,0.004174,0.403132,-0.000011,0.000000,0.000000,0.000000,-0.000011,87.454139,0.000013,
2236,2533,-0.469430348363073,-2.43607422560399,-0.00980724738536765,0.002951,-0.000063,0.001517,0.130670,0.014064,322.546832,24.198967,0.999718,0.991541,0.003664,0.353605,-0.000009,0.000008,-0.000001,0.000008,-0.000009,-86.301097,0.000010,
2251,2398,-0.11860420726472,-5.38479451883168,-0.00218478652584508,0.003137,-0.000715,0.005129,0.126968,-0.005872,324.761885,23.910310,0.999193,0.988928,0.004467,0.373960,-0.000016,-0.000019,-0.000006,-0.000011,-0.000024,-38.193422,0.000036,
2071,2113,-3.99236197904487,-11.6208618308044,0.024339292630998,0.002849,-0.000274,0.003767,0.119932,0.013177,330.200662,24.636429,0.998882,0.981632,0.005342,0.232855,0.000001,-0.000026,0.000015,0.000008,-0.000033,24.135037,0.000034,
2386,2908,2.72413392716846,5.73867664133008,-0.0194409011461971,0.002652,-0.000551,0.004911,0.104138,0.013414,316.229310,24.991484,0.999432,0.990679,0.003904,0.385201,-0.000025,-0.000023,-0.000007,-0.000017,-0.000032,-49.870310,0.000049,
2086,3268,-3.84717567379736,13.5234123265089,0.0345020371671581,0.003024,-0.000288,0.001799,0.134322,-0.003829,311.508038,24.348882,0.999717,0.995386,0.002912,0.380223,-0.000024,0.000003,-0.000028,0.000020,-0.000041,-57.911651,0.000041,
2086,3298,-3.85316256560791,14.1737844311174,0.0194256283949699,0.002733,-0.000041,-0.000565,0.127824,-0.002164,310.883871,24.342999,0.999574,0.994625,0.003027,0.382688,-0.000039,0.000025,-0.000019,0.000030,-0.000044,-74.498262,0.000045,
2401,2968,3.04144838480414,7.04252599324765,0.000180952476057428,0.003293,-0.000342,-0.001402,0.156383,-0.012486,315.478572,25.211247,0.999857,0.994928,0.003204,0.348185,-0.000021,-0.000018,-0.000011,-0.000008,-0.000031,-49.592986,0.000041,
2131,2113,-2.68482391354528,-11.6210131183626,0.0128450472626582,0.003224,-0.000126,0.002947,0.139042,0.028930,329.845101,24.218256,0.999022,0.983488,0.005148,0.316747,-0.000010,-0.000010,0.000018,0.000008,-0.000028,44.645778,0.000029,
2311,2503,1.16950419389986,-3.090136903037,-0.00755270041520362,0.002931,0.000164,-0.000655,0.136829,0.017638,322.951391,23.923777,0.999468,0.988664,0.004132,0.434081,-0.000009,-0.000007,-0.000001,-0.000007,-0.000009,-75.066853,0.000016,
2071,3268,-4.17230737057548,13.5223992720567,0.0271706284092943,0.003113,-0.000257,-0.000507,0.145149,-0.001220,311.537405,24.254077,0.999762,0.995846,0.002845,0.395302,-0.000014,0.000001,-0.000037,0.000031,-0.000044,-50.477359,0.000045,
2446,3283,3.95639394614311,13.8849206567868,-0.00730175545851353,0.002870,-0.000038,-0.001062,0.136050,-0.004671,310.292141,26.378651,0.999748,0.992392,0.003400,0.374508,0.000026,-0.000012,0.000002,0.000026,-0.000012,2.762227,0.000026,
2146,2143,-2.3628984409176,-10.9652079620468,0.0141537685194635,0.002771,-0.000041,0.001879,0.121420,0.024190,329.298162,24.054877,0.999377,0.981706,0.005277,0.409497,-0.000014,-0.000004,0.000013,0.000005,-0.000023,55.658732,0.000024,
2431,3058,3.67581427812593,9.00068234679793,0.00380129405550633,0.002817,-0.000429,0.000947,0.125924,0.000753,314.042602,25.619901,0.999640,0.990328,0.003935,0.323204,-0.000025,0.000004,-0.000006,0.000006,-0.000026,-78.307397,0.000028,
2071,3148,-4.15273546993675,10.9226007759718,0.0335199414720364,0.003021,-0.000152,0.000170,0.138924,0.009600,313.546221,24.279104,0.999735,0.996044,0.002705,0.417380,-0.000020,0.000011,-0.000014,0.000017,-0.000025,-68.939712,0.000026,
2491,2233,5.15034186086037,-8.99492401197152,0.00511504180838074,0.002689,0.000002,0.001102,0.118821,0.028979,327.606488,22.535106,0.999180,0.980358,0.005612,0.369607,0.000023,-0.000024,0.000002,0.000024,-0.000024,2.613997,0.000028,
2056,2068,-4.31247594953551,-12.6062831004832,0.0164130393862933,0.003315,-0.000049,0.003026,0.143593,0.023556,330.960325,24.670787,0.998701,0.979217,0.005478,0.302928,-0.000001,-0.000070,0.000016,0.000002,-0.000073,12.577461,0.000083,
2116,2023,-2.99738389169887,-13.5941249210441,0.0130972950751698,0.003207,0.000372,-0.001816,0.152505,0.008085,331.367840,24.270732,0.999368,0.984821,0.005345,0.290260,-0.000005,-0.000062,0.000006,-0.000004,-0.000063,6.046042,0.000075,
2416,3103,3.34179407019493,9.97586995605944,0.014722926288357,0.002755,-0.000182,-0.001205,0.131139,0.000131,313.382081,25.693292,0.999811,0.994651,0.003221,0.338277,-0.000015,0.000002,0.000000,0.000002,-0.000015,-89.876104,0.000016,
2476,2083,4.85500781850882,-12.2875650903984,0.0217514548270969,0.002985,-0.000031,-0.000173,0.137089,0.002542,330.147309,21.992515,0.999429,0.979825,0.005448,0.361688,-0.000007,-0.000033,0.000048,0.000030,-0.000070,37.546385,0.000070,
2176,2098,-1.70138612129459,-11.9513040182367,0.0050942057193879,0.003164,0.000071,-0.000653,0.147069,0.008843,329.866618,23.804269,0.999421,0.983735,0.005125,0.432165,0.000004,0.000008,0.000019,0.000025,-0.000013,47.794946,0.000025,
2236,2338,-0.435304773390623,-6.6954469695016,-0.00128211710244841,0.002579,0.000106,0.003270,0.107835,0.024246,325.748529,23.928375,0.999089,0.986194,0.004744,0.340850,-0.000013,-0.000050,-0.000009,-0.000011,-0.000052,-12.198378,0.000067,
2281,2563,0.504009699792221,-1.78023220595207,-0.0235627625220332,0.002834,0.000013,-0.001700,0.135881,0.000117,321.873696,24.093512,0.999305,0.988293,0.004414,0.423973,-0.000010,-0.000009,-0.000008,-0.000002,-0.000017,-46.502177,0.000021,
2191,2293,-1.40783448503122,-7.68026062748326,0.00387934814892787,0.002496,-0.000058,0.002128,0.107895,0.031797,326.631931,24.030450,0.998862,0.982776,0.005221,0.361489,-0.000013,-0.000033,-0.000011,-0.000008,-0.000038,-23.574175,0.000049,
2161,2203,-2.04656067091088,-9.6494034075193,0.00284368897001741,0.002654,-0.000304,0.001766,0.116279,0.012163,328.178620,24.097716,0.998879,0.960884,0.006725,0.322847,-0.000005,0.000012,0.000004,0.000013,-0.000005,77.192515,0.000013,
2191,2143,-1.38101719546811,-10.9654618595982,0.0180071047042816,0.003190,0.000012,0.002455,0.138605,0.033959,329.195806,23.867774,0.999005,0.982553,0.005203,0.355653,-0.000009,-0.000010,0.000004,-0.000005,-0.000014,41.781244,0.000020,
2251,2653,-0.164723571417152,0.180957627349777,-0.01778723574688,0.003023,-0.000544,0.002961,0.129086,0.004436,320.502614,24.324997,0.999375,0.988740,0.004192,0.384207,-0.000013,-0.000004,-0.000008,0.000000,-0.000018,-60.766527,0.000020,
2071,3283,-4.17552318654329,13.847539544166,0.0187203849336015,0.002855,-0.000133,-0.000374,0.132886,-0.000081,311.208835,24.239482,0.999747,0.996136,0.002771,0.406298,-0.000019,0.000005,-0.000027,0.000023,-0.000037,-57.181648,0.000037,
2206,2248,-1.07321899428171,-8.66474826035393,0.000267529521977394,0.002883,-0.000383,0.002629,0.123813,0.006322,327.301019,23.905012,0.998947,0.982019,0.005327,0.343061,-0.000021,-0.000001,-0.000002,0.000000,-0.000021,-84.531931,0.000025,
2116,2083,-3.00690086667894,-12.2777334806065,0.010091922899278,0.003160,0.000730,-0.004159,0.157426,0.015691,330.385173,24.322506,0.998285,0.974584,0.006426,0.273734,-0.000020,-0.000009,0.000012,-0.000001,-0.000028,57.773974,0.000032,
2206,2413,-1.09986728467083,-5.05670741208969,0.012152063247413,0.003441,0.000592,0.001702,0.152850,0.056012,324.765760,24.223234,0.999620,0.991336,0.003951,0.279147,-0.000016,-0.000020,-0.000013,-0.000005,-0.000031,-40.950517,0.000040,
2221,2593,-0.807138403465881,-1.12749664174122,-0.0216313138940336,0.002962,-0.000169,0.001581,0.131041,0.022766,321.510904,24.233672,0.999159,0.986407,0.004511,0.433134,-0.000013,-0.000002,-0.000001,-0.000002,-0.000013,-87.024583,0.000016,
2266,2773,0.139818433327459,2.79568605050416,-0.0247672824172582,0.003168,-0.000371,0.002461,0.137457,0.003799,318.475890,24.547019,0.999241,0.987370,0.004278,0.359698,-0.000013,-0.000018,-0.000010,-0.000006,-0.000026,-37.831367,0.000034,
2401,2983,3.03822473130613,7.36882000948823,-0.0032326803877254,0.003210,0.000020,-0.002067,0.155138,0.005710,315.203300,25.237928,0.999707,0.992149,0.003651,0.384496,-0.000020,-0.000014,-0.000011,-0.000006,-0.000028,-52.438511,0.000036,
2086,3028,-3.80995113343695,8.32323151125405,0.0087663728599523,0.003022,-0.000207,0.001993,0.133552,0.001161,315.211756,24.364559,0.999564,0.992794,0.003358,0.403882,-0.000015,0.000002,-0.000003,0.000003,-0.000016,-80.607015,0.000017,
2086,2158,-3.67333909321357,-10.6347023081896,0.00675005068194423,0.002925,-0.000621,0.002658,0.126399,-0.002292,329.262609,24.449471,0.999087,0.983226,0.005135,0.323429,-0.000015,-0.000006,0.000001,-0.000005,-0.000015,83.533616,0.000021,
2086,3283,-3.85006190660986,13.8482882399878,0.0348481378648557,0.002649,-0.000376,0.003179,0.113022,-0.001716,311.244108,24.356608,0.999592,0.995065,0.002969,0.371694,-0.000028,0.000008,-0.000019,0.000016,-0.000036,-66.674220,0.000036,
2506,2248,5.47665065018704,-8.66923448482209,0.0230720624104492,0.003212,-0.000949,0.006753,0.120491,-0.018690,327.561835,22.487693,0.998989,0.980555,0.005536,0.360208,0.000033,-0.000014,-0.000004,0.000034,-0.000014,-4.484054,0.000034,
2056,2083,-4.3157745596177,-12.2765753246277,0.00765568666213312,0.002887,-0.000390,0.004424,0.119950,0.001989,330.623549,24.681473,0.999012,0.980578,0.005258,0.269229,-0.000004,-0.000037,0.000017,0.000003,-0.000044,22.959307,0.000050,
2026,3118,-5.12340461636666,10.270411017111,0.0257484389612728,0.003307,-0.000008,0.001881,0.147492,0.014637,314.243725,24.190284,0.999701,0.994600,0.003088,0.339144,-0.000023,0.000045,0.000008,0.000046,-0.000024,83.424964,0.000046,
2011,3298,-5.47556060194368,14.1660935386272,0.0340115677233825,0.003124,0.000257,-0.004399,0.156378,0.005150,311.478368,23.904533,0.999522,0.992473,0.003509,0.395721,-0.000033,0.000019,-0.000030,0.000033,-0.000047,-65.350100,0.000048,
2041,3148,-4.80252033197145,10.92041326696,0.0368507649768048,0.003175,0.000055,0.001334,0.142849,0.006396,313.750254,24.188258,0.999570,0.993718,0.003334,0.375694,-0.000029,0.000028,-0.000014,0.000031,-0.000032,-77.166435,0.000037,
2071,2128,-3.99482534416671,-11.2910802545577,0.0128692448582228,0.003200,0.000198,0.000917,0.144276,0.033555,329.888584,24.600381,0.999011,0.984085,0.005113,0.289471,-0.000005,-0.000019,0.000015,0.000005,-0.000029,31.693743,0.000031,
2341,2578,1.80855682377564,-1.4515888227717,-0.0171988914129315,0.003089,-0.000012,-0.001219,0.146114,0.019462,321.650876,24.058306,0.999076,0.985169,0.004616,0.427879,-0.000006,0.000002,0.000001,0.000002,-0.000006,84.641250,0.000006,
2236,2548,-0.473338329746692,-2.10805273770459,-0.0229214861662399,0.002639,-0.000385,0.002093,0.114356,-0.006225,322.178104,24.198316,0.999706,0.992150,0.003577,0.356281,-0.000010,0.000005,-0.000001,0.000005,-0.000010,-86.641308,0.000010,
2266,2518,0.18669663930481,-2.76386587988118,-0.00940966671157639,0.003066,-0.000079,-0.001050,0.144241,-0.002357,322.751471,24.031349,0.999616,0.991389,0.003866,0.425533,-0.000007,-0.000002,0.000000,-0.000002,-0.000007,-88.480856,0.000009,
2071,3163,-4.15493235400008,11.2483620544294,0.0349733711356635,0.003108,-0.000055,-0.000363,0.144464,0.003868,313.318582,24.352511,0.999716,0.995066,0.002943,0.333792,-0.000024,0.000026,-0.000019,0.000033,-0.000031,-71.285400,0.000037,
2146,3253,-2.54531774110938,13.2046750604161,0.0231445392740284,0.002965,-0.000327,0.000022,0.136647,-0.007221,311.383703,24.678418,0.999626,0.993543,0.003203,0.369607,-0.000024,-0.000003,-0.000029,0.000017,-0.000045,-55.296878,0.000045,
2386,2923,2.72219428933841,6.06424613137477,-0.0117910632659459,0.002893,-0.000380,0.003466,0.120390,-0.007283,316.065001,25.052448,0.999368,0.989482,0.004115,0.346202,-0.000025,-0.000023,-0.000010,-0.000014,-0.000034,-47.155825,0.000049,
2131,2368,-2.72676997109641,-6.04060343967456,-0.00677078415901633,0.003085,0.000293,-0.002375,0.148916,0.014457,325.588037,24.269534,0.999113,0.986252,0.004632,0.388610,-0.000009,-0.000028,-0.000015,-0.000001,-0.000037,-28.742286,0.000043,
2356,2608,2.12954678840279,-0.797064630134962,-0.0135804040124867,0.002917,-0.000311,0.001181,0.129722,0.020926,321.177809,24.118010,0.999249,0.986703,0.004507,0.429121,-0.000013,-0.000014,-0.000005,-0.000008,-0.000019,-40.523516,0.000028,
2041,2083,-4.64184907293788,-12.278392863078,0.0212671704738341,0.002712,-0.000384,0.002143,0.118390,0.004984,330.820394,24.729430,0.999328,0.986288,0.004556,0.315466,-0.000009,-0.000036,0.000031,0.000011,-0.000056,32.868261,0.000060,
2281,2788,0.463698850698293,3.12227461319884,-0.0177289123904529,0.002996,-0.000251,0.001553,0.132521,0.010361,318.263592,24.579061,0.999113,0.987064,0.004438,0.371054,-0.000014,-0.000016,-0.000001,-0.000013,-0.000016,-19.933073,0.000030,
2131,3223,-2.86439177363522,12.552615290284,0.0371147927322681,0.002889,0.000055,-0.002196,0.139960,0.008785,312.057929,24.572428,0.999614,0.994336,0.003106,0.403118,-0.000026,-0.000003,-0.000028,0.000016,-0.000045,-55.953396,0.000046,
2116,2038,-2.99976629579372,-13.2655330337786,0.0108178007270681,0.003288,0.000544,-0.002307,0.157727,0.020853,331.113880,24.201270,0.999178,0.982990,0.005383,0.379635,-0.000012,-0.000064,0.000006,-0.000011,-0.000064,6.399460,0.000082,
2491,2248,5.14704456690942,-8.66706650627147,0.00551206298814577,0.002640,-0.000326,0.003418,0.107621,0.008352,327.356375,22.542130,0.999142,0.981278,0.005398,0.402872,0.000021,-0.000022,-0.000002,0.000021,-0.000022,-2.414972,0.000025,
2056,3223,-4.48928536694486,12.5459165349063,0.0410828234704468,0.002968,-0.000056,-0.000286,0.137814,-0.004906,312.467162,24.206506,0.999524,0.993396,0.003220,0.377549,-0.000029,0.000003,-0.000049,0.000038,-0.000064,-54.316734,0.000065,
2476,2098,4.85198055806403,-11.9574264149008,0.0225026029795572,0.002917,0.000309,-0.000812,0.136562,0.017484,329.910394,22.121882,0.999413,0.977861,0.005645,0.306952,-0.000002,-0.000026,0.000041,0.000029,-0.000057,36.920572,0.000057,
2176,2278,-1.73116419734999,-8.00996027512662,0.011817786672907,0.003061,-0.000606,0.003702,0.128856,0.003901,327.008058,24.038764,0.998696,0.980223,0.005584,0.371833,-0.000010,-0.000037,-0.000019,0.000000,-0.000047,-26.752115,0.000054,
2416,3118,3.33915721302839,10.3013245461668,0.0166987107892851,0.003003,-0.000453,-0.000030,0.138142,-0.007350,313.159974,25.739512,0.999834,0.995071,0.003049,0.331183,-0.000009,0.000005,0.000003,0.000005,-0.000010,78.114723,0.000010,
2026,1993,-4.95441461053916,-14.2514614238757,0.0280749743265005,0.003235,0.000775,-0.002671,0.155925,0.027974,332.443753,24.898041,0.998842,0.981569,0.005474,0.298229,0.000015,-0.000088,0.000071,0.000051,-0.000124,27.047954,0.000125,
2371,2758,2.42654410750592,2.4747076999862,-0.0314831038934358,0.003108,0.000026,-0.000765,0.145553,0.003972,318.607667,24.580412,0.999193,0.986450,0.004249,0.349156,-0.000020,0.000005,-0.000015,0.000012,-0.000027,-65.274786,0.000027,
2026,3133,-5.12563319400025,10.5951581630057,0.027902140014703,0.003164,0.000028,-0.000051,0.146283,0.018521,314.015900,24.157010,0.999606,0.993781,0.003278,0.365488,-0.000027,0.000048,0.000002,0.000048,-0.000027,88.290272,0.000048,
2446,3298,3.95331293678007,14.2093027235628,-0.0113210337056557,0.003029,-0.000274,-0.002059,0.146981,-0.023613,310.023215,26.351105,0.999750,0.993122,0.003317,0.433635,0.000036,-0.000019,-0.000006,0.000036,-0.000020,-5.763699,0.000036,
2296,2608,0.82316119379248,-0.798080175308186,-0.0146312352478049,0.003090,0.000116,0.000499,0.140340,0.024377,321.204947,24.246212,0.999425,0.989725,0.004009,0.365600,-0.000015,-0.000009,-0.000006,-0.000005,-0.000019,-57.845124,0.000025,
2281,2578,0.502506400349116,-1.45426904539288,-0.0114605586600192,0.003075,-0.000089,-0.002692,0.150224,-0.009846,321.746227,24.126733,0.999221,0.986812,0.004609,0.408903,-0.000006,0.000003,-0.000001,0.000004,-0.000006,-81.948416,0.000006,
2206,2428,-1.10305834793509,-4.73202196853717,0.00615446809780451,0.003210,-0.000712,0.001665,0.141940,0.031143,324.464312,23.940570,0.999216,0.987616,0.004541,0.555278,-0.000015,-0.000030,-0.000010,-0.000010,-0.000035,-26.721773,0.000047,
2296,2848,0.779220834235115,4.4273732126936,-0.0158994315075915,0.003083,-0.000186,0.000770,0.139172,0.002712,317.291001,24.630238,0.999707,0.992588,0.003620,0.442980,-0.000013,-0.000023,0.000002,-0.000013,-0.000023,9.689569,0.000037,
2116,2098,-3.00874355619556,-11.9493695037988,0.0161824093053156,0.003431,0.000071,-0.001947,0.163127,-0.012812,330.200874,24.387518,0.998846,0.974777,0.006224,0.186424,-0.000019,-0.000006,0.000014,0.000003,-0.000028,57.142307,0.000031,
2176,2353,-1.74523883592511,-6.36703899125948,-0.0100731556652249,0.002772,0.000436,0.000951,0.124515,0.025579,325.610972,24.153122,0.998728,0.981122,0.005403,0.351428,-0.000018,-0.000059,-0.000029,-0.000003,-0.000074,-26.935264,0.000087,
2071,2143,-3.9965646759755,-10.9628375752583,0.014148923928019,0.003638,0.000286,0.000645,0.165220,0.062828,329.679305,24.558889,0.999079,0.983593,0.005162,0.359772,-0.000007,0.000003,0.000013,0.000012,-0.000015,56.164303,0.000016,
2191,2308,-1.41030018265554,-7.35306236683171,0.00432919720498148,0.002453,-0.000240,0.001165,0.108854,0.008120,326.395312,23.997542,0.998756,0.982714,0.005257,0.387209,-0.000014,-0.000047,-0.000017,-0.000007,-0.000055,-22.668347,0.000067,
2326,2518,1.49228722239711,-2.76096496078174,-0.0162346844528543,0.002553,-0.000222,0.001948,0.110397,-0.000342,322.600596,23.996106,0.999290,0.985944,0.004455,0.348637,-0.000004,-0.000010,0.000003,-0.000003,-0.000011,21.599287,0.000014,
2071,3298,-4.17794631984982,14.1724324647629,0.016896133541195,0.002931,-0.000170,-0.001009,0.138213,-0.006450,310.953222,24.249906,0.999531,0.994547,0.003093,0.384885,-0.000035,0.000024,-0.000025,0.000033,-0.000044,-69.594334,0.000046,
2101,1993,-3.31871414973597,-14.2535347864636,0.0338827464992733,0.002858,0.000697,-0.005009,0.145798,0.004667,332.081732,24.455893,0.999661,0.990020,0.004350,0.191694,0.000027,-0.000091,0.000013,0.000029,-0.000093,6.094078,0.000095,
2131,2128,-2.68757571703941,-11.2929030641186,0.0114529530933964,0.002932,-0.000310,0.002641,0.126528,0.009907,329.580587,24.180006,0.998783,0.981850,0.005326,0.344829,-0.000011,-0.000004,0.000017,0.000010,-0.000025,51.007878,0.000025,
2071,3178,-4.15728690125114,11.5728667771769,0.0355745490314803,0.003115,-0.000131,-0.000492,0.145145,-0.004781,313.079523,24.311740,0.999792,0.996245,0.002730,0.361372,-0.000021,0.000020,-0.000022,0.000030,-0.000030,-66.668665,0.000035,
2401,2998,3.03517141598243,7.69562182589445,-0.00766880820890492,0.003270,0.000066,-0.004151,0.165449,-0.006576,314.930852,25.339501,0.999564,0.989529,0.004064,0.315538,-0.000017,-0.000009,-0.000011,-0.000001,-0.000025,-55.359584,0.000029,
2131,2383,-2.72945290169699,-5.71349280501606,-0.00301869476112415,0.002819,-0.000351,0.001356,0.125341,0.002165,325.354108,24.273888,0.998957,0.985772,0.004713,0.379221,-0.000011,-0.000025,-0.000018,0.000002,-0.000037,-34.927550,0.000042,
2236,2353,-0.437539164083574,-6.36850315631266,0.00315964596904905,0.002822,-0.000631,0.005832,0.110414,-0.010629,325.546475,23.938580,0.998914,0.984674,0.004959,0.318700,-0.000018,-0.000053,-0.000012,-0.000014,-0.000057,-17.480680,0.000075,
2191,2158,-1.38270256907009,-10.6386848924193,0.0281193689108363,0.003175,-0.000079,0.000402,0.144297,0.005142,329.045146,23.851803,0.999236,0.984798,0.004939,0.359532,-0.000010,-0.000013,-0.000003,-0.000007,-0.000015,-32.971509,0.000023,
2341,2593,1.80531118219119,-1.12389925911987,-0.0168551780407142,0.002991,-0.000476,0.003432,0.125233,0.018668,321.389091,24.143384,0.999373,0.987312,0.004347,0.379436,-0.000007,-0.000010,-0.000002,-0.000006,-0.000011,-25.619664,0.000018,
2101,2218,-3.3560937942475,-9.32068660533159,0.00364939547813492,0.002874,-0.000100,0.002416,0.124849,0.027389,328.198479,24.392374,0.998504,0.982418,0.005361,0.345066,-0.000014,0.000028,0.000008,0.000030,-0.000015,79.339935,0.000030,
2026,2008,-4.958170341019,-13.9215943936855,0.0209737500322262,0.002660,-0.000459,0.006923,0.102902,0.044402,332.091895,24.872372,0.998627,0.982692,0.005489,0.335082,0.000036,-0.000039,0.000095,0.000100,-0.000103,34.254085,0.000118,
2506,2263,5.47293423816335,-8.33893361927706,0.014272945254163,0.003325,-0.000871,0.006180,0.127928,0.006134,327.252283,22.582965,0.998458,0.976339,0.005979,0.353405,0.000027,-0.000032,-0.000017,0.000031,-0.000036,-15.044390,0.000039,
2386,2938,2.71934224019852,6.39012351282455,-0.00872862096531435,0.002789,-0.000492,0.004626,0.111353,-0.019211,315.836749,25.103903,0.999368,0.989185,0.004120,0.325358,-0.000021,-0.000023,-0.000013,-0.000009,-0.000035,-43.548390,0.000047,
2206,2503,-1.11745270918874,-3.09138754163602,-0.0148725933353262,0.003004,0.000147,0.000267,0.137253,0.019753,323.070211,24.156284,0.999575,0.988277,0.004255,0.418841,-0.000010,0.000004,0.000002,0.000005,-0.000010,81.532506,0.000010,
2176,2293,-1.73388167924529,-7.68022975420065,0.00526473271315808,0.002869,0.000308,-0.002466,0.139425,0.025471,326.721512,24.115834,0.998864,0.982182,0.005296,0.330864,-0.000006,-0.000038,-0.000009,-0.000004,-0.000040,-15.204469,0.000049,
2056,2098,-4.31781307812404,-11.9491217856867,0.0111034853637193,0.002733,-0.000417,0.002166,0.119220,-0.008183,330.411557,24.615388,0.998946,0.980370,0.005375,0.322804,-0.000003,-0.000035,0.000018,0.000005,-0.000043,24.589410,0.000047,
2236,2563,-0.474641676398896,-1.78296512652171,-0.0120266973361254,0.003059,0.000043,0.000441,0.139155,0.012550,322.051471,24.107330,0.999655,0.992085,0.003581,0.487713,-0.000012,-0.000005,-0.000005,-0.000002,-0.000015,-61.342797,0.000018,
2311,2518,1.16625338472597,-2.76172751584586,-0.012918991839399,0.002815,0.000276,-0.001020,0.132809,0.009492,322.659099,24.005787,0.999437,0.987081,0.004278,0.377425,-0.000007,-0.000010,-0.000003,-0.000005,-0.000012,-29.389866,0.000018,
2086,1993,-3.64613474982326,-14.2527188555219,0.0273592003335921,0.003164,0.000577,-0.003120,0.154184,0.041552,332.107172,24.487297,0.999181,0.983546,0.005057,0.302653,0.000014,-0.000095,0.000018,0.000017,-0.000098,9.237967,0.000105,
2161,2218,-2.04862134511932,-9.3214520110665,0.00353304892951201,0.002795,-0.000314,-0.001365,0.132325,-0.022464,327.959299,24.115638,0.998840,0.978792,0.005544,0.282822,-0.000010,0.000014,0.000001,0.000014,-0.000010,87.671391,0.000015,
2146,2158,-2.36540797186973,-10.6347560904473,0.00974773796406225,0.002914,-0.000131,0.000700,0.131517,0.009988,329.029695,24.204202,0.999681,0.965547,0.006483,0.256657,-0.000013,-0.000007,0.000004,-0.000005,-0.000015,62.987987,0.000021,
2266,2533,0.183424300865788,-2.43664920208975,-0.0162290148807642,0.002939,-0.000251,-0.001366,0.139392,-0.026524,322.447006,24.011714,0.999732,0.995395,0.003180,0.447756,-0.000009,-0.000003,-0.000002,-0.000002,-0.000009,-75.749347,0.000012,
2251,2413,-0.121172414817654,-5.05726506146451,0.000323920305561387,0.002951,-0.000747,0.004000,0.122115,-0.007774,324.535513,23.941972,0.999187,0.988274,0.004382,0.365244,-0.000016,-0.000011,-0.000010,-0.000003,-0.000024,-52.147512,0.000030,
2041,2098,-4.64385081040882,-11.9500572057478,0.022989581629929,0.002640,-0.000126,-0.000762,0.123201,0.012105,330.599155,24.706310,0.999124,0.981657,0.005186,0.341208,-0.000010,-0.000036,0.000029,0.000009,-0.000055,32.793271,0.000059,
2416,3133,3.33597231216371,10.6256948362449,0.0170295562070919,0.002753,-0.000301,0.000202,0.125892,0.005214,312.905172,25.659340,0.999846,0.995301,0.002937,0.470820,-0.000005,0.000000,-0.000001,0.000000,-0.000005,-77.470948,0.000006,
2266,2788,0.137307010625698,3.12202259254713,-0.0236622619597142,0.003082,0.000047,-0.000067,0.142047,0.025846,318.245581,24.549610,0.999211,0.987652,0.004399,0.404767,-0.000014,-0.000020,-0.000006,-0.000010,-0.000024,-32.146448,0.000034,
2101,2008,-3.32099888996222,-13.9277128449606,0.0418032254657419,0.002817,-0.000291,0.002011,0.123197,-0.005313,331.886263,24.259766,0.999705,0.991048,0.004296,0.382605,0.000016,-0.000065,0.000023,0.000022,-0.000071,14.537020,0.000073,
2431,3073,3.67287142741346,9.32557635211445,0.00220924566303893,0.002849,-0.000330,-0.000551,0.132950,-0.013560,313.791162,25.587781,0.999652,0.991985,0.003660,0.390246,-0.000021,0.000008,-0.000005,0.000009,-0.000021,-81.104037,0.000022,
2491,2263,5.14436740017049,-8.33824422487985,0.0100910583282712,0.002667,-0.000258,0.003329,0.109234,0.023882,327.153145,22.648949,0.998748,0.979765,0.005374,0.372679,0.000014,-0.000034,-0.000012,0.000017,-0.000037,-13.080808,0.000037,
2086,2173,-3.67479053829819,-10.3068694827424,0.0108511254463224,0.003474,-0.000557,0.001903,0.153815,-0.011397,329.083286,24.449844,0.999075,0.983070,0.005057,0.315580,-0.000016,-0.000005,0.000003,-0.000004,-0.000017,73.761260,0.000022,
2476,2113,4.84777080019533,-11.6278733980848,0.0164944898617705,0.002503,-0.000132,0.001890,0.107253,0.012486,329.588788,22.149621,0.999290,0.975389,0.005999,0.334295,0.000000,-0.000034,0.000038,0.000025,-0.000059,33.089288,0.000059,
2221,2608,-0.809911954906486,-0.80024913898923,-0.0266886459618263,0.002985,0.000067,-0.000652,0.139371,0.017348,321.233813,24.239498,0.999009,0.983388,0.004867,0.441650,-0.000012,-0.000007,0.000001,-0.000007,-0.000013,80.272075,0.000020,
2026,3148,-5.12747379937038,10.9193399841151,0.0347917002321765,0.003279,0.000076,0.000554,0.149890,0.012228,313.832638,24.114115,0.999621,0.994552,0.003166,0.391174,-0.000029,0.000043,-0.000006,0.000044,-0.000030,-85.533566,0.000045,
2461,1993,4.54553570773371,-14.2639250841313,0.0297237550271348,0.002650,0.000195,-0.000574,0.123320,0.019158,331.613521,21.839672,0.998790,0.968597,0.006541,0.277278,-0.000082,-0.000040,0.000077,0.000019,-0.000142,52.609425,0.000154,
2086,2008,-3.64843665022294,-13.9249672907301,0.0338716140851716,0.003088,-0.000305,0.002420,0.134513,0.029616,331.901987,24.452905,0.999341,0.986455,0.004816,0.327762,0.000007,-0.000067,0.000030,0.000018,-0.000077,19.364722,0.000081,
2206,2443,-1.10818142462013,-4.40106596758515,-0.0176599072148633,0.002245,-0.000492,0.000686,0.100758,-0.003996,323.981231,24.081305,0.998720,0.983670,0.005182,0.398487,-0.000018,-0.000020,-0.000010,-0.000009,-0.000029,-41.956959,0.000039,
2296,2623,0.819892885919995,-0.471465876967478,-0.0187381180109583,0.002877,-0.000093,0.000763,0.129573,0.014846,320.916749,24.211980,0.999362,0.988445,0.004131,0.421061,-0.000014,-0.000002,-0.000008,0.000002,-0.000018,-63.962656,0.000020,
2506,2278,5.4694094644248,-8.0101149781621,0.0115331944584227,0.002994,-0.000486,0.004319,0.120122,0.006202,326.978659,22.635256,0.998759,0.976938,0.005664,0.364803,0.000028,-0.000049,-0.000013,0.000031,-0.000051,-9.508451,0.000051,
2116,2113,-3.01176999380642,-11.6225404717763,0.0200327539891418,0.002948,-0.000482,0.004913,0.120609,0.000217,329.950578,24.251689,0.999049,0.984606,0.005089,0.342097,-0.000015,-0.000008,0.000014,0.000002,-0.000026,52.455408,0.000029,
2281,2593,0.49899586247788,-1.12621174487017,-0.0132975755728353,0.002740,-0.000097,0.001825,0.119765,0.016893,321.456573,24.197930,0.999295,0.988187,0.004329,0.393231,-0.000009,-0.000004,-0.000005,-0.000001,-0.000012,-60.828158,0.000015,
2101,2233,-3.35764036612561,-8.99262594056479,0.00284871883206961,0.003465,0.000328,-0.001586,0.163817,0.037066,327.989443,24.364642,0.998672,0.983395,0.005169,0.386219,-0.000015,0.000032,0.000011,0.000034,-0.000017,77.200475,0.000034,
2131,3238,-2.86752125969798,12.877988804121,0.0295926428426583,0.002838,-0.000287,-0.001030,0.133947,-0.011023,311.743468,24.593156,0.999595,0.994301,0.003008,0.366785,-0.000026,-0.000009,-0.000030,0.000014,-0.000050,-52.850446,0.000051,
2056,3238,-4.4912001351409,12.870536729342,0.0466404930184012,0.003150,-0.000288,0.000436,0.144121,-0.010329,312.274730,24.215294,0.999594,0.994069,0.003140,0.356503,-0.000027,-0.000006,-0.000056,0.000040,-0.000073,-50.259327,0.000073,
2281,2803,0.460215184216256,3.44976300301162,-0.0239823173529885,0.002761,-0.000106,0.002534,0.118539,0.029070,317.952646,24.638493,0.999210,0.988159,0.004327,0.358213,-0.000015,-0.000025,0.000000,-0.000015,-0.000025,-2.428348,0.000041,
2071,3193,-4.15988606575749,11.8984281768404,0.0371546921784329,0.002979,0.000118,0.001925,0.132090,0.018036,312.834204,24.346457,0.999594,0.994526,0.003055,0.345062,-0.000022,0.000015,-0.000030,0.000032,-0.000039,-60.718649,0.000042,
2176,2368,-1.74739812653462,-6.03942919809015,-0.0100061925152204,0.003119,0.000125,0.001087,0.139899,0.015106,325.384948,24.161761,0.999100,0.986711,0.004658,0.346173,-0.000016,-0.000037,-0.000028,0.000003,-0.000056,-34.687492,0.000062,
2146,3268,-2.5480556915407,13.5296820414171,0.0219628014142472,0.002850,-0.000347,0.000171,0.130882,-0.015104,311.122390,24.698202,0.999635,0.994241,0.003127,0.348332,-0.000024,0.000008,-0.000023,0.000020,-0.000036,-62.032635,0.000036,
2191,2323,-1.41219117358921,-7.02489652087567,0.00125006574035069,0.003083,0.000147,-0.001944,0.147640,0.022018,326.166345,23.985528,0.999118,0.984872,0.004833,0.429567,-0.000010,-0.000058,-0.000021,-0.000002,-0.000066,-20.297400,0.000077,
2071,2158,-3.99960005882015,-10.6353313029236,0.0117092543194985,0.003008,-0.000253,0.000291,0.137140,0.018175,329.391097,24.489637,0.999270,0.983686,0.005052,0.384520,-0.000008,-0.000009,-0.000004,-0.000004,-0.000012,-42.160461,0.000017,
2461,2008,4.5428869686696,-13.9349008595711,0.0326253184040297,0.003044,-0.000283,0.002356,0.130171,0.002110,331.403159,21.890372,0.999046,0.972871,0.006124,0.267388,-0.000077,-0.000050,0.000070,0.000008,-0.000135,50.443115,0.000151,
2116,2293,-3.04195873000453,-7.67968147627425,-0.00184306845443416,0.002341,-0.000044,0.000184,0.106954,0.025888,326.859824,24.344008,0.998854,0.985811,0.004906,0.348874,-0.000001,-0.000013,0.000007,0.000003,-0.000016,24.755003,0.000017,
2356,2623,2.12620072699399,-0.469170264039469,-0.0170286230848546,0.002661,-0.000039,0.000930,0.118919,0.018456,320.894179,24.200542,0.999136,0.986917,0.004519,0.383525,-0.000015,-0.000011,-0.000010,-0.000003,-0.000023,-51.520880,0.000028,
2176,2308,-1.73688511967451,-7.35300596897213,0.00928078457405945,0.002305,-0.000004,0.000772,0.103418,0.025813,326.477564,24.096657,0.998896,0.982182,0.005233,0.364742,-0.000007,-0.000051,-0.000017,-0.000002,-0.000057,-18.913248,0.000066,
2131,2143,-2.69040020244695,-10.9642064420889,0.0100577580313939,0.002606,-0.000176,0.002849,0.110974,0.017030,329.312497,24.174688,0.998994,0.983100,0.005229,0.365907,-0.000013,0.000001,0.000016,0.000011,-0.000024,56.602838,0.000024,
2086,2023,-3.65207687972918,-13.5938183485669,0.0179810450481455,0.002684,-0.000082,0.001359,0.119131,0.015487,331.513956,24.481948,0.998957,0.983708,0.005305,0.288161,-0.000007,-0.000077,0.000017,-0.000003,-0.000081,12.880856,0.000096,
2161,2233,-2.05066533901294,-8.99409531639728,0.011954407177484,0.002791,-0.000123,0.000861,0.125391,0.004587,327.781135,24.102749,0.998917,0.979732,0.005339,0.335047,-0.000013,0.000009,-0.000001,0.000009,-0.000013,-88.702375,0.000014,
2026,2023,-4.95943158484262,-13.5928741002087,0.0191808783572469,0.003275,0.000420,0.000292,0.149571,0.032212,331.883606,24.836741,0.998671,0.982072,0.005579,0.352176,0.000018,-0.000061,0.000066,0.000056,-0.000099,29.603199,0.000099,
2206,2518,-1.12054528956486,-2.76457154839513,-0.0158617948429765,0.002686,-0.000254,0.002293,0.116093,0.009972,322.798406,24.132257,0.999474,0.987874,0.004324,0.450967,-0.000009,0.000004,0.000004,0.000005,-0.000010,73.564607,0.000010,
2041,3163,-4.80521034198042,11.2452294171228,0.0330766143280243,0.003077,-0.000298,0.001379,0.138096,-0.006615,313.469293,24.149647,0.999568,0.993416,0.003422,0.392662,-0.000038,0.000042,-0.000022,0.000048,-0.000044,-75.510343,0.000053,
2236,2368,-0.440221051661116,-6.03927826649796,-0.0037174979061092,0.003089,-0.000216,0.003647,0.129932,0.025136,325.265676,23.981559,0.999289,0.987279,0.004666,0.334545,-0.000021,-0.000038,-0.000014,-0.000013,-0.000046,-30.042888,0.000062,
2371,2773,2.42388984111817,2.80058449387219,-0.0259348948642355,0.002900,-0.000014,-0.000622,0.135499,0.009167,318.399970,24.589979,0.999495,0.989898,0.003866,0.385692,-0.000021,-0.000001,-0.000016,0.000008,-0.000030,-61.661634,0.000031,
2401,3013,3.0321264739762,8.02113653326369,-0.00671050326093336,0.003066,-0.000019,-0.004210,0.156260,-0.013239,314.684562,25.357854,0.999560,0.988732,0.004072,0.335131,-0.000018,-0.000003,-0.000011,0.000003,-0.000024,-61.670406,0.000026,
2386,2953,2.71678939635015,6.7156534899237,-0.0064834619270755,0.003008,-0.000781,0.005279,0.118977,-0.026617,315.618410,25.116868,0.999309,0.987965,0.004299,0.347800,-0.000019,-0.000024,-0.000012,-0.000009,-0.000034,-38.931165,0.000046,
2101,2023,-3.32418337256847,-13.5955555073429,0.0278932249063359,0.002891,-0.000116,0.002491,0.125255,0.003060,331.531267,24.380135,0.999371,0.986184,0.005035,0.276181,0.000000,-0.000072,0.000010,0.000001,-0.000073,7.422744,0.000084,
2506,2293,5.46637998676874,-7.68097553514038,0.00726319192597202,0.003030,-0.000233,-0.000633,0.141015,-0.015843,326.720927,22.729075,0.999155,0.978366,0.005482,0.312111,0.000023,-0.000045,0.000004,0.000023,-0.000046,3.526486,0.000046,
2131,2398,-2.73124996550629,-5.38707243806505,0.00942722834389542,0.002713,-0.000406,0.002740,0.116353,0.006934,325.207080,24.285549,0.998671,0.984995,0.004881,0.379322,-0.000013,-0.000033,-0.000020,0.000000,-0.000045,-31.885945,0.000052,
2146,2173,-2.36543251931676,-10.3111797264223,0.0415611195748511,0.003242,-0.000106,0.001554,0.143976,0.017536,329.067114,24.094175,0.999797,0.944325,0.008133,0.383559,-0.000010,-0.000001,0.000006,0.000002,-0.000013,63.779508,0.000014,
2236,2578,-0.477775386988259,-1.45449623130589,-0.0202413465614768,0.003192,-0.000195,0.001175,0.142802,0.005092,321.742950,24.189050,0.999412,0.989085,0.004110,0.420772,-0.000010,0.000006,-0.000002,0.000006,-0.000010,-81.963976,0.000010,
2266,2548,0.180616013070239,-2.10793492707495,-0.0157881937391267,0.002915,-0.000430,0.000410,0.132387,-0.007588,322.199741,24.156421,0.999606,0.992174,0.003697,0.348508,-0.000011,-0.000002,-0.000001,-0.000002,-0.000011,-85.520754,0.000014,
2221,2503,-0.79082935876443,-3.09080141805131,-0.0169540970603634,0.003254,0.000167,0.000051,0.149416,0.021518,323.026135,24.130262,0.999482,0.987437,0.004309,0.416069,-0.000011,0.000003,-0.000002,0.000003,-0.000011,-83.471295,0.000012,
2296,2863,0.776179795413444,4.75488432898155,-0.0184320414805939,0.002913,-0.000171,-0.000138,0.134449,0.007417,317.020025,24.752623,0.999676,0.992342,0.003601,0.355002,-0.000016,-0.000018,0.000002,-0.000015,-0.000019,33.519256,0.000034,
2131,3253,-2.87006852755696,13.2031472504596,0.0263670370082991,0.002932,-0.000090,-0.002248,0.142036,-0.008668,311.478849,24.600693,0.999661,0.994753,0.002939,0.365756,-0.000027,-0.000004,-0.000030,0.000017,-0.000047,-55.570542,0.000048,
2251,2668,-0.167721510669747,0.507841333716883,-0.0196407226798669,0.002684,-0.000269,0.001163,0.119535,0.010410,320.234057,24.333025,0.999520,0.990736,0.003892,0.406305,-0.000011,0.000000,-0.000012,0.000007,-0.000019,-58.226652,0.000019,
2041,2113,-4.64598204326004,-11.6217390634364,0.0205464625789205,0.002789,-0.000308,-0.002105,0.133717,0.005975,330.349112,24.654684,0.998842,0.980691,0.005555,0.382239,-0.000009,-0.000037,0.000027,0.000007,-0.000053,31.012808,0.000057,
2056,2113,-4.31983378159463,-11.6209241298444,0.0107976764348336,0.002907,-0.000337,0.001117,0.130186,0.000601,330.179578,24.562287,0.998986,0.982127,0.005349,0.382291,0.000000,-0.000034,0.000018,0.000008,-0.000042,23.625193,0.000045,
2026,2038,-4.96117050306754,-13.2651411555096,0.0222120194615059,0.003374,0.000575,-0.002169,0.160933,0.013905,331.680545,24.777272,0.998595,0.978812,0.005733,0.386914,0.000006,-0.000120,0.000047,0.000022,-0.000136,18.275363,0.000146,
2341,2608,1.8015417904491,-0.795911001390259,-0.0303704828676814,0.002978,-0.000564,0.002249,0.128762,0.015874,321.035956,24.143453,0.999415,0.985815,0.004568,0.414375,-0.000010,-0.000014,-0.000004,-0.000008,-0.000017,-32.664626,0.000025,
2086,2038,-3.65374044068523,-13.2656083409227,0.0212356756939016,0.003025,0.000168,0.000113,0.138434,0.020078,331.320115,24.446893,0.998997,0.983243,0.005287,0.330027,-0.000014,-0.000094,0.000015,-0.000011,-0.000097,10.139989,0.000119,
2056,3253,-4.49389915346337,13.1959805547915,0.0429634823504443,0.002921,-0.000188,-0.002059,0.140582,-0.017573,311.994893,24.253276,0.999724,0.995220,0.003000,0.304446,-0.000023,-0.000003,-0.000055,0.000043,-0.000069,-50.207692,0.000070,
2416,3148,3.33391386644069,10.9510403549401,0.0278983802674588,0.002900,-0.000448,0.001777,0.126732,-0.014943,312.751363,25.769536,0.999761,0.994154,0.003126,0.386830,-0.000002,-0.000003,0.000001,-0.000002,-0.000004,32.441263,0.000006,
2071,3208,-4.16193944505949,12.2223115920685,0.0386442031153251,0.002953,-0.000139,-0.002756,0.144174,-0.007528,312.614136,24.277782,0.999547,0.993775,0.003213,0.383715,-0.000021,0.000007,-0.000037,0.000032,-0.000046,-55.407224,0.000047,
2311,2533,1.1636561966413,-2.43462938692018,-0.0155914049427679,0.003035,0.000111,-0.002884,0.149225,0.005871,322.410226,23.992668,0.999468,0.987599,0.004254,0.420184,-0.000005,-0.000012,-0.000005,-0.000002,-0.000015,-29.384157,0.000019,
2086,2188,-3.67766860226937,-9.97799916766587,0.0112679196024033,0.002941,-0.000014,0.002854,0.126782,0.021124,328.818454,24.469566,0.998849,0.982721,0.005253,0.330199,-0.000013,0.000022,0.000011,0.000026,-0.000016,73.456011,0.000026,
2026,3163,-5.12991836622018,11.2443437548766,0.0368945474962743,0.003017,-0.000018,0.000090,0.139045,0.006261,313.594590,24.120788,0.999584,0.993868,0.003320,0.367554,-0.000039,0.000055,-0.000018,0.000059,-0.000043,-79.684787,0.000061,
2491,2278,5.14182304948621,-8.00905671003893,0.0112517243023262,0.002937,0.000134,0.001131,0.130145,0.028364,326.940603,22.770113,0.999034,0.981458,0.005185,0.316982,0.000011,-0.000046,-0.000008,0.000013,-0.000048,-7.582096,0.000049,
2116,2308,-3.04357546172226,-7.35248988999952,-3.47510523965866E-05,0.002964,0.000085,-0.000121,0.136526,0.019973,326.663095,24.305243,0.999011,0.985268,0.004974,0.387163,-0.000001,-0.000024,-0.000001,-0.000001,-0.000024,-2.605543,0.000028,
2281,2608,0.495509159976358,-0.797731316605834,-0.0214612916398096,0.002772,-0.000353,0.004660,0.111708,0.023718,321.136376,24.278405,0.999111,0.987851,0.004483,0.348200,-0.000013,-0.000009,-0.000003,-0.000007,-0.000014,-62.410605,0.000022,
2176,2383,-1.75001617076479,-5.71231815344937,-0.0110955062023095,0.003124,0.000153,0.001876,0.137728,0.028422,325.131887,24.095030,0.999132,0.988288,0.004513,0.440333,-0.000016,-0.000023,-0.000026,0.000007,-0.000046,-41.470057,0.000049,
2296,2638,0.817722941420477,-0.145284978338893,-0.014096329863321,0.003181,-0.000364,0.001908,0.139584,0.008491,320.722336,24.213844,0.999290,0.987600,0.004224,0.443240,-0.000019,-0.000005,-0.000008,-0.000002,-0.000022,-65.317483,0.000027,
2281,2818,0.458426641291485,3.77466758474402,-0.0149922741515525,0.002870,-0.000248,0.000380,0.130619,-0.008253,317.796467,24.637531,0.999334,0.989184,0.004016,0.349156,-0.000014,-0.000026,0.000001,-0.000014,-0.000027,6.078307,0.000042,
2401,3028,3.02918982759834,8.34627379102902,0.000233683945509711,0.002808,-0.000322,-0.000329,0.130218,-0.012855,314.471580,25.378090,0.999624,0.989208,0.004005,0.359901,-0.000018,0.000000,-0.000014,0.000007,-0.000025,-60.873019,0.000026,
2431,3088,3.67165547540636,9.65036045795408,0.0213609654770153,0.003057,-0.000317,-0.000527,0.142455,-0.007688,313.715814,25.661256,0.999688,0.992905,0.003497,0.371269,-0.000020,0.000006,-0.000003,0.000007,-0.000020,-83.519022,0.000021,
2266,2803,0.134543811663352,3.44898031065604,-0.0246525165107983,0.003217,0.000110,0.001781,0.142172,0.034755,317.993000,24.610587,0.999119,0.987450,0.004707,0.378330,-0.000015,-0.000027,-0.000004,-0.000014,-0.000028,-16.648031,0.000043,
2506,2308,5.46347956216509,-7.35322215037153,0.0106963599043297,0.002858,-0.000075,-0.001746,0.137510,-0.009335,326.503356,22.750254,0.999121,0.980228,0.005386,0.360552,0.000027,-0.000015,-0.000002,0.000027,-0.000015,-2.182726,0.000027,
2026,2053,-4.96398182200632,-12.9347676196556,0.0269643347670012,0.002736,-0.000205,0.002196,0.119438,0.014464,331.437580,24.963786,0.999712,0.992816,0.003589,0.194665,0.000004,-0.000105,0.000035,0.000014,-0.000115,16.587553,0.000126,
2101,2038,-3.3272233834327,-13.2662520054643,0.0159501657893202,0.002892,0.000232,0.001889,0.127178,0.042724,331.193684,24.239068,0.999453,0.985159,0.005195,0.462242,-0.000009,-0.000078,0.000008,-0.000008,-0.000079,6.329655,0.000097,
2056,3268,-4.49647454044846,13.5205859411094,0.0389494218886739,0.002999,-0.000140,-0.001919,0.143848,-0.010019,311.719208,24.201636,0.999718,0.995145,0.002932,0.356924,-0.000023,-0.000002,-0.000047,0.000035,-0.000060,-51.317570,0.000060,
2191,2338,-1.41395800243151,-6.69694222567385,0.0153846337474306,0.003219,-0.000290,0.003002,0.138287,0.016914,326.032393,24.148042,0.999662,0.989700,0.004263,0.277890,-0.000014,-0.000054,-0.000022,-0.000004,-0.000064,-24.182673,0.000076,
2236,2593,-0.48007956421274,-1.1280026610856,-0.0156578380238557,0.003188,-0.000225,0.001193,0.142595,0.016182,321.537974,24.187827,0.999353,0.986532,0.004567,0.454881,-0.000011,0.000002,-0.000004,0.000004,-0.000012,-73.536312,0.000013,
2476,2128,4.84533318148324,-11.2999929525923,0.0256863368181257,0.002706,-0.000756,0.005985,0.100773,0.006265,329.417149,22.196373,0.999135,0.973844,0.006145,0.340778,0.000006,-0.000038,0.000035,0.000026,-0.000057,29.008775,0.000058,
2086,3043,-3.81165232138263,8.64784663562761,0.0190819770205621,0.002986,-0.000151,0.000452,0.136374,0.002562,315.056506,24.354774,0.999647,0.992315,0.003444,0.413124,-0.000017,0.000002,-0.000005,0.000003,-0.000018,-76.801542,0.000019,
2326,2533,1.48960497025374,-2.43373945252141,-0.0206997891820606,0.002732,-0.000116,-0.001473,0.130478,0.006723,322.340296,23.968410,0.999392,0.985701,0.004482,0.418936,-0.000002,-0.000012,0.000000,-0.000002,-0.000012,0.766296,0.000015,
2146,3283,-2.55125784399401,13.8551299776497,0.0134396879470842,0.002821,-0.000335,0.001247,0.126285,-0.009997,310.800439,24.709663,0.999564,0.994109,0.003214,0.348136,-0.000025,0.000014,-0.000017,0.000020,-0.000031,-69.522853,0.000031,
2461,2023,4.53964696330882,-13.6043479935881,0.0267872280680308,0.003125,-0.000108,-0.000169,0.143398,0.003921,331.125682,21.967999,0.999280,0.978432,0.005560,0.249813,-0.000052,-0.000021,0.000048,0.000014,-0.000088,53.818412,0.000094,
2206,2458,-1.10934699317297,-4.07423047552339,-0.00735433908897676,0.002903,-0.000073,0.000386,0.132089,0.005866,323.855920,24.124536,0.999103,0.984914,0.004964,0.382567,-0.000019,-0.000017,-0.000008,-0.000010,-0.000026,-47.366621,0.000037,
2161,2248,-2.05337899053501,-8.66532032475792,0.00560532529391367,0.003065,-0.000355,0.002327,0.133408,0.012116,327.494652,24.091463,0.998937,0.978599,0.005304,0.366427,-0.000012,0.000001,-0.000003,0.000002,-0.000013,-78.327158,0.000014,
2191,2173,-1.38649705738407,-10.3085251810066,0.0114671911484265,0.002943,-0.000037,-0.001013,0.138100,0.004023,328.658802,23.837302,0.999228,0.967934,0.006131,0.391080,-0.000009,-0.000005,-0.000004,-0.000002,-0.000012,-58.838081,0.000015,
2041,3178,-4.80765973469633,11.5701165480414,0.0339750950126358,0.002894,0.000108,0.000714,0.131613,0.006846,313.225342,24.123280,0.999642,0.993843,0.003310,0.423703,-0.000039,0.000037,-0.000026,0.000045,-0.000047,-72.986805,0.000053,
2101,2248,-3.36049787255901,-8.66416689497767,-0.00382538996052517,0.003111,0.000676,-0.005792,0.159950,0.004544,327.688978,24.360659,0.998714,0.985409,0.005034,0.361285,-0.000016,0.000029,0.000008,0.000030,-0.000018,79.963931,0.000030,
2116,2128,-3.01482633957839,-11.2946071463404,0.0213608552062396,0.002252,-0.000991,0.006219,0.084669,-0.020378,329.685423,24.227553,0.998701,0.982665,0.005416,0.352328,-0.000017,-0.000002,0.000015,0.000007,-0.000026,57.692455,0.000027,
2086,2053,-3.65536727671088,-12.9368134758913,0.0273889890108308,0.003222,0.000122,-0.001267,0.151410,0.042607,331.143471,24.484534,0.998661,0.979221,0.005654,0.317004,-0.000017,-0.000070,0.000016,-0.000013,-0.000075,15.638010,0.000095,
2416,3163,3.33119697503026,11.2766788709222,0.0265160948680432,0.003056,-0.000301,-0.000552,0.142587,-0.002487,312.509548,25.803027,0.999727,0.993280,0.003274,0.412501,-0.000001,0.000004,0.000003,0.000005,-0.000002,65.625384,0.000005,
2116,2323,-3.0456728920208,-7.02407311673485,-0.00396372900968345,0.003410,-0.000129,-0.001652,0.161438,-0.002510,326.413481,24.342988,0.999253,0.986599,0.004644,0.332308,-0.000001,-0.000036,-0.000009,0.000001,-0.000038,-13.532957,0.000043,
2431,3103,3.66778643714218,9.97675235107333,0.0132043879212347,0.002730,-0.000300,-0.001663,0.131647,-0.009576,313.390544,25.720647,0.999761,0.993935,0.003336,0.359221,-0.000019,0.000005,0.000005,0.000006,-0.000020,78.790771,0.000020,
2101,2053,-3.32897159521687,-12.9369009091008,0.0260620505886209,0.002872,-0.000089,0.002454,0.124481,0.036173,331.033953,24.401144,0.998963,0.973144,0.006242,0.298055,-0.000015,-0.000057,0.000011,-0.000012,-0.000059,14.253580,0.000077,
2026,3178,-5.13202284298176,11.568744852496,0.0427461894814201,0.002959,-0.000102,0.001081,0.133597,0.001737,313.393396,24.096284,0.999660,0.993719,0.003225,0.376594,-0.000041,0.000050,-0.000024,0.000055,-0.000047,-76.268289,0.000060,
2131,2158,-2.69105841628072,-10.6372058585478,0.0265984717996162,0.002842,0.000076,-0.003502,0.140863,-0.022237,329.239230,24.257395,0.999723,0.991365,0.004120,0.251587,-0.000012,-0.000003,0.000007,0.000000,-0.000015,60.891985,0.000017,
2041,2128,-4.64787989820255,-11.2922614928381,0.0118799868063206,0.003536,-0.000130,-0.003773,0.172688,0.008143,330.075119,24.638865,0.998620,0.977787,0.006076,0.395886,-0.000016,-0.000025,0.000025,0.000005,-0.000046,39.952917,0.000050,
2491,2293,5.13859018379634,-7.68168435989227,0.0100411016081807,0.002959,-0.000374,0.001944,0.127836,-0.007176,326.686102,22.746493,0.999241,0.981984,0.005044,0.365910,0.000005,-0.000044,0.000005,0.000006,-0.000044,6.150744,0.000048,
2296,2878,0.773319609404403,5.08005943074441,-0.015714508422775,0.002753,-0.000422,0.002010,0.119711,0.002153,316.784044,24.713339,0.999661,0.991803,0.003662,0.418777,-0.000015,-0.000018,0.000004,-0.000012,-0.000020,34.604928,0.000033,
2281,2623,0.492906313140065,-0.47129371384289,-0.0223404513241121,0.002828,-0.000329,0.003153,0.119292,0.015814,320.893521,24.254015,0.999285,0.987437,0.004352,0.393224,-0.000012,-0.000003,-0.000005,-0.000001,-0.000014,-67.290496,0.000016,
2071,2173,-4.00175220410652,-10.3074429312107,0.016383183919686,0.003129,-0.000931,0.004824,0.129624,-0.013758,329.181876,24.523362,0.999106,0.984770,0.004966,0.318251,-0.000010,-0.000008,-0.000001,-0.000007,-0.000010,-62.316528,0.000018,
2266,2818,0.132377098920145,3.77457460145152,-0.0218608511359548,0.003249,0.000214,-0.002194,0.156791,0.007416,317.787246,24.615698,0.999350,0.989130,0.004221,0.371175,-0.000012,-0.000026,0.000001,-0.000012,-0.000026,2.555354,0.000039,
2146,3298,-2.55376790972419,14.1794934766862,0.0141329653521893,0.002821,-0.000259,0.001519,0.125460,-0.012055,310.559823,24.682559,0.999640,0.994960,0.002919,0.379387,-0.000024,0.000023,-0.000019,0.000030,-0.000031,-70.828851,0.000035,
2131,3268,-2.87337267676328,13.5284044432228,0.0195606012835015,0.002719,-0.000267,-0.000228,0.125988,-0.022573,311.160206,24.618060,0.999713,0.994980,0.002883,0.338486,-0.000027,0.000007,-0.000024,0.000019,-0.000039,-62.541079,0.000039,
2176,2323,-1.73968736660665,-7.02415147909023,-0.0058122013503521,0.002598,0.000478,-0.005468,0.136350,0.023735,326.142800,24.044004,0.998941,0.981620,0.005224,0.430256,-0.000003,-0.000060,-0.000022,0.000004,-0.000068,-18.734604,0.000076,
2401,3043,3.02717505172464,8.67148250661308,0.0114075321075688,0.002955,-0.000317,0.001258,0.131271,0.002410,314.320936,25.420777,0.999640,0.990678,0.003840,0.377128,-0.000020,0.000006,-0.000013,0.000012,-0.000026,-67.167084,0.000026,
2461,2038,4.53630761774248,-13.2748638457688,0.0256518474660083,0.002888,0.000276,-0.000499,0.133982,0.021436,330.864937,21.991713,0.999314,0.979996,0.005519,0.301695,-0.000041,-0.000032,0.000044,0.000007,-0.000080,48.258464,0.000089,
2341,2623,1.79911774544785,-0.469502655466869,-0.022207165363568,0.002819,-0.000344,0.003267,0.118008,0.020803,320.849946,24.182118,0.999375,0.987126,0.004384,0.417744,-0.000013,-0.000009,-0.000007,-0.000004,-0.000018,-51.833635,0.000023,
2386,2968,2.71362264045299,7.04214130369397,-0.0104466978755795,0.002972,-0.001113,0.004247,0.120972,-0.038458,315.341962,25.183451,0.999568,0.990521,0.003941,0.312075,-0.000021,-0.000017,-0.000013,-0.000006,-0.000032,-48.964050,0.000040,
2506,2323,5.4599148491004,-7.02525203196129,0.0107534718623015,0.002763,-0.000347,0.002488,0.116731,0.028601,326.240015,22.731071,0.998923,0.983512,0.005097,0.481201,0.000025,0.000004,-0.000005,0.000026,0.000003,-13.080955,0.000031,
2371,2788,2.42141316879572,3.12786177074314,-0.0185896935789742,0.002884,-0.000080,0.001381,0.127580,0.009381,318.208651,24.750837,0.999838,0.994404,0.003329,0.266157,-0.000019,-0.000005,-0.000014,0.000004,-0.000028,-58.216351,0.000031,
2056,3283,-4.49923665618119,13.8451920810596,0.0318907880902657,0.003130,-0.000225,-0.000968,0.147171,-0.013979,311.418110,24.149223,0.999754,0.995523,0.002823,0.398407,-0.000030,0.000003,-0.000035,0.000025,-0.000052,-57.796271,0.000052,
2056,2128,-4.32222141267466,-11.2905123035151,0.00373842137651081,0.003214,-0.000146,0.001186,0.144117,0.031941,329.893291,24.621003,0.998892,0.981679,0.005491,0.353011,-0.000007,-0.000026,0.000021,0.000006,-0.000039,32.320058,0.000042,
2206,2533,-1.12245286081757,-2.43705155838865,-0.00902346598638815,0.002832,-0.000093,0.001663,0.124866,0.019974,322.621016,24.227703,0.999563,0.988692,0.004155,0.383106,-0.000009,0.000003,0.000004,0.000004,-0.000010,73.444622,0.000011,
2131,2413,-2.73481481286068,-5.05717175343983,-0.0079596867066698,0.002804,-0.000397,0.004087,0.116519,0.036576,324.819463,24.311053,0.998971,0.986329,0.004792,0.391342,-0.000014,-0.000031,-0.000023,0.000002,-0.000047,-34.855046,0.000054,
2251,2428,-0.12370157593281,-4.72989787377632,-0.00661695574910937,0.003223,0.000192,-0.000601,0.149982,0.001018,324.263187,23.863606,0.998806,0.986323,0.004600,0.477394,-0.000014,-0.000019,-0.000011,-0.000005,-0.000028,-38.075862,0.000035,
2221,2623,-0.812590835463016,-0.473330493639679,-0.024554614077033,0.002989,-0.000336,0.002615,0.128963,0.019876,320.997951,24.273927,0.999169,0.984943,0.004755,0.429377,-0.000012,-0.000009,-0.000005,-0.000005,-0.000016,-52.503782,0.000022,
2236,2608,-0.482439555662719,-0.800818850658686,-0.0192819544645317,0.003520,0.000029,-0.001504,0.166653,0.004275,321.288541,24.206350,0.999231,0.985241,0.004686,0.446271,-0.000011,-0.000004,-0.000003,-0.000003,-0.000012,-68.926457,0.000016,
2176,2398,-1.75218652218269,-5.38496262836497,-0.00746797706227653,0.003135,-0.000088,0.000754,0.141666,0.027290,324.923938,24.115225,0.999077,0.985844,0.004776,0.432729,-0.000017,-0.000021,-0.000025,0.000006,-0.000043,-42.725521,0.000047,
2146,2188,-2.36828370230434,-9.98204320072627,0.0311936052538044,0.003292,0.000277,-0.001632,0.156065,0.006179,328.751770,24.067292,0.999353,0.954113,0.007137,0.410102,-0.000009,0.000010,0.000011,0.000015,-0.000013,66.032671,0.000016,
2056,3298,-4.50196790967823,14.1703836170825,0.0227744866623993,0.003261,-0.000161,-0.002607,0.157855,-0.024953,311.106797,24.151331,0.999598,0.993995,0.003098,0.378570,-0.000051,0.000023,-0.000030,0.000034,-0.000061,-70.213908,0.000062,
2416,3178,3.32820608111015,11.602285942706,0.026670676309891,0.003025,-0.000128,-0.000264,0.140132,-0.000586,312.262268,25.857402,0.999659,0.992315,0.003432,0.406405,0.000001,0.000005,0.000002,0.000005,0.000000,67.499308,0.000006,
2146,2203,-2.37353704518787,-9.65002772787152,0.00535339481757546,0.002574,-0.000853,0.004007,0.105723,-0.016083,328.244402,24.159267,0.998675,0.977677,0.005677,0.307678,-0.000010,0.000012,0.000007,0.000014,-0.000012,72.616926,0.000015,
2161,2263,-2.05689906672467,-8.33490356582811,-0.00500474564381648,0.002777,0.000095,0.003081,0.118079,0.040582,327.148492,24.172055,0.998763,0.979411,0.005563,0.327105,-0.000011,-0.000016,-0.000010,-0.000003,-0.000024,-38.317859,0.000030,
2506,2338,5.456658617862,-6.69548474924457,0.0120857122560096,0.002449,0.000034,0.001614,0.105884,0.030886,325.996372,22.929689,0.999175,0.985908,0.005087,0.347810,0.000024,-0.000008,-0.000006,0.000025,-0.000009,-9.995443,0.000025,
2266,3043,0.0937205591024686,8.66158430140413,0.008966022582797,0.002862,-0.000205,-0.001800,0.137681,-0.012252,314.357438,24.981454,0.999581,0.991547,0.003644,0.360882,-0.000020,-0.000007,-0.000017,0.000005,-0.000031,-55.323341,0.000034,
2206,2473,-1.11259730116473,-3.74612584715717,-0.0132531298548315,0.002632,0.000429,0.000499,0.119457,0.015740,323.551306,24.138377,0.999398,0.984064,0.005032,0.396846,-0.000015,-0.000011,0.000001,-0.000011,-0.000016,73.889352,0.000027,
2251,2683,-0.170007626278181,0.834292581000639,-0.02046187550377,0.002885,-0.000103,-0.002020,0.139211,-0.004191,320.003513,24.335139,0.999486,0.990556,0.003858,0.413250,-0.000012,0.000009,-0.000018,0.000019,-0.000022,-59.942166,0.000024,
2476,2143,4.84264730674289,-10.969187760487,0.0192951191132238,0.003338,-0.000056,0.002502,0.143170,0.027424,329.163284,22.319302,0.998694,0.975900,0.005770,0.298740,0.000015,-0.000031,0.000031,0.000031,-0.000047,26.944344,0.000047,
2326,2548,1.48675258066916,-2.10649532747888,-0.0171296719159386,0.002895,-0.000370,0.005144,0.115098,0.031354,322.111292,24.001667,0.999165,0.983774,0.004828,0.445757,-0.000003,-0.000012,-0.000002,-0.000002,-0.000012,-11.889544,0.000015,
2221,2518,-0.793468985005351,-2.76456286699612,-0.0110895241166418,0.002923,-0.000172,0.001880,0.128189,0.000695,322.811583,24.126433,0.999337,0.986691,0.004393,0.418973,-0.000009,0.000005,0.000000,0.000005,-0.000009,-87.943217,0.000009,
2161,2518,-2.1003612133421,-2.76324486748466,-0.0332095730900619,0.003031,0.000130,-0.000553,0.141050,0.008919,322.820291,24.274180,0.998824,0.985494,0.004956,0.393314,-0.000012,0.000010,-0.000001,0.000010,-0.000012,-86.376760,0.000013,
2356,2638,2.12403544295254,-0.142351969057465,-0.0137610399790447,0.002938,-0.000028,-0.000980,0.138351,0.009445,320.697292,24.252629,0.999275,0.987277,0.004442,0.361798,-0.000021,-0.000013,-0.000012,-0.000004,-0.000030,-54.135326,0.000037,
2026,3193,-5.13431114934612,11.893548389509,0.0448924647071181,0.002896,-0.000240,0.001306,0.130112,0.006744,313.162890,24.080642,0.999616,0.993270,0.003267,0.385974,-0.000045,0.000047,-0.000036,0.000059,-0.000057,-70.862628,0.000067,
2311,2548,1.16042989155062,-2.10728854878009,-0.015160498879311,0.003021,-0.000339,0.003607,0.126298,0.016399,322.147599,24.020501,0.999322,0.984343,0.004778,0.436098,-0.000007,-0.000009,-0.000006,-0.000003,-0.000014,-40.206802,0.000018,
2041,3193,-4.80957347366301,11.8954821185414,0.0395529315659928,0.002977,0.000039,0.000228,0.136865,0.016212,313.031847,24.176095,0.999600,0.993660,0.003305,0.371187,-0.000042,0.000032,-0.000038,0.000047,-0.000058,-67.185647,0.000062,
2386,2983,2.71141079944232,7.3677737050263,-0.00534100123815051,0.003123,-0.000590,0.002568,0.134187,-0.007771,315.152731,25.195503,0.999571,0.989789,0.004074,0.373361,-0.000019,-0.000013,-0.000011,-0.000005,-0.000027,-53.130165,0.000035,
2056,2143,-4.32403463597641,-10.9626141242936,0.00433562316021607,0.003304,0.000729,-0.003682,0.162195,0.042507,329.675813,24.559768,0.998952,0.982716,0.005425,0.422121,-0.000009,0.000001,0.000019,0.000016,-0.000023,52.229010,0.000024,
2491,2308,5.13556045006213,-7.35208318202832,0.00996781688758119,0.002888,0.000084,0.000212,0.131428,0.018228,326.445437,22.882525,0.998840,0.979729,0.005458,0.316396,0.000011,-0.000017,0.000001,0.000011,-0.000017,1.956869,0.000017,
2371,2803,2.41866640948225,3.45268754079818,-0.0152428409130039,0.002890,-0.000314,0.003325,0.120897,0.013617,317.986337,24.655010,0.999841,0.994818,0.003313,0.407042,-0.000017,-0.000015,-0.000013,-0.000003,-0.000030,-47.365053,0.000036,
2161,1993,-2.01049049197596,-14.2535812660546,0.0254917756661257,0.002698,0.000550,-0.001542,0.128487,0.032142,331.751770,24.056176,0.999109,0.981886,0.005294,0.198114,0.000024,-0.000064,0.000001,0.000024,-0.000064,0.441926,0.000064,
2461,2053,4.53408466393524,-12.9459222096588,0.029181771798676,0.003256,0.000526,-0.002365,0.157930,0.019406,330.676645,22.043059,0.999256,0.980592,0.005457,0.305808,-0.000034,-0.000039,0.000039,0.000003,-0.000076,43.187741,0.000086,
2086,2068,-3.65852598447684,-12.6066563554298,0.0125885415184257,0.003190,0.000477,-0.002945,0.154911,0.033910,330.783408,24.450116,0.998704,0.960456,0.007542,0.345887,-0.000018,-0.000055,0.000014,-0.000013,-0.000059,18.894768,0.000077,
2176,2338,-1.74279864532959,-6.69502118797643,-0.00948764301119809,0.002592,0.000076,-0.000294,0.119955,0.016959,325.853398,24.140874,0.999186,0.984948,0.004823,0.340987,-0.000008,-0.000057,-0.000024,0.000002,-0.000067,-22.179183,0.000077,
2236,2383,-0.442310000312833,-5.71257130391798,-0.00174523023378015,0.003195,0.000055,-0.000170,0.147231,0.011596,325.057648,23.934592,0.999332,0.987485,0.004648,0.390720,-0.000021,-0.000030,-0.000012,-0.000012,-0.000038,-35.062141,0.000053,
2251,2443,-0.126999815806162,-4.40048388766903,-0.00459644921431845,0.002807,-0.000573,0.004502,0.113934,-0.001404,324.000458,24.073712,0.999467,0.989340,0.004205,0.289675,-0.000017,-0.000012,-0.000011,-0.000004,-0.000025,-50.920504,0.000032,
2281,2833,0.455379905093441,4.10110684143112,-0.0187793992781735,0.002846,-0.000220,0.000768,0.128267,-0.000217,317.518131,24.639219,0.999508,0.991025,0.003840,0.383296,-0.000012,-0.000021,0.000002,-0.000011,-0.000022,11.623087,0.000034,
2296,2653,0.813843469373815,0.182512130777212,-0.0230353944865556,0.002700,-0.000481,0.001897,0.117503,-0.007858,320.381798,24.264348,0.999277,0.987843,0.004182,0.407232,-0.000017,-0.000003,-0.000006,0.000000,-0.000019,-68.867608,0.000023,
2101,2263,-3.36330243798863,-8.3375053745313,0.00537091659487032,0.002732,-0.000565,0.004635,0.111757,0.008634,327.476625,24.323834,0.998754,0.984042,0.005103,0.405808,-0.000013,0.000014,0.000008,0.000016,-0.000015,74.434348,0.000018,
2416,3193,3.32579746281333,11.9275727473628,0.0311599941037457,0.003206,-0.000269,-0.000269,0.148450,-0.003362,312.062208,25.916074,0.999613,0.991507,0.003502,0.391218,0.000002,0.000007,0.000002,0.000008,0.000001,68.299511,0.000010,
2071,1993,-3.97465285344721,-14.2522464889114,0.0266154883503873,0.002229,0.000067,0.003055,0.093524,0.050786,332.116316,24.581369,0.998813,0.979107,0.005626,0.323340,0.000025,-0.000102,0.000029,0.000031,-0.000108,12.309370,0.000112,
2191,2668,-1.47292989643468,0.506295472374276,-0.0218046457761716,0.002495,-0.000308,0.000563,0.112868,-0.005412,320.357719,24.414305,0.999762,0.994117,0.003263,0.334229,-0.000016,-0.000001,-0.000005,0.000000,-0.000017,-73.689491,0.000020,
2116,2338,-3.04893608853177,-6.69650261988498,-0.00760185631605736,0.003014,-0.000406,0.002214,0.131776,-0.006456,326.112207,24.293661,0.999280,0.986232,0.004692,0.383337,-0.000006,-0.000039,-0.000011,-0.000002,-0.000042,-17.385940,0.000050,
2086,2203,-3.68061199082733,-9.64936570290482,0.00857799188139552,0.002516,-0.000073,0.003398,0.105712,0.030882,328.533958,24.463108,0.998537,0.980792,0.005426,0.348321,-0.000011,0.000022,0.000007,0.000023,-0.000012,79.049023,0.000023,
2236,2623,-0.485441303667546,-0.473377421099826,-0.0158582051903409,0.003151,-0.000037,0.001953,0.138566,0.033781,321.045343,24.272586,0.999311,0.985408,0.004641,0.431357,-0.000010,-0.000005,-0.000009,0.000001,-0.000016,-52.149302,0.000018,
2146,2443,-2.41338306199651,-4.4023928527282,-0.010812615468808,0.002761,-0.000306,0.002713,0.118586,0.003075,324.253649,24.255953,0.999289,0.986770,0.004701,0.387700,-0.000018,-0.000028,-0.000018,-0.000004,-0.000042,-36.809725,0.000051,
2461,2068,4.53149821136855,-12.6182787544933,0.0381641367733323,0.003248,-0.000060,0.001120,0.144275,0.006530,330.496587,22.052410,0.999209,0.980782,0.005462,0.340984,-0.000027,-0.000036,0.000037,0.000006,-0.000069,41.642679,0.000077,
2296,2893,0.770755131811665,5.40634820076162,-0.0131285467902558,0.002699,-0.000332,0.001410,0.119335,0.003295,316.560633,24.772979,0.999641,0.991910,0.003556,0.389846,-0.000014,-0.000025,0.000003,-0.000013,-0.000026,16.230958,0.000040,
2266,3058,0.0909330578221734,8.98709907499074,0.0109652202172015,0.002802,-0.000312,0.000507,0.127247,-0.013974,314.118673,25.010491,0.999531,0.992095,0.003596,0.354383,-0.000019,-0.000015,-0.000015,-0.000002,-0.000032,-48.917895,0.000038,
2071,2188,-4.00439120603706,-9.97812250563894,0.0069560412117653,0.003195,-0.000001,0.002220,0.140375,0.015412,328.872960,24.483105,0.998937,0.984132,0.005218,0.387502,-0.000008,0.000023,0.000009,0.000025,-0.000010,75.326052,0.000025,
2116,2143,-3.01703457910278,-10.9645736362738,0.0142433466857597,0.002711,-0.000544,0.003684,0.113324,-0.005309,329.413286,24.273637,0.998094,0.977477,0.006191,0.327742,-0.000019,0.000007,0.000014,0.000013,-0.000026,66.061775,0.000026,
2176,2593,-1.78605962847714,-1.12906967592954,-0.0200868187490642,0.002748,-0.000348,0.000451,0.124808,-0.014814,321.648087,24.312357,0.999225,0.987482,0.004328,0.368579,-0.000021,-0.000003,0.000005,-0.000001,-0.000023,74.899008,0.000027,
2146,2218,-2.37545930463267,-9.32152006835479,0.00800345911585509,0.002574,0.000168,-0.000968,0.121098,0.003836,328.040169,24.193482,0.998712,0.978487,0.005560,0.303644,-0.000014,0.000013,0.000004,0.000014,-0.000014,82.252556,0.000016,
2401,3058,3.02423764913305,8.99767219997438,0.0125001633589363,0.003053,-0.000246,0.003740,0.126836,0.019578,314.079832,25.489052,0.999651,0.991949,0.003699,0.370506,-0.000019,0.000000,-0.000010,0.000004,-0.000023,-66.289199,0.000025,
2056,2158,-4.32671888418574,-10.6334096845303,0.00577071116435945,0.003072,0.000175,0.000917,0.138511,0.040539,329.422997,24.644416,0.999149,0.985325,0.004961,0.332966,-0.000013,-0.000014,0.000000,-0.000013,-0.000014,-9.424442,0.000028,
2356,2653,2.12074030372247,0.185092971116134,-0.0222799555747883,0.003007,0.000130,-0.002699,0.147707,0.019478,320.391528,24.248713,0.999417,0.986946,0.004520,0.415317,-0.000022,-0.000009,-0.000013,-0.000001,-0.000031,-57.985050,0.000036,
2266,2833,0.129042760062575,4.10114252892118,-0.0251311909767082,0.003010,-0.000058,0.000088,0.138228,0.017469,317.496998,24.631404,0.999372,0.989628,0.004024,0.391141,-0.000008,-0.000020,0.000002,-0.000008,-0.000021,9.280873,0.000029,
2416,3208,3.32271762225347,12.2529032620221,0.031616757496522,0.002988,-0.000196,-0.000893,0.140733,-0.007779,311.812204,25.960334,0.999522,0.990704,0.003777,0.389085,0.000003,0.000006,0.000003,0.000007,0.000001,58.003364,0.000009,
2101,2068,-3.33096870654015,-12.6090402577156,0.0272833554683416,0.003187,-0.000245,0.003556,0.135715,0.030272,330.815280,24.332456,0.999026,0.949685,0.008517,0.365129,-0.000017,-0.000042,0.000011,-0.000013,-0.000046,20.048248,0.000063,
2206,2548,-1.12545030199061,-2.10893129035816,-0.0176339336783826,0.002855,0.000080,-0.000477,0.132760,0.017311,322.313893,24.257764,0.999615,0.990262,0.003906,0.368154,-0.000011,-0.000001,0.000004,0.000000,-0.000012,68.949058,0.000014,
2281,2878,0.447442323676089,5.07886325783785,-0.0154323236779987,0.002900,-0.000357,0.001884,0.126998,-0.002241,316.812105,24.663819,0.999741,0.992841,0.003576,0.439223,-0.000012,-0.000016,0.000003,-0.000011,-0.000017,29.947692,0.000028,
2026,3208,-5.13641718458552,12.2182503077196,0.0465922415993418,0.002992,-0.000162,0.000658,0.136353,0.006155,312.938319,24.062095,0.999526,0.993173,0.003313,0.392877,-0.000044,0.000030,-0.000047,0.000053,-0.000067,-64.069700,0.000071,
2041,3208,-4.81184819128218,12.2197330711778,0.0408454435203112,0.002933,-0.000209,-0.000702,0.137307,-0.006283,312.798425,24.136228,0.999526,0.993362,0.003284,0.379619,-0.000041,0.000018,-0.000047,0.000044,-0.000066,-61.177415,0.000068,
2476,2158,4.83944664870701,-10.6404336449278,0.0182972427884351,0.003112,0.000354,0.000463,0.140731,0.014642,328.910429,22.352871,0.998563,0.973108,0.006228,0.311682,0.000016,-0.000042,0.000017,0.000021,-0.000047,15.250587,0.000047,
2131,2428,-2.73793120886519,-4.72806300613183,-0.0195819467501224,0.002786,0.000096,0.002756,0.119883,0.051046,324.483252,24.340915,0.999255,0.987488,0.004554,0.383461,-0.000014,-0.000041,-0.000013,-0.000009,-0.000046,-21.204329,0.000059,
2506,2353,5.45401223420233,-6.36726654151943,0.00996815906830761,0.002691,0.000576,-0.003153,0.135623,0.035820,325.765444,22.954858,0.999227,0.985473,0.005120,0.390339,0.000037,0.000008,0.000004,0.000037,0.000007,7.241931,0.000048,
2206,2743,-1.15967224982331,2.14008982800905,-0.0264137404579401,0.002904,-0.000252,0.001876,0.127600,0.001292,319.072422,24.470438,0.999510,0.990068,0.003973,0.363450,-0.000018,-0.000013,-0.000009,-0.000006,-0.000024,-53.242049,0.000032,
2101,2278,-3.3653469213285,-8.00929930404284,0.00270496077627058,0.002953,-0.000255,0.000648,0.133642,-0.001481,327.234858,24.325901,0.998739,0.983077,0.005157,0.396995,-0.000005,-0.000002,0.000005,0.000002,-0.000009,52.868126,0.000009,
2221,2533,-0.796099821421162,-2.43592891482982,-0.012480609165948,0.002996,-0.000021,0.001943,0.131459,0.025870,322.559556,24.235267,0.999582,0.989613,0.003958,0.355064,-0.000009,0.000005,0.000000,0.000005,-0.000009,-89.068713,0.000009,
2251,2698,-0.172506302793241,1.16085449184517,-0.0200597122068302,0.003191,-0.000252,0.000423,0.145202,-0.012552,319.769329,24.355910,0.999442,0.990889,0.003712,0.407839,-0.000012,0.000006,-0.000018,0.000017,-0.000023,-58.385954,0.000024,
2206,2488,-1.1155180408957,-3.41775171144678,-0.0197564539928408,0.002701,0.000018,0.000028,0.124006,0.010548,323.258630,24.192040,0.999365,0.985568,0.004732,0.356237,-0.000014,-0.000004,0.000000,-0.000004,-0.000014,88.917956,0.000019,
2221,2818,-0.846164715593453,3.77159239204612,-0.0147028621838672,0.002570,-0.000505,0.001688,0.112688,-0.016028,317.896748,24.582169,0.999604,0.990244,0.003923,0.333487,-0.000009,-0.000012,0.000005,-0.000005,-0.000017,37.263284,0.000023,
2071,2008,-3.97659767782894,-13.9219530619231,0.0170727786655789,0.002886,0.000224,-0.001108,0.135573,0.015807,331.838609,24.618628,0.999013,0.982495,0.005226,0.251938,0.000028,-0.000070,0.000043,0.000044,-0.000086,20.555602,0.000086,
2296,2668,0.811895898521037,0.509998291068015,-0.0210587281929406,0.003053,-0.000175,-0.002065,0.147212,-0.011532,320.183993,24.370025,0.999597,0.990044,0.003936,0.328162,-0.000015,0.000003,-0.000009,0.000007,-0.000019,-66.960571,0.000019,
2131,2173,-2.69467769621431,-10.3079351985685,0.00805026691580224,0.003046,-0.000100,-0.000208,0.140334,0.006279,328.843446,24.111229,0.999412,0.975724,0.005630,0.435724,-0.000009,0.000003,0.000009,0.000008,-0.000014,62.116445,0.000014,
2311,2563,1.15763140356576,-1.78044977899236,-0.0123043609636397,0.002752,-0.000666,0.003387,0.114544,-0.012652,321.916706,24.067805,0.999186,0.986103,0.004653,0.392673,-0.000012,-0.000011,-0.000007,-0.000004,-0.000019,-47.159387,0.000025,
2251,2458,-0.12936303443443,-4.0730346166318,-0.00840105650928535,0.003093,-0.000192,0.000805,0.139311,0.013071,323.751460,24.037484,0.999792,0.990809,0.004006,0.365159,-0.000018,-0.000012,-0.000006,-0.000009,-0.000021,-57.815490,0.000031,
2161,2278,-2.05819778787029,-8.00803946654059,0.00101055128908456,0.003424,-0.000119,0.001418,0.152777,0.020176,326.992080,24.151393,0.998231,0.977432,0.006040,0.339392,-0.000008,-0.000036,-0.000020,0.000002,-0.000046,-27.378165,0.000053,
2026,3223,-5.13899223266376,12.543528123888,0.047099258910805,0.002882,-0.000331,0.003144,0.124444,0.015044,312.685339,24.083918,0.999532,0.993440,0.003226,0.368862,-0.000042,0.000016,-0.000055,0.000049,-0.000075,-58.904257,0.000076,
2266,3073,0.0886419824229812,9.3119190313621,0.0220695688453816,0.002449,-0.000307,0.001009,0.109368,-0.003527,313.948810,25.025587,0.999414,0.991309,0.003789,0.374264,-0.000020,-0.000011,-0.000017,0.000002,-0.000033,-52.653318,0.000037,
2086,2083,-3.6632994559762,-12.2727566415237,-0.0248806442782552,0.003166,0.000922,-0.001856,0.150870,0.062510,330.225981,24.477697,0.998932,0.946353,0.008989,0.351021,-0.000018,-0.000025,0.000016,-0.000006,-0.000038,38.920521,0.000048,
2221,2638,-0.815564764998822,-0.146168673460082,-0.0377574880373572,0.003072,-0.000056,-0.004073,0.154291,-0.002523,320.669915,24.230259,0.999054,0.985788,0.004770,0.470212,-0.000012,-0.000010,-0.000006,-0.000005,-0.000017,-49.390853,0.000023,
2191,2683,-1.4743521866771,0.831712217813141,-0.0150518750169226,0.003102,-0.000252,-0.000241,0.143358,-0.001460,320.201610,24.364454,0.999641,0.992999,0.003493,0.402815,-0.000020,0.000006,-0.000010,0.000009,-0.000023,-71.510303,0.000024,
2416,3223,3.31936144012201,12.5782403575497,0.0297939195458525,0.002736,-0.000445,-0.000796,0.128642,-0.022954,311.538684,26.006669,0.999376,0.990350,0.003908,0.373988,0.000002,0.000002,0.000004,0.000006,-0.000002,44.493859,0.000006,
2476,2173,4.83628819067435,-10.3113611717234,0.0206872730718146,0.003042,-0.000031,0.003065,0.127546,0.028395,328.674581,22.430446,0.997816,0.966228,0.006933,0.307437,0.000013,-0.000027,0.000016,0.000019,-0.000033,19.825675,0.000033,
2161,2008,-2.01284998110897,-13.9252933775502,0.0242258599753313,0.002950,0.000358,-0.000132,0.135709,0.022540,331.508498,23.981452,0.999028,0.984378,0.005048,0.277066,0.000012,-0.000060,0.000017,0.000016,-0.000063,12.485728,0.000066,
2371,2818,2.41563045685105,3.77879525047049,-0.0209044878063196,0.003109,-0.000444,0.002636,0.133318,-0.011052,317.707298,24.641199,0.999853,0.995039,0.003327,0.437302,-0.000018,-0.000016,-0.000011,-0.000007,-0.000028,-47.855489,0.000037,
2116,2158,-3.019651383501,-10.635037913537,0.00519838371093329,0.002936,-0.000489,0.001934,0.128835,-0.001783,329.112305,24.271718,0.998915,0.983784,0.005213,0.339910,-0.000017,0.000000,0.000004,0.000001,-0.000018,77.495448,0.000020,
2431,3118,3.66439345064628,10.3033691173368,0.00480224936234208,0.003050,-0.000254,-0.000945,0.143747,-0.000837,313.085888,25.793682,0.999824,0.994961,0.003130,0.343701,-0.000013,0.000008,0.000008,0.000010,-0.000016,72.032171,0.000016,
2281,2848,0.452110707550784,4.42880450408092,-0.021757837468499,0.002724,-0.000075,0.003581,0.113345,0.021625,317.233191,24.753801,0.999594,0.992466,0.003787,0.318041,-0.000010,-0.000025,0.000002,-0.000010,-0.000025,8.022094,0.000036,
2326,2563,1.48415337405935,-1.7793023880478,-0.0150160615586969,0.002825,-0.000689,0.003825,0.116314,0.012390,321.886902,24.065153,0.998886,0.982969,0.005023,0.398682,-0.000007,-0.000013,-0.000004,-0.000005,-0.000014,-26.396850,0.000020,
2236,2653,-0.490517728122015,0.180529952841319,-0.00764023081092091,0.002940,-0.000271,0.004565,0.120279,0.012841,320.608833,24.419220,0.999447,0.988688,0.004291,0.306842,-0.000004,-0.000002,-0.000006,0.000002,-0.000009,-50.828687,0.000009,
2146,2233,-2.37773188409918,-8.99282168846131,0.00494870206335918,0.002881,0.000528,-0.001781,0.137766,0.032732,327.789702,24.182198,0.998906,0.979997,0.005319,0.354231,-0.000016,0.000012,0.000003,0.000012,-0.000016,84.809011,0.000017,
2101,2293,-3.36838224913114,-7.67965449277133,-0.00462656403800565,0.002513,0.000572,-0.002944,0.124192,0.032163,326.922164,24.374592,0.999051,0.986200,0.004839,0.385857,0.000004,-0.000003,0.000011,0.000012,-0.000011,36.237839,0.000013,
2191,2353,-1.4169909251178,-6.37005229940992,0.00689420981484545,0.003119,-0.000154,0.000583,0.141297,0.005267,325.723440,24.002007,0.999405,0.987057,0.004580,0.428948,-0.000021,-0.000056,-0.000027,-0.000006,-0.000070,-28.491159,0.000085,
2236,2398,-0.445537742323445,-5.38415980124486,-0.00882085373871178,0.003224,-0.000545,0.001755,0.142151,-0.011393,324.751155,23.971335,0.999425,0.989611,0.004227,0.353766,-0.000019,-0.000024,-0.000009,-0.000012,-0.000030,-36.803424,0.000044,
2356,2668,2.11782599470304,0.511631418681247,-0.0195977916417291,0.003058,-0.000109,0.001603,0.134810,0.021504,320.157347,24.268538,0.999554,0.989144,0.004168,0.436849,-0.000023,-0.000011,-0.000016,0.000001,-0.000034,-55.060910,0.000039,
2221,2833,-0.848409136406477,4.09752381510997,-0.0172463634913811,0.002897,-0.000277,-0.001463,0.137943,-0.006858,317.656747,24.544316,0.999399,0.990515,0.003883,0.399375,-0.000005,-0.000007,0.000009,0.000003,-0.000016,41.826423,0.000017,
2491,2323,5.13175593344021,-7.02371270290267,0.00834108573968706,0.003051,-0.000980,0.008967,0.104976,0.030866,326.162336,22.908572,0.998759,0.981431,0.005342,0.364076,0.000010,0.000000,0.000001,0.000010,0.000000,5.152347,0.000012,
2266,3088,0.0862184204007157,9.63775760680959,0.0189662945978171,0.002730,-0.000261,-0.002151,0.132810,-0.008755,313.700900,25.062265,0.999616,0.992029,0.003610,0.357216,-0.000021,-0.000015,-0.000021,0.000004,-0.000039,-49.246346,0.000043,
2071,2203,-4.00682705656751,-9.64982865881311,0.0090595260420514,0.002849,0.000186,0.001202,0.127459,0.022249,328.636516,24.498601,0.998595,0.981736,0.005374,0.378362,-0.000008,0.000023,0.000004,0.000024,-0.000008,82.639504,0.000024,
2416,3238,3.31570063837583,12.9044757718672,0.0202470845604807,0.002792,-0.000234,-0.000774,0.131326,-0.000920,311.214453,26.059137,0.999384,0.991131,0.003766,0.389762,0.000002,-0.000002,0.000004,0.000005,-0.000005,30.943388,0.000005,
2131,2188,-2.69621100635465,-9.97912569343669,0.0171730340482554,0.003185,0.000262,-0.002261,0.152983,0.013491,328.690235,24.243086,0.999204,0.983170,0.005098,0.319046,-0.000008,0.000017,0.000014,0.000024,-0.000014,65.676961,0.000024,
2476,2188,4.83344789855125,-9.98287869415639,0.0243648670957555,0.002879,-0.000203,0.002061,0.123791,0.030788,328.459174,22.483983,0.998329,0.968819,0.006798,0.315381,0.000028,-0.000022,0.000004,0.000028,-0.000022,4.039819,0.000030,
2056,2173,-4.32922078731414,-10.3059279157428,0.00783668378585389,0.003081,-0.000845,0.007195,0.120956,0.005920,329.182473,24.616311,0.999140,0.988192,0.004539,0.324061,-0.000015,-0.000014,0.000001,-0.000013,-0.000016,55.036914,0.000030,
2266,2848,0.12688181004571,4.4266541067258,-0.0183143903936411,0.003085,-0.000197,0.000616,0.139897,0.011627,317.311680,24.645934,0.999542,0.991949,0.003752,0.395838,-0.000007,-0.000024,0.000003,-0.000007,-0.000024,8.961831,0.000032,
2146,2458,-2.41620069497237,-4.07375620560318,-0.0162920287164638,0.002803,-0.000292,0.003296,0.118774,0.010600,323.965330,24.318499,0.999305,0.987353,0.004636,0.342369,-0.000021,-0.000024,-0.000024,0.000001,-0.000047,-43.094484,0.000053,
2221,2548,-0.798328609721626,-2.1094658902397,-0.00969972903999405,0.003050,0.000028,0.000304,0.139209,0.022656,322.347892,24.215463,0.999711,0.991527,0.003622,0.391705,-0.000010,0.000003,0.000001,0.000003,-0.000010,84.854374,0.000010,
2296,2908,0.768817320177753,5.73177381671612,-0.00584007063645231,0.002978,-0.000614,0.001535,0.131615,-0.014927,316.389609,24.810212,0.999605,0.992481,0.003492,0.363845,-0.000016,-0.000024,0.000000,-0.000016,-0.000024,-1.610443,0.000040,
2206,2563,-1.12827938832869,-1.78246368929351,-0.0129483164099611,0.002478,0.000016,0.002547,0.105858,0.037899,322.083347,24.236193,0.999623,0.990786,0.003826,0.427970,-0.000012,-0.000015,-0.000001,-0.000012,-0.000015,-11.250545,0.000027,
2236,2893,-0.532133828732704,5.40210110255476,-0.00164679378326582,0.002842,-0.000232,0.000899,0.127886,0.007708,316.764608,24.674856,0.999680,0.991891,0.003626,0.384553,-0.000011,-0.000012,0.000005,-0.000007,-0.000016,41.620380,0.000024,
2311,2578,1.1538613430431,-1.45094365583748,-0.0274170716713229,0.002585,-0.000163,-0.000543,0.120483,-0.010432,321.552174,24.176012,0.999490,0.990597,0.003929,0.320234,-0.000009,0.000002,0.000001,0.000002,-0.000009,82.924831,0.000009,
2386,2998,2.70894685839795,7.69315142054174,0.000894050771819366,0.002944,-0.000493,0.001025,0.131554,-0.013754,314.957338,25.231840,0.999582,0.990156,0.003952,0.373588,-0.000017,-0.000008,-0.000011,-0.000001,-0.000024,-57.012410,0.000029,
2296,2683,0.80900805332541,0.836424639607117,-0.021285752614574,0.003071,0.000009,0.000055,0.141023,0.024256,319.932221,24.325373,0.999710,0.989300,0.003937,0.439272,-0.000015,0.000015,-0.000012,0.000019,-0.000019,-70.773142,0.000022,
2236,2668,-0.492968944151652,0.50672310376622,-0.00608376770753694,0.002877,-0.000201,0.002745,0.123325,0.012954,320.381694,24.397050,0.999496,0.990286,0.003977,0.350644,-0.000003,0.000000,-0.000009,0.000007,-0.000011,-48.953938,0.000011,
2206,2758,-1.16178671743459,2.46603631905121,-0.0212297724007158,0.002997,-0.000209,0.001637,0.132690,0.015209,318.877163,24.467828,0.999452,0.990038,0.003975,0.396633,-0.000020,-0.000015,-0.000006,-0.000011,-0.000024,-57.975040,0.000035,
2161,2023,-2.01534545794851,-13.5963444049582,0.0229507317731077,0.003017,0.000204,0.000413,0.137063,0.029157,331.258781,23.956349,0.998957,0.983257,0.005119,0.322440,0.000005,-0.000052,0.000012,0.000007,-0.000054,11.331256,0.000059,
2401,3073,3.02121997639258,9.32331278277585,0.0118405362352405,0.002953,-0.000217,0.003015,0.124882,0.011848,313.826872,25.524216,0.999613,0.991478,0.003731,0.372285,-0.000016,0.000004,-0.000010,0.000008,-0.000020,-67.384781,0.000020,
2101,2083,-3.33495189812681,-12.2775106093013,0.000923977541049226,0.002908,0.000493,-0.001348,0.137468,0.031412,330.356880,24.292905,0.998845,0.956823,0.008043,0.411526,-0.000018,-0.000016,0.000013,-0.000004,-0.000030,47.880207,0.000037,
2251,2713,-0.175643018072559,1.48846343430298,-0.0269268881439757,0.003058,0.000064,-0.001661,0.146081,-0.004136,319.468735,24.401733,0.999459,0.991026,0.003729,0.394031,-0.000008,0.000000,-0.000017,0.000013,-0.000022,-51.546877,0.000022,
2116,2173,-3.02157580484569,-10.3067756900496,0.0108604651364885,0.002846,-0.000182,-0.000654,0.132438,0.014900,328.921789,24.302883,0.998926,0.984034,0.005168,0.331299,-0.000015,0.000003,0.000007,0.000006,-0.000017,70.763283,0.000018,
2341,2638,1.79684297270291,-0.143160954291488,-0.0188212330369311,0.002797,-0.000210,-0.000677,0.130721,-0.007863,320.647696,24.211277,0.999350,0.987371,0.004381,0.396969,-0.000019,-0.000012,-0.000009,-0.000006,-0.000025,-55.136979,0.000033,
2161,2293,-2.06053280293951,-7.68001372628564,-0.00536132861600436,0.003358,0.000688,-0.007806,0.178235,-0.006734,326.723030,24.123324,0.998658,0.981475,0.005416,0.352776,-0.000004,-0.000038,-0.000011,0.000000,-0.000041,-16.698631,0.000047,
2191,2428,-1.4300708570352,-4.72997174690871,-0.0079270022589526,0.003450,0.000201,-0.003216,0.168600,-0.000179,324.415638,24.086919,0.998876,0.985412,0.004954,0.419826,-0.000020,-0.000035,-0.000021,-0.000004,-0.000050,-35.447779,0.000060,
2461,2083,4.5272558121011,-12.2879163010723,0.0305230316452594,0.002679,-0.000240,0.001072,0.118389,-0.000429,330.164701,22.125007,0.999223,0.979156,0.005654,0.319475,-0.000021,-0.000022,0.000037,0.000015,-0.000058,44.536932,0.000061,
2116,2353,-3.05173852548242,-6.36697766894422,-0.015654113539199,0.002973,-0.000018,-0.000144,0.137017,-0.000085,325.807882,24.375006,0.999186,0.984264,0.004977,0.313958,-0.000010,-0.000043,-0.000014,-0.000005,-0.000048,-20.529072,0.000059,
2416,3253,3.31234973478294,13.2303991881746,0.0138772016405255,0.003041,-0.000286,0.000963,0.136440,0.003555,310.919445,26.123164,0.999240,0.989895,0.003951,0.376551,0.000002,-0.000001,0.000001,0.000002,-0.000002,20.993744,0.000002,
2071,2023,-3.97891160790101,-13.5928610961749,0.0119536287532469,0.003042,0.000498,-0.002854,0.147767,0.015187,331.568154,24.569186,0.998922,0.983612,0.005203,0.301390,0.000016,-0.000083,0.000027,0.000023,-0.000090,14.560211,0.000093,
2236,2638,-0.487932231497798,-0.146709981797983,-0.0172773290849477,0.003396,-0.000275,0.002048,0.149390,0.004341,320.801245,24.289784,0.999197,0.986541,0.004543,0.406434,-0.000009,-0.000007,-0.000010,0.000002,-0.000018,-47.958859,0.000020,
2506,2368,5.45106452422762,-6.03999157515686,0.00796192487609915,0.003187,0.000194,-0.001227,0.150752,0.032119,325.521240,22.908775,0.998777,0.979913,0.005767,0.495766,0.000042,0.000026,0.000017,0.000053,0.000016,32.240756,0.000071,
2086,2098,-3.66468232663773,-11.9452888628369,-0.0079602103788261,0.003117,0.000308,-0.000313,0.143999,0.022675,330.119363,24.592643,0.998900,0.965835,0.007034,0.197795,-0.000016,-0.000020,0.000018,0.000000,-0.000036,41.709980,0.000042,
2476,2203,4.83003896353832,-9.65389404690821,0.0180297490784938,0.003044,-0.000275,0.001858,0.132139,0.013388,328.172399,22.503119,0.998084,0.970166,0.006618,0.338402,0.000030,-0.000022,-0.000010,0.000031,-0.000024,-10.357852,0.000033,
2176,2608,-1.7886467648651,-0.800848981262021,-0.0262536186399984,0.003022,0.000237,-0.000711,0.141313,0.032804,321.369280,24.344065,0.999141,0.987820,0.004391,0.397714,-0.000020,-0.000009,0.000006,-0.000006,-0.000023,66.184442,0.000030,
2161,2533,-2.10224623003549,-2.4366838489832,-0.0242101716017373,0.003148,0.000009,0.001236,0.140980,0.021232,322.652626,24.299233,0.999123,0.986775,0.004511,0.391333,-0.000015,0.000007,-0.000001,0.000007,-0.000015,-88.598662,0.000015,
2356,2683,2.11447715855953,0.839542167565099,-0.0245527653835325,0.002956,-0.000246,0.001828,0.129292,0.016137,319.866079,24.363033,0.999603,0.989815,0.003936,0.376236,-0.000023,0.000005,-0.000017,0.000013,-0.000031,-64.536656,0.000032,
2191,2698,-1.47720212361699,1.15744955556729,-0.0171538756684981,0.002960,-0.000157,-0.000009,0.136125,-0.009553,319.933957,24.287487,0.999683,0.994157,0.003270,0.486480,-0.000018,0.000002,-0.000008,0.000005,-0.000021,-70.210806,0.000022,
2251,2473,-0.131806799482323,-3.74735938312951,0.000649413588973857,0.002770,-0.000507,0.002647,0.118390,0.006776,323.564108,23.983512,0.999713,0.990623,0.003952,0.437221,-0.000014,-0.000007,0.000001,-0.000007,-0.000015,81.814920,0.000022,
2176,2413,-1.75482232064833,-5.05719090578369,-0.0075693555609746,0.002824,0.000211,-0.001995,0.135977,0.029680,324.675102,24.139126,0.998888,0.983826,0.004991,0.425146,-0.000017,-0.000019,-0.000027,0.000009,-0.000045,-43.856644,0.000048,
2266,3103,0.0837960871570154,9.96356726277402,0.0171876918542466,0.003115,0.000006,-0.002566,0.152022,0.001551,313.459684,25.093535,0.999760,0.993483,0.003332,0.360754,-0.000021,-0.000015,-0.000021,0.000003,-0.000039,-49.273036,0.000044,
2131,2443,-2.7398179382239,-4.40274678656585,-0.0109881860913106,0.002842,0.000118,0.004174,0.118214,0.039947,324.311934,24.244771,0.999312,0.987761,0.004562,0.475253,-0.000017,-0.000033,-0.000014,-0.000009,-0.000042,-30.315585,0.000054,
2206,2578,-1.13048516386245,-1.4555163267414,-0.0153391843975896,0.002935,-0.000040,0.001502,0.130181,0.017688,321.844866,24.241443,0.999359,0.989231,0.004069,0.419936,-0.000013,-0.000008,0.000003,-0.000007,-0.000014,68.640735,0.000021,
2236,2683,-0.496054694399586,0.83382412324552,-0.0162040891568154,0.002966,-0.000081,0.000302,0.135382,0.005708,320.065737,24.373714,0.999480,0.988905,0.004064,0.388562,-0.000005,0.000006,-0.000015,0.000016,-0.000015,-55.707515,0.000018,
2401,3088,3.01867612410468,9.64878031684026,0.0172074079201252,0.002938,-0.000379,0.003394,0.122758,0.005623,313.624200,25.584279,0.999534,0.990890,0.003812,0.350418,-0.000016,0.000001,-0.000011,0.000006,-0.000022,-63.534682,0.000023,
2056,2188,-4.33110353947007,-9.97746493485089,0.00891043649562562,0.003202,0.000180,0.004289,0.135015,0.039875,328.964262,24.603792,0.999020,0.984808,0.004981,0.367668,-0.000014,0.000021,0.000014,0.000026,-0.000019,70.159417,0.000027,
2041,3223,-4.81436131311081,12.5445237793016,0.0422013777974826,0.002913,-0.000456,0.002708,0.126846,-0.005312,312.554212,24.126691,0.999504,0.993566,0.003191,0.381402,-0.000037,0.000007,-0.000052,0.000042,-0.000072,-56.593950,0.000072,
2416,3268,3.30846943915363,13.5557394868934,0.00445769516642258,0.002925,-0.000542,0.001708,0.128268,-0.003118,310.585814,26.132387,0.999594,0.991676,0.003596,0.406759,0.000001,-0.000005,0.000004,0.000003,-0.000007,25.928032,0.000007,
2071,2218,-4.00893717898593,-9.32086112525178,0.00886008071057631,0.002968,0.000314,-0.000004,0.136368,0.036910,328.402227,24.548725,0.998202,0.981015,0.005408,0.342213,-0.000010,0.000038,0.000009,0.000039,-0.000012,80.106137,0.000041,
2281,2893,0.444262865604976,5.40630860219154,-0.0193729051131868,0.002745,-0.000209,0.002024,0.119493,0.015083,316.526428,24.766081,0.999669,0.992126,0.003542,0.381557,-0.000013,-0.000022,0.000002,-0.000013,-0.000022,15.235626,0.000036,
2491,2338,5.12797504070323,-6.69425217640573,0.0058533142795909,0.002158,-0.000042,0.004044,0.083343,0.039208,325.876251,23.035546,0.998890,0.985597,0.005253,0.306377,0.000006,-0.000008,0.000000,0.000006,-0.000008,1.289231,0.000008,
2461,2098,4.52383889433284,-11.9573885070311,0.0253284906855811,0.002774,-0.000298,0.001486,0.121173,-0.007895,329.881676,22.246414,0.999582,0.980029,0.005448,0.248464,-0.000015,-0.000018,0.000032,0.000016,-0.000049,43.601576,0.000050,
2221,2563,-0.801582413442471,-1.78160937217122,-0.0198460726728058,0.003063,0.000074,-0.000304,0.141786,0.023273,322.022654,24.210291,0.999548,0.990743,0.003801,0.417585,-0.000012,-0.000009,-0.000003,-0.000007,-0.000014,-55.625375,0.000021,
2101,2308,-3.37026510334681,-7.35220514803486,-0.00496601598860025,0.002777,0.000571,-0.006496,0.146663,0.009497,326.700530,24.354586,0.998998,0.984145,0.005275,0.386426,0.000003,-0.000013,0.000004,0.000004,-0.000014,12.950938,0.000015,
2101,2098,-3.33591635277526,-11.9477733746609,0.0174676239759606,0.003167,0.000311,-0.002433,0.152460,-0.006822,330.267676,24.607269,0.999137,0.956670,0.008240,0.062697,-0.000017,-0.000012,0.000015,0.000000,-0.000030,49.674685,0.000034,
2476,2218,4.82679732369672,-9.3237116512462,0.0146882861124027,0.003021,0.000300,0.000274,0.137332,0.042063,327.906409,22.622986,0.999050,0.979342,0.005769,0.306389,0.000025,-0.000032,-0.000010,0.000027,-0.000034,-9.338340,0.000036,
2116,2188,-3.02422115351326,-9.9777321323207,0.00676861471453094,0.002947,0.000043,0.001084,0.132063,0.021132,328.646063,24.317669,0.998793,0.982054,0.005308,0.329218,-0.000012,0.000021,0.000014,0.000026,-0.000017,70.378836,0.000026,
2131,2203,-2.69999628147834,-9.650225584727,0.00688998042068079,0.002782,-0.000467,0.002426,0.120273,-0.001986,328.331035,24.207272,0.998626,0.979113,0.005532,0.348032,-0.000009,0.000016,0.000010,0.000020,-0.000013,70.838105,0.000020,
2221,2848,-0.85118040579486,4.424573577099,-0.024067457857825,0.003139,-0.000076,-0.002653,0.153045,0.010412,317.370226,24.573968,0.999276,0.990827,0.003804,0.405873,-0.000005,-0.000016,0.000009,0.000000,-0.000021,29.890687,0.000024,
2281,3118,0.405684481299151,10.2907900455499,0.00897514517669151,0.002948,-0.000396,0.001322,0.131205,-0.016747,313.101365,25.197949,0.999761,0.994597,0.003163,0.322524,-0.000023,-0.000013,-0.000019,0.000001,-0.000037,-52.277644,0.000042,
2296,2923,0.7663623538722,6.05639866865261,-0.00219364637382569,0.003010,-0.000520,0.001739,0.132400,-0.016180,316.176919,24.734176,0.999510,0.992613,0.003499,0.468015,-0.000016,-0.000020,-0.000004,-0.000013,-0.000023,-29.847770,0.000036,
2146,2248,-2.3800295757089,-8.66425915068714,0.00209508317726659,0.003180,0.000727,-0.002163,0.152720,0.038828,327.539272,24.188950,0.998941,0.980341,0.005322,0.363673,-0.000015,0.000009,0.000001,0.000009,-0.000015,88.330817,0.000015,
2086,2218,-3.68248342038887,-9.32073882370688,0.00616515012762875,0.002863,0.000362,-0.000552,0.133152,0.049871,328.299891,24.455149,0.998518,0.982322,0.005252,0.376877,-0.000012,0.000033,0.000009,0.000035,-0.000014,79.332769,0.000035,
2251,2728,-0.178519996843765,1.81501287454302,-0.0270739617283766,0.002886,-0.000134,-0.001195,0.136600,-0.006306,319.214327,24.420328,0.999363,0.990156,0.003882,0.397032,-0.000006,-0.000009,-0.000016,0.000008,-0.000024,-42.048591,0.000024,
2371,2833,2.41241491829127,4.1065451512861,-0.0246508805937538,0.002976,-0.000316,0.001543,0.131208,-0.002437,317.428611,24.764843,0.999701,0.990841,0.003837,0.363401,-0.000019,-0.000012,-0.000009,-0.000006,-0.000025,-55.437453,0.000033,
2296,2953,0.761187035992698,6.71073097801131,-0.00325511346716212,0.003300,0.000100,0.000148,0.151561,0.043773,315.696160,24.940184,0.999129,0.988035,0.004267,0.380814,-0.000016,-0.000011,-0.000008,-0.000006,-0.000022,-54.331710,0.000029,
2116,2368,-3.05310194673356,-6.0411807424021,-0.00631799971472446,0.003214,-0.000241,-0.002834,0.155925,-0.022475,325.663447,24.318866,0.999110,0.984660,0.004896,0.352431,-0.000008,-0.000026,-0.000013,-0.000001,-0.000033,-27.935614,0.000039,
2056,2203,-4.33393342757641,-9.64827088187404,0.00218490330439636,0.002838,0.000275,0.000907,0.127844,0.038146,328.660037,24.617238,0.998705,0.981003,0.005444,0.350068,-0.000014,0.000023,0.000011,0.000026,-0.000017,74.794878,0.000026,
2191,2443,-1.43355766129245,-4.40181265216944,-0.00859730528458158,0.002828,-0.000232,0.000860,0.127142,0.008069,324.125959,24.145463,0.998998,0.985386,0.004908,0.385374,-0.000024,-0.000027,-0.000022,-0.000003,-0.000047,-43.268183,0.000057,
2281,2863,0.449265684710447,4.75511205877947,-0.024372775135646,0.002653,-0.000135,0.001708,0.116365,0.020462,316.969938,24.770938,0.999685,0.992838,0.003613,0.327298,-0.000014,-0.000019,0.000001,-0.000014,-0.000019,15.818631,0.000033,
2356,2698,2.1118398869931,1.1648790770097,-0.01892471929051,0.002897,-0.000567,0.004119,0.118422,0.009732,319.659003,24.313961,0.999549,0.990800,0.003818,0.458174,-0.000025,0.000007,-0.000018,0.000015,-0.000033,-66.224301,0.000033,
2491,2353,5.12587206923257,-6.36732661382143,0.00766279140520965,0.002680,0.000341,0.000478,0.121056,0.044714,325.686730,22.980466,0.998875,0.985985,0.005289,0.427665,0.000014,0.000002,0.000012,0.000022,-0.000005,32.165070,0.000023,
2266,2863,0.12521932739924,4.75160527130446,-0.00481496533882364,0.003080,-0.000148,-0.000164,0.142241,0.009648,317.183015,24.657886,0.999729,0.993702,0.003487,0.406870,-0.000010,-0.000016,0.000001,-0.000010,-0.000017,12.492024,0.000027,
2401,3103,3.01632035359986,9.97391762559257,0.0201217798821176,0.002960,-0.000102,-0.000552,0.138226,0.009938,313.418635,25.591141,0.999584,0.992409,0.003519,0.392496,-0.000014,0.000002,-0.000004,0.000003,-0.000015,-76.508160,0.000016,
2326,2578,1.4815275571513,-1.45189398983933,-0.0166818895800134,0.002850,-0.000299,0.000380,0.129476,0.004216,321.642718,24.109066,0.999274,0.987444,0.004338,0.381791,-0.000004,0.000000,0.000005,0.000003,-0.000007,55.641203,0.000007,
2236,2908,-0.534872277864832,5.72872257653146,-0.00537695732430166,0.002929,-0.000307,-0.000352,0.135943,0.012208,316.496759,24.718428,0.999667,0.992531,0.003568,0.366272,-0.000011,-0.000016,0.000002,-0.000011,-0.000017,20.512752,0.000027,
2101,2113,-3.33790672884752,-11.6228404913079,0.0273526175668621,0.003032,0.000022,0.000359,0.138038,0.001009,330.096370,24.368904,0.998984,0.977800,0.005896,0.312879,-0.000013,-0.000013,0.000015,0.000002,-0.000028,45.213314,0.000031,
2191,2713,-1.48090392061762,1.4864644680261,-0.0312888438461414,0.002848,-0.000410,0.000801,0.128404,-0.006295,319.563732,24.407414,0.999291,0.989881,0.003984,0.384822,-0.000016,-0.000004,-0.000007,0.000000,-0.000019,-64.707333,0.000022,
2236,2698,-0.4990743839213,1.16088196606997,-0.0204805653236235,0.003047,-0.000260,0.002608,0.131564,0.003666,319.782529,24.394992,0.999456,0.990837,0.003740,0.386797,-0.000005,0.000002,-0.000014,0.000013,-0.000016,-51.680982,0.000017,
2296,2698,0.805527611650579,1.16335375627297,-0.0236970389801172,0.002691,-0.000398,0.002518,0.115061,0.011165,319.642379,24.362494,0.999766,0.991962,0.003633,0.419115,-0.000019,0.000011,-0.000011,0.000015,-0.000023,-72.282135,0.000023,
2431,3133,3.66163236933499,10.6281565085652,0.0117998468641076,0.002780,-0.000165,0.000138,0.127384,0.010686,312.882573,25.794967,0.999728,0.992853,0.003394,0.402768,-0.000009,0.000002,0.000002,0.000002,-0.000009,80.218728,0.000009,
2476,2233,4.82385907598855,-8.99582489782345,0.0150895287133608,0.002929,0.000480,-0.001856,0.141257,0.045759,327.671510,22.602358,0.999326,0.981255,0.005454,0.389769,0.000029,-0.000031,-0.000006,0.000030,-0.000032,-5.575913,0.000036,
2101,2323,-3.37112597112947,-7.02518281366918,0.00474175297404145,0.003860,0.000287,-0.003198,0.186739,0.011191,326.579767,24.375778,0.999162,0.986565,0.004780,0.369496,0.000001,-0.000029,-0.000005,0.000002,-0.000030,-9.375722,0.000033,
2296,3193,0.719253057460666,11.9173921597538,0.0273750761373321,0.003060,-0.000404,-0.001496,0.145890,-0.021162,312.023610,25.382387,0.999673,0.993033,0.003367,0.337580,-0.000017,-0.000007,-0.000011,0.000000,-0.000024,-57.961791,0.000028,
2041,3238,-4.81664916414912,12.8691344237816,0.0417199118937788,0.002963,-0.000627,0.001679,0.131936,-0.020622,312.310209,24.109917,0.999571,0.994714,0.002990,0.373903,-0.000032,-0.000004,-0.000062,0.000046,-0.000081,-51.365177,0.000081,
2191,2368,-1.42000277843931,-6.04080613445665,-0.00107535688761118,0.003103,0.000163,-0.000634,0.144511,0.018724,325.417548,24.057619,0.999533,0.988011,0.004465,0.403297,-0.000019,-0.000038,-0.000027,0.000000,-0.000057,-35.463037,0.000066,
2071,2233,-4.01134190015289,-8.99203660000996,0.00440868460071897,0.003106,0.000291,-0.000404,0.143896,0.024990,328.131446,24.573731,0.998770,0.984587,0.004924,0.304768,-0.000013,0.000044,0.000011,0.000046,-0.000015,79.609398,0.000047,
2311,2593,1.1519361818363,-1.12507861377716,-0.0167940567549749,0.002796,0.000003,0.001834,0.122180,0.019442,321.399481,24.152320,0.999591,0.991061,0.003783,0.406479,-0.000011,-0.000008,-0.000002,-0.000008,-0.000012,-66.138535,0.000020,
2071,2038,-3.98081856946054,-13.264447226377,0.0181702784826143,0.003086,0.000763,-0.001609,0.146323,0.043263,331.377988,24.562697,0.998919,0.984882,0.004996,0.335906,0.000009,-0.000107,0.000023,0.000013,-0.000112,10.604042,0.000122,
2176,2623,-1.79121624278039,-0.474790329839166,-0.0251784104964941,0.002943,-0.000296,-0.000075,0.135489,-0.003907,321.129933,24.328908,0.999299,0.988050,0.004360,0.389038,-0.000017,-0.000016,0.000000,-0.000016,-0.000017,82.479874,0.000033,
2266,3118,0.0815681936071648,10.2882839002524,0.0258542915432258,0.003144,-0.000122,-0.000132,0.145255,0.001410,313.280417,25.103640,0.999674,0.993498,0.003373,0.374831,-0.000023,-0.000016,-0.000021,0.000001,-0.000040,-50.346437,0.000046,
2161,2308,-2.06317428022087,-7.35133962940284,0.0016775261475459,0.003130,0.000397,-0.001676,0.148944,0.016129,326.510031,24.244771,0.999024,0.982210,0.005157,0.266361,-0.000005,-0.000048,-0.000020,0.000003,-0.000056,-21.571076,0.000063,
2341,2653,1.79298489653945,0.184886856857396,-0.0276626174482431,0.002586,-0.000298,0.001340,0.114037,0.014040,320.312874,24.248396,0.999481,0.988863,0.004196,0.419158,-0.000019,-0.000009,-0.000009,-0.000004,-0.000025,-59.224232,0.000031,
2311,3283,1.02621400129659,13.8710872127919,0.00399866307935781,0.002888,-0.000042,-0.001193,0.137183,-0.003784,310.327279,25.618596,0.999654,0.993953,0.002963,0.374797,-0.000006,0.000012,-0.000016,0.000021,-0.000016,-59.538889,0.000022,
2221,2653,-0.817839665163685,0.180328196851619,-0.0295360136080944,0.003126,0.000040,0.000252,0.142953,0.012610,320.483809,24.274185,0.999314,0.988372,0.004367,0.460641,-0.000008,-0.000003,-0.000002,-0.000003,-0.000009,-72.940245,0.000012,
2296,2968,0.758381698356818,7.03633102064631,-0.00582018275986229,0.003243,-0.000009,-0.002422,0.157547,0.017415,315.436152,24.947661,0.999428,0.990934,0.003708,0.376329,-0.000018,-0.000002,-0.000009,0.000002,-0.000023,-65.294993,0.000025,
2281,2908,0.441713308880129,5.7321118069642,-0.0177345596669056,0.002854,-0.000372,0.002805,0.121826,0.005550,316.298058,24.789012,0.999705,0.993092,0.003279,0.376489,-0.000016,-0.000022,-0.000002,-0.000015,-0.000023,-14.017517,0.000038,
2176,2428,-1.75710261086762,-4.72876586074624,-0.0124952745219389,0.003358,0.000249,-0.002420,0.161821,0.020053,324.417236,24.194213,0.999076,0.985475,0.004806,0.374352,-0.000017,-0.000029,-0.000021,-0.000002,-0.000044,-37.283107,0.000052,
2416,3283,3.3049137200771,13.8819335358243,-0.00528864865771084,0.002896,-0.000409,-0.000863,0.136411,-0.004540,310.265215,26.218406,0.999748,0.991679,0.003561,0.365512,0.000007,-0.000004,0.000000,0.000007,-0.000004,-0.670425,0.000007,
2131,2218,-2.70253148657018,-9.32103003278256,0.00320581981407031,0.002634,0.000337,-0.001485,0.125433,0.007298,328.063856,24.248760,0.998429,0.977482,0.005700,0.324142,-0.000013,0.000017,0.000007,0.000019,-0.000014,77.710443,0.000020,
2386,3013,2.70698356401833,8.01888873352142,0.00565607248614697,0.003221,-0.000125,-0.002580,0.157391,-0.011803,314.777813,25.286644,0.999623,0.990347,0.003861,0.363272,-0.000018,-0.000004,-0.000011,0.000002,-0.000025,-61.076117,0.000027,
2311,2803,1.11307786113989,3.44991195580189,-0.0206925514814316,0.002880,-0.000485,0.001213,0.128148,0.003815,317.958881,24.592008,0.999451,0.991727,0.003785,0.406299,-0.000017,-0.000023,0.000001,-0.000017,-0.000023,12.036110,0.000041,
2296,2938,0.763539251086861,6.38428135548353,-0.00404841867322148,0.002974,-0.000157,0.000321,0.135800,0.021464,315.918942,24.883993,0.999289,0.990086,0.003955,0.385212,-0.000014,-0.000016,-0.000006,-0.000009,-0.000021,-41.307249,0.000031,
2311,3043,1.07154235270251,8.66480221517337,0.0120385390198408,0.003169,-0.000397,-0.000010,0.145776,-0.011121,314.335141,25.142111,0.999608,0.991553,0.003621,0.348322,-0.000019,0.000002,-0.000012,0.000008,-0.000024,-65.117907,0.000025,
2101,2338,-3.3742337010392,-6.6977883490238,0.00282492288363301,0.003507,-0.000401,0.001120,0.157723,-0.007151,326.293642,24.340709,0.999249,0.987791,0.004550,0.389692,-0.000005,-0.000033,-0.000007,-0.000004,-0.000035,-12.466133,0.000042,
2041,3253,-4.81889945864344,13.1938006553383,0.0411585587180525,0.003067,-0.000401,0.000823,0.139178,-0.022264,312.067479,24.088002,0.999622,0.994224,0.003027,0.385249,-0.000024,-0.000003,-0.000061,0.000048,-0.000075,-49.855345,0.000076,
2266,2878,0.122333543423682,5.07732592258092,-0.00631044283619531,0.003146,-0.000336,0.001909,0.138262,-0.014619,316.922511,24.655375,0.999666,0.991848,0.003660,0.410328,-0.000008,-0.000012,0.000004,-0.000005,-0.000014,32.739947,0.000020,
2221,2863,-0.853955933315802,4.75054801594394,-0.0213784936634625,0.002992,-0.000373,0.000173,0.137068,-0.007905,317.132698,24.616025,0.999316,0.991499,0.003661,0.364045,-0.000008,-0.000013,0.000006,-0.000004,-0.000017,32.475210,0.000022,
2161,2548,-2.10474717611094,-2.11006689986098,-0.0244003816553118,0.003037,0.000107,-0.000372,0.140851,0.023688,322.408422,24.261355,0.999279,0.986843,0.004343,0.442717,-0.000011,0.000005,0.000002,0.000005,-0.000011,83.313435,0.000011,
2206,2593,-1.13330932150182,-1.12888561573142,-0.00626044217875688,0.002613,-0.000867,0.009519,0.089713,0.022461,321.637188,24.297279,0.999068,0.987137,0.004438,0.386110,-0.000016,-0.000007,0.000004,-0.000005,-0.000017,70.564833,0.000023,
2191,2728,-1.48257367677261,1.81287894130212,-0.0294739254806018,0.003277,0.000226,-0.004028,0.163520,0.009866,319.370271,24.410192,0.999325,0.989269,0.004030,0.412894,-0.000015,-0.000008,-0.000006,-0.000005,-0.000019,-59.648643,0.000024,
2086,2113,-3.66583459960355,-11.6202430886472,0.0106983542923444,0.003092,-0.000210,-0.000049,0.141933,-0.021520,330.033156,24.513115,0.998871,0.983199,0.005200,0.234273,-0.000013,-0.000020,0.000017,0.000001,-0.000033,38.903308,0.000038,
2206,2773,-1.16422241528196,2.79314218643523,-0.0204958361590002,0.002963,0.000201,-0.000324,0.137478,0.028376,318.643841,24.541386,0.999373,0.989728,0.004146,0.352978,-0.000019,-0.000018,-0.000004,-0.000014,-0.000023,-48.254992,0.000037,
2086,2233,-3.68481840074395,-8.99158093442438,-0.00149204261094837,0.003364,0.000323,-0.000044,0.154688,0.061740,328.016149,24.454272,0.998827,0.985063,0.004813,0.391261,-0.000014,0.000039,0.000011,0.000041,-0.000016,78.171027,0.000041,
2461,2113,4.52011326022221,-11.6270969227351,0.0110316009723306,0.002870,0.000412,-0.003297,0.143803,0.005563,329.542869,22.232373,0.999451,0.977465,0.005774,0.333975,-0.000010,-0.000025,0.000031,0.000015,-0.000050,38.150322,0.000051,
2116,2383,-3.05583446667094,-5.71428341377253,-0.00625098979298855,0.003060,-0.000588,0.000217,0.139762,-0.021501,325.406409,24.254698,0.999211,0.985256,0.004753,0.422808,-0.000010,-0.000024,-0.000017,0.000002,-0.000036,-34.071898,0.000041,
2251,2968,-0.219488293440019,7.03374657383274,-0.00378341816667671,0.002932,0.000286,-0.001359,0.139609,0.028175,315.503559,24.870324,0.999533,0.993152,0.003493,0.350483,-0.000023,0.000000,-0.000006,0.000001,-0.000025,-75.327491,0.000028,
2266,3133,0.0793328988948012,10.6125430362508,0.0298038578767432,0.003202,0.000018,-0.001894,0.153770,-0.011372,313.077173,25.057899,0.999645,0.994953,0.003164,0.432241,-0.000024,-0.000014,-0.000017,-0.000001,-0.000036,-53.091984,0.000043,
2071,2053,-3.98312745495151,-12.9365873359961,0.0243839568374256,0.002908,0.000030,0.002450,0.126394,0.036689,331.169772,24.544942,0.998424,0.977027,0.005915,0.347276,0.000004,-0.000082,0.000020,0.000009,-0.000086,12.754824,0.000095,
2116,2203,-3.02683630300046,-9.64937271727997,0.00428205111325042,0.002751,0.000157,-0.000634,0.128202,0.014430,328.380485,24.305570,0.998197,0.978123,0.005654,0.340607,-0.000014,0.000019,0.000009,0.000021,-0.000016,75.249108,0.000022,
2236,2713,-0.502160465204405,1.48791693605132,-0.0270938751158383,0.002928,-0.000306,0.000692,0.132318,-0.003954,319.484348,24.405963,0.999271,0.989889,0.003860,0.389789,-0.000002,-0.000004,-0.000014,0.000011,-0.000017,-43.107423,0.000017,
2491,2368,5.12240446052309,-6.03800089469921,0.00125367579295244,0.003004,0.000283,0.002350,0.128711,0.042122,325.397301,23.078426,0.998518,0.983228,0.005431,0.387976,0.000019,0.000022,0.000025,0.000046,-0.000005,46.916684,0.000050,
2146,2263,-2.38314559992878,-8.33561153254461,-4.91757851932562E-05,0.002920,0.000164,0.001994,0.128085,0.053715,327.255104,24.207685,0.998927,0.981278,0.005389,0.370179,-0.000014,-0.000008,-0.000005,-0.000005,-0.000017,-60.932861,0.000023,
2071,2248,-4.01389069484892,-8.66455102264719,0.00335988394294873,0.002853,0.000251,-0.001303,0.134795,0.024650,327.872868,24.505766,0.998817,0.984683,0.004835,0.371831,-0.000016,0.000042,0.000006,0.000042,-0.000017,83.959696,0.000043,
2356,2713,2.10889238264158,1.4928760123355,-0.0214519224066976,0.002950,-0.000384,0.003561,0.122880,0.015504,319.397693,24.434689,0.999531,0.991009,0.003743,0.382271,-0.000025,0.000011,-0.000018,0.000018,-0.000032,-67.160088,0.000032,
2311,3298,1.02285248068744,14.1957836691704,-0.00285535019605732,0.002716,-0.000104,-0.002680,0.134298,-0.013750,310.020889,25.593323,0.999690,0.994345,0.002922,0.420624,-0.000001,0.000018,-0.000016,0.000028,-0.000010,-60.387667,0.000028,
2101,2128,-3.34115417298365,-11.2945305000997,0.0244532412982608,0.002487,-0.000671,0.003228,0.104475,-0.025902,329.798482,24.338955,0.998879,0.986727,0.005056,0.320460,-0.000014,-0.000008,0.000016,0.000005,-0.000027,50.553286,0.000029,
2191,2458,-1.43635883501877,-4.0740604329668,-0.0136289781409005,0.002820,0.000074,-0.000384,0.130773,0.009996,323.845137,24.137463,0.999124,0.986205,0.004810,0.411165,-0.000026,-0.000022,-0.000020,-0.000004,-0.000044,-47.432187,0.000053,
2146,2473,-2.41813402620291,-3.74732751742155,-0.0108503618320128,0.002728,0.000261,-0.000169,0.125987,0.031356,323.775742,24.271966,0.999346,0.986360,0.004874,0.418548,-0.000022,-0.000014,-0.000014,-0.000003,-0.000032,-52.458095,0.000039,
2191,2383,-1.42311559597938,-5.71326480856203,2.28819288281557E-05,0.002792,-0.000080,0.004462,0.114224,0.026063,325.154390,24.056978,0.999287,0.986946,0.004626,0.427603,-0.000018,-0.000027,-0.000024,0.000002,-0.000047,-39.719775,0.000053,
2326,2593,1.478700405972,-1.12440160970884,-0.0187545339001645,0.003132,-0.000138,0.002575,0.134908,0.020743,321.387163,24.137505,0.999645,0.991041,0.003784,0.405065,-0.000007,-0.000010,0.000002,-0.000006,-0.000011,28.706107,0.000017,
2401,3118,3.01387716908922,10.2992651058655,0.0306242962288934,0.002800,-0.000285,0.001860,0.122079,0.013287,313.244797,25.669102,0.999854,0.995372,0.002908,0.362010,-0.000010,0.000004,0.000000,0.000004,-0.000010,-88.907020,0.000010,
2041,3268,-4.82157616462138,13.5197664920956,0.0341046151682463,0.003119,-0.000219,-0.000444,0.145270,0.001360,311.768501,24.128732,0.999630,0.993990,0.003058,0.359081,-0.000020,-0.000008,-0.000049,0.000035,-0.000063,-48.545208,0.000063,
2281,3133,0.403284389491496,10.6151587964631,0.0150022057007391,0.002793,-0.000240,0.000700,0.126193,-0.011016,312.901797,25.158076,0.999659,0.994287,0.003321,0.394844,-0.000024,-0.000012,-0.000016,-0.000002,-0.000035,-55.126701,0.000041,
2251,2743,-0.18069237295629,2.14151148138029,-0.0234551968060259,0.003185,-0.000236,-0.000240,0.147225,0.002245,319.011277,24.457979,0.999280,0.988372,0.004191,0.391316,-0.000009,-0.000018,-0.000019,0.000005,-0.000033,-38.132777,0.000035,
2236,2923,-0.538394821258205,6.05402387907856,-0.0101700961612323,0.002776,-0.000448,0.005098,0.111109,0.003276,316.187858,24.651311,0.999662,0.992920,0.003511,0.445193,-0.000012,-0.000012,-0.000001,-0.000011,-0.000013,-25.306016,0.000024,
2371,2848,2.40967556629154,4.43282418875567,-0.0230837693213175,0.002955,-0.000085,0.001156,0.131698,0.011099,317.197563,24.792895,0.999649,0.989714,0.003916,0.389460,-0.000019,-0.000018,-0.000012,-0.000006,-0.000030,-45.987734,0.000039,
2281,2923,0.439288036112437,6.05783396315023,-0.0150039757172635,0.002809,-0.000316,0.000881,0.126237,-0.004377,316.080849,24.816662,0.999609,0.992397,0.003549,0.366126,-0.000015,-0.000017,-0.000004,-0.000012,-0.000021,-38.289486,0.000033,
2086,2128,-3.668891692034,-11.2909379887285,0.00400179015161939,0.002858,-0.000458,0.001423,0.126897,-0.009201,329.721614,24.494605,0.998961,0.984474,0.005107,0.267609,-0.000015,-0.000015,0.000016,0.000002,-0.000031,45.094763,0.000035,
2221,2668,-0.820449905834135,0.506630017030602,-0.0217442738546652,0.002862,-0.000601,0.004333,0.117517,-0.001519,320.280234,24.329345,0.999536,0.992816,0.003662,0.410706,-0.000008,0.000002,-0.000005,0.000004,-0.000010,-67.954644,0.000010,
2296,3208,0.715931778785027,12.2427770062293,0.0269954974008328,0.002714,-0.000178,0.001022,0.121558,0.000036,311.750106,25.399868,0.999750,0.994055,0.003122,0.370033,-0.000015,-0.000008,-0.000009,-0.000002,-0.000022,-55.711166,0.000026,
2326,2878,1.42600940557487,5.08176751618279,-0.0151861400946132,0.002923,-0.000099,-0.001158,0.138426,0.009419,316.783755,24.758020,0.999537,0.991030,0.003819,0.430413,-0.000030,-0.000016,-0.000001,-0.000016,-0.000030,-86.599305,0.000047,
2476,2248,4.82102103560495,-8.66874016773959,0.0165322874060507,0.002992,0.000321,-0.002221,0.145492,0.021935,327.446055,22.551741,0.999336,0.981707,0.005217,0.475487,0.000027,-0.000026,-0.000010,0.000029,-0.000028,-10.313114,0.000033,
2206,2608,-1.13616939210803,-0.801361515942219,-0.016368199112037,0.002742,-0.000592,0.005402,0.108756,0.013156,321.328678,24.287618,0.998991,0.985267,0.004718,0.404229,-0.000014,-0.000011,0.000007,-0.000006,-0.000019,52.642253,0.000026,
2431,3148,3.65815508187779,10.9541511841631,0.0100982519188051,0.002490,-0.000178,0.001079,0.110540,0.005062,312.605288,25.874888,0.999685,0.993143,0.003316,0.365905,-0.000006,-0.000003,0.000003,-0.000002,-0.000008,57.992159,0.000010,
2041,3283,-4.82426067414778,13.8442018346337,0.0298105784655718,0.003052,-0.000254,-0.000779,0.143055,-0.012353,311.485177,24.085304,0.999645,0.994012,0.003037,0.379666,-0.000027,-0.000002,-0.000033,0.000020,-0.000050,-55.267468,0.000050,
2161,2563,-2.10642559864734,-1.78367713959255,-0.0163866975354381,0.003285,-0.000076,-0.000762,0.153374,0.013896,322.245152,24.291695,0.999136,0.986462,0.004466,0.413231,-0.000010,-0.000008,0.000000,-0.000008,-0.000010,-88.752358,0.000018,
2311,2608,1.1493174834695,-0.797950883763534,-0.0192052281207111,0.003042,-0.000086,0.000816,0.136957,0.026071,321.150634,24.158905,0.999600,0.990887,0.003779,0.439547,-0.000015,-0.000011,-0.000003,-0.000009,-0.000017,-58.042685,0.000026,
2086,2248,-3.68796063860438,-8.66404039920864,-0.00199285439208552,0.002590,0.000336,0.000312,0.118123,0.048082,327.734759,24.411033,0.998777,0.984915,0.004912,0.422463,-0.000017,0.000036,0.000008,0.000037,-0.000019,81.766592,0.000037,
2461,2128,4.51788458925284,-11.298795805794,0.0207233318029125,0.003332,-0.000143,0.002180,0.144174,0.026007,329.381937,22.296510,0.999439,0.975751,0.005974,0.347448,-0.000003,-0.000029,0.000029,0.000016,-0.000047,32.982161,0.000048,
2071,2263,-4.01570885067806,-8.33638401112845,0.00202514995214642,0.003456,0.000132,-0.000566,0.160390,0.002564,327.646077,24.523906,0.999139,0.986926,0.004658,0.330580,-0.000019,0.000029,0.000006,0.000030,-0.000019,83.187135,0.000030,
2116,2398,-3.05855110309285,-5.3859267047595,-0.00593804861171066,0.002707,-0.000023,0.000076,0.124154,0.009369,325.150969,24.301482,0.999087,0.985579,0.004720,0.412068,-0.000013,-0.000031,-0.000021,0.000000,-0.000045,-33.048892,0.000052,
2326,2638,1.46991259226064,-0.143632389342088,-0.0188414155079499,0.002706,-0.000522,0.002488,0.115532,0.001259,320.636641,24.216946,0.999429,0.988496,0.004132,0.411521,-0.000018,-0.000007,-0.000002,-0.000007,-0.000019,-80.491110,0.000026,
2296,2983,0.756335986238103,7.3617955276889,0.00198755987764798,0.003450,-0.000199,-0.001355,0.163352,0.006712,315.262563,25.002482,0.999286,0.988607,0.004063,0.340064,-0.000018,0.000001,-0.000006,0.000003,-0.000020,-73.297546,0.000021,
2176,2443,-1.75993761240925,-4.40205169569141,-0.00959640130338357,0.003155,-0.000414,0.002369,0.137494,0.004926,324.175208,24.177189,0.999271,0.986257,0.004688,0.389869,-0.000023,-0.000021,-0.000021,-0.000001,-0.000043,-46.522684,0.000050,
2341,2038,1.9118874595641,-13.2716096099519,0.0163114699794278,0.003052,-0.000377,0.002204,0.131906,-0.015213,330.645206,22.745263,0.999178,0.980245,0.005454,0.311540,-0.000009,-0.000008,-0.000012,0.000004,-0.000021,-45.779321,0.000023,
2311,3058,1.06859661573068,8.990023322039,0.0159019294927703,0.002918,-0.000318,0.002765,0.124780,-0.001855,314.101401,25.145771,0.999706,0.993121,0.003355,0.385269,-0.000020,-0.000005,-0.000010,0.000000,-0.000025,-63.917572,0.000029,
2311,2818,1.11008299639035,3.77669553925158,-0.0177626541607765,0.002600,-0.000430,0.003410,0.107731,-0.014234,317.718534,24.698754,0.999515,0.990395,0.003895,0.313515,-0.000020,-0.000026,0.000001,-0.000020,-0.000026,12.361225,0.000046,
2326,1993,1.59324133327583,-14.2594637322707,0.0296958224838022,0.002873,0.000161,0.002710,0.122181,0.036823,331.472123,22.823836,0.997824,0.971452,0.006735,0.270263,-0.000012,0.000034,-0.000025,0.000045,-0.000023,-66.690962,0.000045,
2296,3223,0.713142726868735,12.5670147069816,0.0253775466885031,0.002746,-0.000347,0.000225,0.125666,-0.011286,311.495308,25.340667,0.999833,0.995064,0.002894,0.446518,-0.000014,-0.000006,-0.000013,0.000004,-0.000024,-54.235543,0.000026,
2131,2233,-2.70420436298219,-8.99307158873038,0.00976972985176872,0.003038,0.000075,0.000064,0.139262,0.023053,327.890782,24.282285,0.998743,0.979915,0.005440,0.314276,-0.000014,0.000018,0.000007,0.000019,-0.000016,78.148590,0.000020,
2161,2323,-2.06578705897396,-7.02451083248486,-0.00295191116833848,0.003020,0.000458,-0.005650,0.156094,0.002951,326.237571,24.122040,0.999188,0.983746,0.004945,0.388201,-0.000001,-0.000057,-0.000025,0.000009,-0.000066,-21.268456,0.000072,
2266,2893,0.11892357117593,5.40460719340992,-0.00932462666241918,0.002667,-0.000140,0.002101,0.115791,0.016394,316.629693,24.734772,0.999589,0.990661,0.003758,0.387184,-0.000009,-0.000017,0.000005,-0.000006,-0.000019,26.252496,0.000027,
2041,3298,-4.82678994372921,14.1694223654045,0.0277783254349515,0.003025,-0.000137,-0.000807,0.141945,-0.004870,311.221264,24.109526,0.999597,0.994751,0.003079,0.353552,-0.000046,0.000018,-0.000024,0.000026,-0.000054,-71.294610,0.000054,
2206,2788,-1.16683777188458,3.11873253269018,-0.0223307732977105,0.003095,-0.000104,0.000195,0.141792,0.009078,318.389479,24.492589,0.999156,0.988280,0.004366,0.399325,-0.000021,-0.000016,-0.000002,-0.000016,-0.000022,-72.109522,0.000038,
2416,3298,3.30071801304879,14.2070815653766,-0.0186558100583056,0.002864,-0.000543,0.000950,0.128209,-0.017086,309.898353,26.204642,0.999748,0.992021,0.003492,0.413090,0.000009,-0.000005,-0.000005,0.000010,-0.000007,-17.009501,0.000010,
2476,2263,4.81777530458502,-8.33924517686601,0.0147211435527197,0.002909,0.000311,-0.002950,0.144431,0.014067,327.186778,22.677453,0.999133,0.980228,0.005232,0.401077,0.000022,-0.000031,-0.000020,0.000028,-0.000037,-18.350494,0.000039,
2191,2743,-1.48483324627259,2.1386697802262,-0.0179893325905027,0.003149,-0.000143,0.001244,0.140992,0.010684,319.200242,24.452391,0.999443,0.990051,0.003989,0.385962,-0.000016,-0.000014,-0.000008,-0.000007,-0.000023,-48.813150,0.000032,
2356,2728,2.10634422992272,1.81867409360385,-0.01179783146614,0.002771,-0.000826,0.007086,0.102046,-0.007415,319.213941,24.484891,0.999486,0.990193,0.003881,0.347999,-0.000025,0.000006,-0.000014,0.000012,-0.000030,-68.399885,0.000031,
2251,2758,-0.184657060140072,2.46905153535224,-0.0299673355941081,0.002812,-0.000536,0.006157,0.108964,-0.001130,318.674393,24.527446,0.999282,0.988593,0.004200,0.341958,-0.000009,-0.000014,-0.000013,0.000002,-0.000025,-39.491060,0.000027,
2101,2353,-3.37755353404299,-6.36763971060309,-0.0130693227920347,0.003405,0.000367,-0.001427,0.160717,0.022763,325.921650,24.378049,0.998962,0.983986,0.005048,0.385874,-0.000010,-0.000039,-0.000010,-0.000007,-0.000042,-17.179962,0.000054,
2236,2728,-0.504551054423303,1.81459850583614,-0.0230612745954204,0.002919,-0.000069,0.001158,0.130524,0.016437,319.272313,24.447462,0.999249,0.989221,0.004047,0.389820,-0.000001,-0.000012,-0.000013,0.000007,-0.000020,-34.055187,0.000021,
2431,3163,3.65616073698238,11.2795498607037,0.0151421738657973,0.002905,-0.000023,-0.000842,0.136814,0.010575,312.427876,25.933139,0.999679,0.992178,0.003507,0.362026,-0.000003,0.000005,0.000004,0.000007,-0.000005,65.622757,0.000007,
2326,3118,1.38394193081137,10.2933710492604,0.0193841121406422,0.003062,-0.000258,-0.001034,0.144476,-0.007397,313.158507,25.338603,0.999397,0.992392,0.003611,0.371549,-0.000016,-0.000008,-0.000014,0.000002,-0.000026,-53.476264,0.000029,
2176,2638,-1.79377970038529,-0.148217898682901,-0.0234405925072565,0.002917,-0.000324,0.001899,0.128189,0.006179,320.894048,24.324300,0.999523,0.989896,0.004058,0.416407,-0.000015,-0.000020,-0.000003,-0.000014,-0.000021,-23.472758,0.000035,
2206,2623,-1.13835379744939,-0.474193112691495,-0.0199477885128658,0.002987,-0.000075,-0.000258,0.138110,0.001996,321.084887,24.308823,0.999303,0.985188,0.004742,0.389019,-0.000013,-0.000013,0.000000,-0.000012,-0.000013,35.613673,0.000026,
2101,2143,-3.34388794955892,-10.964640012281,0.0165782944223452,0.002750,-0.000735,0.005620,0.109578,-0.003433,329.496730,24.356100,0.998744,0.982587,0.005420,0.330289,-0.000017,0.000005,0.000015,0.000013,-0.000024,63.756943,0.000024,
2386,3028,2.70336478457925,8.34489438343076,0.00525138407044778,0.002868,-0.000432,0.001666,0.125814,-0.005802,314.497365,25.331514,0.999620,0.990307,0.003875,0.366852,-0.000018,-0.000003,-0.000014,0.000006,-0.000027,-59.480868,0.000028,
2116,2218,-3.02896639220256,-9.32047175231707,0.00153991115007557,0.002938,0.000615,-0.004271,0.147635,0.020434,328.135539,24.333067,0.998443,0.979679,0.005546,0.325362,-0.000017,0.000021,0.000008,0.000023,-0.000018,79.173217,0.000024,
2266,3148,0.0758329766944108,10.9385399688333,0.027022382738096,0.002860,-0.000350,0.001451,0.126855,-0.002401,312.781183,25.113234,0.999211,0.991465,0.003859,0.410336,-0.000021,-0.000007,-0.000013,0.000001,-0.000029,-59.593545,0.000033,
2296,3238,0.710366415010292,12.8929974737736,0.0218031635067177,0.002990,-0.000168,0.000093,0.137483,0.011262,311.230682,25.401557,0.999676,0.992893,0.003310,0.436904,-0.000012,-0.000008,-0.000015,0.000004,-0.000025,-49.067806,0.000027,
2131,2458,-2.74264626101976,-4.07323483432614,-0.0135572982890153,0.002769,-0.000140,0.006443,0.108003,0.048166,324.037023,24.413458,0.999359,0.988714,0.004459,0.321925,-0.000020,-0.000030,-0.000022,-0.000002,-0.000048,-38.820685,0.000056,
2146,2278,-2.38556292511804,-8.00864531099803,-0.00184099242267166,0.003020,-0.000100,0.001540,0.133968,0.020950,327.005272,24.129274,0.998602,0.981321,0.005499,0.426084,-0.000010,-0.000026,-0.000012,-0.000004,-0.000032,-28.750185,0.000040,
2146,2488,-2.42100034496262,-3.41990301594288,-0.0159738572464221,0.002806,-0.000210,0.002080,0.122648,0.019213,323.487403,24.256990,0.999205,0.985754,0.004840,0.430536,-0.000020,-0.000007,-0.000018,0.000005,-0.000033,-55.063262,0.000035,
2476,2278,4.81379358865147,-8.00854181655503,0.00430748185692664,0.002902,0.000332,-0.002589,0.142772,0.017083,326.854549,22.821228,0.999424,0.980513,0.005214,0.319402,0.000017,-0.000038,-0.000016,0.000021,-0.000043,-14.655331,0.000043,
2401,3133,3.01018976423751,10.6255661678068,0.0176646348346026,0.002832,-0.000099,-0.001100,0.134370,0.015590,312.902363,25.694415,0.999784,0.994643,0.003073,0.383633,-0.000006,-0.000001,-0.000003,0.000000,-0.000008,-62.975178,0.000009,
2221,2878,-0.856123649865047,5.07530786863232,-0.0128156937665835,0.002904,-0.000519,0.001079,0.130019,-0.014793,316.953570,24.581969,0.999370,0.992684,0.003463,0.409578,-0.000008,-0.000007,0.000007,-0.000001,-0.000014,47.335547,0.000017,
2341,2668,1.79058191787962,0.512225187954854,-0.0242798275186829,0.002741,-0.000199,0.001318,0.121289,0.012944,320.104317,24.350691,0.999706,0.991577,0.003865,0.352804,-0.000020,-0.000011,-0.000012,-0.000002,-0.000028,-54.996077,0.000034,
2461,2143,4.51413916244199,-10.9691325871736,0.0137015798090943,0.003181,-0.000193,0.001863,0.138410,0.024736,329.075302,22.331224,0.999116,0.976399,0.005856,0.368978,0.000005,-0.000025,0.000024,0.000019,-0.000039,28.953422,0.000039,
2191,2398,-1.42526597464232,-5.38659957971144,0.00831310524324635,0.002558,-0.000342,0.003821,0.105391,0.011796,324.972838,24.071203,0.999264,0.985090,0.004941,0.415061,-0.000018,-0.000023,-0.000022,0.000002,-0.000043,-41.566419,0.000049,
2101,2368,-3.37915665033523,-6.04217675961642,-0.00136510784483335,0.003466,-0.000341,-0.000514,0.160663,0.000128,325.778197,24.314167,0.998932,0.982868,0.005221,0.429796,-0.000007,-0.000024,-0.000010,-0.000003,-0.000028,-24.231745,0.000035,
2371,2863,2.40692880795629,4.75868342251146,-0.0186750379805858,0.002768,-0.000334,0.001573,0.121526,-0.006561,316.979891,24.838670,0.999563,0.990633,0.003823,0.366876,-0.000022,-0.000011,-0.000012,-0.000003,-0.000030,-58.017918,0.000036,
2281,3148,0.401390865484668,10.9399504942666,0.0256459446403028,0.003017,-0.000513,0.002906,0.129086,-0.007905,312.748488,25.190820,0.999541,0.992970,0.003707,0.391665,-0.000022,-0.000007,-0.000012,-0.000001,-0.000028,-60.860274,0.000033,
2161,2578,-2.10951024547021,-1.45663376356777,-0.0195955091860469,0.003144,-0.000333,0.002790,0.135949,0.021961,321.958186,24.270009,0.999146,0.986566,0.004420,0.454051,-0.000016,-0.000006,0.000001,-0.000006,-0.000016,84.221614,0.000022,
2221,2683,-0.823240966270841,0.833931893962941,-0.0268223483240604,0.002712,0.000065,-0.000227,0.125490,0.018700,320.002000,24.339422,0.999580,0.992108,0.003650,0.440033,-0.000012,0.000010,-0.000009,0.000013,-0.000015,-69.467064,0.000017,
2266,2908,0.116716512051674,5.73067922745953,-0.00913886820256948,0.002896,0.000032,-0.001313,0.137680,0.006508,316.408625,24.771314,0.999692,0.992348,0.003501,0.365958,-0.000011,-0.000020,0.000001,-0.000011,-0.000020,8.590262,0.000031,
2161,2338,-2.06922352749272,-6.69581104985835,-0.00557361935420886,0.002573,0.000038,-0.000591,0.119997,0.025263,325.937433,24.160526,0.999412,0.987350,0.004404,0.384005,-0.000005,-0.000056,-0.000027,0.000006,-0.000067,-23.323243,0.000074,
2236,2938,-0.540719975112506,6.38017881577964,-0.00801430743246101,0.002865,-0.000590,0.003920,0.119004,-0.006800,315.969127,24.717588,0.999569,0.992826,0.003520,0.389157,-0.000016,-0.000008,-0.000004,-0.000007,-0.000018,-69.214241,0.000025,
2326,2653,1.46615171810036,0.184740461941203,-0.0307172404222342,0.002562,-0.000396,0.001523,0.112327,0.008351,320.289949,24.273005,0.999451,0.989557,0.004020,0.397572,-0.000017,-0.000004,-0.000002,-0.000003,-0.000017,-81.330866,0.000022,
2086,2263,-3.69002703395776,-8.33755140973957,0.0031612428937251,0.002602,-0.000334,0.001716,0.114435,0.000039,327.533565,24.368669,0.998749,0.984507,0.004967,0.417896,-0.000016,0.000023,0.000008,0.000024,-0.000018,78.682751,0.000025,
2326,2608,1.47577498322941,-0.79700296676635,-0.0214748836340277,0.003214,-0.000407,0.002744,0.138038,0.019383,321.123955,24.174660,0.999565,0.989036,0.004049,0.401839,-0.000011,-0.000012,0.000000,-0.000011,-0.000012,17.039188,0.000023,
2131,2248,-2.70716235009196,-8.66458555688408,0.00066559860323423,0.002986,0.000160,-0.001339,0.141125,0.000075,327.575720,24.246447,0.998994,0.981490,0.005275,0.335376,-0.000014,0.000016,0.000005,0.000016,-0.000015,81.282285,0.000018,
2206,2638,-1.14108232513935,-0.147447591482212,-0.0194521755580581,0.002931,-0.000146,0.001645,0.129502,0.007297,320.837214,24.314547,0.999257,0.986363,0.004639,0.406130,-0.000013,-0.000013,-0.000002,-0.000012,-0.000015,-43.177804,0.000027,
2191,2473,-1.4392849305559,-3.74572028874,-0.0186537711118717,0.002789,0.000274,-0.000215,0.128911,0.027046,323.558414,24.173892,0.999163,0.984485,0.005065,0.407875,-0.000022,-0.000014,-0.000008,-0.000009,-0.000027,-58.276320,0.000037,
2191,2758,-1.48732645465764,2.46489001647468,-0.0163989305630707,0.003156,-0.000306,0.001977,0.138988,0.013700,318.967914,24.456609,0.999467,0.990666,0.003816,0.399187,-0.000019,-0.000017,-0.000006,-0.000011,-0.000024,-49.453418,0.000036,
2236,2743,-0.507309612310056,2.14112761400904,-0.0213093343659239,0.002894,-0.000354,0.004278,0.119198,0.023371,319.031822,24.474228,0.999092,0.986696,0.004569,0.391370,-0.000004,-0.000022,-0.000015,0.000004,-0.000030,-29.895154,0.000033,
2176,2458,-1.76250962861662,-4.07533278966102,-0.00555290665357688,0.002871,-0.000548,0.003211,0.121781,-0.005774,323.951172,24.171258,0.999189,0.986180,0.004782,0.398691,-0.000027,-0.000016,-0.000020,0.000000,-0.000042,-52.585950,0.000049,
2461,2158,4.51082369807427,-10.6393124222357,0.0132404323790638,0.002769,0.000580,-0.000238,0.127816,0.023528,328.818152,22.456621,0.999178,0.975641,0.005766,0.299880,0.000009,-0.000036,0.000013,0.000012,-0.000039,14.564712,0.000040,
2326,2008,1.59119964204424,-13.9308459148811,0.0365577426309187,0.003188,-0.000007,0.004129,0.131700,0.027223,331.297797,22.873587,0.998029,0.971715,0.006779,0.248630,-0.000001,0.000001,-0.000013,0.000013,-0.000013,-47.919942,0.000015,
2176,2653,-1.79718631995237,0.18017142028728,-0.0363056386819949,0.002745,0.000033,-0.000547,0.127972,0.011038,320.542644,24.373640,0.999595,0.989905,0.004047,0.385018,-0.000018,-0.000012,-0.000004,-0.000010,-0.000020,-64.797043,0.000031,
2491,2383,5.11898710391364,-5.70996775587005,-0.00170114881672134,0.002953,-0.000156,0.002690,0.124906,0.011368,325.125869,23.125455,0.998783,0.980681,0.005463,0.370719,0.000021,0.000014,0.000013,0.000031,0.000004,37.044295,0.000038,
2101,2158,-3.34587679378034,-10.6365955392749,0.0242911409553699,0.002702,-0.000817,0.007133,0.102965,0.001614,329.313329,24.394880,0.998919,0.982261,0.005374,0.300555,-0.000016,-0.000002,0.000002,-0.000001,-0.000016,80.149076,0.000019,
2311,2833,1.10835627493536,4.10281066115135,-0.0105879533325606,0.002874,-0.000245,0.000299,0.131060,-0.000128,317.557438,24.747778,0.999729,0.992338,0.003603,0.310490,-0.000020,-0.000018,0.000001,-0.000017,-0.000021,65.781359,0.000038,
2311,2623,1.14702581326948,-0.471535214803659,-0.0131242357922474,0.003087,-0.000147,0.001247,0.137520,0.015527,320.958723,24.194698,0.999470,0.989097,0.004009,0.425898,-0.000015,-0.000005,-0.000006,-0.000002,-0.000018,-66.027447,0.000022,
2431,3178,3.6538180271756,11.6037981313534,0.0255395382250185,0.002916,-0.000460,0.001937,0.126836,-0.010466,312.259679,25.946789,0.999689,0.991756,0.003517,0.375932,-0.000001,0.000006,0.000002,0.000007,-0.000002,72.955113,0.000007,
2251,2773,-0.186477289479779,2.79424119575833,-0.0194374789809331,0.002726,-0.000195,0.003802,0.112874,0.005856,318.522795,24.509139,0.999273,0.988095,0.004224,0.390378,-0.000008,-0.000016,-0.000012,0.000001,-0.000025,-35.865457,0.000028,
2341,2713,1.78234538029525,1.49252767493093,-0.0267503616025238,0.003118,-0.000035,0.001051,0.139650,0.029887,319.370286,24.402719,0.999390,0.989782,0.004049,0.428764,-0.000025,0.000011,-0.000012,0.000014,-0.000029,-73.598223,0.000029,
2281,2938,0.436778760185156,6.38307720665811,-0.0105969642590367,0.002835,-0.000444,0.002738,0.121143,-0.003275,315.868258,24.804933,0.999526,0.991383,0.003756,0.406256,-0.000015,-0.000013,-0.000007,-0.000007,-0.000020,-49.559717,0.000029,
2296,2998,0.753341554179485,7.68735412031558,0.000678029053233331,0.003108,0.000309,-0.003951,0.156544,0.003300,315.000000,25.000068,0.999439,0.990447,0.003795,0.368472,-0.000020,0.000004,-0.000008,0.000006,-0.000023,-73.047210,0.000023,
2206,2803,-1.16971671457791,3.44503392129976,-0.024060293429784,0.003081,-0.000359,0.002458,0.133937,0.012650,318.123291,24.491814,0.998890,0.985458,0.004725,0.420261,-0.000020,-0.000019,-0.000002,-0.000017,-0.000021,-46.270599,0.000039,
2326,2893,1.42325137035072,5.40824221148667,-0.0154114030270875,0.002963,-0.000138,-0.001376,0.141034,0.005709,316.539701,24.819608,0.999302,0.990456,0.003918,0.399158,-0.000027,-0.000024,-0.000002,-0.000024,-0.000028,-65.808908,0.000052,
2431,1993,3.88966216508691,-14.2627517748647,0.0316702738109029,0.002945,0.000105,-0.001201,0.139055,0.000633,331.583693,22.118901,0.999276,0.975933,0.005852,0.193036,-0.000090,-0.000014,0.000030,-0.000004,-0.000100,70.999762,0.000117,
2401,3148,3.00829145325118,10.9497171681978,0.0304536462253395,0.002998,-0.000294,0.000881,0.134618,-0.012344,312.764716,25.713638,0.999785,0.994892,0.002979,0.380886,-0.000004,-0.000004,-0.000001,-0.000003,-0.000005,-49.274836,0.000008,
2131,2473,-2.74468715028342,-3.74678229344191,-0.0139008765797257,0.002873,-0.000253,0.001852,0.126469,0.012241,323.810873,24.371836,0.999364,0.987520,0.004577,0.334432,-0.000020,-0.000019,-0.000012,-0.000007,-0.000031,-46.431578,0.000041,
2221,2893,-0.85814307499567,5.40099301039743,-0.00654588731316608,0.002984,-0.000482,-0.000077,0.137470,-0.009609,316.769165,24.607317,0.999598,0.992870,0.003528,0.407851,-0.000011,-0.000013,0.000004,-0.000008,-0.000016,39.675608,0.000025,
2251,2983,-0.221974888467386,7.35855263075196,0.00186110408844797,0.002856,-0.000300,0.000597,0.129491,0.001483,315.296494,24.864882,0.999528,0.992325,0.003654,0.352004,-0.000023,0.000006,-0.000005,0.000007,-0.000024,-79.902586,0.000025,
2266,3163,0.0733036151956732,11.2645642563195,0.0307883033848384,0.002765,-0.000060,0.001351,0.122914,0.008430,312.562803,25.212705,0.999291,0.989807,0.004048,0.345978,-0.000020,0.000001,-0.000012,0.000006,-0.000026,-65.206166,0.000027,
2176,2473,-1.76566462339053,-3.74647950135863,-0.0137044854222381,0.002597,-0.000174,0.000473,0.117805,0.010172,323.636150,24.226136,0.999138,0.984693,0.005117,0.373631,-0.000025,-0.000006,-0.000008,-0.000003,-0.000028,-70.568486,0.000034,
2341,2683,1.78729247000607,0.838831599361171,-0.0261444152488934,0.002579,-0.000483,0.003558,0.105940,0.003506,319.829734,24.355120,0.999679,0.991428,0.003825,0.375840,-0.000021,0.000004,-0.000013,0.000010,-0.000027,-66.517857,0.000027,
2296,3253,0.706993651972933,13.2187294139654,0.0156228607990556,0.002887,-0.000463,0.000729,0.130415,-0.013609,310.925668,25.476418,0.999646,0.990871,0.003638,0.365507,-0.000010,0.000000,-0.000016,0.000012,-0.000022,-53.658707,0.000022,
2146,2293,-2.38788947861616,-7.68099410270277,0.00341184543884765,0.002809,-0.000468,0.001898,0.123056,-0.005630,326.796657,24.183386,0.998515,0.984078,0.005172,0.355302,-0.000004,-0.000025,-0.000002,-0.000004,-0.000026,-4.916547,0.000032,
2236,2953,-0.542494270081185,6.70643659796296,-0.00297491592436927,0.003169,0.000069,0.000888,0.143077,0.014758,315.790319,24.785750,0.999408,0.991619,0.003801,0.363290,-0.000021,-0.000007,-0.000005,-0.000005,-0.000022,-73.395999,0.000029,
2071,2278,-4.01821701498272,-8.00726153529169,0.00213098532202594,0.003319,0.000267,0.000688,0.150600,0.027652,327.395215,24.602329,0.999874,0.994319,0.003670,0.276287,-0.000013,0.000011,0.000004,0.000012,-0.000013,79.684770,0.000015,
2326,3133,1.38075706286434,10.6189535084024,0.0161615304900806,0.002893,-0.000139,-0.001465,0.138162,-0.018632,312.879631,25.370731,0.999178,0.991550,0.003736,0.361541,-0.000017,-0.000007,-0.000011,0.000000,-0.000025,-56.941017,0.000028,
2116,2413,-3.06091393915453,-5.05774696361382,-0.00380979662605796,0.002750,-0.000393,0.002305,0.119463,0.029710,324.921521,24.364691,0.999280,0.986492,0.004700,0.374089,-0.000016,-0.000031,-0.000023,0.000001,-0.000047,-36.034499,0.000054,
2326,2623,1.47340072784713,-0.471160768694148,-0.0142599829363803,0.002916,-0.000179,0.000632,0.131723,0.009959,320.934879,24.166780,0.999600,0.988401,0.004067,0.435214,-0.000013,-0.000004,-0.000001,-0.000004,-0.000013,-80.707532,0.000018,
2101,2383,-3.38266931332933,-5.71314026766237,-0.00726007665645056,0.002840,-0.000301,0.001700,0.125430,-0.002355,325.451652,24.391062,0.998904,0.983807,0.004987,0.353704,-0.000010,-0.000023,-0.000015,-0.000001,-0.000032,-33.258783,0.000038,
2086,2278,-3.69225983963241,-8.00810878940541,0.000522336507174259,0.002865,-0.000197,0.001707,0.126602,0.016500,327.281618,24.457313,0.999244,0.988418,0.004454,0.347039,-0.000008,0.000006,0.000006,0.000008,-0.000010,70.684894,0.000011,
2191,2488,-1.44186649835533,-3.41830392835711,-0.0194048733079057,0.002843,0.000076,0.000451,0.129253,0.023887,323.309903,24.190527,0.998991,0.982978,0.005300,0.403814,-0.000019,-0.000006,-0.000008,-0.000002,-0.000023,-65.430969,0.000028,
2476,2293,4.81066272550807,-7.68260475818681,0.00987363004230701,0.002808,-0.000561,0.002849,0.117527,0.002108,326.634153,22.714301,0.999505,0.981090,0.005170,0.469949,0.000009,-0.000039,-0.000007,0.000010,-0.000040,-8.404005,0.000042,
2116,2233,-3.0311044634587,-8.99256542891472,0.0060271701706256,0.003132,0.000095,-0.000455,0.145143,0.012608,327.929172,24.363824,0.998643,0.980691,0.005467,0.292338,-0.000019,0.000022,0.000009,0.000024,-0.000021,78.000869,0.000026,
2341,2053,1.91030726587734,-12.9437045590248,0.0325888483007475,0.003002,-0.000209,0.001867,0.130835,0.009130,330.538292,22.817401,0.999212,0.980948,0.005290,0.303023,-0.000007,-0.000004,-0.000009,0.000003,-0.000014,-50.196638,0.000015,
2221,2698,-0.825693916228385,1.16040589098623,-0.0234712206204222,0.002810,0.000027,0.002347,0.121760,0.025471,319.782729,24.361094,0.999631,0.993664,0.003323,0.444513,-0.000011,0.000005,-0.000009,0.000009,-0.000015,-66.109425,0.000015,
2386,3043,2.70025701473466,8.670447647964,0.00316803223944362,0.002836,-0.000644,0.001829,0.123676,-0.010022,314.232527,25.337928,0.999691,0.991569,0.003694,0.398572,-0.000021,0.000003,-0.000014,0.000009,-0.000028,-64.956772,0.000028,
2281,3163,0.398560997059906,11.2658594933515,0.0280617029141013,0.002905,-0.000491,0.005050,0.116801,0.006784,312.510480,25.268103,0.999528,0.992228,0.003628,0.355555,-0.000020,-0.000001,-0.000011,0.000004,-0.000025,-65.133348,0.000027,
2371,2878,2.40428574597413,5.08499437576207,-0.0135346708861448,0.002696,-0.000686,0.002820,0.113657,-0.019596,316.770310,24.930435,0.999529,0.993026,0.003559,0.302743,-0.000025,-0.000014,-0.000011,-0.000008,-0.000032,-58.340769,0.000042,
2161,2593,-2.1122607866494,-1.1292269498234,-0.0219660139017037,0.002968,-0.000401,0.001609,0.131412,-0.008313,321.690944,24.332209,0.999255,0.988005,0.004337,0.372504,-0.000017,-0.000002,0.000005,-0.000001,-0.000018,73.149815,0.000021,
2431,2008,3.88693209587945,-13.9345428268058,0.0341814960592615,0.002935,0.000131,-0.001752,0.140685,0.002115,331.365298,22.071933,0.999309,0.976139,0.005912,0.294935,-0.000081,-0.000033,0.000029,-0.000019,-0.000094,64.926751,0.000121,
2146,2503,-2.42369015233232,-3.09170650951031,-0.0258051324260578,0.002951,0.000144,-0.002066,0.141975,0.000403,323.182039,24.282131,0.999033,0.984296,0.004981,0.395917,-0.000014,0.000004,-0.000012,0.000010,-0.000020,-63.637444,0.000020,
2491,2398,5.11546559896443,-5.38147750981133,-0.00515581815642463,0.002608,-0.000340,0.000227,0.118425,-0.016825,324.847243,23.212459,0.999424,0.987362,0.004564,0.316116,0.000025,0.000004,0.000017,0.000035,-0.000005,29.475661,0.000037,
2101,2173,-3.34815010894394,-10.3065897342768,0.0104231872720675,0.003214,-0.000144,0.000193,0.146892,-0.005573,329.000455,24.400284,0.998941,0.983064,0.005228,0.292211,-0.000015,0.000000,0.000004,0.000001,-0.000016,74.875444,0.000018,
2356,2743,2.10349892109133,2.14500941280262,-0.0127037369666709,0.002580,-0.000708,0.003762,0.105068,-0.002259,318.965424,24.475434,0.999619,0.990860,0.003691,0.401758,-0.000025,0.000002,-0.000015,0.000008,-0.000031,-66.426924,0.000032,
2341,2728,1.77910108172213,1.81999989645586,-0.0270297370345247,0.002845,-0.000280,0.002728,0.121136,0.006921,319.105127,24.527165,0.999289,0.988732,0.004196,0.318248,-0.000026,0.000006,-0.000008,0.000008,-0.000028,-77.077379,0.000028,
2131,2263,-2.70923521990175,-8.33804359139791,0.0118851454191145,0.002867,-0.000505,0.003027,0.122398,0.010133,327.409429,24.213479,0.998868,0.982111,0.005328,0.386213,-0.000012,0.000000,0.000001,0.000000,-0.000012,87.348868,0.000014,
2461,2173,4.50760778207454,-10.3103117884576,0.00955903194858365,0.002906,0.000325,-0.000101,0.133482,0.028500,328.550856,22.472170,0.999046,0.978362,0.005552,0.346518,0.000010,-0.000027,0.000014,0.000015,-0.000032,18.696316,0.000032,
2206,2818,-1.17214957663207,3.77045705909318,-0.0200652823878613,0.002915,-0.000516,0.001824,0.128192,-0.010304,317.907448,24.484973,0.999076,0.987683,0.004373,0.420555,-0.000017,-0.000013,0.000004,-0.000010,-0.000020,57.875448,0.000030,
2191,2413,-1.42867569474425,-5.05685857427514,-0.00848920972089218,0.002457,0.000138,-0.001735,0.118336,0.011309,324.602780,24.118815,0.999162,0.986416,0.004709,0.383465,-0.000020,-0.000024,-0.000025,0.000004,-0.000047,-42.709385,0.000052,
2266,2923,0.113893511124434,6.05591463930845,-0.00666355495627613,0.002718,-0.000222,0.000463,0.123451,-0.014053,316.171015,24.762195,0.999696,0.992501,0.003661,0.379524,-0.000011,-0.000015,-0.000001,-0.000011,-0.000015,-14.049074,0.000026,
2296,3268,0.704023707475184,13.5439225109601,0.0118769708947184,0.002879,-0.000364,-0.000342,0.133758,-0.011092,310.651459,25.492207,0.999633,0.992337,0.003396,0.380727,-0.000009,0.000005,-0.000015,0.000015,-0.000019,-56.884474,0.000020,
2311,2638,1.14423423641219,-0.144424452645403,-0.0140955467624622,0.003126,-0.000195,0.001185,0.139501,0.016266,320.708957,24.227250,0.999317,0.988654,0.004060,0.426800,-0.000020,-0.000008,-0.000006,-0.000006,-0.000022,-67.576684,0.000029,
2326,2023,1.58783556874993,-13.6008026557246,0.0259923917416245,0.003246,0.000238,0.002209,0.141084,0.021587,330.978051,22.857133,0.998676,0.977258,0.006146,0.297881,-0.000003,0.000006,-0.000009,0.000012,-0.000008,-57.633881,0.000012,
2161,2353,-2.07167981223204,-6.36785655286689,-0.0102702917713486,0.002877,0.000023,-0.000967,0.135066,0.004812,325.671549,24.158501,0.999106,0.985914,0.004684,0.377701,-0.000015,-0.000059,-0.000031,0.000001,-0.000075,-27.459124,0.000086,
2311,3073,1.06609837415759,9.31616538508462,0.0196950817873471,0.002785,-0.000168,0.000992,0.124805,0.002660,313.887567,25.241968,0.999680,0.994350,0.003173,0.324508,-0.000020,-0.000002,-0.000011,0.000003,-0.000025,-65.130181,0.000028,
2176,2488,-1.76829050627476,-3.41914966661882,-0.0136628318925887,0.002523,-0.000213,0.001146,0.112361,0.014882,323.388518,24.233650,0.999034,0.984259,0.005114,0.384168,-0.000023,0.000001,-0.000010,0.000004,-0.000027,-70.381589,0.000029,
2236,2758,-0.510161623971189,2.46803868218947,-0.0239197567529459,0.002811,-0.000077,0.003535,0.117895,0.030913,318.764675,24.505273,0.999258,0.988168,0.004245,0.389037,-0.000005,-0.000020,-0.000010,0.000000,-0.000025,-26.654736,0.000029,
2431,2023,3.88332538063087,-13.6042190036508,0.0322663908161758,0.002860,-0.000434,0.003011,0.119500,0.005497,331.086108,22.171174,0.999191,0.976841,0.005765,0.252931,-0.000060,-0.000016,0.000019,-0.000009,-0.000067,69.269826,0.000083,
2476,2308,4.80805871931203,-7.35180877422683,0.00923902836302659,0.002851,0.000314,-0.002974,0.141937,0.039144,326.409038,22.942216,0.999171,0.976559,0.005896,0.338056,0.000013,-0.000018,-0.000012,0.000017,-0.000022,-18.753871,0.000023,
2086,2293,-3.69546956627425,-7.67961041999371,-0.00651255837425424,0.002191,0.000244,-0.001958,0.106352,0.018451,326.961442,24.435778,0.999613,0.991768,0.004020,0.372076,0.000001,0.000007,0.000012,0.000017,-0.000009,51.699049,0.000017,
2176,2668,-1.79844005131709,0.505270955917005,-0.0222790930905603,0.002950,-0.000077,-0.002189,0.142498,0.007866,320.431486,24.358888,0.999635,0.991993,0.003643,0.409155,-0.000020,-0.000008,-0.000004,-0.000006,-0.000021,-72.378086,0.000029,
2296,3013,0.749949292096169,8.01322939144605,-0.000487145909062292,0.002840,-0.000087,-0.000093,0.131054,0.003838,314.719714,25.028197,0.999245,0.987122,0.004270,0.370013,-0.000019,0.000001,-0.000011,0.000005,-0.000024,-66.233028,0.000025,
2326,2038,1.58429408991061,-13.2696770836704,0.0148283919793357,0.002920,0.000509,-0.003226,0.144949,-0.001629,330.647205,22.957197,0.999271,0.982948,0.005144,0.213002,-0.000006,-0.000002,-0.000010,0.000006,-0.000014,-50.672998,0.000014,
2236,2968,-0.545432831986602,7.03199469656058,0.000585190082063036,0.002755,0.000140,0.002679,0.118245,0.025722,315.550690,24.793537,0.999426,0.991583,0.003768,0.386809,-0.000022,0.000003,-0.000004,0.000003,-0.000022,-81.252230,0.000024,
2221,2908,-0.86039969707204,5.72708734318294,-0.00116381717532477,0.003017,-0.000360,0.000563,0.137009,-0.002257,316.569168,24.665160,0.999551,0.992173,0.003830,0.375853,-0.000010,-0.000017,0.000001,-0.000010,-0.000017,9.675291,0.000028,
2431,3193,3.65141109076703,11.9289293585338,0.0323239421403514,0.002948,-0.000474,0.002127,0.127561,-0.019157,312.071337,26.010743,0.999654,0.990936,0.003659,0.351866,0.000001,0.000011,0.000002,0.000011,0.000001,77.347823,0.000013,
2311,2848,1.1058571295229,4.42750606770456,-0.00844084540534595,0.002887,-0.000138,-0.000888,0.135765,0.001279,317.336466,24.644818,0.999829,0.992721,0.003557,0.447095,-0.000017,-0.000022,-0.000001,-0.000017,-0.000022,-12.624536,0.000039,
2206,2653,-1.14416258696142,0.179831028211971,-0.0247348511500149,0.002913,-0.000214,0.003360,0.123266,0.010494,320.543433,24.327446,0.999220,0.986195,0.004744,0.413706,-0.000012,-0.000006,0.000001,-0.000005,-0.000012,83.372929,0.000018,
2251,2998,-0.22420987262479,7.68335206179627,0.0069006591659786,0.003130,-0.000440,0.003324,0.133114,0.001079,315.097873,24.831795,0.999534,0.991531,0.003745,0.407060,-0.000025,0.000004,-0.000008,0.000006,-0.000027,-75.535431,0.000029,
2341,3193,1.69587008160728,11.9211013277392,0.0300233877724168,0.002838,-0.000677,0.003264,0.119090,-0.012137,311.987869,25.580647,0.999633,0.993387,0.003474,0.361801,-0.000009,0.000005,-0.000009,0.000009,-0.000014,-64.762256,0.000014,
2251,2788,-0.189018861814549,3.12066132510568,-0.021254852783045,0.002697,-0.000250,-0.000148,0.124472,-0.000658,318.275248,24.524609,0.999371,0.988725,0.004174,0.391884,-0.000009,-0.000015,-0.000008,-0.000004,-0.000020,-35.537120,0.000026,
2371,2893,2.40189292401736,5.41054012179131,-0.0136732084545201,0.002820,-0.000031,-0.001806,0.136088,0.000492,316.547058,24.883863,0.999436,0.991862,0.003736,0.410242,-0.000023,-0.000023,-0.000009,-0.000014,-0.000032,-43.762806,0.000047,
2461,2188,4.50393705887139,-9.98012134518298,-0.00504384267850355,0.003332,0.000277,-0.001928,0.159815,0.027742,328.212788,22.492837,0.999643,0.987318,0.004683,0.382619,0.000023,-0.000023,0.000004,0.000024,-0.000023,4.993329,0.000027,
2341,2743,1.77684983520655,2.14531160039041,-0.0209992051978247,0.002879,-0.000322,0.001860,0.125730,0.012767,318.916616,24.479063,0.999518,0.989890,0.003958,0.408673,-0.000026,0.000001,-0.000009,0.000004,-0.000029,-72.787225,0.000031,
2356,2758,2.09966721260885,2.47354303116832,-0.0288634211511294,0.002678,-0.000078,0.001645,0.117268,0.019669,318.597442,24.535482,0.999488,0.989384,0.003913,0.402802,-0.000022,0.000003,-0.000012,0.000008,-0.000027,-68.005994,0.000028,
2161,2368,-2.0735655019079,-6.04019346909273,-0.00549540029385298,0.003272,-0.000065,0.000939,0.147369,0.011721,325.481472,24.200049,0.999007,0.989423,0.004251,0.354910,-0.000014,-0.000037,-0.000030,0.000007,-0.000058,-34.455842,0.000063,
2131,2278,-2.7115695689089,-8.00964408408351,0.00510475408134425,0.003336,-0.000850,0.002275,0.146104,-0.009899,327.135223,24.201643,0.998738,0.982497,0.005396,0.386052,-0.000006,-0.000019,-0.000004,-0.000004,-0.000020,-17.293662,0.000026,
2116,2428,-3.06296559236445,-4.73036601378791,-0.00495609517605544,0.003064,0.000111,0.000779,0.138583,0.025422,324.689039,24.353148,0.999328,0.987251,0.004556,0.386293,-0.000015,-0.000040,-0.000012,-0.000010,-0.000045,-21.275359,0.000059,
2326,2668,1.46382997667498,0.512424176600817,-0.0286479263879755,0.002779,-0.000289,0.000215,0.126835,-0.002378,320.077594,24.405688,0.999663,0.991229,0.003828,0.289074,-0.000017,-0.000005,-0.000006,-0.000003,-0.000020,-67.787317,0.000024,
2326,3148,1.37883306466938,10.9441554459243,0.0196861088426203,0.003432,-0.000241,-0.002489,0.166509,-0.021701,312.691940,25.404809,0.999457,0.992765,0.003587,0.357776,-0.000015,-0.000002,-0.000007,0.000001,-0.000018,-65.775989,0.000020,
2266,3178,0.0707218764261732,11.5889657081709,0.0306578085185265,0.002906,-0.000367,0.001373,0.129173,-0.015160,312.322915,25.177137,0.999480,0.991428,0.003628,0.382205,-0.000018,-0.000003,-0.000015,0.000006,-0.000027,-58.592309,0.000029,
2191,2503,-1.44384506128595,-3.0914990316757,-0.0150879835202318,0.003047,0.000132,-0.000390,0.141296,0.013432,323.115466,24.209308,0.999231,0.985693,0.004808,0.390247,-0.000013,0.000004,-0.000004,0.000004,-0.000014,-78.196958,0.000014,
2191,2773,-1.49122908912106,2.79276033289713,-0.0335185655947043,0.002988,-0.000301,0.001937,0.131382,0.012155,318.573131,24.474938,0.999288,0.989339,0.004189,0.394231,-0.000019,-0.000020,-0.000006,-0.000013,-0.000026,-41.047603,0.000040,
2131,2488,-2.74710297070159,-3.42073948047898,-0.0142389758366335,0.003022,-0.000606,0.003696,0.127690,0.000440,323.567601,24.273685,0.999369,0.986678,0.004652,0.427629,-0.000016,-0.000014,-0.000016,0.000001,-0.000031,-47.151578,0.000035,
2476,2323,4.80452836846438,-7.0243928988721,0.00790976889862804,0.003060,-0.000530,0.003893,0.125154,0.010063,326.138853,22.925439,0.999024,0.978621,0.005639,0.384261,0.000011,-0.000003,-0.000009,0.000015,-0.000007,-26.255258,0.000015,
2491,2413,5.1123399842131,-5.05443938120823,-0.00907779559094024,0.002762,-0.000258,-0.001289,0.131329,-0.001670,324.584640,23.124036,0.999425,0.987889,0.004513,0.480187,0.000021,0.000004,0.000027,0.000041,-0.000016,36.392554,0.000042,
2116,2248,-3.03395849723625,-8.66509471808309,0.00458929755274085,0.002805,-0.000200,0.000505,0.127199,-0.004647,327.658499,24.308179,0.998791,0.982692,0.005257,0.336741,-0.000020,0.000021,0.000006,0.000022,-0.000021,82.032361,0.000025,
2311,2653,1.14091844400522,0.182489596359929,-0.0138274374419325,0.002694,-0.000417,0.003076,0.113114,0.003336,320.441256,24.270667,0.999456,0.989538,0.003972,0.403065,-0.000017,-0.000005,-0.000004,-0.000004,-0.000018,-72.496005,0.000024,
2326,2908,1.42057050409056,5.7340950422938,-0.0113449175507299,0.002921,-0.000540,0.000579,0.132188,-0.006286,316.320339,24.867460,0.999203,0.990251,0.004000,0.373441,-0.000027,-0.000023,-0.000004,-0.000021,-0.000029,-59.415274,0.000050,
2161,2608,-2.11407466955866,-0.802241153118217,-0.0155550306751593,0.003226,0.000098,0.001742,0.143099,0.029093,321.512730,24.368691,0.999457,0.990393,0.004050,0.384079,-0.000015,-0.000006,0.000005,-0.000003,-0.000017,63.805230,0.000022,
2341,2698,1.7853766021476,1.16418156984321,-0.0155904671008784,0.002774,-0.000542,0.004947,0.110070,0.019238,319.678667,24.325237,0.999690,0.992637,0.003698,0.458315,-0.000024,0.000007,-0.000012,0.000011,-0.000028,-70.776271,0.000028,
2101,2188,-3.3513829843383,-9.97833806786146,0.010056529506528,0.002596,-0.000303,0.004156,0.106958,0.009965,328.716642,24.372656,0.998845,0.982889,0.005313,0.339563,-0.000012,0.000023,0.000012,0.000026,-0.000016,73.349297,0.000026,
2281,3178,0.39621022311692,11.5904589674,0.0317529328165733,0.002831,-0.000608,0.002466,0.121901,-0.025887,312.301343,25.282940,0.999609,0.992988,0.003348,0.334552,-0.000018,-0.000004,-0.000013,0.000003,-0.000026,-58.773277,0.000028,
2386,3058,2.69795181486585,8.99621871450045,0.0109039639485218,0.002815,-0.000401,0.001732,0.123159,-0.001435,314.051236,25.419671,0.999671,0.992094,0.003598,0.367910,-0.000019,-0.000003,-0.000010,0.000002,-0.000024,-64.489463,0.000026,
2146,2308,-2.3901194263388,-7.35347031125237,0.0085490183660113,0.002730,-0.000244,0.002740,0.116972,0.001794,326.591726,24.195182,0.998963,0.983653,0.005099,0.360498,-0.000006,-0.000036,-0.000010,-0.000003,-0.000038,-16.540096,0.000046,
2311,3088,1.06367549748385,9.64089778257092,0.020836473204497,0.002999,-0.000252,0.000253,0.137128,-0.007300,313.664541,25.209335,0.999723,0.995334,0.002979,0.378476,-0.000020,-0.000007,-0.000016,0.000004,-0.000030,-56.652957,0.000033,
2341,2068,1.9071001480814,-12.6150015861566,0.0260267311821849,0.002923,0.000057,-0.000297,0.134816,0.006049,330.246679,22.739734,0.998945,0.976592,0.005798,0.417956,-0.000007,0.000002,-0.000004,0.000003,-0.000008,-68.422374,0.000008,
2146,2518,-2.4265793377907,-2.76400045560826,-0.0307044910706509,0.003000,-0.000224,0.000235,0.137162,0.000299,322.893684,24.294404,0.999094,0.985771,0.004730,0.392427,-0.000013,0.000006,-0.000002,0.000006,-0.000013,-83.349736,0.000013,
2101,2398,-3.3848967081259,-5.38643870663367,-0.00112512077561178,0.002658,-0.000201,0.002936,0.113536,0.016296,325.249200,24.354065,0.999186,0.985572,0.004545,0.412067,-0.000014,-0.000031,-0.000018,-0.000002,-0.000042,-32.550284,0.000050,
2176,2683,-1.8012292257246,0.831532387297244,-0.0238411399733423,0.002974,-0.000344,0.000504,0.135188,0.009137,320.168060,24.320645,0.999446,0.990675,0.003886,0.461309,-0.000023,-0.000001,-0.000009,0.000002,-0.000026,-71.443642,0.000029,
2236,2773,-0.512539325389202,2.7938549226173,-0.0233745144120121,0.002933,-0.000117,0.002166,0.127873,0.010634,318.535712,24.492975,0.999198,0.987691,0.004244,0.402347,-0.000005,-0.000020,-0.000008,-0.000002,-0.000024,-22.551337,0.000028,
2326,2053,1.58187089246221,-12.9427261100846,0.0206919156185563,0.003079,-0.000281,0.000294,0.139825,-0.005872,330.450569,22.854725,0.999603,0.987157,0.004505,0.348625,-0.000006,0.000001,-0.000006,0.000005,-0.000010,-59.441049,0.000010,
2311,2863,1.10306210279776,4.75485976803132,-0.0106966895043001,0.003006,0.000111,-0.001258,0.142638,0.009193,317.079419,24.751234,0.999707,0.991825,0.003673,0.380493,-0.000019,-0.000016,-0.000001,-0.000016,-0.000020,-67.105136,0.000035,
2371,2908,2.3985874776255,5.73717348215762,-0.0162116938510053,0.002735,-0.000040,0.000116,0.125404,0.018203,316.269988,24.926905,0.999302,0.990387,0.003978,0.425520,-0.000023,-0.000023,-0.000009,-0.000015,-0.000032,-44.671822,0.000048,
2221,2713,-0.828219829060206,1.48675343798842,-0.0213810511799011,0.002778,-0.000441,0.002799,0.118714,0.016482,319.553696,24.380749,0.999246,0.990066,0.003920,0.434958,-0.000009,-0.000001,-0.000009,0.000005,-0.000015,-57.597210,0.000015,
2281,2953,0.434761744002504,6.70946780179814,-0.00924931506824578,0.003233,-0.000049,-0.000143,0.149330,0.014901,315.662593,24.863855,0.999337,0.989147,0.004063,0.392873,-0.000017,-0.000009,-0.000008,-0.000003,-0.000023,-58.713911,0.000028,
2086,2308,-3.69770134245449,-7.35190473165296,-0.00713915998858283,0.002510,-0.000049,0.000998,0.112403,0.003970,326.720953,24.428064,0.999393,0.989148,0.004462,0.366571,-0.000002,-0.000002,0.000006,0.000004,-0.000009,44.531626,0.000009,
2356,2113,2.22507713465646,-11.6245448061425,0.0146842593684369,0.002641,0.000234,0.000879,0.117877,0.043577,329.410780,22.920609,0.999417,0.981081,0.005239,0.306240,-0.000009,0.000000,0.000001,0.000000,-0.000009,84.621151,0.000010,
2206,2668,-1.14671778450435,0.50668697879005,-0.020370814718035,0.002582,-0.000222,0.002591,0.110461,-0.000527,320.323646,24.401233,0.999548,0.991544,0.003805,0.345833,-0.000013,-0.000001,-0.000003,0.000000,-0.000014,-76.954475,0.000016,
2176,2503,-1.77047301243184,-3.0914229293622,-0.0192775595579064,0.002964,0.000235,-0.002811,0.144992,0.005037,323.131582,24.245427,0.998936,0.983682,0.005187,0.376166,-0.000016,0.000010,-0.000005,0.000011,-0.000017,-79.836069,0.000017,
2221,2923,-0.863340180595205,6.05331852653501,-0.00256072516413042,0.002905,-0.000365,0.002090,0.126986,0.009330,316.302871,24.686654,0.999563,0.992115,0.003666,0.384225,-0.000010,-0.000013,0.000000,-0.000010,-0.000013,-6.829242,0.000024,
2131,2503,-2.75000593414799,-3.09273301603145,-0.0251928495653715,0.003099,-0.000109,0.001156,0.138961,0.001955,323.244938,24.250609,0.999162,0.985280,0.004770,0.459183,-0.000010,-0.000001,-0.000010,0.000005,-0.000016,-56.435717,0.000017,
2281,3193,0.393660030665217,11.9156852164907,0.0324605918790439,0.002881,-0.000387,0.001305,0.128253,-0.009280,312.067815,25.292242,0.999667,0.993174,0.003280,0.368445,-0.000016,-0.000007,-0.000012,0.000001,-0.000025,-55.592238,0.000028,
2356,2773,2.09753248111423,2.80055599472055,-0.0268889654485065,0.002893,0.000355,-0.002813,0.143046,0.033962,318.395148,24.611923,0.999549,0.990317,0.003736,0.379593,-0.000024,-0.000003,-0.000013,0.000003,-0.000030,-64.867948,0.000032,
2401,3163,3.00504115659757,11.2756280430858,0.0271035261671386,0.002979,-0.000596,0.001363,0.131943,-0.013506,312.487838,25.773751,0.999666,0.992984,0.003353,0.363690,-0.000003,0.000002,0.000000,0.000002,-0.000003,87.317484,0.000003,
2206,2833,-1.17343423800639,4.09672622707666,-0.0103833727319511,0.003427,-0.000142,0.000046,0.157608,0.015323,317.773343,24.553961,0.999196,0.990078,0.004041,0.393764,-0.000013,-0.000009,0.000007,-0.000004,-0.000018,53.130832,0.000024,
2191,2788,-1.49370568027718,3.11858924495392,-0.0287805734694757,0.002773,-0.000117,0.002340,0.120302,0.017868,318.357998,24.474719,0.998970,0.987165,0.004589,0.414666,-0.000022,-0.000018,-0.000005,-0.000015,-0.000025,-56.741765,0.000040,
2191,2518,-1.44649454137302,-2.76627341336571,-0.00374173929674271,0.002541,-0.000602,0.005268,0.100099,0.012072,322.927107,24.142058,0.999420,0.987834,0.004491,0.471343,-0.000011,0.000003,0.000001,0.000003,-0.000011,84.132540,0.000012,
2296,3283,0.701094889525905,13.8693745326574,0.00753414249265916,0.003005,-0.000156,-0.000782,0.141192,0.006860,310.376027,25.517465,0.999516,0.992384,0.003369,0.402009,-0.000010,0.000019,-0.000019,0.000028,-0.000019,-63.533170,0.000029,
2161,2623,-2.11743671044177,-0.474580179207187,-0.0240221275778367,0.003028,-0.000331,0.003193,0.129404,0.021002,321.185209,24.389686,0.999532,0.990866,0.003955,0.365981,-0.000012,-0.000014,0.000000,-0.000012,-0.000014,5.310806,0.000026,
2356,2788,2.09516242587037,3.12634716146064,-0.022412529104372,0.003085,0.000162,-0.001959,0.148830,0.029083,318.194396,24.618854,0.999710,0.993191,0.003450,0.406645,-0.000022,-0.000006,-0.000011,-0.000001,-0.000028,-63.806074,0.000033,
2161,2383,-2.07685256828805,-5.71192013223711,-0.0120022040449044,0.002878,0.000063,0.000689,0.130102,0.022538,325.167834,24.189441,0.998998,0.987617,0.004502,0.388142,-0.000016,-0.000026,-0.000030,0.000010,-0.000051,-40.023614,0.000055,
2476,2338,4.80099719627903,-6.69531351994989,0.00702782565997495,0.002655,-0.000523,0.003701,0.107327,0.003442,325.870273,23.048158,0.998702,0.980518,0.005606,0.313491,0.000006,-0.000009,-0.000011,0.000012,-0.000015,-28.111764,0.000016,
2341,2953,1.73896931707135,6.71321823257182,-0.00710827897307809,0.003128,0.000018,-0.002015,0.150929,0.000086,315.634611,25.025122,0.999224,0.990733,0.003919,0.359370,-0.000029,-0.000021,-0.000013,-0.000011,-0.000038,-53.754885,0.000052,
2296,3028,0.748359621300924,8.3386401382954,0.00240228068969373,0.003578,-0.000123,-0.002951,0.174705,0.000482,314.542568,25.048326,0.999370,0.989153,0.003973,0.375780,-0.000017,-0.000003,-0.000013,0.000005,-0.000024,-59.372071,0.000026,
2116,2443,-3.06559546349149,-4.40416424860268,-0.00949013962048184,0.003023,0.000074,-0.000647,0.140884,0.008156,324.412267,24.220179,0.999343,0.988071,0.004534,0.506924,-0.000017,-0.000035,-0.000014,-0.000009,-0.000043,-28.835948,0.000056,
2326,2683,1.46095985191227,0.83863197473697,-0.028562092151617,0.002845,-0.000223,0.002318,0.122691,0.014954,319.830589,24.362929,0.999716,0.991682,0.003802,0.384012,-0.000018,0.000008,-0.000008,0.000010,-0.000021,-74.064220,0.000021,
2431,3208,3.64809626266431,12.2545343009241,0.0278436120800052,0.002978,-0.000361,0.002251,0.128500,-0.020201,311.788423,26.048465,0.999590,0.989243,0.004027,0.361760,0.000003,0.000010,0.000002,0.000010,0.000002,74.834882,0.000013,
2386,3073,2.69474615700434,9.32218735064725,0.00564266247471323,0.002830,-0.000174,0.000564,0.128151,0.003967,313.766501,25.442312,0.999642,0.991689,0.003655,0.392996,-0.000015,0.000001,-0.000010,0.000005,-0.000020,-64.913508,0.000021,
2491,2428,5.10969095854016,-4.72514762923764,-0.00896047818861234,0.003228,0.000247,-0.000913,0.151509,0.039657,324.361582,23.259523,0.999383,0.986747,0.004637,0.446456,0.000016,0.000026,0.000028,0.000049,-0.000008,50.080107,0.000053,
2431,2038,3.88083280485022,-13.2750887174203,0.0358170848101622,0.003155,-0.000010,0.004248,0.128604,0.047040,330.882986,22.190467,0.999161,0.976369,0.005817,0.328511,-0.000050,-0.000029,0.000020,-0.000017,-0.000062,59.252582,0.000083,
2371,2923,2.39601601998355,6.06349051031855,-0.0122015223574863,0.002778,-0.000028,0.000789,0.124999,0.023327,316.058091,25.004610,0.999300,0.989667,0.004068,0.393529,-0.000023,-0.000023,-0.000011,-0.000013,-0.000034,-44.849641,0.000048,
2221,2728,-0.830337793799547,1.81326525710929,-0.0211102741142213,0.003061,-0.000234,0.000114,0.140373,0.005845,319.333984,24.406669,0.999269,0.990142,0.003877,0.417418,-0.000009,-0.000007,-0.000009,0.000000,-0.000017,-47.577743,0.000019,
2356,2128,2.22236591012264,-11.2965904338347,0.0160490011998036,0.002657,0.000147,0.000990,0.118241,0.026628,329.181323,22.899107,0.999239,0.981641,0.005265,0.352490,-0.000007,0.000003,-0.000002,0.000004,-0.000008,-77.566697,0.000008,
2146,2533,-2.42873890583237,-2.43806113393844,-0.0174022950186554,0.002641,-0.000357,0.003631,0.110346,0.015838,322.735490,24.297356,0.999291,0.987486,0.004334,0.413703,-0.000016,0.000004,-0.000001,0.000004,-0.000016,-88.101693,0.000016,
2326,3163,1.37617777942113,11.2694192650801,0.0252849691378856,0.003325,-0.000311,-0.000322,0.154122,-0.007823,312.480697,25.443646,0.999621,0.993988,0.003381,0.365840,-0.000014,0.000004,-0.000007,0.000006,-0.000016,-70.074609,0.000017,
2281,2968,0.432412189634523,7.03550770027339,-0.00663647487573371,0.003233,0.000014,-0.002684,0.157858,0.013049,315.448072,24.923299,0.999403,0.989708,0.003934,0.358367,-0.000019,0.000000,-0.000009,0.000003,-0.000023,-67.723006,0.000025,
2266,2938,0.110762834523438,6.38126921649734,-0.0066493186596972,0.002603,-0.000543,0.004889,0.103430,-0.005506,315.906770,24.721541,0.999535,0.991252,0.003761,0.453642,-0.000013,-0.000009,-0.000003,-0.000008,-0.000015,-61.854179,0.000023,
2236,2983,-0.547553507986937,7.35740496008012,0.00651393923209298,0.002742,-0.000006,0.000930,0.123327,0.021161,315.360777,24.822943,0.999441,0.992058,0.003723,0.373367,-0.000023,0.000009,-0.000002,0.000009,-0.000023,-86.353485,0.000023,
2176,2698,-1.80393040152345,1.15888287870115,-0.0254753363449822,0.003042,-0.000329,0.002379,0.132490,0.012183,319.907973,24.384725,0.999474,0.990533,0.003818,0.412931,-0.000022,-0.000005,-0.000007,-0.000003,-0.000025,-70.307892,0.000030,
2326,2068,1.57874776092611,-12.6137190501444,0.0170177317946241,0.003035,-0.000119,0.000751,0.136296,-0.000633,330.175230,22.829165,0.999389,0.982163,0.005172,0.417403,-0.000008,0.000008,-0.000002,0.000008,-0.000008,-84.214241,0.000009,
2131,2293,-2.71487201841668,-7.68104524786895,-0.000260428761407638,0.002787,-0.000681,0.002162,0.121293,-0.013939,326.824151,24.212570,0.998762,0.984226,0.005136,0.379037,0.000000,-0.000021,0.000005,0.000001,-0.000022,11.679216,0.000024,
2341,3208,1.69346701151875,12.2454757478746,0.0345638553840217,0.002868,-0.000406,0.002605,0.122798,-0.012644,311.784121,25.555459,0.999659,0.993348,0.003346,0.421938,-0.000006,0.000005,-0.000008,0.000010,-0.000010,-61.766812,0.000011,
2251,2803,-0.191942192660111,3.44779605035652,-0.0267150696132035,0.002916,0.000010,0.001046,0.130801,0.025900,317.991423,24.549483,0.999389,0.988817,0.004305,0.416985,-0.000010,-0.000022,-0.000006,-0.000008,-0.000024,-22.477713,0.000033,
2176,2518,-1.7730374058451,-2.76459457178853,-0.0175382535577455,0.002960,-0.000017,-0.000351,0.137113,0.007021,322.895731,24.235086,0.999069,0.986072,0.004762,0.401730,-0.000013,0.000008,0.000001,0.000008,-0.000013,85.974807,0.000013,
2326,2923,1.41803003521376,6.05930389303428,-0.00476349008204124,0.002929,-0.000369,0.003923,0.121048,-0.000498,316.119858,24.859894,0.998656,0.987772,0.004506,0.420413,-0.000027,-0.000020,-0.000007,-0.000015,-0.000031,-58.692713,0.000047,
2356,3028,2.05103280171926,8.34285830606537,0.00904422741223243,0.002538,-0.000509,0.003902,0.102876,0.000369,314.495357,25.270498,0.999628,0.991782,0.003653,0.340192,-0.000028,-0.000003,-0.000016,0.000005,-0.000036,-64.379108,0.000039,
2476,2353,4.79837853377756,-6.36757148191388,0.00808361051474549,0.003169,-0.000843,0.005638,0.123407,0.014213,325.652361,23.055075,0.998814,0.983538,0.005445,0.375908,0.000012,-0.000005,0.000000,0.000012,-0.000005,-0.596678,0.000012,
2311,3103,1.06036470763596,9.96692123341437,0.0207132144886373,0.002453,-0.000139,-0.000095,0.113311,0.011310,313.393940,25.263151,0.999454,0.993004,0.003521,0.374345,-0.000018,-0.000006,-0.000014,0.000003,-0.000028,-56.805296,0.000030,
2296,3298,0.696972215033597,14.1951525977209,-0.00551902863605847,0.002921,-0.000481,0.003361,0.123181,0.002776,310.002058,25.552455,0.999660,0.994098,0.003154,0.391156,-0.000006,0.000024,-0.000020,0.000033,-0.000016,-63.671031,0.000033,
2341,2758,1.77415097687733,2.47200943940887,-0.0182107208275397,0.002818,-0.000069,0.002307,0.121529,0.032267,318.691396,24.522773,0.999591,0.989908,0.003976,0.421160,-0.000023,-0.000001,-0.000007,0.000001,-0.000026,-73.343923,0.000029,
2311,2878,1.09956787618018,5.0818687639168,-0.0188731081738069,0.002845,0.000002,-0.001944,0.137558,0.004620,316.761126,24.799731,0.999587,0.990119,0.003913,0.359389,-0.000017,-0.000018,0.000001,-0.000016,-0.000019,31.866512,0.000035,
2431,2053,3.87752846921677,-12.9450445459817,0.0279034141050261,0.003254,-0.000130,0.001497,0.143208,0.017358,330.589982,22.241390,0.998881,0.975791,0.005998,0.301456,-0.000043,-0.000030,0.000019,-0.000016,-0.000056,54.513292,0.000076,
2341,2083,1.90400509337393,-12.283945527241,0.0259470387233591,0.002975,-0.000382,0.003890,0.122528,0.021518,329.991107,22.935978,0.999364,0.981002,0.005304,0.277285,-0.000006,0.000012,-0.000003,0.000013,-0.000007,-81.391829,0.000013,
2266,3193,0.0679635938471641,11.9149221804888,0.0282324973813957,0.003006,-0.000166,0.000927,0.135422,0.002251,312.062728,25.234441,0.999558,0.991567,0.003535,0.366755,-0.000018,-0.000007,-0.000014,0.000003,-0.000028,-55.396675,0.000030,
2401,3178,3.00178985881953,11.6008612799268,0.0276561427693878,0.002765,-0.000480,0.003348,0.114911,-0.011163,312.229520,25.795380,0.999605,0.992717,0.003435,0.388563,-0.000001,0.000002,0.000000,0.000002,-0.000001,-87.151674,0.000002,
2221,2938,-0.865922219880179,6.37951541236169,-0.00769479019726305,0.003292,-0.000241,0.001889,0.145505,0.009400,316.033831,24.694470,0.999580,0.993107,0.003437,0.395136,-0.000015,-0.000011,-0.000004,-0.000008,-0.000017,-60.191582,0.000026,
2116,2263,-3.03693061098576,-8.33692526930766,0.00308440627634354,0.002572,-0.000512,0.004600,0.104355,0.019601,327.381741,24.279672,0.998814,0.983178,0.005252,0.395500,-0.000016,0.000006,0.000004,0.000006,-0.000017,80.483013,0.000017,
2086,2323,-3.69956462845822,-7.02429979760777,-0.00640449991868763,0.002989,0.000050,0.002022,0.131538,0.027403,326.504560,24.391976,0.999150,0.987727,0.004653,0.426931,-0.000005,-0.000022,-0.000001,-0.000004,-0.000022,-3.481367,0.000028,
2296,3043,0.746177181438622,8.66384427564762,0.0120844897928691,0.003645,-0.000400,-0.000088,0.167980,-0.008031,314.371958,25.102949,0.999408,0.989717,0.003917,0.341477,-0.000017,-0.000002,-0.000015,0.000008,-0.000026,-58.376012,0.000027,
2431,3223,3.64508384440915,12.5799452739774,0.0292594133417765,0.002816,-0.000611,0.002146,0.121392,-0.025976,311.546917,26.111173,0.999491,0.990742,0.003863,0.341807,0.000004,0.000004,0.000003,0.000007,0.000001,45.753156,0.000008,
2461,2203,4.50017554241149,-9.65125952853327,-0.00938355257568446,0.002964,0.000169,-0.001938,0.142959,0.003038,327.917447,22.530988,0.999218,0.981974,0.005283,0.376820,0.000024,-0.000021,-0.000008,0.000025,-0.000022,-10.088803,0.000028,
2191,2533,-1.4497650976075,-2.4373923248142,-0.0130043059443778,0.002528,-0.000526,0.006357,0.096121,0.026170,322.602398,24.213262,0.999411,0.988462,0.004270,0.430089,-0.000012,0.000003,0.000002,0.000003,-0.000012,81.606892,0.000013,
2101,2203,-3.35392301320896,-9.65027870965884,0.0121094157689754,0.002450,-0.000651,0.007011,0.091813,0.013856,328.477604,24.369572,0.998521,0.981056,0.005439,0.350411,-0.000012,0.000022,0.000007,0.000023,-0.000013,78.629079,0.000023,
2206,2848,-1.17684562585803,4.42327595268958,-0.0158534037827849,0.003149,-0.000341,0.002377,0.137347,0.005601,317.463275,24.574035,0.999265,0.990661,0.003845,0.380399,-0.000012,-0.000017,0.000007,-0.000007,-0.000022,35.166420,0.000031,
2176,2713,-1.80631671562316,1.48580465027026,-0.0249682559731355,0.002923,-0.000041,-0.000990,0.137577,0.010176,319.673639,24.436599,0.999345,0.989531,0.004018,0.371545,-0.000021,-0.000010,-0.000006,-0.000007,-0.000024,-66.029421,0.000033,
2281,3208,0.391375058777047,12.2410141499039,0.0395794456671297,0.002582,-0.000139,-0.001884,0.125278,0.001061,311.878548,25.358100,0.999827,0.995109,0.002868,0.339180,-0.000015,-0.000008,-0.000010,0.000000,-0.000022,-53.887958,0.000026,
2206,2683,-1.14883773454776,0.833679714887047,-0.026372083256831,0.003148,0.000155,-0.001863,0.150729,0.004129,320.070209,24.390394,0.999673,0.993049,0.003553,0.378612,-0.000017,0.000008,-0.000008,0.000011,-0.000019,-74.550041,0.000019,
2251,3013,-0.227110337000173,8.0092511777944,0.00613556613035371,0.002872,-0.000319,0.002050,0.125436,-0.002737,314.838858,24.867888,0.999372,0.990233,0.003887,0.389787,-0.000024,-0.000002,-0.000012,0.000003,-0.000030,-66.231050,0.000033,
2161,2638,-2.12044329890506,-0.147590855027133,-0.025750531081087,0.002692,-0.000398,0.004069,0.111287,0.018858,320.909582,24.405924,0.999746,0.993344,0.003524,0.358051,-0.000009,-0.000019,-0.000002,-0.000009,-0.000019,-10.659154,0.000028,
2236,2788,-0.514879975062062,3.12038242531681,-0.0235472459935977,0.002966,0.000173,-0.001745,0.142195,0.017279,318.304510,24.517940,0.999362,0.989004,0.004156,0.405241,-0.000008,-0.000017,-0.000004,-0.000007,-0.000019,-21.456334,0.000027,
2266,2953,0.109168385515222,6.70825984822504,-0.00584153093967643,0.003261,0.000062,-0.000521,0.151918,0.018825,315.716557,24.825164,0.999290,0.987463,0.004297,0.399543,-0.000018,-0.000006,-0.000005,-0.000005,-0.000020,-69.796073,0.000026,
2161,2398,-2.0781081448993,-5.38561153670879,-0.00560308835997603,0.003370,0.000422,-0.003646,0.166098,0.011263,325.015482,24.150143,0.999022,0.986172,0.004659,0.427521,-0.000017,-0.000027,-0.000029,0.000007,-0.000052,-39.918294,0.000056,
2101,2413,-3.3873242327152,-5.05875907855845,0.00179484749253334,0.002681,-0.000515,0.007150,0.102222,0.040905,325.020022,24.374183,0.999219,0.986067,0.004590,0.419221,-0.000017,-0.000032,-0.000018,-0.000005,-0.000044,-33.644319,0.000053,
2311,2668,1.13813043313491,0.510792958642092,-0.0205279923033004,0.002875,-0.000062,-0.000932,0.135262,0.001733,320.163096,24.376818,0.999781,0.992099,0.003627,0.328296,-0.000014,-0.000003,-0.000008,0.000001,-0.000018,-62.755528,0.000020,
2236,2998,-0.549932418652695,7.68239590212396,0.00601902123713671,0.003131,-0.000302,0.002090,0.137349,0.001159,315.126336,24.788957,0.999423,0.990901,0.003853,0.407697,-0.000024,0.000007,-0.000004,0.000008,-0.000025,-82.875633,0.000026,
2146,2323,-2.39277212338793,-7.02491988365782,0.00307324690413679,0.002731,-0.000112,0.000458,0.123965,0.006757,326.311157,24.202522,0.999373,0.983804,0.004995,0.368200,-0.000004,-0.000044,-0.000015,0.000001,-0.000049,-18.812290,0.000056,
2326,2698,1.45846956455884,1.16417364602194,-0.0240345454686803,0.002760,-0.000191,0.001830,0.120476,0.022728,319.622875,24.309370,0.999554,0.990754,0.003937,0.480152,-0.000023,0.000007,-0.000007,0.000009,-0.000024,-76.791344,0.000025,
2326,2938,1.41560504682674,6.38517481547055,-0.00287964587101897,0.003006,-0.000545,0.001875,0.131579,-0.019460,315.901499,24.908059,0.998870,0.988079,0.004427,0.387192,-0.000024,-0.000016,-0.000008,-0.000011,-0.000029,-58.534073,0.000042,
2341,2968,1.73596367201815,7.03983060277991,-0.00658923560598623,0.003084,-0.000124,0.000278,0.140935,0.010568,315.383592,25.111325,0.999879,0.997637,0.002622,0.319581,-0.000033,-0.000016,-0.000015,-0.000007,-0.000042,-59.327067,0.000052,
2326,3178,1.37341682715017,11.595060813811,0.019511293282676,0.003631,-0.000126,-0.002656,0.176377,-0.003155,312.208642,25.462074,0.999644,0.993886,0.003446,0.385508,-0.000014,0.000003,-0.000010,0.000008,-0.000018,-65.716692,0.000018,
2341,2098,1.90035332590436,-11.9549211980082,0.0211935332108624,0.002609,-0.000634,0.005492,0.100122,0.009624,329.687769,22.928605,0.999552,0.982538,0.005043,0.312739,-0.000008,0.000006,-0.000004,0.000007,-0.000009,-75.585659,0.000010,
2311,3118,1.05812601137457,10.2923783648187,0.0210136317390948,0.002914,-0.000192,-0.000893,0.137233,0.006810,313.174910,25.294287,0.999272,0.991606,0.003841,0.370016,-0.000017,-0.000005,-0.000012,0.000002,-0.000025,-57.739674,0.000027,
2476,2368,4.79465943946095,-6.03763312669118,-0.000289023280288347,0.003071,-0.000425,0.003891,0.125732,0.028377,325.340884,23.173183,0.999582,0.986222,0.004937,0.330782,0.000016,0.000011,0.000011,0.000025,0.000002,38.321387,0.000030,
2431,2068,3.87346881660867,-12.6156693504759,0.0260410871408681,0.002501,-0.000578,0.003636,0.100743,0.002574,330.290216,22.290336,0.998492,0.973444,0.006433,0.291308,-0.000038,-0.000026,0.000019,-0.000012,-0.000052,53.828412,0.000068,
2491,2443,5.10665464034036,-4.39695349251463,-0.00635160258241285,0.003013,0.000132,-0.001514,0.143910,0.012618,324.132248,23.391181,0.999002,0.983321,0.004956,0.348095,0.000022,-0.000002,0.000030,0.000043,-0.000022,34.133410,0.000043,
2131,2308,-2.71707043832634,-7.35243054389543,-0.00180522471481481,0.002913,-0.000183,-0.000720,0.135858,-0.006363,326.583818,24.257162,0.998940,0.984520,0.005071,0.349934,-0.000002,-0.000031,-0.000003,-0.000002,-0.000031,-6.853008,0.000037,
2341,3223,1.69042003104743,12.5717904170448,0.0298044731155755,0.002939,-0.000486,0.001557,0.129768,-0.014560,311.504692,25.660653,0.999539,0.992559,0.003401,0.349995,-0.000004,0.000007,-0.000011,0.000014,-0.000010,-58.444125,0.000015,
2461,2218,4.49817678158114,-9.32350119255949,-0.000538898408535715,0.003341,0.000120,-0.001045,0.156856,0.011733,327.762897,22.577724,0.999483,0.985289,0.005070,0.395445,0.000022,-0.000029,-0.000010,0.000024,-0.000031,-11.217329,0.000032,
2341,2773,1.77202426019062,2.79837199537393,-0.0106574758540887,0.003138,-0.000297,0.004968,0.126837,0.024551,318.515689,24.604146,0.999612,0.991959,0.003647,0.368678,-0.000024,-0.000006,-0.000008,-0.000003,-0.000027,-68.730766,0.000033,
2206,2698,-1.15244481662629,1.16029200413357,-0.0335789261385457,0.002942,-0.000158,0.002801,0.126433,0.019311,319.742382,24.329967,0.999450,0.991859,0.003691,0.471478,-0.000016,0.000004,-0.000007,0.000006,-0.000018,-72.983549,0.000018,
2386,3088,2.69212015155268,9.64674202110066,0.0145506124955546,0.002603,-0.000727,0.003108,0.108288,-0.021907,313.576315,25.460637,0.999446,0.990435,0.003868,0.390845,-0.000016,-0.000004,-0.000012,0.000004,-0.000023,-58.161242,0.000025,
2146,2338,-2.39559860187631,-6.69682751558196,0.0018450549047202,0.002647,-0.000294,0.003771,0.110081,0.024307,326.045118,24.203148,0.999374,0.985798,0.004668,0.395070,-0.000008,-0.000046,-0.000018,-0.000001,-0.000053,-21.903007,0.000062,
2251,2818,-0.193786363818045,3.77331280270615,-0.0205332817625958,0.002914,0.000348,-0.004237,0.148078,0.011806,317.816608,24.559928,0.999575,0.990259,0.004138,0.415584,-0.000007,-0.000019,0.000000,-0.000007,-0.000019,-1.357147,0.000027,
2401,3193,2.99908936100944,11.9263224814128,0.0295953853936339,0.002730,-0.000575,0.001996,0.118230,-0.008446,312.002995,25.849481,0.999563,0.992017,0.003505,0.381403,-0.000001,0.000004,0.000001,0.000004,-0.000001,79.284961,0.000004,
2371,2938,2.39346140570472,6.38885283654298,-0.00541774198791245,0.002835,-0.000546,0.004221,0.115201,0.009671,315.860499,25.036447,0.999230,0.988388,0.004230,0.388463,-0.000021,-0.000022,-0.000014,-0.000008,-0.000035,-43.416385,0.000046,
2146,2548,-2.43079664012482,-2.11171663063073,-0.0149358165312492,0.002777,-0.000338,0.002112,0.121200,0.001556,322.524588,24.273923,0.999073,0.985841,0.004585,0.431494,-0.000012,0.000000,0.000003,0.000001,-0.000013,76.749194,0.000014,
2431,3238,3.64118769078738,12.9056295044407,0.0201248368013012,0.002680,-0.000541,0.002748,0.112974,-0.013859,311.215313,26.125262,0.999476,0.992199,0.003668,0.388507,0.000004,-0.000001,0.000003,0.000006,-0.000002,22.800008,0.000006,
2266,3208,0.0650154559039073,12.2406675102141,0.0273955866284155,0.002881,-0.000186,0.001563,0.127583,0.006974,311.801860,25.298338,0.999739,0.994280,0.003125,0.331502,-0.000016,-0.000007,-0.000013,0.000002,-0.000025,-54.611711,0.000028,
2191,2803,-1.49585434417221,3.44503930801118,-0.0251353716687959,0.002908,0.000003,0.001893,0.127952,0.022751,318.152038,24.527673,0.998977,0.986865,0.004583,0.380865,-0.000021,-0.000021,-0.000004,-0.000017,-0.000025,-44.496198,0.000042,
2131,2518,-2.7520027459576,-2.76628689864398,-0.0105117174426823,0.002880,-0.000490,0.005840,0.114788,0.015109,323.100694,24.310181,0.999227,0.985809,0.004647,0.419371,-0.000010,0.000000,0.000000,0.000000,-0.000010,-89.030231,0.000011,
2086,2338,-3.70118178802592,-6.69698552177601,0.00186871676595501,0.002943,0.000529,-0.001682,0.140259,0.035444,326.340457,24.423741,0.998929,0.985599,0.004857,0.403915,-0.000011,-0.000029,-0.000001,-0.000011,-0.000029,-3.793991,0.000041,
2356,3043,2.04831638064258,8.66841100177896,0.00470297161763256,0.002935,-0.000387,0.002997,0.124419,0.011448,314.235305,25.246029,0.999651,0.991847,0.003599,0.414062,-0.000029,0.000000,-0.000017,0.000008,-0.000037,-65.633514,0.000039,
2326,2083,1.57552561608346,-12.2816801018999,0.012526291315794,0.002891,0.000000,-0.000005,0.132377,0.020209,329.890931,23.061506,0.999539,0.983388,0.005203,0.243886,-0.000009,0.000019,-0.000001,0.000019,-0.000009,-88.922597,0.000019,
2176,2533,-1.77546366606896,-2.43730843029599,-0.0156815177754197,0.003025,0.000062,0.001184,0.135449,0.027241,322.666641,24.254077,0.999096,0.987279,0.004412,0.416253,-0.000014,0.000008,0.000002,0.000008,-0.000014,85.508579,0.000014,
2206,2863,-1.17888098763186,4.74847129025753,-0.00990741809800966,0.003152,-0.000279,0.000358,0.143874,-0.006925,317.275770,24.561872,0.999329,0.991868,0.003587,0.396533,-0.000013,-0.000015,0.000004,-0.000010,-0.000017,37.808871,0.000028,
2311,2683,1.13566440302641,0.836579787776486,-0.0163421877227847,0.003031,-0.000072,0.001447,0.134358,0.024695,319.953758,24.322763,0.999741,0.991257,0.003764,0.437741,-0.000014,0.000010,-0.000009,0.000014,-0.000017,-71.259641,0.000018,
2281,2983,0.429504375138503,7.3604086270854,-0.00588592435821056,0.003175,-0.000222,-0.000182,0.146702,-0.006152,315.198915,24.886350,0.999410,0.990151,0.003899,0.403229,-0.000019,0.000004,-0.000007,0.000006,-0.000021,-74.260728,0.000022,
2431,2083,3.86989425535667,-12.284850497864,0.0198014052469944,0.002727,-0.000851,0.007388,0.097185,0.016408,329.992101,22.399734,0.998819,0.976712,0.006171,0.249391,-0.000033,-0.000013,0.000018,-0.000003,-0.000044,59.318292,0.000052,
2326,2953,1.41282259503982,6.71242111025342,-0.00510156128302697,0.003071,0.000050,0.000261,0.140380,0.003085,315.646094,25.016684,0.998905,0.987971,0.004618,0.334952,-0.000024,-0.000017,-0.000009,-0.000011,-0.000030,-55.927904,0.000042,
2191,2548,-1.45227621215037,-2.11043331596272,-0.0122843299045599,0.002308,-0.000288,0.003451,0.095238,0.026394,322.364778,24.216754,0.999564,0.990042,0.004020,0.442087,-0.000012,0.000002,0.000003,0.000003,-0.000013,77.083831,0.000014,
2296,3058,0.74286608611234,8.98926745220059,0.00996885243461065,0.003155,0.000037,-0.001258,0.149556,0.004981,314.090694,25.082455,0.999562,0.992428,0.003546,0.404074,-0.000017,-0.000009,-0.000011,-0.000001,-0.000025,-55.539686,0.000030,
2431,3253,3.63750191057487,13.2319799043845,0.0097484094666811,0.002780,-0.000508,0.002395,0.118903,-0.013337,310.887286,26.210512,0.999557,0.992287,0.003509,0.352154,0.000005,-0.000002,0.000000,0.000005,-0.000002,-2.101214,0.000005,
2266,2968,0.106186743010312,7.03421256123095,-0.00629764338566474,0.003005,-0.000046,-0.000630,0.140572,0.034737,315.456532,24.837246,0.999457,0.990721,0.003844,0.428296,-0.000020,0.000002,-0.000005,0.000003,-0.000021,-77.180786,0.000023,
2221,2953,-0.868433804615357,6.70522619017605,-0.0024156593740372,0.003138,-0.000385,0.003332,0.133723,0.011433,315.821663,24.733292,0.999453,0.991515,0.003740,0.376494,-0.000018,-0.000009,-0.000004,-0.000007,-0.000020,-68.593463,0.000028,
2311,2893,1.09662304627009,5.40871283430064,-0.0220231608951167,0.002929,-0.000090,-0.001688,0.140511,-0.000522,316.492838,24.875541,0.999524,0.991199,0.003755,0.310193,-0.000015,-0.000027,0.000002,-0.000015,-0.000027,8.035112,0.000042,
2341,2983,1.73343654518607,7.36434316955807,0.000544314663954992,0.002904,-0.000485,0.001203,0.129225,-0.019257,315.187363,25.093774,0.999764,0.995129,0.003058,0.343034,-0.000032,-0.000013,-0.000013,-0.000006,-0.000039,-63.071864,0.000049,
2131,2323,-2.71912481024756,-7.02435440311814,-0.00172194662906122,0.003039,0.000293,-0.004167,0.152091,0.010332,326.358803,24.264903,0.999249,0.985300,0.004827,0.366495,-0.000001,-0.000039,-0.000010,0.000002,-0.000042,-13.842945,0.000047,
2386,3103,2.68978238743552,9.97214160810121,0.0176428540504503,0.002776,-0.000584,0.001256,0.123025,-0.012001,313.371369,25.487200,0.999136,0.988724,0.004136,0.416520,-0.000012,-0.000002,-0.000005,0.000001,-0.000015,-67.490210,0.000017,
2401,3208,2.9965533570481,12.2513353470483,0.0317364151670745,0.002797,-0.000429,0.000090,0.128297,-0.011293,311.785093,25.872467,0.999509,0.991716,0.003673,0.399842,-0.000001,0.000001,0.000002,0.000002,-0.000002,58.759212,0.000002,
2266,3223,0.0621320485957106,12.5655145182297,0.0261675471421654,0.002824,-0.000074,0.001879,0.123992,0.016777,311.542283,25.276000,0.999813,0.995288,0.003054,0.387884,-0.000014,-0.000004,-0.000016,0.000008,-0.000025,-54.147760,0.000026,
2191,2818,-1.49824363997482,3.77047810966766,-0.0234063494689849,0.002848,-0.000182,0.000236,0.130347,0.009091,317.925389,24.495556,0.998615,0.984954,0.004804,0.413733,-0.000019,-0.000016,0.000001,-0.000016,-0.000020,71.604289,0.000036,
2491,2458,5.10314866672369,-4.06902440133909,-0.00728681860027791,0.002910,-0.000039,0.001310,0.128294,0.016463,323.865250,23.439354,0.999178,0.985498,0.004657,0.364003,0.000026,0.000002,0.000025,0.000042,-0.000014,32.042896,0.000042,
2311,1993,1.26559222554047,-14.2594729058245,0.0312823831015976,0.002830,-0.000007,0.001620,0.123987,0.009819,331.493745,22.934807,0.999217,0.978473,0.006105,0.238252,-0.000012,0.000026,-0.000036,0.000048,-0.000033,-58.927601,0.000049,
2371,2953,2.39036762595363,6.7148556348932,-0.00541828806422018,0.002647,-0.000850,0.004631,0.104969,-0.010273,315.605375,25.089424,0.999315,0.988705,0.004216,0.355871,-0.000020,-0.000023,-0.000013,-0.000008,-0.000034,-41.266684,0.000045,
2356,2803,2.09288504248429,3.45212558724087,-0.0149900750232632,0.003145,0.000158,-0.001086,0.148514,0.028443,318.012055,24.646816,0.999813,0.994816,0.003269,0.416783,-0.000022,-0.000015,-0.000008,-0.000009,-0.000027,-55.856108,0.000038,
2356,2143,2.2197218082536,-10.9681321241702,0.0201333648383297,0.002797,-0.000526,0.004401,0.112398,0.022971,328.967816,22.944714,0.998783,0.978568,0.005703,0.344914,-0.000010,-0.000010,-0.000005,-0.000005,-0.000015,-44.820846,0.000021,
2341,3238,1.68732764569726,12.897407807275,0.0242720763234274,0.003087,-0.000461,0.001351,0.137362,-0.002603,311.219585,25.687764,0.999424,0.991451,0.003575,0.370300,0.000000,0.000004,-0.000012,0.000015,-0.000010,-49.068686,0.000015,
2101,2428,-3.38950212355947,-4.73067155975491,-0.0039426719188782,0.003122,-0.000382,0.005336,0.127843,0.022327,324.755638,24.397562,0.999432,0.986952,0.004434,0.380139,-0.000016,-0.000042,-0.000005,-0.000015,-0.000043,-11.508545,0.000060,
2221,2743,-0.833929161422777,2.14044259663106,-0.0252942082016716,0.002691,-0.000566,0.004623,0.108833,0.009053,319.023574,24.449118,0.999332,0.989150,0.004096,0.397499,-0.000012,-0.000016,-0.000011,-0.000003,-0.000025,-40.190824,0.000030,
2326,2098,1.57299562509062,-11.9558480756243,0.0177325383772313,0.002836,-0.000187,0.001598,0.124296,0.002191,329.686296,22.878752,0.999514,0.982266,0.005201,0.446113,-0.000013,0.000013,-0.000003,0.000013,-0.000013,-83.629397,0.000015,
2251,3028,-0.230008741964522,8.33531920253905,0.00562384544110728,0.002655,-0.000123,0.001561,0.117148,0.004403,314.581121,24.914488,0.999266,0.989419,0.003968,0.372957,-0.000023,-0.000009,-0.000015,0.000001,-0.000032,-57.776949,0.000037,
2461,2233,4.49496300412283,-8.99484056292049,0.00855173479402538,0.002699,-0.000152,0.002358,0.114620,0.025130,327.553559,22.709031,0.999275,0.980795,0.005391,0.334248,0.000023,-0.000029,-0.000008,0.000025,-0.000030,-8.880083,0.000032,
2326,3193,1.37104557574735,11.9187254150064,0.030909545889017,0.003317,-0.000672,-0.001170,0.156565,-0.028831,312.039404,25.433814,0.999688,0.994696,0.003204,0.420959,-0.000012,0.000002,-0.000010,0.000007,-0.000017,-63.711475,0.000017,
2431,2098,3.86724791348409,-11.9557669540199,0.0225773039824162,0.002779,-0.000636,0.006701,0.102202,0.017789,329.778303,22.468242,0.999525,0.980704,0.005705,0.235165,-0.000031,-0.000013,0.000012,-0.000007,-0.000037,62.856874,0.000047,
2146,2353,-2.39748112519018,-6.3691365679119,0.000749764456202229,0.003116,-0.000016,0.001334,0.139090,0.020016,325.823131,24.195210,0.999279,0.985763,0.004677,0.408435,-0.000015,-0.000051,-0.000022,-0.000005,-0.000061,-25.079476,0.000074,
2281,2998,0.427062583987425,7.68657525275876,-0.00207205766571406,0.003157,-0.000173,-0.000532,0.147048,-0.011394,314.986057,24.976690,0.999347,0.989729,0.003946,0.334725,-0.000021,0.000003,-0.000009,0.000006,-0.000024,-72.135286,0.000025,
2341,2788,1.76924007184317,3.12497224826424,-0.0151160351198882,0.003198,-0.000035,0.000866,0.144013,0.021813,318.251350,24.612674,0.999641,0.993225,0.003465,0.394261,-0.000023,-0.000010,-0.000007,-0.000008,-0.000026,-67.003071,0.000035,
2146,2563,-2.43289790095361,-1.78480106478046,-0.0119886338381434,0.002887,-0.000379,0.001257,0.128849,-0.001294,322.314058,24.300047,0.998910,0.985576,0.004692,0.411283,-0.000011,-0.000010,0.000001,-0.000009,-0.000012,50.178266,0.000021,
2266,2983,0.103470967994593,7.35958249212619,-0.00242975288807656,0.002977,-0.000483,0.003054,0.126860,0.011019,315.230699,24.869022,0.999603,0.992561,0.003654,0.397653,-0.000021,0.000008,-0.000004,0.000009,-0.000021,-82.626912,0.000021,
2341,2113,1.89833052383596,-11.6263899247627,0.0264059790229112,0.002815,-0.000255,0.003226,0.117570,0.016267,329.507043,22.972014,0.999492,0.983053,0.005036,0.315510,-0.000008,0.000000,-0.000001,0.000000,-0.000008,-82.478609,0.000009,
2476,2383,4.79064498628957,-5.709047579583,-0.0104253477358611,0.002652,-0.000072,0.000204,0.120673,0.027319,325.007994,23.171904,0.999659,0.985199,0.004938,0.389693,0.000017,0.000001,0.000000,0.000017,0.000001,0.340934,0.000020,
2236,2803,-0.517914829050465,3.44661475681345,-0.0250603864081995,0.002901,-0.000117,0.001415,0.128921,0.021545,318.034667,24.512423,0.999491,0.988833,0.004199,0.435897,-0.000009,-0.000021,-0.000003,-0.000008,-0.000021,-14.427515,0.000030,
2266,3238,0.0595710923752861,12.8898442787546,0.0260754708555737,0.002919,-0.000316,0.000955,0.131265,-0.009149,311.303437,25.251902,0.999803,0.994650,0.003106,0.410304,-0.000012,-0.000006,-0.000016,0.000007,-0.000026,-50.546248,0.000026,
2086,2353,-3.7038056682557,-6.3682662626325,-0.00181643642144991,0.002981,0.000697,-0.000178,0.137727,0.044307,326.065152,24.470345,0.998480,0.981021,0.005443,0.367063,-0.000016,-0.000036,-0.000002,-0.000016,-0.000036,-5.631538,0.000054,
2221,2968,-0.871077976305298,7.03096318584603,-0.000349319765120981,0.002907,-0.000217,0.002367,0.126211,0.005641,315.586876,24.763561,0.999322,0.989502,0.004056,0.358719,-0.000018,0.000002,-0.000004,0.000003,-0.000019,-78.952309,0.000020,
2236,3013,-0.552619856646505,8.00836806019364,0.00393886180552272,0.003066,-0.000145,-0.000450,0.142619,-0.004408,314.869261,24.824468,0.999270,0.989077,0.004106,0.386966,-0.000023,0.000001,-0.000007,0.000003,-0.000026,-74.414352,0.000028,
2161,2653,-2.12308377757118,0.179281869335782,-0.0325823608319524,0.002890,-0.000222,0.002353,0.125703,0.007344,320.623900,24.382849,0.999698,0.991925,0.003666,0.380516,-0.000013,-0.000011,-0.000003,-0.000009,-0.000015,-57.089189,0.000024,
2131,2533,-2.75456111321929,-2.43893211941977,-0.0131765959436052,0.002777,-0.000408,0.003514,0.117057,0.012140,322.838137,24.316838,0.999110,0.985411,0.004702,0.416460,-0.000016,-0.000003,0.000000,-0.000003,-0.000016,88.899652,0.000020,
2311,3133,1.05486346040625,10.6178685703925,0.0216383907945215,0.002531,-0.000124,0.001056,0.112981,0.010638,312.910314,25.326208,0.999423,0.992513,0.003623,0.373015,-0.000019,-0.000005,-0.000010,0.000000,-0.000024,-62.363593,0.000028,
2326,2713,1.45575359941981,1.49338921649561,-0.0300170032492701,0.003008,0.000422,-0.001988,0.145305,0.040939,319.352483,24.501479,0.999052,0.986751,0.004557,0.340958,-0.000023,0.000009,-0.000006,0.000010,-0.000024,-79.459354,0.000025,
2206,2713,-1.15470508810368,1.48631743655481,-0.0286331958510573,0.002808,-0.000329,0.001181,0.125322,0.005234,319.539292,24.348685,0.998813,0.986567,0.004619,0.455593,-0.000014,-0.000001,-0.000007,0.000002,-0.000016,-66.476010,0.000018,
2356,3268,2.00536785416893,13.5507432181807,0.00196028981139307,0.002794,-0.000110,0.000187,0.128065,0.009840,310.528156,25.849101,0.999645,0.992573,0.003350,0.374072,0.000010,0.000005,-0.000004,0.000012,0.000003,-28.071813,0.000016,
2341,2998,1.73075067703161,7.69009762788947,0.00447128318438672,0.002976,-0.000570,0.004255,0.121923,-0.002067,314.967775,25.125040,0.999865,0.997126,0.002825,0.364905,-0.000033,-0.000006,-0.000014,0.000000,-0.000039,-66.746797,0.000045,
2326,3208,1.36827590679025,12.2445225602982,0.0352978208454715,0.003116,-0.000004,0.000036,0.143394,0.002490,311.816649,25.506973,0.999633,0.993489,0.003297,0.412093,-0.000009,0.000002,-0.000009,0.000008,-0.000015,-60.539212,0.000015,
2116,2458,-3.06829473955579,-4.07561557956032,-0.00825002047872658,0.002833,-0.000520,0.002156,0.123696,0.002611,324.162665,24.349365,0.999374,0.988173,0.004427,0.377039,-0.000018,-0.000033,-0.000023,-0.000001,-0.000050,-36.383812,0.000058,
2281,3223,0.388760858532141,12.5654256200335,0.0439943586927711,0.002687,-0.000154,0.002292,0.116161,0.011282,311.660888,25.326828,0.999825,0.994784,0.003005,0.407193,-0.000013,-0.000005,-0.000014,0.000006,-0.000024,-52.807024,0.000025,
2296,3073,0.740597638723951,9.31495143997841,0.0176855074964237,0.002801,0.000034,-0.004934,0.145705,-0.006048,313.906145,25.177336,0.999607,0.993974,0.003414,0.327131,-0.000018,-0.000005,-0.000013,0.000002,-0.000026,-58.849005,0.000029,
2431,3268,3.63389980323077,13.5581010182943,0.00247881988946119,0.002747,-0.000446,0.002472,0.117131,-0.007487,310.577588,26.291614,0.999731,0.992956,0.003339,0.325393,0.000006,-0.000007,0.000003,0.000006,-0.000007,11.726956,0.000008,
2326,2113,1.57057415964671,-11.6269974267525,0.0244511451364247,0.002817,-0.000789,0.003299,0.117342,-0.025596,329.493676,23.002193,0.999476,0.981971,0.005202,0.331968,-0.000013,0.000005,-0.000001,0.000005,-0.000014,-85.495693,0.000014,
2311,2008,1.26360429591471,-13.9302332928996,0.0300865905014689,0.003572,0.000173,0.000328,0.162437,0.004144,331.281262,22.945345,0.999280,0.979663,0.005934,0.257879,-0.000003,-0.000004,-0.000021,0.000017,-0.000024,-44.319383,0.000025,
2176,2728,-1.80912566078534,1.81187597682477,-0.0294142780767856,0.003005,-0.000103,-0.000065,0.138507,0.015944,319.394201,24.367420,0.999389,0.989618,0.004090,0.459021,-0.000021,-0.000013,-0.000005,-0.000011,-0.000023,-64.553730,0.000035,
2161,2413,-2.08149906263998,-5.05727582678691,-0.00571824417284006,0.002905,-0.000333,0.002843,0.124675,0.023397,324.730630,24.215519,0.998964,0.985685,0.004818,0.386215,-0.000018,-0.000024,-0.000031,0.000010,-0.000052,-42.177188,0.000054,
2491,2473,5.10013672307234,-3.74129346751214,-0.00639816033708485,0.002851,0.000042,0.000631,0.128246,0.018282,323.629097,23.493185,0.999313,0.985276,0.004656,0.372062,0.000012,-0.000020,0.000027,0.000027,-0.000036,29.799615,0.000037,
2206,2878,-1.18193108535361,5.07536559202271,-0.0173465317999444,0.003045,-0.000282,-0.002093,0.146701,-0.017097,316.971943,24.608941,0.999574,0.993534,0.003332,0.355493,-0.000012,-0.000006,0.000003,-0.000004,-0.000013,65.813729,0.000018,
2311,2698,1.1325064901901,1.16292671784224,-0.0160966670772495,0.002694,-0.000347,0.002476,0.115264,0.014980,319.693178,24.324608,0.999758,0.991948,0.003689,0.458803,-0.000018,0.000008,-0.000008,0.000011,-0.000021,-74.300360,0.000021,
2401,3223,2.99302741150568,12.5768518632004,0.028923391633441,0.002527,-0.000549,0.001426,0.110923,-0.020891,311.497903,25.923946,0.999471,0.991795,0.003618,0.382754,-0.000002,-0.000002,0.000002,0.000000,-0.000003,44.346782,0.000004,
2461,2248,4.49273960711885,-8.66722787673714,0.015019197995116,0.002956,-0.000072,0.002171,0.127108,0.023540,327.377812,22.736318,0.999131,0.977783,0.005504,0.361962,0.000022,-0.000025,-0.000011,0.000024,-0.000028,-12.867793,0.000030,
2356,2818,2.08992483438157,3.77826288264362,-0.0150599960480804,0.003065,-0.000022,-0.000683,0.143313,0.003537,317.762120,24.678364,0.999693,0.992421,0.003601,0.399090,-0.000024,-0.000017,-0.000007,-0.000013,-0.000028,-59.586414,0.000042,
2251,2833,-0.196486900002942,4.10020090686491,-0.0215069402051427,0.002988,0.000370,-0.003736,0.149898,0.017130,317.565781,24.626665,0.999484,0.990700,0.003909,0.377322,-0.000004,-0.000015,0.000002,-0.000004,-0.000015,9.562586,0.000020,
2371,2188,2.53892897311318,-9.9809610851754,0.012971962315703,0.003085,0.000201,-0.001162,0.145440,0.011674,328.221173,23.005757,0.999163,0.982154,0.005182,0.319795,-0.000010,-0.000024,-0.000009,-0.000006,-0.000029,-26.687881,0.000037,
2251,3043,-0.231996278751453,8.6610860627489,0.0108919425381373,0.003035,-0.000215,0.002437,0.131785,0.012201,314.394640,24.974670,0.999517,0.991246,0.003676,0.342822,-0.000022,-0.000009,-0.000019,0.000004,-0.000036,-54.711257,0.000039,
2116,2278,-3.03855359322126,-8.00845508664602,0.00497131647733795,0.002904,0.000041,-0.000088,0.133640,0.024519,327.184837,24.337303,0.998786,0.983640,0.005178,0.348160,-0.000009,-0.000011,0.000000,-0.000009,-0.000011,-1.558951,0.000020,
2146,2368,-2.40001643864937,-6.04144461387725,-5.28144626628091E-05,0.003184,-0.000496,0.002902,0.137312,0.003520,325.572867,24.207678,0.999058,0.987006,0.004537,0.388932,-0.000012,-0.000033,-0.000021,0.000001,-0.000046,-31.909588,0.000053,
2221,2758,-0.836015227950771,2.46735537669662,-0.0271155459544161,0.003093,-0.000102,0.001040,0.138983,0.028086,318.794359,24.474987,0.999458,0.989691,0.003965,0.409563,-0.000013,-0.000015,-0.000006,-0.000008,-0.000021,-40.372622,0.000030,
2176,2548,-1.77845251110751,-2.10999607456888,-0.0218273337447386,0.002853,-0.000199,-0.000541,0.132757,0.005990,322.370067,24.250456,0.999287,0.987757,0.004296,0.412191,-0.000013,0.000006,0.000004,0.000007,-0.000014,79.486500,0.000014,
2131,2338,-2.72197643396584,-6.69674990519349,0.00338625742824661,0.002753,-0.000081,0.003274,0.116637,0.031081,326.124145,24.280175,0.999431,0.986276,0.004597,0.379274,-0.000005,-0.000041,-0.000013,-0.000001,-0.000045,-17.582592,0.000053,
2476,2398,4.7879763709168,-5.38175268037472,-0.0018917635326261,0.002483,-0.000673,0.001990,0.105919,0.002452,324.821589,23.261282,0.999591,0.985976,0.004778,0.333445,0.000019,0.000001,0.000004,0.000020,0.000000,11.650522,0.000023,
2356,2158,2.21746220571968,-10.6394159184014,0.0238351398149348,0.002973,-0.000491,0.002932,0.125655,-0.004187,328.770126,23.037948,0.999196,0.981581,0.005370,0.265816,-0.000014,-0.000021,-0.000009,-0.000008,-0.000027,-33.814542,0.000037,
2236,2818,-0.520099508232558,3.77235225894579,-0.0198081243730144,0.002746,0.000140,-0.001924,0.132635,0.000569,317.838513,24.542620,0.999547,0.990062,0.004006,0.405699,-0.000007,-0.000015,0.000003,-0.000006,-0.000016,18.568575,0.000023,
2191,2563,-1.45415668412508,-1.78398070539358,-0.00851202072868773,0.002539,-0.000007,0.000970,0.113687,0.020320,322.172032,24.211540,0.999484,0.989531,0.004023,0.456344,-0.000013,-0.000009,0.000000,-0.000009,-0.000013,-83.600728,0.000022,
2341,2803,1.76592101959891,3.45193435216452,-0.0202569362827489,0.003050,-0.000193,0.000305,0.139096,0.012583,317.958976,24.660844,0.999554,0.992609,0.003586,0.373363,-0.000022,-0.000019,-0.000005,-0.000016,-0.000026,-52.840830,0.000042,
2326,2968,1.40978775892534,7.03898827733392,-0.00468829636344026,0.002911,-0.000132,0.001634,0.128248,0.005989,315.392158,25.105205,0.999645,0.995011,0.003108,0.283287,-0.000028,-0.000011,-0.000010,-0.000006,-0.000033,-65.130267,0.000042,
2311,2023,1.26044758733219,-13.6012172352709,0.0280331168420389,0.003225,0.000447,-0.000721,0.150219,0.028678,331.010930,22.901594,0.999193,0.981395,0.005493,0.362160,-0.000008,-0.000002,-0.000014,0.000010,-0.000020,-51.214955,0.000020,
2326,2728,1.4529832694798,1.81907044690177,-0.0274424947126022,0.003011,-0.000001,0.000404,0.137006,0.016619,319.122317,24.485672,0.999349,0.988751,0.004197,0.366909,-0.000023,0.000004,-0.000003,0.000004,-0.000024,-83.895174,0.000025,
2431,2113,3.86484987743987,-11.6284480261574,0.0283662805583162,0.002809,-0.000567,0.005852,0.106732,0.017358,329.589899,22.415300,0.999424,0.979344,0.005780,0.340391,-0.000027,-0.000018,0.000011,-0.000011,-0.000034,55.588483,0.000047,
2191,2833,-1.50031906604001,4.09634920503869,-0.0217621635870273,0.003181,-0.000342,-0.000402,0.147593,-0.011745,317.712576,24.513731,0.999168,0.989746,0.004052,0.388938,-0.000017,-0.000011,0.000004,-0.000009,-0.000019,63.098350,0.000029,
2386,2023,2.89872593461905,-13.6021732979406,0.0244674888464829,0.002701,0.000081,0.000350,0.122322,0.001959,330.964499,22.470348,0.998584,0.969819,0.006728,0.257156,-0.000034,-0.000017,0.000000,-0.000017,-0.000034,89.624330,0.000052,
2311,2908,1.09463956713124,5.73346341559142,-0.0110617599195848,0.002866,-0.000320,-0.002081,0.138828,-0.019724,316.338867,24.878971,0.999566,0.992309,0.003634,0.319232,-0.000016,-0.000026,-0.000001,-0.000016,-0.000026,-6.039074,0.000042,
2386,3118,2.6870891163267,10.2981790885443,0.0204109664497309,0.002936,-0.000655,0.003394,0.122677,-0.010012,313.148256,25.582047,0.999564,0.992177,0.003554,0.365767,-0.000009,0.000001,-0.000001,0.000001,-0.000009,-83.538790,0.000010,
2491,2488,5.09778768349072,-3.41382613179311,-0.00279882282137578,0.003107,0.000267,-0.001454,0.148080,0.015379,323.435562,23.557054,0.999505,0.985379,0.004519,0.365282,0.000015,-0.000030,0.000014,0.000019,-0.000034,15.770304,0.000034,
2281,3013,0.423754644999839,8.01228917863373,-0.00263629168227908,0.002781,-0.000363,0.001699,0.122284,0.003860,314.711561,24.979260,0.999305,0.989143,0.003987,0.374296,-0.000019,-0.000002,-0.000012,0.000004,-0.000025,-62.845289,0.000028,
2236,3028,-0.555290687823007,8.33378393865315,0.00978110551676536,0.002671,-0.000249,0.000033,0.122855,-0.001048,314.653555,24.856840,0.999450,0.990837,0.003756,0.377983,-0.000022,-0.000007,-0.000010,-0.000002,-0.000027,-64.320675,0.000032,
2356,3058,2.04572770229381,8.99379098557857,0.011390624651483,0.002835,-0.000752,0.004974,0.112689,-0.007626,314.034427,25.312078,0.999671,0.992946,0.003378,0.366615,-0.000028,-0.000005,-0.000013,0.000001,-0.000034,-65.565994,0.000039,
2266,3253,0.0567848376305413,13.2155419466049,0.0229124807698895,0.003172,-0.000482,0.002203,0.138775,-0.004578,311.038180,25.310184,0.999775,0.993907,0.003271,0.380807,-0.000012,0.000002,-0.000016,0.000013,-0.000022,-56.579446,0.000022,
2281,3238,0.385239594735776,12.891589243493,0.0309045255816045,0.002802,-0.000303,0.001425,0.124296,-0.002895,311.313084,25.385773,0.999829,0.993676,0.003203,0.360351,-0.000011,-0.000008,-0.000015,0.000006,-0.000025,-47.991842,0.000026,
2221,2983,-0.873391302299009,7.35673237296651,0.00171235997135,0.003028,-0.000016,0.001681,0.134107,0.021538,315.367204,24.778948,0.999411,0.990950,0.003830,0.377499,-0.000019,0.000009,-0.000002,0.000009,-0.000019,-85.720338,0.000019,
2176,2743,-1.81092567118835,2.1378992705005,-0.0163109195212314,0.002975,-0.000162,0.001783,0.131349,0.010517,319.252923,24.449712,0.999469,0.990201,0.004138,0.383395,-0.000021,-0.000019,-0.000007,-0.000013,-0.000027,-48.816855,0.000040,
2341,3253,1.68322809104168,13.2228009747428,0.0126819720607614,0.002747,-0.000688,0.001912,0.119658,-0.016155,310.858583,25.690497,0.999526,0.992127,0.003436,0.389000,0.000004,0.000006,-0.000012,0.000017,-0.000007,-47.541245,0.000017,
2206,2728,-1.15685026387634,1.81350788960124,-0.0304181232713745,0.003114,-0.000002,-0.002516,0.151278,0.006612,319.306350,24.408650,0.999229,0.989012,0.004125,0.413866,-0.000015,-0.000006,-0.000007,-0.000003,-0.000018,-61.077516,0.000023,
2146,2578,-2.43602176210955,-1.45651905804461,-0.0199328467552391,0.002943,-0.000284,0.004068,0.122992,0.023550,321.998560,24.333198,0.999176,0.987867,0.004443,0.411879,-0.000016,-0.000008,0.000001,-0.000008,-0.000016,85.210058,0.000024,
2131,2548,-2.756765509912,-2.1116789737585,-0.0163083412290348,0.002924,-0.000001,-0.000868,0.137064,0.011950,322.589307,24.312376,0.998812,0.983458,0.004970,0.427270,-0.000015,-0.000005,0.000003,-0.000004,-0.000016,73.039701,0.000021,
2251,2848,-0.199369028983803,4.42591206612222,-0.0199092611859442,0.002937,-0.000219,0.000138,0.134645,0.005306,317.319975,24.626097,0.999471,0.992000,0.003711,0.389072,-0.000005,-0.000020,0.000002,-0.000005,-0.000020,7.354078,0.000026,
2461,2263,4.48927907789691,-8.3372889545791,0.00519625232743692,0.002964,0.000137,-0.002485,0.145081,0.001382,327.070848,22.835182,0.999177,0.978608,0.005512,0.297729,0.000017,-0.000027,-0.000022,0.000027,-0.000036,-22.563914,0.000037,
2371,3103,2.36415890955524,9.97196617076972,0.0151857219429417,0.003134,-0.000374,-0.001108,0.148058,-0.009692,313.367988,25.506205,0.999453,0.990616,0.003853,0.342009,-0.000014,-0.000004,-0.000010,0.000002,-0.000020,-58.543224,0.000021,
2371,2968,2.38774634613557,7.0418712946483,-0.0062550163954711,0.002911,-0.000599,0.003904,0.119835,0.004895,315.367584,25.198921,0.999536,0.989402,0.004185,0.301982,-0.000022,-0.000015,-0.000013,-0.000005,-0.000032,-52.359562,0.000040,
2356,3283,2.00181770827563,13.8760983377865,-0.00687020124075843,0.002843,-0.000285,0.000990,0.127441,0.001471,310.207089,25.868962,0.999613,0.992194,0.003426,0.383068,0.000013,0.000010,-0.000007,0.000018,0.000005,-39.387834,0.000024,
2161,2668,-2.12364162083146,0.5037511791624,-0.00994923941931347,0.003194,0.000000,0.000641,0.144972,0.009845,320.589436,24.375529,0.999738,0.993274,0.003374,0.400247,-0.000015,-0.000007,-0.000003,-0.000006,-0.000016,-74.795283,0.000023,
2296,3088,0.737841425197807,9.6398151889913,0.0175019452355514,0.003074,-0.000073,-0.001383,0.146184,-0.007836,313.660121,25.140192,0.999579,0.993296,0.003490,0.391577,-0.000019,-0.000011,-0.000018,0.000003,-0.000033,-51.722028,0.000037,
2401,3238,2.99002922350148,12.9027752719955,0.0221179968600609,0.002916,-0.000429,0.000421,0.132556,-0.016363,311.215917,25.980377,0.999442,0.992080,0.003536,0.375271,-0.000001,-0.000006,0.000002,0.000000,-0.000007,19.674584,0.000008,
2341,3013,1.72814454083893,8.01540090468837,0.00633318589876808,0.002839,-0.000572,0.001459,0.125309,-0.020370,314.741943,25.139881,0.999662,0.992877,0.003454,0.367712,-0.000033,-0.000003,-0.000016,0.000004,-0.000039,-66.690027,0.000044,
2131,2353,-2.72436085298252,-6.36825422916564,-0.00168729518685495,0.003010,0.000117,0.001635,0.133418,0.026234,325.856585,24.307180,0.999252,0.985639,0.004721,0.355206,-0.000011,-0.000046,-0.000016,-0.000005,-0.000052,-21.446397,0.000063,
2326,2128,1.56842676095466,-11.2973770503859,0.0242612793480816,0.002907,0.000236,-0.004001,0.146963,-0.004659,329.279611,23.076871,0.999397,0.984136,0.005018,0.315685,-0.000011,0.000009,-0.000006,0.000011,-0.000013,-75.676064,0.000014,
2266,2998,0.10128755815099,7.68488850379175,0.00249013746935134,0.003046,-0.000408,0.001783,0.134232,-0.003422,315.034613,24.896289,0.999476,0.991182,0.003769,0.380602,-0.000023,0.000007,-0.000007,0.000008,-0.000024,-78.092985,0.000024,
2146,2383,-2.40252015193829,-5.71389298278257,0.00113288549295021,0.002877,-0.000172,0.000353,0.131019,0.002304,325.334524,24.216361,0.998833,0.986584,0.004586,0.388631,-0.000013,-0.000027,-0.000024,0.000005,-0.000044,-37.101125,0.000049,
2356,2173,2.21454692373009,-10.3118222507358,0.0187556688350128,0.003027,-0.000415,-0.000217,0.139214,-0.024384,328.500321,22.933458,0.999300,0.981454,0.005340,0.391771,-0.000011,-0.000022,-0.000001,-0.000011,-0.000022,-5.710260,0.000034,
2431,3283,3.63088217793065,13.8834514832575,-0.00335727920008821,0.002909,-0.000019,-0.000787,0.136848,0.002566,310.301701,26.309814,0.999816,0.993575,0.003167,0.365977,0.000015,-0.000009,0.000000,0.000015,-0.000009,-0.274617,0.000015,
2311,2713,1.12950121405358,1.49074048270852,-0.020656289431372,0.002580,0.000211,-0.000421,0.120119,0.026959,319.415499,24.405013,0.999517,0.990332,0.003946,0.423109,-0.000018,0.000008,-0.000006,0.000010,-0.000020,-77.405380,0.000020,
2341,2128,1.89501149483683,-11.2963867543606,0.0158695333225296,0.002728,0.000367,-0.001696,0.130940,0.004582,329.190782,23.002535,0.999525,0.986622,0.004661,0.313362,-0.000006,0.000003,-0.000003,0.000004,-0.000007,-74.935152,0.000007,
2191,2848,-1.50296514950166,4.42156517373262,-0.0106081063170222,0.002716,-0.000829,0.005145,0.108662,-0.009216,317.523206,24.523731,0.999260,0.989873,0.003948,0.395530,-0.000015,-0.000017,0.000005,-0.000010,-0.000021,40.950782,0.000032,
2251,3058,-0.233120086576758,8.98467208571555,0.0290709843770856,0.003146,-0.000078,0.000472,0.143311,0.002311,314.314089,24.938739,0.999602,0.992626,0.003454,0.391166,-0.000020,-0.000015,-0.000017,-0.000001,-0.000035,-49.615683,0.000040,
2326,2983,1.40718464034723,7.36356070021275,-0.00163911919105431,0.002809,-0.000343,0.000797,0.126393,-0.009475,315.171553,25.050521,0.999902,0.997050,0.002626,0.356053,-0.000028,-0.000008,-0.000007,-0.000006,-0.000030,-71.908966,0.000039,
2371,2203,2.53626796160825,-9.65254109636017,0.0116924944590551,0.003460,-0.000035,-0.000192,0.159102,0.019524,327.982218,23.000699,0.998969,0.979587,0.005524,0.376229,-0.000011,-0.000016,-0.000015,0.000002,-0.000029,-41.107203,0.000033,
2341,3268,1.67945628828582,13.5490376817726,0.000987234844842533,0.002751,-0.000338,0.002559,0.117711,-0.003287,310.511777,25.749446,0.999610,0.992478,0.003304,0.378106,0.000007,0.000006,-0.000007,0.000014,0.000000,-42.429288,0.000015,
2221,2998,-0.875650490867709,7.68203988476227,0.00335423529480749,0.003345,-0.000137,0.002590,0.145722,0.011825,315.148024,24.778378,0.999446,0.990940,0.003836,0.386495,-0.000020,0.000008,-0.000004,0.000009,-0.000021,-83.088386,0.000021,
2161,2428,-2.08384655225291,-4.72940628251806,-0.00909144922854921,0.003084,-0.000278,0.000177,0.141067,0.012435,324.476587,24.235366,0.999268,0.986404,0.004590,0.366997,-0.000016,-0.000031,-0.000021,-0.000002,-0.000046,-35.208630,0.000054,
2221,2773,-0.838359703978362,2.79295215947531,-0.0197704816563373,0.002900,-0.000077,0.001869,0.127467,0.021512,318.600728,24.482055,0.999355,0.989469,0.004090,0.414801,-0.000012,-0.000018,-0.000004,-0.000009,-0.000020,-27.201674,0.000030,
2356,2833,2.0867479714059,4.10495705941277,-0.0180931759891791,0.003031,-0.000358,0.000114,0.138825,-0.008420,317.487710,24.730240,0.999719,0.990766,0.003858,0.373726,-0.000025,-0.000012,-0.000005,-0.000010,-0.000027,-70.411845,0.000038,
2176,2758,-1.81438556935588,2.46488274484969,-0.023634903564357,0.002656,-0.000274,0.003402,0.111643,0.023200,318.928262,24.443749,0.999330,0.989383,0.004140,0.414635,-0.000023,-0.000021,-0.000007,-0.000015,-0.000029,-47.917800,0.000044,
2311,2038,1.25730717322912,-13.2707054215398,0.0241764453266455,0.002725,0.000874,-0.006056,0.145612,0.022838,330.732491,23.010029,0.999626,0.987132,0.004472,0.283960,-0.000011,-0.000005,-0.000012,0.000004,-0.000021,-52.626743,0.000022,
2491,2503,5.09424177051331,-3.08581848776387,-0.00632341733290787,0.003094,-0.000044,0.000316,0.140556,0.000513,323.154881,23.622235,0.999460,0.985917,0.004602,0.345365,0.000012,-0.000023,0.000009,0.000015,-0.000026,13.987456,0.000026,
2356,3298,1.99891179004029,14.2021334196608,-0.0132763122481947,0.003069,-0.000084,-0.001885,0.148048,-0.002303,309.927117,25.964876,0.999695,0.992704,0.003463,0.320487,0.000012,0.000011,-0.000005,0.000017,0.000006,-43.061347,0.000024,
2386,2263,2.84953852465228,-8.33565878360061,-0.00895448375297292,0.002537,0.000015,0.001852,0.109596,0.023033,326.800690,23.134397,0.999141,0.982619,0.005183,0.354536,-0.000009,-0.000027,-0.000014,-0.000002,-0.000035,-29.373377,0.000041,
2116,2473,-3.07103209780196,-3.74792138352554,-0.0119509327387277,0.002722,-0.000628,0.001943,0.119203,-0.007231,323.885041,24.363874,0.999383,0.988328,0.004325,0.357576,-0.000018,-0.000021,-0.000012,-0.000007,-0.000032,-41.372660,0.000042,
2326,3223,1.36496664448607,12.5695774431959,0.0332331495608287,0.002851,-0.000496,0.001074,0.127337,-0.030611,311.537616,25.542273,0.999515,0.992900,0.003277,0.376614,-0.000007,0.000005,-0.000013,0.000013,-0.000015,-57.372082,0.000016,
2356,3073,2.04342738767992,9.31958123708412,0.0113726838222874,0.002993,-0.000293,-0.000136,0.138149,-0.006182,313.814234,25.355368,0.999626,0.992924,0.003388,0.362862,-0.000025,0.000000,-0.000015,0.000007,-0.000032,-64.795073,0.000034,
2431,2128,3.86251465105355,-11.2997753663731,0.0357217146279822,0.002622,0.000120,0.002988,0.108994,0.037851,329.411341,22.486530,0.999555,0.980101,0.005874,0.342404,-0.000021,-0.000020,0.000009,-0.000011,-0.000029,45.839339,0.000042,
2311,3148,1.05220715973537,10.9432175922238,0.0218711901797519,0.002681,-0.000253,0.001601,0.117959,0.004855,312.671685,25.356052,0.999554,0.992266,0.003665,0.368394,-0.000018,-0.000001,-0.000006,0.000001,-0.000020,-71.766302,0.000022,
2431,3298,3.62737992506839,14.208223070852,-0.0110933307731216,0.002958,-0.000164,-0.001345,0.141054,-0.019207,309.994711,26.300711,0.999812,0.993708,0.003101,0.401628,0.000022,-0.000012,-0.000006,0.000023,-0.000013,-10.326398,0.000023,
2386,3133,2.68485201335153,10.6237178928551,0.0249345949341091,0.003042,-0.000323,0.000823,0.136959,0.001492,312.954607,25.635692,0.999652,0.993007,0.003468,0.365986,-0.000007,-0.000003,-0.000003,-0.000001,-0.000009,-57.973522,0.000011,
2326,2743,1.45070152677386,2.14537518936834,-0.025005042716316,0.003232,0.000162,-0.000948,0.151924,0.023162,318.913656,24.499291,0.999572,0.990059,0.003968,0.394235,-0.000025,-0.000002,-0.000006,0.000000,-0.000026,-75.757413,0.000030,
2206,2893,-1.18532577240714,5.40172324986144,-0.0262109415922964,0.002993,-0.000730,-0.000187,0.138135,-0.032305,316.645052,24.606744,0.999792,0.994733,0.003191,0.359133,-0.000014,-0.000009,0.000001,-0.000009,-0.000014,73.932529,0.000023,
2311,2728,1.12676700114074,1.81696131717868,-0.0180003448251114,0.002656,-0.000197,0.002854,0.112282,0.015170,319.186179,24.426016,0.999484,0.989465,0.004067,0.422409,-0.000018,0.000002,-0.000003,0.000003,-0.000018,-81.390900,0.000020,
2161,2683,-2.12699537994351,0.831321506555156,-0.0190934120965949,0.003018,-0.000021,0.001569,0.134063,0.023386,320.258613,24.381567,0.999516,0.990495,0.003797,0.418481,-0.000018,-0.000002,-0.000006,0.000000,-0.000020,-71.268207,0.000023,
2341,2818,1.76292528265066,3.77823562643704,-0.0205260500161444,0.003008,-0.000127,0.001821,0.131905,0.013336,317.705206,24.680513,0.999387,0.989060,0.003948,0.391036,-0.000027,-0.000020,-0.000005,-0.000018,-0.000029,-61.203380,0.000047,
2191,2578,-1.45642779785881,-1.45719791986025,-0.0126861571126256,0.003125,-0.000349,0.001367,0.139231,-0.009738,321.920105,24.195379,0.999541,0.990430,0.003838,0.457844,-0.000015,-0.000003,0.000003,-0.000002,-0.000016,75.145638,0.000020,
2446,1993,4.21674053323074,-14.2630222662599,0.024730856824533,0.002635,-0.000369,0.001359,0.115226,-0.011066,331.530859,21.960862,0.999422,0.976147,0.005718,0.233015,-0.000095,-0.000021,0.000038,-0.000005,-0.000111,67.057494,0.000131,
2476,2413,4.78568960039034,-5.05486159905509,0.00362834352250729,0.002699,-0.000410,0.000924,0.119958,0.008344,324.638948,23.257963,0.999485,0.987026,0.004674,0.400587,0.000013,0.000002,0.000013,0.000022,-0.000007,33.688876,0.000023,
2281,3028,0.421868751680982,8.33773363932229,0.00200917593264194,0.003053,-0.000168,-0.001446,0.145428,0.008749,314.528571,25.005891,0.999208,0.988813,0.004001,0.379661,-0.000018,-0.000006,-0.000015,0.000004,-0.000028,-55.350645,0.000030,
2371,2983,2.38517581509688,7.36659448463296,0.000790202276391483,0.002652,-0.000467,0.003785,0.108337,-0.000175,315.170532,25.175827,0.999522,0.989714,0.004057,0.360428,-0.000022,-0.000012,-0.000011,-0.000004,-0.000029,-57.381382,0.000036,
2311,2923,1.09160079861339,6.05924186695104,-0.012126350691176,0.002827,0.000067,-0.000050,0.130257,0.002578,316.076717,24.852664,0.999181,0.990252,0.003985,0.399595,-0.000016,-0.000023,-0.000004,-0.000014,-0.000025,-24.799435,0.000040,
2146,2593,-2.4386455051868,-1.12916360952045,-0.0267986652494301,0.002821,0.000316,-0.002239,0.136649,0.020566,321.711980,24.324287,0.999193,0.987578,0.004551,0.426647,-0.000015,-0.000002,0.000004,-0.000001,-0.000016,74.814288,0.000019,
2191,2863,-1.50559489689904,4.74829034702586,-0.0181492160983225,0.002831,-0.000475,0.000171,0.129632,-0.021125,317.236847,24.551097,0.999364,0.991044,0.003691,0.370697,-0.000013,-0.000014,0.000002,-0.000011,-0.000016,40.879738,0.000028,
2386,3178,2.67609338006249,11.5999140941816,0.0287692025819979,0.002829,-0.000287,0.002651,0.120617,0.003557,312.232804,25.752369,0.999546,0.991861,0.003551,0.377676,-0.000004,0.000001,0.000000,0.000001,-0.000004,87.065515,0.000004,
2371,3118,2.36089318609549,10.2972112295621,0.0165200293785688,0.002942,-0.000679,0.002772,0.125354,-0.005594,313.110921,25.517050,0.999614,0.991606,0.003704,0.375227,-0.000012,0.000000,-0.000006,0.000002,-0.000014,-67.116492,0.000015,
2371,1993,2.57753616194687,-14.2621635768187,0.0356402286583375,0.003013,-0.000166,0.002666,0.128269,0.026663,331.535492,22.456382,0.999050,0.968112,0.006832,0.307975,-0.000051,-0.000002,-0.000003,-0.000002,-0.000051,-86.452852,0.000060,
2341,3283,1.67634888327301,13.8744789898227,-0.00716997249884344,0.002997,-0.000228,0.001197,0.133821,-0.002028,310.213028,25.771097,0.999685,0.993309,0.003150,0.393039,0.000010,0.000014,-0.000009,0.000021,0.000003,-51.566802,0.000026,
2221,3013,-0.878138495144462,8.00749224535773,0.00685652353774913,0.003124,-0.000005,0.000935,0.140954,0.015735,314.927816,24.793941,0.999445,0.991131,0.003749,0.393020,-0.000019,0.000003,-0.000007,0.000005,-0.000020,-74.032510,0.000021,
2236,3043,-0.557322787055991,8.65964160166056,0.0131569360513595,0.003028,-0.000138,-0.000369,0.140641,-0.004544,314.454446,24.923668,0.999619,0.991391,0.003638,0.327936,-0.000021,-0.000011,-0.000013,-0.000002,-0.000030,-55.411471,0.000036,
2206,2908,-1.18668127650568,5.7263943299495,-0.0120548851507465,0.003096,-0.000403,-0.002399,0.150020,-0.019364,316.531299,24.592288,0.999652,0.992928,0.003535,0.402743,-0.000012,-0.000014,-0.000001,-0.000012,-0.000015,-22.859897,0.000026,
2446,2008,4.21489120795572,-13.9358810208633,0.0341712524286777,0.002942,-0.000375,0.000567,0.132213,-0.011673,331.385869,21.897935,0.999408,0.976897,0.005753,0.350634,-0.000087,-0.000037,0.000034,-0.000019,-0.000104,63.003253,0.000133,
2281,3253,0.381366341110319,13.217730435372,0.0137960267493895,0.002872,-0.000335,0.000733,0.129840,-0.005473,310.928864,25.414293,0.999751,0.992974,0.003354,0.355583,-0.000009,0.000001,-0.000016,0.000013,-0.000021,-53.343494,0.000022,
2266,3013,0.0987158091289011,8.00995437276421,0.00449702603702917,0.002902,-0.000435,0.000008,0.133425,-0.016931,314.806054,24.884455,0.999420,0.990906,0.003730,0.403488,-0.000022,0.000001,-0.000010,0.000005,-0.000026,-68.871316,0.000027,
2176,2563,-1.7809498739012,-1.78259153155397,-0.0221284527933108,0.002912,-0.000244,-0.000274,0.134657,0.003345,322.126453,24.293710,0.999208,0.986865,0.004409,0.379348,-0.000014,-0.000006,0.000000,-0.000006,-0.000014,87.197999,0.000021,
2326,3238,1.36157554098886,12.8962484870795,0.0244090607921521,0.002994,-0.000291,0.001820,0.131563,-0.003600,311.221001,25.632524,0.999443,0.992138,0.003457,0.346593,-0.000003,0.000001,-0.000014,0.000013,-0.000015,-48.560457,0.000016,
2116,2488,-3.07301399102207,-3.42115742388597,-0.0119282526147231,0.003078,-0.000333,0.001063,0.138256,-0.013838,323.662165,24.329335,0.999245,0.986967,0.004519,0.390251,-0.000014,-0.000018,-0.000014,-0.000002,-0.000030,-41.241232,0.000036,
2371,2218,2.53323381271151,-9.3240840046296,0.0170691997475956,0.003021,-0.000157,0.001735,0.132160,0.010923,327.757895,23.090254,0.998679,0.974714,0.006178,0.321716,-0.000009,-0.000014,-0.000012,0.000001,-0.000023,-39.392200,0.000026,
2491,2518,5.09037168074133,-2.75872906141794,-0.0093333698653737,0.002904,-0.000551,0.004434,0.115876,-0.004842,322.861635,23.603736,0.999529,0.986071,0.004439,0.418716,0.000006,-0.000017,0.000010,0.000010,-0.000021,20.973804,0.000021,
2476,2428,4.78269845318583,-4.72641864691499,0.00108475386252849,0.003064,-0.000267,0.001931,0.132936,0.015692,324.387156,23.323562,0.999238,0.986555,0.004766,0.400596,0.000006,0.000020,0.000014,0.000029,-0.000003,57.558312,0.000032,
2461,2278,4.4867628561749,-8.00917376206778,0.0112853878793544,0.003024,0.000288,-0.001937,0.145818,0.024043,326.879637,22.890125,0.999398,0.979253,0.005495,0.321935,0.000014,-0.000030,-0.000018,0.000021,-0.000037,-19.770310,0.000037,
2146,2398,-2.40500254511501,-5.38597742781204,-0.00167422812529594,0.003122,-0.000330,0.001762,0.137979,0.003549,325.075942,24.222511,0.998800,0.986022,0.004789,0.393508,-0.000015,-0.000033,-0.000025,0.000003,-0.000050,-35.205922,0.000056,
2161,2443,-2.08622263803771,-4.40283627736366,-0.00570852445866876,0.003093,-0.000476,0.002225,0.135145,0.001957,324.257022,24.204453,0.999263,0.986749,0.004623,0.398748,-0.000021,-0.000023,-0.000020,-0.000002,-0.000042,-43.849174,0.000050,
2311,2938,1.08887449663841,6.3851427791643,-0.0120537744262492,0.002834,-0.000082,-0.000509,0.132181,0.012176,315.834477,24.862653,0.998992,0.988314,0.004300,0.431061,-0.000014,-0.000020,-0.000006,-0.000010,-0.000024,-33.128412,0.000035,
2311,2053,1.25477851789546,-12.9424660233859,0.0271203601849948,0.003020,0.000547,-0.001915,0.144982,0.023054,330.515489,22.987139,0.999498,0.984566,0.004815,0.342335,-0.000013,-0.000001,-0.000010,0.000005,-0.000018,-59.939598,0.000019,
2236,2833,-0.522714749053623,4.09921312320458,-0.0193253130009339,0.002851,-0.000152,-0.000382,0.132445,0.009083,317.597869,24.614344,0.999520,0.990912,0.003763,0.363471,-0.000004,-0.000011,0.000007,0.000001,-0.000015,31.170028,0.000017,
2386,2038,2.89580989856135,-13.2722559213288,0.0183715156570088,0.002954,0.000378,-0.002209,0.143161,0.013559,330.692932,22.483107,0.998890,0.973908,0.006239,0.303074,-0.000033,-0.000033,-0.000002,-0.000031,-0.000035,-43.895320,0.000065,
2401,3253,2.98599274519141,13.2291185171026,0.00858094341845117,0.002880,-0.000206,0.000408,0.131011,-0.012829,310.853984,26.043837,0.999506,0.991725,0.003568,0.359349,-0.000001,-0.000004,0.000000,-0.000001,-0.000004,8.585929,0.000005,
2341,2143,1.89067816527804,-10.9661085313278,0.00373636773866792,0.002612,-0.000335,0.004591,0.103536,0.023457,328.820098,23.017537,0.999239,0.983589,0.005129,0.357478,-0.000010,-0.000009,-0.000006,-0.000004,-0.000015,-46.707602,0.000020,
2251,3073,-0.23721160170037,9.31087754654769,0.0200278471510273,0.002709,-0.000431,0.004992,0.108334,0.008034,313.958096,24.955391,0.999565,0.991739,0.003593,0.402798,-0.000021,-0.000010,-0.000018,0.000003,-0.000035,-53.704336,0.000038,
2161,2698,-2.12991007665192,1.15817703279259,-0.0224337485965407,0.002904,-0.000062,0.002683,0.125393,0.021707,319.978691,24.390430,0.999423,0.987769,0.004099,0.418481,-0.000016,-0.000005,-0.000004,-0.000003,-0.000017,-70.811599,0.000022,
2296,3103,0.735112113301373,9.96546250736134,0.0205125478029231,0.002868,-0.000125,-0.001536,0.137173,-0.019917,313.430923,25.209588,0.999302,0.991295,0.003924,0.338916,-0.000019,-0.000011,-0.000017,0.000002,-0.000032,-51.271932,0.000036,
2191,2593,-1.45975483994029,-1.12905823245478,-0.0139202190378001,0.002698,-0.000520,0.005217,0.107535,0.007674,321.634547,24.287213,0.999104,0.987601,0.004357,0.398845,-0.000017,-0.000002,0.000006,0.000000,-0.000019,71.397899,0.000022,
2341,3028,1.72541022127834,8.3412165057625,0.0137228782237457,0.002464,-0.000698,0.002713,0.103648,-0.021469,314.536877,25.225287,0.999738,0.993930,0.003332,0.316751,-0.000031,-0.000003,-0.000019,0.000006,-0.000040,-63.237957,0.000043,
2326,2998,1.40486000316468,7.68894454253805,0.00311059575710715,0.002948,-0.000272,0.001101,0.131806,0.009247,314.971762,25.051597,0.999778,0.994928,0.003068,0.407639,-0.000030,-0.000002,-0.000009,0.000001,-0.000033,-74.315407,0.000037,
2356,2188,2.2109568627577,-9.98151433530887,0.0224072170846625,0.002372,-0.000436,0.004569,0.092418,0.008557,328.240859,23.121965,0.999229,0.982976,0.005134,0.278021,-0.000011,-0.000022,-0.000004,-0.000010,-0.000023,-16.576771,0.000034,
2326,2143,1.5647948078203,-10.9671361595092,0.0157746662774798,0.003060,-0.000017,0.000803,0.137372,0.027870,328.957033,23.113119,0.999334,0.984211,0.005152,0.349747,-0.000014,-0.000004,-0.000009,0.000001,-0.000019,-59.680416,0.000021,
2386,3148,2.68251461574179,10.9485074397126,0.0300317079397132,0.003082,-0.000363,-0.000723,0.144256,-0.024364,312.759279,25.664331,0.999647,0.992468,0.003467,0.353358,-0.000004,-0.000005,0.000000,-0.000004,-0.000006,-21.513987,0.000010,
2191,2878,-1.50790120782167,5.07552180908188,-0.0141328539661458,0.002901,-0.000201,0.001307,0.129443,0.011241,317.025233,24.670985,0.999804,0.994852,0.003085,0.297182,-0.000011,-0.000003,0.000003,-0.000002,-0.000013,70.284559,0.000016,
2281,3268,0.378188672373827,13.5426146411053,0.00780395967245795,0.002916,-0.000370,0.001311,0.129916,-0.007373,310.632787,25.393520,0.999753,0.993443,0.003304,0.400796,-0.000008,0.000008,-0.000017,0.000018,-0.000019,-57.933716,0.000021,
2281,3043,0.41910791946675,8.6633732692211,0.00874981863444191,0.002839,-0.000329,0.002800,0.121329,0.013898,314.315747,25.067548,0.999431,0.990744,0.003765,0.349762,-0.000017,-0.000005,-0.000018,0.000007,-0.000030,-54.353477,0.000031,
2446,2023,4.21182214527036,-13.6051622648889,0.0307977310693559,0.003114,-0.000314,-0.000113,0.142625,-0.000232,331.125938,22.008650,0.999369,0.979605,0.005324,0.307165,-0.000063,-0.000015,0.000020,-0.000007,-0.000070,69.714543,0.000086,
2131,2563,-2.75951239568321,-1.7831800980087,-0.0242042407827512,0.003260,-0.000213,0.001020,0.146813,0.010539,322.289913,24.386619,0.999082,0.987153,0.004586,0.358495,-0.000014,-0.000013,0.000002,-0.000012,-0.000015,53.743473,0.000027,
2341,2833,1.76034584688773,4.10451215760342,-0.0159938067915277,0.003073,-0.000673,0.004018,0.127013,-0.008993,317.493885,24.761559,0.999654,0.991239,0.003718,0.323991,-0.000027,-0.000012,-0.000004,-0.000011,-0.000028,-75.359869,0.000041,
2386,2053,2.89406748614416,-12.9438275864352,0.0294920753469228,0.003028,0.000606,-0.004729,0.155643,0.022157,330.556519,22.561514,0.999149,0.977549,0.005959,0.279284,-0.000029,-0.000028,-0.000001,-0.000028,-0.000029,-55.544420,0.000057,
2221,2788,-0.840223534727624,3.11860501678488,-0.0152232159853725,0.003106,-0.000086,-0.001304,0.147093,0.002182,318.414795,24.488609,0.999389,0.990768,0.004006,0.407800,-0.000014,-0.000017,-0.000002,-0.000013,-0.000017,-23.737130,0.000030,
2386,3193,2.67400935767764,11.9249209386058,0.0339326976662164,0.003211,-0.000305,0.002270,0.139578,0.004470,312.049215,25.784911,0.999523,0.992127,0.003410,0.387906,-0.000003,0.000002,0.000002,0.000002,-0.000003,70.627785,0.000003,
2206,2923,-1.18924527786373,6.05322352590047,-0.00962090448234676,0.003147,-0.000171,0.000248,0.144080,-0.000803,316.300746,24.689560,0.999458,0.990261,0.003886,0.339954,-0.000011,-0.000009,0.000000,-0.000009,-0.000011,-81.622344,0.000021,
2401,3268,2.98179861878529,13.5553219797048,-0.00668726178713541,0.002930,-0.000360,0.001733,0.128537,-0.004408,310.476531,26.085645,0.999656,0.992172,0.003533,0.370112,-0.000001,-0.000007,0.000004,0.000001,-0.000010,26.383029,0.000011,
2371,2008,2.57382877077481,-13.9307171424536,0.0246900826810474,0.003120,-0.000540,0.003767,0.129130,0.016304,331.203229,22.562495,0.998743,0.973046,0.006315,0.236853,-0.000042,-0.000031,0.000001,-0.000031,-0.000042,86.354126,0.000073,
2341,2158,1.88848664888628,-10.6391272972525,0.00535346307998452,0.002881,-0.000039,0.001932,0.125209,0.018858,328.614371,22.908546,0.999315,0.984954,0.005002,0.501027,-0.000016,-0.000018,-0.000010,-0.000007,-0.000027,-41.120417,0.000036,
2371,2998,2.38306672809393,7.69245648456498,0.00643968282167862,0.002670,-0.000053,-0.000152,0.123324,-0.003447,314.987642,25.249404,0.999571,0.990961,0.003811,0.323977,-0.000020,-0.000007,-0.000011,-0.000001,-0.000026,-59.893983,0.000031,
2431,2143,3.85786019980721,-10.9693854927006,0.0198702122963823,0.002417,-0.000782,0.005160,0.091269,0.002118,329.019281,22.525901,0.999348,0.979678,0.005630,0.320957,-0.000017,-0.000021,0.000003,-0.000015,-0.000022,29.301639,0.000037,
2461,2293,4.4829564547166,-7.68241599011512,0.0132864853440537,0.002487,-0.000502,0.003038,0.102273,0.010802,326.610842,22.820179,0.999296,0.978886,0.005525,0.435429,0.000009,-0.000032,-0.000011,0.000012,-0.000035,-13.714047,0.000035,
2176,2773,-1.81711634222607,2.79161632530615,-0.0325151120047735,0.002872,-0.000345,0.000603,0.130279,0.012975,318.628986,24.430877,0.999343,0.989798,0.004204,0.429801,-0.000022,-0.000023,-0.000007,-0.000016,-0.000030,-43.242967,0.000046,
2311,3163,1.05003236724099,11.2677667239236,0.0313850532457423,0.002761,-0.000464,0.004054,0.113158,0.000097,312.501286,25.370662,0.999633,0.993145,0.003483,0.379810,-0.000017,0.000004,-0.000007,0.000006,-0.000019,-72.419748,0.000019,
2341,3298,1.67328939564761,14.1996158387569,-0.0111422329651418,0.002891,-0.000345,-0.001223,0.137359,-0.016373,309.936935,25.807539,0.999719,0.993069,0.003238,0.377171,0.000009,0.000020,-0.000006,0.000022,0.000006,-65.705853,0.000030,
2401,2098,3.21155415667704,-11.9551805047738,0.0171138177664716,0.002693,0.000401,-0.000449,0.124965,0.043137,329.712306,22.566314,0.998979,0.972945,0.006380,0.344927,-0.000030,-0.000013,0.000000,-0.000013,-0.000030,89.954939,0.000044,
2326,2758,1.44711467743664,2.47188334257032,-0.0274013732883986,0.002786,-0.000079,0.001289,0.123666,0.027706,318.621323,24.499776,0.999600,0.991488,0.003807,0.433093,-0.000025,-0.000004,-0.000004,-0.000003,-0.000026,-79.196078,0.000032,
2236,2848,-0.525692512626616,4.42557898398909,-0.0263405187474177,0.003065,-0.000268,0.000355,0.139858,0.005024,317.302471,24.601409,0.999390,0.991089,0.003768,0.393471,-0.000005,-0.000017,0.000007,-0.000002,-0.000020,23.710868,0.000025,
2356,2848,2.08322200377038,4.43188728955965,-0.0236092457983546,0.002944,-0.000292,0.002276,0.127233,0.007364,317.185097,24.762410,0.999633,0.990700,0.003826,0.396236,-0.000025,-0.000016,-0.000008,-0.000011,-0.000030,-59.701980,0.000043,
2311,2953,1.08667456194088,6.71157168948353,-0.010144556532623,0.003001,0.000444,-0.004063,0.152195,0.026595,315.625287,24.933373,0.999230,0.990426,0.003938,0.406169,-0.000016,-0.000018,-0.000008,-0.000009,-0.000025,-41.485904,0.000035,
2476,2443,4.77877199392002,-4.39777987343032,-0.00384271761714672,0.002768,-0.000645,0.003804,0.112153,-0.009318,324.081610,23.422618,0.999104,0.985731,0.004853,0.334722,0.000010,-0.000009,0.000017,0.000020,-0.000019,29.879325,0.000022,
2236,3058,-0.559234167399662,8.98440002907449,0.0193004893556008,0.003203,0.000065,-0.002261,0.154873,-0.003562,314.275366,24.906357,0.999660,0.992640,0.003390,0.366590,-0.000019,-0.000017,-0.000012,-0.000007,-0.000030,-47.278097,0.000039,
2356,2203,2.20743079997547,-9.65163228817619,0.00798108880735526,0.002716,-0.000118,0.003584,0.111767,0.028938,327.897632,23.099546,0.999146,0.982451,0.005201,0.362646,-0.000014,-0.000013,-0.000011,-0.000002,-0.000025,-46.451699,0.000031,
2356,3088,2.04063498738941,9.64515306904677,0.016052338287011,0.002786,-0.000290,0.001074,0.124354,-0.000043,313.594102,25.407809,0.999574,0.992278,0.003532,0.354442,-0.000021,-0.000004,-0.000020,0.000009,-0.000034,-56.757843,0.000036,
2311,2068,1.25159449349724,-12.6131167810642,0.0218194683234856,0.003143,0.000299,0.000330,0.142873,0.010206,330.228037,22.992170,0.999468,0.981517,0.005180,0.360366,-0.000014,0.000008,-0.000006,0.000010,-0.000016,-75.052236,0.000016,
2326,3013,1.40236066816665,8.01479229501438,0.00241539589245576,0.003158,-0.000384,-0.000814,0.148013,-0.011965,314.737130,25.102184,0.999466,0.989206,0.003920,0.369404,-0.000029,0.000001,-0.000011,0.000005,-0.000032,-72.712179,0.000035,
2296,3118,0.732482446928294,10.290986952452,0.0210342598109605,0.003064,-0.000197,-0.000097,0.141349,-0.007695,313.193921,25.231460,0.999506,0.993032,0.003544,0.358117,-0.000018,-0.000012,-0.000016,0.000001,-0.000031,-50.546897,0.000035,
2116,2503,-3.07571859242789,-3.09326995060408,-0.0175052658343589,0.002957,0.000314,-0.001701,0.141099,0.010682,323.375797,24.320762,0.999019,0.984335,0.004800,0.428081,-0.000008,-0.000002,-0.000006,0.000002,-0.000012,-57.902877,0.000013,
2386,2278,2.84793668316293,-8.00846853587425,0.00764307352312699,0.002571,-0.000260,0.002480,0.108819,0.017340,326.696108,23.239641,0.999648,0.991176,0.003863,0.288503,-0.000009,-0.000026,-0.000012,-0.000003,-0.000032,-27.114825,0.000039,
2476,2458,4.77604752988258,-4.06997752241271,-0.00137478254737289,0.002946,-0.000402,0.004407,0.118104,0.012809,323.864626,23.472098,0.999222,0.986504,0.004695,0.365544,0.000011,-0.000003,0.000012,0.000018,-0.000009,30.149696,0.000018,
2146,2608,-2.4409493516428,-0.801488516858022,-0.0264310801559873,0.003130,0.000016,0.000257,0.143238,0.017456,321.478278,24.412548,0.999431,0.989760,0.004193,0.343913,-0.000012,-0.000004,0.000005,-0.000002,-0.000014,63.657505,0.000018,
2281,3283,0.375325056483852,13.8676599391811,0.00302711671685074,0.003111,-0.000485,0.000848,0.140441,-0.009449,310.357151,25.398895,0.999439,0.992394,0.003449,0.419724,-0.000010,0.000018,-0.000020,0.000028,-0.000020,-62.232004,0.000029,
2191,2608,-1.46213353037839,-0.801863364046518,-0.0168610770876967,0.002916,-0.000326,0.003006,0.124596,0.020523,321.383813,24.287057,0.998583,0.985356,0.004825,0.426983,-0.000016,-0.000006,0.000007,-0.000002,-0.000020,61.638040,0.000024,
2221,3028,-0.881228971580658,8.33303749488122,0.00290294525700574,0.002808,-0.000182,-0.000966,0.132480,0.008802,314.641548,24.783065,0.999643,0.993460,0.003310,0.415096,-0.000017,-0.000004,-0.000009,0.000001,-0.000022,-62.288417,0.000024,
2461,2308,4.47991872998006,-7.35136064162099,0.00167515512060845,0.003100,-0.000049,-0.001300,0.146806,0.015128,326.314607,22.994492,0.999014,0.975617,0.005891,0.322100,0.000013,-0.000014,-0.000014,0.000019,-0.000021,-23.251784,0.000023,
2251,2863,-0.202066313733315,4.75152084333739,-0.0165489266098575,0.002895,-0.000619,0.003325,0.122138,-0.005287,317.091586,24.632018,0.999524,0.991627,0.003702,0.395501,-0.000009,-0.000015,0.000000,-0.000009,-0.000015,-3.888161,0.000024,
2386,3208,2.67051876236112,12.2502216963178,0.0288512544036053,0.002853,-0.000349,0.000132,0.130787,-0.006928,311.751853,25.800778,0.999520,0.992270,0.003511,0.402557,-0.000002,-0.000001,0.000003,0.000002,-0.000005,52.063892,0.000005,
2356,1993,2.24891438858993,-14.26103726516,0.0277222007168803,0.002690,0.000024,-0.000646,0.125323,0.001981,331.459881,22.559580,0.998922,0.968135,0.006992,0.286857,-0.000026,0.000011,-0.000019,0.000019,-0.000034,-67.157340,0.000034,
2371,2023,2.57094811826503,-13.6034171647377,0.0365340421790847,0.002462,-0.001072,0.007550,0.085468,0.008232,331.017501,22.553041,0.998822,0.973482,0.006349,0.282572,-0.000034,-0.000018,-0.000001,-0.000018,-0.000034,-87.846096,0.000052,
2176,2788,-1.81943622759866,3.11764842273993,-0.026414677467244,0.002739,-0.000410,0.001558,0.121144,-0.003345,318.427196,24.481467,0.999304,0.989340,0.004260,0.375119,-0.000027,-0.000018,-0.000004,-0.000016,-0.000029,-66.908153,0.000045,
2341,2848,1.75675118049671,4.4309824122365,-0.0220535378753652,0.002854,-0.000466,0.005277,0.112686,0.006294,317.184282,24.747523,0.999667,0.991717,0.003638,0.389932,-0.000027,-0.000015,-0.000007,-0.000012,-0.000031,-64.708235,0.000043,
2386,3163,2.67915436985136,11.2740087000314,0.0282699488566323,0.002934,-0.000546,0.001470,0.129541,-0.019322,312.483867,25.689868,0.999545,0.991047,0.003726,0.375062,-0.000004,0.000000,0.000000,0.000000,-0.000004,84.218131,0.000004,
2326,3253,1.35747985928279,13.2214626376151,0.0134289863748336,0.002606,-0.000467,0.002731,0.110425,-0.015669,310.861809,25.620433,0.999436,0.992241,0.003471,0.379412,0.000001,0.000003,-0.000014,0.000016,-0.000012,-47.685298,0.000016,
2251,3088,-0.240208019886076,9.63707361939408,0.0126865179331048,0.002650,-0.000188,0.001167,0.118197,0.004737,313.661037,24.996108,0.999603,0.990742,0.003677,0.381120,-0.000023,-0.000014,-0.000020,0.000002,-0.000039,-51.001804,0.000044,
2266,3028,0.0962194895181128,8.33609845229585,0.00620498989354701,0.002851,-0.000209,-0.001869,0.137422,-0.009275,314.579057,24.952578,0.999369,0.990171,0.003835,0.367858,-0.000020,-0.000006,-0.000013,0.000002,-0.000028,-59.276917,0.000031,
2281,3058,0.416401342666862,8.98863869463649,0.0079894020011011,0.002813,-0.000200,0.001386,0.124867,0.005930,314.067981,25.062174,0.999527,0.992899,0.003499,0.374072,-0.000019,-0.000013,-0.000014,-0.000001,-0.000030,-50.780997,0.000035,
2371,2233,2.53006414747727,-8.99480728238716,0.0127022940416168,0.003040,-0.000216,0.001492,0.133873,0.004521,327.480769,23.156298,0.998866,0.978997,0.005802,0.293067,-0.000010,-0.000019,-0.000011,-0.000003,-0.000026,-34.719235,0.000032,
2326,2158,1.56193525379074,-10.6391233309193,0.0140791369985322,0.003099,-0.000065,0.000847,0.138994,0.010537,328.703322,23.074731,0.999236,0.983532,0.005145,0.408189,-0.000020,-0.000013,-0.000014,-0.000002,-0.000031,-52.033269,0.000036,
2371,3013,2.38051626025044,8.01812572262164,0.00644156089634862,0.002972,-0.000053,-0.000421,0.138222,0.006868,314.757364,25.257158,0.999579,0.990664,0.003838,0.366669,-0.000021,-0.000004,-0.000011,0.000001,-0.000027,-63.263165,0.000030,
2491,2533,5.08729278426413,-2.43060836447383,-0.0100261508814583,0.002957,-0.000314,0.004287,0.118983,0.013491,322.614835,23.682005,0.999728,0.989314,0.003898,0.418636,0.000007,-0.000022,0.000011,0.000011,-0.000026,19.318565,0.000026,
2401,2113,3.20884393688222,-11.626330880677,0.0206776129094237,0.002475,0.000523,-0.002272,0.121663,0.036103,329.496871,22.635591,0.998976,0.975051,0.006053,0.317162,-0.000027,-0.000018,0.000001,-0.000018,-0.000027,83.414916,0.000045,
2221,2803,-0.843917104925719,3.44565183344042,-0.0244941825357614,0.002902,-0.000529,0.001877,0.127365,-0.007383,318.073520,24.511327,0.999344,0.988826,0.004213,0.394536,-0.000013,-0.000020,-0.000002,-0.000012,-0.000020,-13.153924,0.000032,
2176,2578,-1.78340445711769,-1.45616965128694,-0.0226476491447443,0.002999,-0.000183,-0.000373,0.138998,-0.004307,321.883901,24.254791,0.999280,0.987836,0.004249,0.423616,-0.000019,-0.000003,0.000002,-0.000003,-0.000020,81.768560,0.000024,
2356,2008,2.24638434737068,-13.9299156773851,0.0195180315100174,0.003410,0.000754,-0.003486,0.168480,0.034925,331.192722,22.624221,0.998758,0.974892,0.006360,0.298015,-0.000017,-0.000017,-0.000008,-0.000009,-0.000025,-46.143150,0.000035,
2446,2038,4.20872702062523,-13.2760196929126,0.0345205918309262,0.002897,-0.000220,0.002022,0.124811,0.018768,330.897325,22.053879,0.999253,0.978830,0.005542,0.336722,-0.000052,-0.000027,0.000021,-0.000015,-0.000064,59.859191,0.000084,
2401,3283,2.97842933616344,13.8806975809317,-0.017132012928073,0.003066,-0.000295,-0.001413,0.146258,-0.010314,310.160122,26.097336,0.999658,0.991536,0.003694,0.396686,0.000002,-0.000003,0.000001,0.000003,-0.000004,8.193402,0.000004,
2371,3133,2.35831390632105,10.6229772197803,0.0193594191441093,0.002898,-0.000427,0.001212,0.129025,0.007822,312.892450,25.579511,0.999598,0.991670,0.003674,0.366268,-0.000010,-0.000004,-0.000008,0.000001,-0.000015,-56.151880,0.000017,
2326,2773,1.44499140705542,2.79901108053316,-0.0201460721999638,0.002939,-0.000053,0.001640,0.129468,0.027377,318.443214,24.642192,0.999669,0.994385,0.003410,0.324665,-0.000026,-0.000010,-0.000005,-0.000009,-0.000028,-73.127617,0.000038,
2326,3268,1.35435901652637,13.5476456456831,0.00593913755176345,0.002836,-0.000379,0.002370,0.122355,-0.007675,310.564216,25.702105,0.999602,0.992973,0.003228,0.338806,0.000004,0.000003,-0.000008,0.000012,-0.000005,-43.898784,0.000012,
2326,3028,1.3992384361653,8.34023843238971,0.00714010461859971,0.002561,-0.000510,0.000252,0.116810,-0.012737,314.500450,25.135666,0.999631,0.991628,0.003616,0.368492,-0.000026,0.000001,-0.000013,0.000006,-0.000032,-67.919719,0.000034,
2311,2968,1.08485557201812,7.03706164399566,0.00519838468204625,0.003073,-0.000069,-0.000569,0.143362,0.006291,315.500144,25.049148,0.999894,0.997385,0.002567,0.301415,-0.000019,-0.000010,-0.000010,-0.000004,-0.000026,-58.008240,0.000032,
2161,2458,-2.08903392271194,-4.07516544016791,-0.0093047021778716,0.002980,-0.000315,0.001894,0.131040,0.019428,323.980486,24.186106,0.999224,0.987566,0.004512,0.446298,-0.000025,-0.000018,-0.000021,0.000000,-0.000043,-49.257745,0.000049,
2341,3043,1.72252648895752,8.66644605985982,0.00613807923332388,0.002783,-0.000552,0.000106,0.127508,-0.013635,314.252225,25.152468,0.999699,0.993009,0.003405,0.433582,-0.000032,-0.000002,-0.000021,0.000009,-0.000043,-62.885632,0.000045,
2146,2413,-2.40832091398172,-5.05736904263806,-0.0123389372967608,0.003050,-0.000738,0.003073,0.130598,-0.000894,324.737386,24.228626,0.998676,0.986338,0.005033,0.392684,-0.000015,-0.000029,-0.000028,0.000006,-0.000051,-38.019163,0.000055,
2431,2158,3.85627240147018,-10.6421424905056,0.0253712626770266,0.002652,0.000048,-0.003431,0.133976,-0.015287,328.866599,22.494784,0.999339,0.978971,0.005605,0.386963,-0.000012,-0.000029,-0.000003,-0.000011,-0.000030,-9.941682,0.000042,
2446,2083,4.19857486703032,-12.2860553612269,0.0242190933346365,0.002797,-0.000198,0.004085,0.112635,0.029455,330.072959,22.260401,0.998671,0.975987,0.006259,0.307911,-0.000028,-0.000017,0.000024,0.000002,-0.000047,51.568296,0.000053,
2131,2578,-2.7628282236693,-1.45533250707568,-0.028213388553354,0.002912,-0.000437,0.005065,0.118688,0.027565,321.985268,24.422734,0.999455,0.991749,0.004110,0.345962,-0.000019,-0.000013,0.000000,-0.000013,-0.000019,87.481698,0.000033,
2386,2293,2.84522087136734,-7.68096222622457,0.00559912444703059,0.002791,-0.000297,0.001088,0.123877,0.008239,326.452173,23.192650,0.999853,0.994424,0.003285,0.371896,-0.000010,-0.000027,-0.000006,-0.000008,-0.000029,-18.040664,0.000039,
2401,3298,2.97481331406726,14.2056888833868,-0.0220281150886876,0.002959,-0.000319,0.001038,0.132396,-0.006198,309.858678,26.098558,0.999661,0.992500,0.003594,0.443361,0.000003,-0.000004,-0.000001,0.000004,-0.000004,-9.552519,0.000005,
2461,2323,4.4767685379219,-7.02415729908904,0.00284412132350553,0.003137,-0.000279,0.001837,0.136631,-0.001372,326.071932,22.970820,0.999110,0.977943,0.005579,0.385483,0.000011,-0.000003,-0.000010,0.000017,-0.000008,-26.682216,0.000017,
2206,2938,-1.19160062599029,6.37863299577087,-0.00836411309148843,0.003169,0.000054,-0.001662,0.151232,0.001804,316.074134,24.667731,0.999515,0.991908,0.003638,0.380539,-0.000015,-0.000008,-0.000003,-0.000007,-0.000016,-68.804735,0.000023,
2386,2068,2.88990094751815,-12.614614617043,0.020568151192947,0.002692,0.000218,-0.001646,0.129138,0.008443,330.214408,22.515666,0.999250,0.977939,0.005779,0.358732,-0.000026,-0.000024,0.000003,-0.000022,-0.000029,55.336721,0.000051,
2311,2083,1.24840978808729,-12.2824546645528,0.0215021767883172,0.002982,-0.000277,0.003540,0.124394,0.026773,329.964612,23.148707,0.999482,0.982233,0.005199,0.255911,-0.000016,0.000020,-0.000007,0.000021,-0.000017,-79.548154,0.000022,
2296,3133,0.729381187438452,10.6163762222727,0.0206147248657089,0.002860,-0.000207,0.001381,0.126998,-0.001499,312.930552,25.245033,0.999690,0.994629,0.003249,0.379754,-0.000020,-0.000011,-0.000013,-0.000002,-0.000029,-54.584800,0.000035,
2251,2878,-0.204443917762653,5.07797773545883,-0.0167503485418479,0.003036,-0.000470,0.000993,0.136275,-0.018222,316.859562,24.695891,0.999605,0.990188,0.003817,0.341730,-0.000008,-0.000011,0.000003,-0.000006,-0.000013,32.966929,0.000019,
2431,2488,3.78768652113598,-3.41568383302324,-0.00656338670023615,0.002845,-0.000838,0.004866,0.112129,-0.017262,323.235127,23.629390,0.999099,0.982608,0.004962,0.394314,0.000002,-0.000028,-0.000003,0.000003,-0.000028,-5.500324,0.000031,
2356,2023,2.24346942100241,-13.6025062232101,0.0257193710606884,0.003165,0.000163,0.000788,0.142089,0.024621,330.977488,22.563381,0.998865,0.973971,0.006488,0.390677,-0.000012,-0.000003,-0.000005,-0.000001,-0.000014,-67.403604,0.000017,
2311,3178,1.04736326196759,11.5932466661651,0.0290497990637277,0.002857,-0.000348,0.001461,0.126473,-0.004478,312.249257,25.403152,0.999685,0.993178,0.003478,0.373917,-0.000017,0.000002,-0.000010,0.000006,-0.000022,-66.879294,0.000022,
2191,2623,-1.46442508464628,-0.475168247728163,-0.018179496785649,0.002970,-0.000275,-0.001267,0.140412,-0.014447,321.145746,24.307666,0.999159,0.986719,0.004557,0.386717,-0.000013,-0.000010,0.000001,-0.000010,-0.000013,74.271750,0.000023,
2446,2323,4.1492187997808,-7.02431910015627,0.00565687893441691,0.002986,-0.000138,0.002917,0.125844,0.024070,326.052697,23.021121,0.999348,0.979865,0.005262,0.418743,0.000004,-0.000003,-0.000010,0.000011,-0.000010,-35.031327,0.000013,
2476,2473,4.77174111103963,-3.74103484798165,-0.0172466176460375,0.003007,-0.000606,0.004214,0.121587,0.002580,323.491766,23.493995,0.999548,0.989617,0.004156,0.391771,0.000000,-0.000019,0.000015,0.000008,-0.000027,28.576088,0.000027,
2146,2623,-2.44392120767539,-0.474623730055839,-0.0280201663132402,0.002855,-0.000083,0.002122,0.124911,0.015779,321.203797,24.413197,0.999625,0.991675,0.003887,0.350138,-0.000010,-0.000012,0.000000,-0.000010,-0.000012,6.317687,0.000022,
2341,2173,1.8855050985097,-10.3094726378313,0.00772371196359245,0.002667,-0.000239,0.003691,0.109244,0.019632,328.375711,23.051492,0.999219,0.982871,0.005136,0.398261,-0.000012,-0.000021,-0.000002,-0.000011,-0.000021,-12.461743,0.000033,
2356,2218,2.20530706636312,-9.32378104199842,0.0156020131044556,0.002868,-0.000159,0.004000,0.117281,0.026688,327.724748,23.150676,0.998738,0.978655,0.005745,0.350439,-0.000012,-0.000015,-0.000010,-0.000003,-0.000024,-40.936348,0.000029,
2326,3283,1.35090043404219,13.8729225259258,-0.00431436829734366,0.002864,-0.000376,0.001068,0.128201,-0.005820,310.237757,25.696049,0.999744,0.994523,0.002864,0.379583,0.000005,0.000014,-0.000010,0.000020,-0.000001,-57.431664,0.000022,
2281,3298,0.372144020221615,14.1938368767203,-0.00404567683597179,0.003134,-0.000365,0.000033,0.144260,-0.007799,310.054912,25.497042,0.999547,0.993938,0.003228,0.349380,-0.000002,0.000021,-0.000020,0.000032,-0.000014,-59.895377,0.000032,
2446,2053,4.20564379540084,-12.9469240632454,0.0334049249320287,0.002865,0.000013,0.001484,0.125486,0.018877,330.647109,22.064626,0.999170,0.979351,0.005511,0.381622,-0.000043,-0.000032,0.000021,-0.000016,-0.000060,51.965672,0.000079,
2311,2743,1.12459393125822,2.14349646410239,-0.0154740218961251,0.002913,0.000023,0.000905,0.130842,0.018299,318.981838,24.464006,0.999504,0.990241,0.003990,0.419906,-0.000020,-0.000003,-0.000007,0.000000,-0.000023,-69.438828,0.000026,
2491,2548,5.08390281063042,-2.10271245404476,-0.0132784954335534,0.002758,-0.000273,0.002303,0.117527,0.008887,322.342248,23.744818,0.999726,0.988782,0.004079,0.411159,0.000014,-0.000051,0.000002,0.000014,-0.000051,2.073732,0.000053,
2401,2128,3.20691384424992,-11.2979854218624,0.0298920836460752,0.002916,0.000151,0.000000,0.133492,0.019022,329.343732,22.734799,0.999256,0.979821,0.005464,0.248752,-0.000020,-0.000019,0.000000,-0.000019,-0.000020,-73.232992,0.000039,
2416,2413,3.47602265602313,-5.05452089310049,-0.000384052441575022,0.002814,-0.000385,0.001501,0.123360,0.016495,324.491291,23.489759,0.999687,0.987732,0.004411,0.355358,0.000005,-0.000003,0.000018,0.000020,-0.000018,39.221248,0.000022,
2236,2863,-0.527816126075837,4.75156808843113,-0.0199774037474185,0.003118,-0.000123,0.000127,0.143072,0.007116,317.114602,24.651996,0.999291,0.990618,0.003791,0.365598,-0.000008,-0.000013,0.000004,-0.000006,-0.000015,28.293324,0.000022,
2161,2713,-2.13266858135967,1.48540073273504,-0.0253806295147569,0.002695,-0.000155,0.000378,0.122832,0.009900,319.707905,24.451351,0.999428,0.989569,0.004040,0.356049,-0.000015,-0.000008,-0.000006,-0.000005,-0.000018,-60.372438,0.000025,
2146,2428,-2.41057985155804,-4.7293756535128,-0.0117398438509895,0.003015,-0.000269,0.000249,0.137703,0.001099,324.506995,24.284493,0.999122,0.986750,0.004720,0.348171,-0.000014,-0.000037,-0.000018,-0.000004,-0.000047,-28.606509,0.000057,
2371,3148,2.35588025774278,10.9483255571872,0.0230328228547023,0.002918,-0.000181,-0.000555,0.136292,0.005736,312.684777,25.627506,0.999607,0.990924,0.003694,0.355925,-0.000007,-0.000005,-0.000005,-0.000001,-0.000011,-51.235490,0.000014,
2236,3073,-0.562964429974468,9.31032856346565,0.0125696494003478,0.002940,-0.000332,0.002416,0.127521,0.001225,313.946496,24.913681,0.999640,0.992279,0.003452,0.384371,-0.000021,-0.000013,-0.000013,-0.000004,-0.000031,-53.299369,0.000038,
2416,2173,3.52333642251616,-10.3107151814225,0.00577732112265039,0.002412,-0.000713,0.001188,0.105779,-0.027353,328.408611,22.643367,0.998956,0.979448,0.005309,0.360032,-0.000008,-0.000030,0.000001,-0.000008,-0.000030,3.615484,0.000040,
2341,3058,1.71966880373358,8.99194710967258,0.00439159369904019,0.002945,-0.000649,0.000904,0.132170,-0.014707,313.997039,25.156598,0.999709,0.993843,0.003180,0.464037,-0.000032,-0.000008,-0.000017,0.000000,-0.000041,-62.676982,0.000047,
2386,2083,2.88716645577221,-12.2845347599457,0.0196633946525822,0.002914,0.000619,-0.001776,0.139920,0.035195,329.975401,22.603350,0.999126,0.975334,0.005878,0.344433,-0.000024,-0.000012,0.000003,-0.000011,-0.000025,76.485721,0.000036,
2296,3148,0.7266981330786,10.9415869107538,0.0266764639786174,0.002611,-0.000418,0.003041,0.109842,-0.004670,312.718681,25.294784,0.999614,0.993253,0.003508,0.355300,-0.000019,-0.000006,-0.000009,-0.000001,-0.000024,-61.765104,0.000028,
2446,2098,4.19540725433525,-11.9565240661779,0.01768326991305,0.002756,-0.000004,-0.001025,0.129818,0.009975,329.793849,22.288431,0.999317,0.978853,0.005772,0.315923,-0.000022,-0.000016,0.000020,0.000001,-0.000039,49.438630,0.000044,
2386,3223,2.66710915172748,12.5762785669191,0.0231152371102326,0.002664,-0.000252,-0.001585,0.128270,-0.009907,311.454763,25.878761,0.999556,0.993034,0.003356,0.363580,-0.000003,-0.000003,0.000002,-0.000001,-0.000005,48.226435,0.000007,
2476,2488,4.76990710923731,-3.41407321296276,-0.00940717658920676,0.003309,-0.000050,0.001057,0.147625,0.006602,323.340054,23.543963,0.999568,0.986906,0.004357,0.403471,0.000005,-0.000024,0.000004,0.000005,-0.000024,8.073957,0.000025,
2251,2893,-0.206929849522854,5.40358574818026,-0.0106035375537203,0.002791,-0.000262,0.001169,0.124579,0.009705,316.654882,24.691443,0.999663,0.991470,0.003627,0.397116,-0.000010,-0.000016,0.000004,-0.000008,-0.000017,24.880230,0.000026,
2491,2563,5.08020253245209,-1.77460120259101,-0.018317781347605,0.002564,-0.000126,0.002271,0.108787,0.013048,322.047201,23.808187,0.999585,0.989007,0.004298,0.412020,0.000013,-0.000054,-0.000003,0.000013,-0.000054,-2.559947,0.000057,
2371,3028,2.37723686485055,8.34426402542292,0.00359621180024305,0.002746,-0.000067,-0.000974,0.129849,0.009872,314.479701,25.300729,0.999542,0.990104,0.003940,0.366540,-0.000020,-0.000003,-0.000014,0.000005,-0.000028,-60.796023,0.000030,
2371,2038,2.568250615902,-13.2734076439376,0.0242714444311787,0.003122,-0.000357,0.001731,0.136568,0.001446,330.725173,22.522205,0.999094,0.977091,0.005866,0.351275,-0.000031,-0.000027,-0.000002,-0.000026,-0.000031,-66.901619,0.000058,
2371,2248,2.52621786598948,-8.66443044686239,-0.00478644013162466,0.003083,0.000499,-0.002855,0.151544,0.026349,327.109757,23.165919,0.999244,0.982550,0.005461,0.349423,-0.000011,-0.000023,-0.000011,-0.000005,-0.000030,-29.693046,0.000037,
2356,3103,2.03775893517667,9.97124913699025,0.0136525460982853,0.002883,-0.000149,0.000229,0.131841,-0.001926,313.335698,25.475390,0.999592,0.991699,0.003704,0.322711,-0.000015,-0.000003,-0.000015,0.000007,-0.000025,-56.700891,0.000026,
2326,3298,1.34800349489019,14.1974665231542,-0.00473599645039258,0.002785,-0.000464,0.000732,0.125681,-0.012325,309.985660,25.688574,0.999768,0.994759,0.002889,0.413356,0.000005,0.000022,-0.000007,0.000025,0.000003,-71.417770,0.000030,
2191,2638,-1.46697827091147,-0.148142969723224,-0.0206896669733396,0.003128,0.000185,-0.001370,0.148209,0.003500,320.889238,24.300605,0.999451,0.988282,0.004299,0.426769,-0.000012,-0.000011,-0.000002,-0.000009,-0.000014,-51.345390,0.000024,
2431,2248,3.83700791166973,-8.66699677044144,0.0149669249099702,0.002748,-0.000215,0.004349,0.109691,0.048813,327.300031,22.858378,0.999239,0.980074,0.005401,0.403432,0.000000,-0.000020,-0.000013,0.000006,-0.000027,-25.944655,0.000028,
2401,2143,3.20344376381953,-10.9694619255521,0.0232852921105291,0.002886,0.000380,0.000073,0.131986,0.029754,329.045586,22.656677,0.999229,0.978423,0.005476,0.386284,-0.000019,-0.000025,-0.000006,-0.000015,-0.000029,-32.609457,0.000044,
2311,3193,1.04507476287859,11.9182918990908,0.0293724834015734,0.003096,-0.000329,-0.001639,0.148161,-0.009621,312.027981,25.415829,0.999678,0.993480,0.003352,0.386892,-0.000017,0.000001,-0.000009,0.000005,-0.000021,-66.524817,0.000021,
2386,2308,2.84165287950715,-7.3520663847365,-0.00409790369707252,0.002883,-0.000111,0.001169,0.127869,0.014995,326.132623,23.185999,0.999792,0.994063,0.003413,0.431062,-0.000006,-0.000023,-0.000002,-0.000006,-0.000023,-6.936154,0.000030,
2356,2863,2.08041715394313,4.75787425459383,-0.0235844553522497,0.002991,-0.000419,0.002403,0.128936,-0.000959,316.942590,24.777963,0.999499,0.990602,0.003893,0.411014,-0.000029,-0.000010,-0.000008,-0.000007,-0.000032,-70.359347,0.000041,
2461,2398,4.46041351091452,-5.38257113471006,0.000647337363091083,0.002263,-0.000649,0.003394,0.090693,0.013117,324.791888,23.261961,0.999581,0.985902,0.004807,0.390211,0.000019,-0.000002,-0.000001,0.000019,-0.000002,-2.726114,0.000021,
2401,2338,3.16350591638157,-6.69559742194691,0.00304334900789627,0.002280,0.000546,-0.003157,0.116099,0.024714,325.709090,23.273780,0.998973,0.981856,0.005030,0.387763,-0.000003,-0.000019,0.000000,-0.000003,-0.000019,-1.370330,0.000024,
2311,2758,1.12147571419418,2.47007102263225,-0.0181264824340133,0.002797,-0.000211,0.001416,0.123724,0.014988,318.708557,24.475433,0.999568,0.991599,0.003872,0.437566,-0.000021,-0.000003,-0.000004,-0.000002,-0.000022,-77.963041,0.000026,
2236,2878,-0.529496361829672,5.07619782481522,-0.00820368424439266,0.003170,-0.000224,-0.000916,0.148793,-0.011322,316.975118,24.641135,0.999487,0.991345,0.003674,0.378750,-0.000009,-0.000007,0.000005,-0.000003,-0.000013,48.741000,0.000017,
2431,2173,3.85293433679367,-10.3123274709747,0.0256567969851744,0.002695,-0.000445,0.001693,0.116911,-0.018392,328.609202,22.633793,0.999389,0.982530,0.005034,0.297608,-0.000008,-0.000028,0.000002,-0.000008,-0.000028,5.506820,0.000038,
2386,2098,2.88347538665239,-11.9550762078468,0.0141954689300974,0.002754,0.000129,0.000852,0.123002,0.026904,329.671196,22.625112,0.998948,0.973709,0.006134,0.361089,-0.000024,-0.000011,0.000000,-0.000011,-0.000024,89.960583,0.000035,
2341,2188,1.8831953403907,-9.98014815587673,0.0114428809242781,0.002836,-0.000224,0.003040,0.119263,0.012230,328.174369,23.191549,0.999307,0.985844,0.004812,0.289903,-0.000015,-0.000020,-0.000001,-0.000015,-0.000020,-10.878288,0.000035,
2281,3073,0.413049382987328,9.31510792277529,0.00186778340162164,0.002430,-0.000073,-0.001509,0.117008,0.007224,313.763259,25.128208,0.999558,0.992691,0.003586,0.336277,-0.000021,-0.000008,-0.000016,0.000003,-0.000032,-56.125193,0.000035,
2476,2713,4.72232187465302,1.4971654722431,-0.0254044140716019,0.002840,-0.000183,0.000541,0.128211,0.004324,319.526082,24.341475,0.999646,0.989765,0.004108,0.464730,-0.000018,0.000010,-0.000014,0.000016,-0.000024,-67.669267,0.000024,
2341,1993,1.92059387383467,-14.2611928127758,0.029863618782997,0.002413,-0.001013,0.003396,0.098215,-0.026941,331.448557,22.665392,0.998583,0.976509,0.006287,0.258584,-0.000020,0.000020,-0.000027,0.000034,-0.000033,-63.454954,0.000039,
2491,2578,5.07820005733809,-1.44760476223617,-0.0115519887241931,0.003118,-0.000303,0.002776,0.132222,0.027583,321.883372,23.867281,0.999036,0.981665,0.005169,0.426943,0.000008,-0.000040,0.000004,0.000009,-0.000040,4.431879,0.000043,
2401,2158,3.20081595484315,-10.6403845507946,0.0235456130295688,0.003282,0.000141,0.001589,0.144541,0.024072,328.818219,22.725015,0.999287,0.978630,0.005405,0.360812,-0.000017,-0.000032,-0.000010,-0.000012,-0.000037,-26.201055,0.000051,
2416,1993,3.56248638900628,-14.264298023423,0.0435322355313588,0.002912,0.000285,-0.001343,0.138132,0.007821,331.657891,22.172344,0.999067,0.975635,0.006095,0.252957,-0.000081,-0.000007,0.000019,-0.000002,-0.000086,76.184091,0.000100,
2371,2053,2.56563229193592,-12.9431054670204,0.0260422269047353,0.003164,-0.000059,0.000804,0.141886,0.010216,330.503078,22.666462,0.999192,0.978648,0.005620,0.260368,-0.000025,-0.000021,0.000000,-0.000021,-0.000025,-86.777165,0.000047,
2356,2038,2.24084413662679,-13.2727968031713,0.0257668703237641,0.003320,0.000156,0.000118,0.151545,0.014120,330.745776,22.647809,0.999065,0.977777,0.005803,0.338021,-0.000011,-0.000010,-0.000003,-0.000008,-0.000013,-48.886343,0.000022,
2476,2503,4.76692111937595,-3.08658133396741,-0.00750800514106231,0.003204,-0.000021,0.000845,0.143630,0.012247,323.108346,23.590889,0.999559,0.987831,0.004313,0.419706,0.000005,-0.000018,0.000003,0.000005,-0.000018,7.223006,0.000019,
2446,2338,4.14635654320286,-6.69596072496292,0.0116655332523692,0.002622,-0.000268,0.002658,0.110081,0.017071,325.844008,23.145903,0.999228,0.980616,0.005222,0.340791,0.000006,-0.000008,-0.000012,0.000012,-0.000015,-29.572342,0.000016,
2371,3043,2.37457893745417,8.66934684864122,0.00967471783337714,0.002826,-0.000439,0.003356,0.117981,0.008567,314.273688,25.314375,0.999646,0.991672,0.003644,0.391680,-0.000022,0.000001,-0.000015,0.000008,-0.000029,-64.763826,0.000030,
2161,2728,-2.13496644741277,1.81134078537225,-0.0268662569415028,0.003020,-0.000103,0.000718,0.136778,0.005615,319.466259,24.403598,0.999417,0.989472,0.004174,0.409828,-0.000017,-0.000012,-0.000005,-0.000009,-0.000021,-58.219189,0.000030,
2251,2908,-0.207990501938443,5.7294159490456,0.00142065975245487,0.003236,0.000187,-0.003087,0.159192,0.021018,316.545403,24.769474,0.999777,0.993140,0.003307,0.352937,-0.000011,-0.000020,0.000001,-0.000011,-0.000020,3.905663,0.000032,
2206,2953,-1.19473228978072,6.70453790362441,-0.0137282192882253,0.003105,-0.000032,-0.000278,0.143891,0.008552,315.777435,24.645218,0.999503,0.991833,0.003666,0.426205,-0.000015,-0.000009,-0.000003,-0.000007,-0.000017,-67.618191,0.000024,
2341,2863,1.75454771301879,4.756549680296,-0.014924762936289,0.002766,-0.000373,0.003188,0.115960,0.004880,317.002911,24.769818,0.999606,0.991466,0.003744,0.402473,-0.000031,-0.000008,-0.000007,-0.000006,-0.000033,-73.343984,0.000042,
2296,1993,0.937528037397261,-14.2596303508761,0.0317600998203602,0.002729,-0.000531,0.004795,0.108564,0.006247,331.493298,22.996393,0.999295,0.965889,0.007035,0.279425,-0.000004,0.000011,-0.000031,0.000035,-0.000028,-51.648685,0.000037,
2386,2323,2.83781134730217,-7.02293789294095,-0.0110508410545549,0.002503,-0.000130,0.001406,0.109621,0.021443,325.813402,23.234711,0.999650,0.992231,0.003913,0.434397,-0.000008,-0.000025,0.000002,-0.000008,-0.000025,6.903690,0.000035,
2431,2503,3.78491043403667,-3.08848414085277,-0.0055041984008426,0.002600,-0.000436,0.000496,0.117197,-0.023045,323.005824,23.652631,0.999353,0.986279,0.004509,0.416273,0.000002,-0.000021,-0.000001,0.000002,-0.000021,-2.766662,0.000022,
2161,2473,-2.0915434510387,-3.74698621642849,-0.0106885278773916,0.002810,0.000302,-0.001635,0.134247,0.032355,323.729281,24.244553,0.999195,0.986076,0.004838,0.412041,-0.000024,-0.000008,-0.000010,-0.000004,-0.000029,-64.593252,0.000036,
2446,2068,4.2023978609271,-12.6166104823264,0.0272650869324593,0.002995,0.000204,-0.000245,0.137934,0.018056,330.366246,22.137296,0.998885,0.977391,0.005916,0.363852,-0.000036,-0.000030,0.000022,-0.000010,-0.000055,48.783814,0.000070,
2326,3043,1.39677703917306,8.6657393848159,0.011233826779744,0.002546,-0.000349,-0.000345,0.118321,0.001754,314.291004,25.158114,0.999698,0.992416,0.003508,0.394124,-0.000026,0.000002,-0.000016,0.000009,-0.000033,-65.814552,0.000034,
2311,2773,1.11934658111727,2.79617294929244,-0.00991311521596572,0.002839,-0.000286,0.001666,0.124797,0.016614,318.534268,24.528264,0.999563,0.992255,0.003731,0.418449,-0.000019,-0.000011,-0.000005,-0.000009,-0.000021,-66.718008,0.000031,
2446,2113,4.19308211594821,-11.628148524576,0.0250382191081826,0.002846,0.000275,-0.000860,0.133477,0.021522,329.616921,22.337488,0.999492,0.978692,0.005674,0.333376,-0.000016,-0.000022,0.000020,0.000001,-0.000039,40.491335,0.000044,
2176,2803,-1.82175980292101,3.44317609220252,-0.0179078716716958,0.002317,-0.000032,0.000733,0.104417,0.012264,318.237915,24.475962,0.999433,0.989885,0.004212,0.408256,-0.000026,-0.000020,-0.000003,-0.000018,-0.000027,-68.200083,0.000045,
2341,2008,1.91805600802876,-13.9312850685069,0.0316309509998405,0.002659,-0.000561,0.004944,0.104285,0.017843,331.227599,22.720682,0.998487,0.974528,0.006553,0.288411,-0.000010,-0.000011,-0.000016,0.000006,-0.000026,-44.275823,0.000027,
2491,2593,5.07528232592168,-1.12036923326723,-0.0115074618897779,0.003125,-0.000510,0.000938,0.139507,0.010093,321.647211,23.925988,0.999851,0.994291,0.003457,0.410312,0.000010,-0.000031,0.000011,0.000012,-0.000033,14.174415,0.000034,
2386,3238,2.66339459902537,12.9020570370883,0.0102598455554244,0.002790,-0.000309,-0.002505,0.137326,-0.025376,311.109689,25.907892,0.999597,0.992947,0.003317,0.360952,-0.000003,-0.000006,0.000002,-0.000002,-0.000007,20.564726,0.000009,
2401,2173,3.19715806586298,-10.3111856607303,0.0179550144986251,0.003012,-0.000166,0.001851,0.131137,0.008334,328.516160,22.757878,0.999237,0.980944,0.005252,0.360588,-0.000013,-0.000032,-0.000002,-0.000013,-0.000032,-7.329102,0.000047,
2356,2233,2.20250083942225,-8.99461360451172,0.00817900371504265,0.003208,0.000028,0.000604,0.144850,0.009113,327.448251,23.186155,0.998245,0.975451,0.006152,0.338710,-0.000015,-0.000025,-0.000011,-0.000008,-0.000032,-33.472732,0.000042,
2341,3073,1.71686341839657,9.31884500137945,0.004461813105479,0.002793,-0.000363,-0.001364,0.133192,-0.010334,313.752595,25.299948,0.999657,0.993948,0.003170,0.360779,-0.000030,-0.000006,-0.000018,0.000004,-0.000040,-61.374952,0.000044,
2461,2638,4.41085886834732,-0.137769775905127,-0.0244249778875769,0.002985,-0.000107,0.000038,0.136770,0.004146,320.728871,24.175274,0.999648,0.989565,0.003934,0.356540,0.000003,-0.000022,-0.000009,0.000006,-0.000025,-17.018191,0.000026,
2371,2263,2.52340772488818,-8.33649517580014,0.00136757588171577,0.002789,0.000119,-0.001169,0.131976,0.025933,326.899253,23.223217,0.999382,0.985720,0.004804,0.334903,-0.000013,-0.000030,-0.000014,-0.000005,-0.000038,-29.300586,0.000047,
2386,2113,2.8806713753489,-11.6259783888502,0.0146767066086113,0.002735,0.000091,-0.000026,0.125307,0.022295,329.435683,22.681093,0.998548,0.969558,0.006501,0.346817,-0.000020,-0.000017,0.000001,-0.000017,-0.000021,79.016576,0.000037,
2416,2188,3.52218380987703,-9.9820576147791,0.0221515971101667,0.002756,-0.000010,-0.000590,0.128303,0.011911,328.324896,22.810155,0.999351,0.983177,0.004963,0.282059,-0.000004,-0.000024,-0.000003,-0.000003,-0.000025,-8.975315,0.000031,
2416,2428,3.47299370544791,-4.72618665729225,-0.00808253531175751,0.003095,-0.000419,-0.001713,0.147929,-0.031278,324.208651,23.551540,0.999526,0.986661,0.004586,0.294994,0.000002,0.000002,0.000016,0.000018,-0.000015,45.464589,0.000019,
2431,2188,3.8506027514667,-9.98367145885676,0.0346802454367321,0.002749,-0.000565,0.003340,0.113264,-0.002959,328.438298,22.745683,0.999714,0.987437,0.004396,0.253326,-0.000002,-0.000022,-0.000004,-0.000001,-0.000022,-9.783514,0.000027,
2251,2923,-0.211625672581643,6.05502178330344,-0.00298339889934596,0.002959,-0.000271,0.002108,0.129256,0.007710,316.234488,24.737296,0.999691,0.993055,0.003453,0.394922,-0.000012,-0.000016,-0.000002,-0.000011,-0.000017,-20.626712,0.000028,
2326,2788,1.44201241531395,3.12403296530545,-0.0267637933972082,0.003102,-0.000252,-0.000239,0.143348,-0.000068,318.158518,24.514076,0.999581,0.993796,0.003493,0.459994,-0.000025,-0.000015,-0.000002,-0.000014,-0.000025,-78.376241,0.000040,
2356,2878,2.07800494381903,5.08343564320777,-0.0152639488407544,0.002748,-0.000622,0.001939,0.119283,-0.017266,316.758226,24.827494,0.999492,0.991734,0.003750,0.383412,-0.000032,-0.000014,-0.000007,-0.000012,-0.000034,-71.800128,0.000047,
2446,2563,4.09955180312043,-1.77518296390009,-0.0179439586406147,0.002941,0.000216,-0.001723,0.141442,0.035941,321.976691,23.916407,0.999668,0.988780,0.004245,0.393816,0.000015,-0.000032,-0.000008,0.000016,-0.000033,-9.742536,0.000033,
2236,3088,-0.565078243694519,9.63620809935606,0.0138007762463985,0.003157,-0.000140,-0.001004,0.148727,0.002666,313.732589,24.975146,0.999545,0.992081,0.003516,0.344503,-0.000023,-0.000018,-0.000014,-0.000007,-0.000034,-50.639834,0.000044,
2461,2338,4.47317192392218,-6.69530793599301,0.0047082658794011,0.002544,-0.000362,0.003265,0.104083,0.003175,325.811568,23.088626,0.999055,0.977669,0.005523,0.328678,0.000011,-0.000010,-0.000012,0.000016,-0.000015,-25.179153,0.000018,
2311,2983,1.08245348702427,7.36156101230981,0.00761340990942472,0.003214,-0.000368,-0.001195,0.151853,-0.021473,315.284719,24.994721,0.999740,0.994843,0.003039,0.359860,-0.000019,-0.000006,-0.000006,-0.000004,-0.000021,-67.877612,0.000027,
2506,2863,5.34495792833438,4.76703576817098,-0.0270001835941684,0.003003,-0.000505,0.003044,0.125941,0.008740,317.144184,25.016692,0.999698,0.992503,0.003525,0.404633,-0.000017,0.000012,-0.000003,0.000013,-0.000017,-83.716349,0.000018,
2476,2728,4.71970279961034,1.82475648252996,-0.0207541965896212,0.003037,-0.000561,0.002262,0.130555,-0.008496,319.322511,24.507760,0.999618,0.991310,0.003643,0.342215,-0.000017,0.000007,-0.000011,0.000011,-0.000021,-69.130431,0.000021,
2476,2518,4.76371571951806,-2.75880462984085,-0.00825885416134042,0.003041,-0.000219,-0.000111,0.139729,0.003624,322.854472,23.658910,0.999407,0.983860,0.004665,0.400962,0.000003,-0.000016,0.000006,0.000004,-0.000018,16.233933,0.000019,
2431,2263,3.83332378839801,-8.33685274249676,0.00492689443495919,0.003142,-0.000502,0.007788,0.115001,0.027256,326.978562,22.972944,0.999199,0.979448,0.005516,0.319656,-0.000003,-0.000022,-0.000022,0.000011,-0.000036,-33.456741,0.000037,
2461,2413,4.45844691756806,-5.05487899053722,0.00022236960154487,0.002974,0.000005,-0.001252,0.140982,0.007985,324.595719,23.286127,0.999489,0.986480,0.004763,0.416582,0.000015,0.000000,0.000008,0.000018,-0.000004,24.364804,0.000019,
2371,3163,2.35322027763404,11.273267942103,0.0247711292927306,0.002921,-0.000169,-0.001559,0.140025,0.005646,312.457477,25.627849,0.999534,0.991297,0.003733,0.395374,-0.000006,0.000000,-0.000004,0.000002,-0.000008,-63.299371,0.000008,
2341,2023,1.91577123992758,-13.6028526945681,0.0296509261021356,0.003116,-0.000356,0.002331,0.134375,-0.003837,331.000591,22.670783,0.998802,0.976501,0.006160,0.356690,-0.000009,-0.000001,-0.000013,0.000008,-0.000018,-53.472830,0.000018,
2506,2623,5.39567878191995,-0.46660590037483,-0.0136968957325507,0.002743,-0.000569,0.000951,0.121867,-0.013635,321.167796,23.901758,0.999875,0.994371,0.003329,0.516546,0.000001,-0.000055,-0.000018,0.000006,-0.000060,-16.590742,0.000066,
2506,2383,5.44739692359658,-5.71109905993286,0.010463069979437,0.002938,-0.000407,0.004716,0.116155,0.007461,325.263845,23.080763,0.998923,0.980229,0.005385,0.361814,0.000041,0.000022,0.000002,0.000041,0.000022,6.298040,0.000064,
2491,2788,5.03358666218237,3.13393107182053,-0.0311565213578433,0.002868,-0.000042,-0.002023,0.139386,-0.001086,318.304168,24.760183,0.999245,0.987444,0.004321,0.335513,-0.000021,-0.000016,-0.000024,0.000006,-0.000043,-47.547958,0.000047,
2281,3088,0.411536181234908,9.63948578585213,0.00996519670849239,0.002743,0.000042,-0.005746,0.145626,-0.007770,313.614936,25.112823,0.999685,0.992582,0.003643,0.363473,-0.000022,-0.000012,-0.000021,0.000004,-0.000038,-51.971030,0.000042,
2401,2353,3.16026012511072,-6.36658815954205,-0.00117905210197478,0.002546,0.000192,-0.000017,0.116800,0.016687,325.431455,23.363493,0.998781,0.981856,0.005154,0.337660,0.000005,-0.000022,0.000008,0.000007,-0.000024,15.474072,0.000025,
2311,3208,1.04239038851214,12.2438566932442,0.0375529758591711,0.002787,0.000042,0.001039,0.124872,0.010532,311.827081,25.500561,0.999668,0.993013,0.003360,0.353194,-0.000015,-0.000001,-0.000009,0.000003,-0.000019,-64.447946,0.000021,
2341,2203,1.88032856174746,-9.65162166835619,0.00863740432811255,0.002754,0.000225,0.000034,0.126105,0.040477,327.915858,23.159672,0.999114,0.983015,0.005224,0.389564,-0.000019,-0.000012,-0.000007,-0.000008,-0.000023,-57.956681,0.000032,
2296,2008,0.934967813953349,-13.9299141780793,0.0287005209516451,0.002816,-0.000132,0.000875,0.125867,0.010693,331.243987,23.018932,0.999227,0.977898,0.005732,0.295077,-0.000001,-0.000015,-0.000018,0.000011,-0.000028,-34.233448,0.000028,
2161,2488,-2.09481881259696,-3.41944493925941,-0.0170133449749983,0.002643,-0.000046,0.001383,0.117262,0.025019,323.417226,24.224828,0.999071,0.985683,0.004851,0.435984,-0.000022,-0.000001,-0.000013,0.000005,-0.000029,-64.180910,0.000031,
2326,3058,1.39383891718773,8.99133406345756,0.0101047627073854,0.002701,-0.000485,0.002379,0.116010,0.006606,314.033975,25.168418,0.999700,0.993587,0.003247,0.422346,-0.000025,-0.000005,-0.000013,0.000001,-0.000032,-63.563130,0.000036,
2251,3103,-0.241960004329943,9.9619502765903,0.0209440873774724,0.002919,-0.000273,0.000171,0.133871,0.002273,313.500778,25.017354,0.999602,0.991919,0.003591,0.379667,-0.000024,-0.000014,-0.000019,0.000001,-0.000038,-52.009698,0.000044,
2191,2653,-1.47019814682185,0.179124321320444,-0.0215115002977768,0.002678,-0.000120,0.000949,0.120140,0.005049,320.610898,24.351351,0.999507,0.989625,0.004088,0.392747,-0.000014,-0.000005,-0.000002,-0.000005,-0.000015,-76.534710,0.000020,
2401,2188,3.19427534866945,-9.98179231903957,0.0185036902836373,0.002745,0.000394,-0.001479,0.131150,0.035411,328.278137,22.836434,0.999285,0.983197,0.005068,0.357326,-0.000010,-0.000026,-0.000007,-0.000007,-0.000029,-20.499482,0.000038,
2506,2878,5.34325271408488,5.09180086650649,-0.0119355319772581,0.002954,-0.000419,0.001174,0.130934,-0.010602,317.031080,25.047278,0.999680,0.993063,0.003439,0.415025,-0.000025,0.000019,-0.000006,0.000020,-0.000025,-82.736640,0.000027,
2461,2653,4.40790680240747,0.189207725857123,-0.0187957499848039,0.002862,-0.000170,0.003272,0.118987,0.022822,320.513893,24.240418,0.999632,0.989443,0.003944,0.364923,-0.000004,-0.000011,-0.000011,0.000004,-0.000020,-37.166635,0.000021,
2146,2638,-2.44621301569612,-0.148375311223468,-0.0291693410657672,0.003122,-0.000080,0.002360,0.136471,0.019788,320.962943,24.360152,0.999705,0.992181,0.003659,0.415550,-0.000005,-0.000016,-0.000001,-0.000005,-0.000016,-3.511123,0.000022,
2371,3058,2.37155223238729,8.99546729895276,0.010171108370912,0.002815,-0.000729,0.005627,0.109256,-0.005855,314.023576,25.403689,0.999699,0.993169,0.003344,0.327972,-0.000021,-0.000004,-0.000011,0.000001,-0.000026,-63.844629,0.000029,
2356,3118,2.03531270711292,10.2956549779821,0.0213076629740385,0.002773,-0.000226,0.001217,0.123244,-0.006372,313.146162,25.456493,0.999586,0.991770,0.003691,0.374871,-0.000013,-0.000001,-0.000012,0.000006,-0.000020,-59.432741,0.000021,
2371,2278,2.52185459432508,-8.00935359073612,0.0173122084852366,0.002885,-0.000017,-0.000798,0.135014,0.013083,326.793149,23.323627,0.999824,0.993623,0.003562,0.264205,-0.000013,-0.000032,-0.000014,-0.000006,-0.000039,-28.174072,0.000049,
2446,2128,4.19021591123561,-11.2990059989496,0.0237734769419262,0.003103,0.000350,-0.000714,0.144730,0.030565,329.375541,22.370205,0.999409,0.978212,0.005859,0.364937,-0.000009,-0.000024,0.000018,0.000003,-0.000036,33.413293,0.000040,
2476,2743,4.71607163081861,2.15162745096375,-0.0267926535160541,0.002894,-0.000562,0.001491,0.126964,-0.005943,319.023903,24.511297,0.999722,0.992198,0.003572,0.398266,-0.000013,0.000005,-0.000011,0.000011,-0.000018,-64.672817,0.000018,
2416,2203,3.51895350961995,-9.65422817141614,0.0179592448210997,0.002966,-0.000161,0.001472,0.130354,0.002343,328.050390,22.737950,0.999448,0.982627,0.005080,0.395310,-0.000006,-0.000017,-0.000008,-0.000002,-0.000022,-28.236542,0.000026,
2311,2788,1.11688513918313,3.12179633309565,-0.00825118011272252,0.003032,-0.000384,0.001863,0.132872,-0.007824,318.312605,24.515643,0.999639,0.994239,0.003437,0.438730,-0.000017,-0.000014,-0.000001,-0.000014,-0.000017,-71.278833,0.000031,
2431,2203,3.84710965687809,-9.65572291350661,0.0270726390809273,0.002827,-0.000622,0.003203,0.117365,-0.013662,328.137372,22.649001,0.999604,0.985121,0.004753,0.392391,-0.000003,-0.000017,-0.000009,0.000002,-0.000021,-26.034686,0.000024,
2356,2053,2.23862274491966,-12.9446280937983,0.0373427112228342,0.002977,0.000238,-0.000626,0.138493,0.018646,330.587816,22.710917,0.999123,0.979801,0.005405,0.321476,-0.000008,-0.000004,0.000000,-0.000004,-0.000008,87.223898,0.000013,
2461,2428,4.45500246075568,-4.72625326013273,-0.00922912356588768,0.003294,0.000048,-0.001840,0.157868,0.003679,324.290289,23.315090,0.999205,0.984959,0.004946,0.439826,0.000008,0.000014,0.000010,0.000021,0.000001,53.228478,0.000025,
2341,2878,1.75094623652285,5.08244485641795,-0.0254443262523978,0.002512,-0.000513,-0.000402,0.116736,-0.011837,316.671427,24.711524,0.999523,0.991429,0.003822,0.480589,-0.000033,-0.000013,-0.000005,-0.000011,-0.000034,-76.454575,0.000047,
2416,2008,3.55950931079358,-13.9364799375124,0.0471329446676236,0.002805,0.000160,0.001448,0.123027,0.027201,331.431964,22.083323,0.999174,0.973831,0.006150,0.412669,-0.000072,-0.000028,0.000018,-0.000022,-0.000078,69.992450,0.000105,
2371,2068,2.5618725753151,-12.6145570725059,0.023329043807621,0.002500,-0.000049,0.001211,0.110071,0.010549,330.207525,22.614916,0.999405,0.980152,0.005252,0.356970,-0.000023,-0.000016,0.000003,-0.000015,-0.000024,67.922790,0.000039,
2386,3253,2.65996674514305,13.2279936057251,0.00199601876533961,0.002998,-0.000209,-0.001453,0.143151,-0.021154,310.799574,25.963135,0.999686,0.992751,0.003251,0.351680,-0.000002,-0.000003,0.000000,-0.000002,-0.000003,-24.389167,0.000005,
2356,2893,2.07595764293461,5.41018858340796,-0.00903634121033292,0.002881,0.000208,-0.000492,0.134302,0.019818,316.580090,24.921183,0.999418,0.991879,0.003727,0.365295,-0.000030,-0.000024,-0.000007,-0.000020,-0.000035,-56.959225,0.000055,
2446,2353,4.14344176051216,-6.36813552764158,0.00881290008845781,0.002640,0.000073,-0.000999,0.124683,0.008574,325.592203,23.140898,0.999360,0.981538,0.005311,0.391413,0.000009,-0.000010,-0.000005,0.000010,-0.000011,-12.371439,0.000012,
2506,2893,5.34064398820766,5.4190989152389,-0.00670815588011919,0.002940,-0.000051,0.000395,0.133446,0.004651,316.831616,25.207230,0.999541,0.990357,0.004011,0.330982,-0.000018,0.000007,-0.000002,0.000007,-0.000018,-84.844331,0.000018,
2431,2278,3.82958096097053,-8.00997890128998,0.00704267805139125,0.002294,-0.000767,0.009021,0.071520,0.016742,326.710894,22.907223,0.999207,0.977634,0.005782,0.427116,-0.000004,-0.000019,-0.000018,0.000008,-0.000031,-34.305971,0.000033,
2386,2338,2.83594978409225,-6.69598128457235,0.00378748305604404,0.002396,-0.000245,0.001805,0.103246,0.012799,325.688447,23.320231,0.999125,0.985468,0.004748,0.384959,-0.000005,-0.000025,0.000002,-0.000005,-0.000026,4.761344,0.000033,
2401,2203,3.19170128975056,-9.65411863621908,0.0190789225704862,0.003123,0.000010,-0.000428,0.144519,-0.001635,328.054820,22.827398,0.999230,0.981885,0.005254,0.377377,-0.000013,-0.000017,-0.000013,-0.000002,-0.000028,-39.843673,0.000034,
2491,2803,5.03038266102957,3.46008485303804,-0.0281335142673242,0.002792,-0.000351,0.001649,0.121746,0.002145,318.067197,24.787214,0.999192,0.986807,0.004589,0.370447,-0.000018,-0.000011,-0.000020,0.000005,-0.000035,-50.177437,0.000038,
2431,2218,3.84456221137722,-9.32696107721091,0.0285435080810998,0.002949,-0.000181,0.000873,0.131708,0.008474,327.921476,22.694469,0.999591,0.985296,0.004776,0.421397,-0.000002,-0.000019,-0.000009,0.000003,-0.000023,-23.660678,0.000025,
2386,2128,2.87788610378383,-11.2969969872162,0.0146545188821392,0.002984,0.000065,0.001773,0.130239,0.024184,329.198567,22.719834,0.999016,0.975895,0.005832,0.356326,-0.000015,-0.000015,-0.000002,-0.000013,-0.000018,-41.810423,0.000030,
2326,3073,1.39133259886247,9.31805733960976,0.010853869643654,0.002819,-0.000101,0.000726,0.127285,0.008171,313.805607,25.302177,0.999685,0.994970,0.002946,0.323550,-0.000024,-0.000004,-0.000015,0.000004,-0.000032,-61.874050,0.000035,
2506,2398,5.44314853339578,-5.38148027966052,-0.00168097488051444,0.002849,-0.000366,0.004785,0.111826,0.007798,324.914218,23.158751,0.998786,0.982409,0.005167,0.347360,0.000043,0.000001,0.000007,0.000044,0.000000,8.749991,0.000051,
2296,3163,0.724734147433036,11.2667244964134,0.0365380905124653,0.002718,-0.000323,0.003579,0.113041,0.015220,312.558779,25.340534,0.999670,0.993146,0.003410,0.358486,-0.000018,-0.000001,-0.000009,0.000003,-0.000022,-65.802671,0.000024,
2281,3103,0.408765849632466,9.96515663110229,0.0104287933577325,0.002987,-0.000070,-0.001443,0.142300,-0.019449,313.370122,25.168273,0.999627,0.992989,0.003516,0.322985,-0.000022,-0.000012,-0.000020,0.000003,-0.000037,-52.155525,0.000041,
2461,2353,4.46975145930866,-6.36623913074905,-0.00388074517826453,0.002916,-0.000544,0.003832,0.118956,0.008794,325.511506,23.127928,0.999216,0.982413,0.005285,0.351725,0.000014,-0.000010,-0.000003,0.000014,-0.000010,-6.763555,0.000015,
2431,2518,3.78222678140811,-2.76188264844959,0.00322491625894372,0.002471,-0.000790,0.004064,0.097981,-0.025037,322.816342,23.691101,0.999226,0.984386,0.004738,0.426585,0.000003,-0.000020,-0.000001,0.000003,-0.000020,-1.527126,0.000022,
2341,3088,1.71364450089654,9.64413276197227,0.00340084138696284,0.002703,-0.000690,0.001536,0.118808,-0.019734,313.484085,25.305560,0.999608,0.994054,0.003167,0.381415,-0.000027,-0.000009,-0.000023,0.000007,-0.000043,-55.227206,0.000046,
2476,2533,4.76044429079151,-2.43028359499999,-0.0139512508409894,0.003200,0.000024,-0.001358,0.151855,0.003079,322.574936,23.747840,0.999665,0.987814,0.004091,0.369204,0.000003,-0.000018,0.000005,0.000004,-0.000019,13.155740,0.000020,
2461,2668,4.4048992211425,0.515820550573793,-0.0242392190352803,0.003054,0.000007,-0.000018,0.140221,0.011789,320.245832,24.213426,0.999542,0.987053,0.004241,0.435907,-0.000008,-0.000032,-0.000016,0.000000,-0.000040,-27.102380,0.000046,
2251,3118,-0.244357256333519,10.2873737091955,0.0211843840083361,0.003054,-0.000276,-0.001726,0.146370,0.001562,313.269946,25.040264,0.999532,0.990960,0.003831,0.378486,-0.000025,-0.000015,-0.000020,0.000001,-0.000041,-52.302347,0.000046,
2311,3223,1.03961865351554,12.5683685916802,0.0340764941455518,0.002835,-0.000227,-0.001973,0.137291,-0.007013,311.564900,25.461704,0.999603,0.993235,0.003259,0.405313,-0.000014,0.000000,-0.000013,0.000008,-0.000022,-59.602713,0.000022,
2416,2443,3.46971032725325,-4.39855605257543,-0.0071120045920452,0.002902,-0.000161,0.001097,0.128999,0.016049,323.954472,23.541139,0.999528,0.987427,0.004471,0.402357,0.000003,-0.000017,0.000015,0.000011,-0.000025,28.583182,0.000025,
2416,2023,3.55481494695957,-13.6035632627058,0.036908936903103,0.002234,-0.000425,0.005453,0.082126,0.002746,331.062917,22.351953,0.998924,0.975251,0.006007,0.171562,-0.000054,-0.000016,0.000010,-0.000013,-0.000057,75.866473,0.000074,
2311,2998,1.07969190263266,7.68748746365227,0.010303860903548,0.003082,-0.000009,-0.000453,0.143448,0.013858,315.053576,25.014412,0.999880,0.996331,0.002900,0.406938,-0.000022,0.000001,-0.000008,0.000004,-0.000024,-72.871980,0.000026,
2386,3268,2.65673928166649,13.5534621210307,0.00149956822053809,0.002865,-0.000174,0.000477,0.130173,-0.003316,310.535829,26.009300,0.999673,0.992440,0.003419,0.365066,-0.000002,-0.000005,0.000003,0.000000,-0.000007,30.862553,0.000008,
2356,3133,2.0324171917986,10.6214269899486,0.0243043725935195,0.002610,-0.000248,0.002640,0.110802,0.005317,312.912933,25.521706,0.999518,0.991142,0.003829,0.359168,-0.000013,-0.000003,-0.000012,0.000005,-0.000021,-56.516355,0.000022,
2371,3178,2.34998417691003,11.5986234708541,0.0237739900280189,0.002827,-0.000339,0.000837,0.127041,-0.007951,312.190326,25.667247,0.999509,0.991553,0.003634,0.382323,-0.000006,0.000000,-0.000005,0.000003,-0.000009,-59.549066,0.000009,
2416,2218,3.51537279042769,-9.3234480861686,0.00827498421296013,0.002832,0.000307,-0.002155,0.137643,0.039796,327.733607,22.837124,0.999452,0.983934,0.005027,0.384238,-0.000004,-0.000016,-0.000007,-0.000001,-0.000019,-23.842976,0.000022,
2356,2248,2.19941582577413,-8.6661086904088,0.00856517668904644,0.003291,-0.000371,0.005308,0.132027,0.015260,327.196374,23.223910,0.998969,0.981106,0.005440,0.348677,-0.000015,-0.000032,-0.000010,-0.000010,-0.000037,-24.535471,0.000050,
2506,2638,5.39238633798493,-0.13782097184091,-0.0136469293536265,0.002755,-0.000310,0.003217,0.113783,0.017282,320.914923,24.068842,0.999759,0.992186,0.003717,0.442206,-0.000005,-0.000043,-0.000022,0.000005,-0.000053,-24.621601,0.000059,
2341,2893,1.74939267888582,5.40941936181404,-0.016091854446131,0.002918,0.000101,-0.002386,0.142633,0.020073,316.530207,24.853911,0.999382,0.991058,0.003852,0.406081,-0.000032,-0.000023,-0.000006,-0.000019,-0.000035,-62.451734,0.000055,
2251,2938,-0.214484206043572,6.37998241490085,-0.00458145983003533,0.002926,-0.000627,0.002667,0.125718,-0.017032,315.973649,24.681682,0.999628,0.993661,0.003332,0.448382,-0.000016,-0.000011,-0.000005,-0.000008,-0.000019,-59.610056,0.000028,
2506,2908,5.33655606704535,5.74558063542626,-0.0134050784010356,0.002781,-0.000442,0.003493,0.113980,-0.014501,316.510831,25.244311,0.999555,0.988803,0.004121,0.335479,-0.000007,0.000005,0.000006,0.000008,-0.000010,67.969126,0.000010,
2236,3103,-0.567800406619675,9.96074226083314,0.0132219593513696,0.003166,-0.000257,-0.000560,0.147579,-0.012121,313.481917,24.921393,0.999513,0.992491,0.003522,0.403284,-0.000025,-0.000018,-0.000012,-0.000008,-0.000034,-52.918671,0.000045,
2431,2293,3.82718642592981,-7.68147020753484,0.00894709320527909,0.002431,-0.000774,0.005365,0.091244,-0.002122,326.503865,23.001832,0.999158,0.979928,0.005479,0.365436,-0.000007,-0.000022,-0.000013,0.000000,-0.000029,-29.347377,0.000033,
2491,2818,5.02779643941959,3.78608877930958,-0.0245669756135953,0.002963,-0.000299,0.001464,0.130334,0.006771,317.861065,24.807080,0.999343,0.988085,0.004446,0.413940,-0.000013,-0.000013,-0.000008,-0.000005,-0.000021,-44.326963,0.000027,
2446,2578,4.09530731435261,-1.44652081611183,-0.0282564249276334,0.002958,-0.000108,0.003313,0.123400,0.058915,321.628002,23.970570,0.999689,0.991409,0.003933,0.416054,0.000013,-0.000021,-0.000002,0.000013,-0.000021,-3.038228,0.000021,
2491,2608,5.07253730866043,-0.793784963563141,-0.00669281623243023,0.003030,-0.000315,0.000686,0.136223,0.014392,321.440421,23.948850,0.999858,0.994080,0.003518,0.451444,0.000012,-0.000032,0.000007,0.000013,-0.000033,8.984352,0.000033,
2506,2413,5.44090093298594,-5.05441864639057,0.00203978881546618,0.003074,-0.000134,0.001010,0.136805,0.003457,324.727456,23.164393,0.999045,0.983242,0.005159,0.399957,0.000039,0.000002,0.000017,0.000045,-0.000004,21.084654,0.000050,
2461,2443,4.45255226061068,-4.39832257820382,-0.00154455041115398,0.003378,0.000119,-0.000205,0.155636,0.015600,324.108660,23.430845,0.999092,0.984628,0.004932,0.391385,0.000010,-0.000013,0.000013,0.000016,-0.000018,23.837955,0.000020,
2326,3088,1.38912965725456,9.64178367821283,0.014739865674585,0.002996,-0.000462,-0.000947,0.141015,-0.018276,313.607511,25.211561,0.999634,0.994534,0.003108,0.421107,-0.000022,-0.000009,-0.000020,0.000005,-0.000037,-54.108100,0.000039,
2146,2653,-2.44847864281849,0.177504593268388,-0.0268229688077781,0.003072,-0.000351,0.000880,0.138546,-0.009524,320.742005,24.340596,0.999712,0.991177,0.003718,0.413995,-0.000009,-0.000007,-0.000002,-0.000005,-0.000011,-57.040070,0.000017,
2461,2368,4.46739819535213,-6.0384126599328,0.00569633970923178,0.002756,-0.000282,0.003233,0.113981,0.021847,325.343325,23.228697,0.999636,0.986907,0.004863,0.319729,0.000018,0.000005,0.000005,0.000020,0.000003,19.292091,0.000024,
2371,3073,2.36921905179718,9.3210123907557,0.00915417698030296,0.002907,-0.000181,-0.001153,0.137856,0.000896,313.798228,25.412962,0.999609,0.992054,0.003564,0.365648,-0.000018,-0.000001,-0.000012,0.000005,-0.000024,-62.575711,0.000025,
2161,2503,-2.09768707158215,-3.09121595322229,-0.0280056661574122,0.002931,-0.000120,0.000378,0.133548,0.005603,323.099115,24.243393,0.998966,0.984789,0.004994,0.409499,-0.000015,0.000010,-0.000008,0.000012,-0.000018,-72.931478,0.000018,
2446,2368,4.14027127665961,-6.03944681490126,0.00525655413412096,0.002823,-0.000173,-0.000352,0.130539,-0.008576,325.325267,23.222259,0.999463,0.984751,0.004940,0.347096,0.000011,0.000001,0.000001,0.000011,0.000000,6.223078,0.000013,
2356,2068,2.23561322162363,-12.6153629312394,0.0370005107557176,0.002910,0.000196,0.000466,0.131572,0.032788,330.336456,22.736141,0.999223,0.979509,0.005406,0.352615,-0.000007,0.000001,0.000003,0.000002,-0.000009,70.546875,0.000009,
2401,2368,3.15718722753838,-6.03931159867989,0.00207361352414637,0.002621,-0.000484,0.006141,0.097736,0.001892,325.197090,23.379630,0.998794,0.981290,0.005167,0.353867,0.000004,-0.000013,0.000012,0.000010,-0.000019,27.348095,0.000019,
2311,3238,1.03599176755631,12.894675756594,0.0250442210651727,0.002778,-0.000229,-0.000540,0.129807,-0.003232,311.235196,25.540132,0.999398,0.991962,0.003506,0.361347,-0.000012,-0.000004,-0.000014,0.000007,-0.000023,-52.649182,0.000024,
2401,2218,3.18845720276213,-9.32306196096344,0.0151429712504978,0.002990,0.000682,-0.002142,0.144917,0.033113,327.778827,23.014094,0.999296,0.982688,0.005332,0.273534,-0.000010,-0.000013,-0.000010,-0.000001,-0.000022,-40.454856,0.000026,
2326,2803,1.43901781336517,3.45100197959789,-0.0270974154572627,0.002675,-0.000121,-0.003597,0.135388,0.001135,317.903211,24.589987,0.999376,0.993336,0.003662,0.419557,-0.000024,-0.000025,0.000000,-0.000024,-0.000025,39.115899,0.000049,
2446,2143,4.18609439576333,-10.9689848231272,0.012230191020933,0.002946,-0.000031,-0.000635,0.137127,0.014564,329.029432,22.403408,0.999151,0.978304,0.005915,0.371244,-0.000004,-0.000023,0.000012,0.000002,-0.000029,25.938404,0.000032,
2341,2218,1.87779949211743,-9.32355227972439,0.0109687028515282,0.002778,0.000211,-0.000895,0.130460,0.028510,327.697848,23.185235,0.998883,0.982006,0.005450,0.390847,-0.000017,-0.000015,-0.000006,-0.000010,-0.000022,-48.409527,0.000032,
2386,2353,2.83311696452439,-6.36888622097957,0.00708776690345303,0.002559,-0.000709,0.006491,0.093770,0.019682,325.464202,23.293177,0.998806,0.982799,0.005178,0.463984,0.000001,-0.000028,0.000009,0.000003,-0.000030,15.469736,0.000033,
2506,2653,5.38850366320272,0.191427830651129,-0.0274839262929163,0.002848,-0.000153,-0.000494,0.132523,0.026175,320.572761,24.188754,0.999656,0.987825,0.004373,0.393111,-0.000007,-0.000016,-0.000016,0.000005,-0.000029,-37.563545,0.000031,
2251,2953,-0.216813360140563,6.70755794347441,-0.00457208421602218,0.003059,-0.000133,-0.000359,0.141990,0.000156,315.744382,24.840377,0.999465,0.991474,0.003731,0.329737,-0.000021,-0.000009,-0.000006,-0.000006,-0.000024,-66.495099,0.000031,
2386,2143,2.87430357693943,-10.9680822138127,0.0159415655118096,0.002490,-0.000303,0.005557,0.093995,0.036892,328.931008,22.761300,0.999028,0.973906,0.005908,0.373901,-0.000015,-0.000024,-0.000008,-0.000010,-0.000028,-30.346943,0.000040,
2311,3013,1.07592328991332,8.01432773267397,-6.87857995558261E-05,0.003001,-0.000499,0.001306,0.133466,-0.013041,314.711425,25.096603,0.999553,0.990905,0.003698,0.329262,-0.000021,0.000002,-0.000009,0.000006,-0.000024,-70.343040,0.000025,
2341,3103,1.7120340726693,9.96926264445401,0.0168638282733582,0.002793,-0.000251,0.000227,0.127721,-0.000608,313.360271,25.363363,0.999585,0.993041,0.003435,0.378198,-0.000020,-0.000007,-0.000019,0.000007,-0.000034,-54.343883,0.000036,
2296,3178,0.721668869336106,11.591791620291,0.0323997669062237,0.002695,-0.000580,0.003265,0.112896,-0.011292,312.278578,25.345611,0.999659,0.993086,0.003401,0.355507,-0.000018,-0.000004,-0.000012,0.000003,-0.000025,-59.409803,0.000027,
2476,2548,4.75729815827028,-2.10298127743928,-0.0154567156159828,0.003109,0.000318,-0.002829,0.153388,0.005499,322.320235,23.764794,0.999665,0.987310,0.004226,0.412403,0.000011,-0.000038,-0.000001,0.000011,-0.000038,-1.305514,0.000039,
2416,2458,3.46628329756951,-4.0697982704875,-0.0134540071972538,0.002905,0.000290,0.000737,0.130618,0.034198,323.659419,23.599997,0.999392,0.986225,0.004703,0.410841,0.000002,-0.000018,0.000011,0.000007,-0.000023,24.120020,0.000023,
2371,2083,2.55906381477797,-12.2845272714879,0.0217276776147628,0.002850,0.000000,0.003367,0.118506,0.040723,329.960450,22.686585,0.999273,0.978494,0.005519,0.360007,-0.000020,-0.000005,0.000003,-0.000005,-0.000021,78.839819,0.000027,
2461,2383,4.46352382077275,-5.70985765621731,-0.00103471720427706,0.002437,-0.000324,0.002826,0.100895,0.025650,325.030804,23.252043,0.999657,0.986502,0.004787,0.356671,0.000018,-0.000005,-0.000006,0.000020,-0.000006,-14.141879,0.000020,
2371,2293,2.51926301813875,-7.68146962867042,0.0197960154773682,0.003087,0.000167,0.000856,0.138507,0.035700,326.574987,23.324175,0.999800,0.994175,0.003441,0.329507,-0.000014,-0.000035,-0.000007,-0.000012,-0.000037,-18.061257,0.000051,
2461,2458,4.44959232505085,-4.07038630599432,0.00332613615455557,0.003149,0.000356,0.001025,0.140650,0.043551,323.890654,23.508874,0.999406,0.985822,0.004690,0.397152,0.000008,-0.000008,0.000008,0.000011,-0.000012,22.775975,0.000013,
2431,2233,3.84067957735106,-8.99625420471275,0.0197766848233982,0.002762,-0.000055,0.000808,0.123453,0.023556,327.596754,22.824204,0.999366,0.982337,0.005158,0.359458,0.000000,-0.000019,-0.000009,0.000003,-0.000022,-21.135244,0.000024,
2251,3133,-0.246997054847267,10.6124239630729,0.0272047942963241,0.003085,-0.000435,0.004078,0.128694,0.008007,313.057406,25.061116,0.999300,0.991590,0.003798,0.386050,-0.000024,-0.000013,-0.000016,-0.000001,-0.000035,-54.666977,0.000042,
2476,2758,4.71365746998149,2.47670040411238,-0.0158904967335047,0.002810,-0.000531,0.003844,0.114210,0.008602,318.858469,24.476606,0.999604,0.989996,0.003904,0.504122,-0.000009,0.000002,-0.000017,0.000014,-0.000021,-53.940798,0.000022,
2356,2908,2.07270645679055,5.73675769646308,-0.0165892240988796,0.003067,0.000101,-0.000397,0.142498,0.017135,316.280176,24.942036,0.999327,0.990786,0.003899,0.380333,-0.000030,-0.000023,-0.000007,-0.000019,-0.000034,-58.702583,0.000054,
2386,3283,2.65382201032991,13.8781236855851,0.00131976176550097,0.002820,-0.000345,-0.000098,0.130094,-0.010814,310.288108,26.011719,0.999625,0.991554,0.003615,0.397087,0.000001,0.000000,0.000000,0.000001,0.000000,-41.013554,0.000001,
2461,2683,4.40143720132382,0.843430799910102,-0.0264537675349175,0.002982,-0.000374,0.002109,0.128783,0.013541,319.971310,24.297394,0.999561,0.988204,0.004163,0.408495,-0.000010,-0.000017,-0.000010,-0.000003,-0.000024,-35.733139,0.000029,
2416,2038,3.55143087697705,-13.2744215396508,0.0269748304396558,0.002495,-0.000241,0.004318,0.098292,0.015201,330.755160,22.249496,0.998880,0.974198,0.006115,0.338138,-0.000047,-0.000030,0.000010,-0.000026,-0.000052,64.582723,0.000079,
2416,2233,3.5123839368181,-8.99583819885356,0.0164675280671531,0.002645,-0.000384,0.004216,0.105554,0.021753,327.527808,22.893412,0.999472,0.985125,0.004919,0.359874,-0.000002,-0.000017,-0.000005,-0.000001,-0.000019,-17.356892,0.000022,
2356,3148,2.03005306834588,10.9467747546739,0.0241556381662349,0.002845,-0.000168,-0.000815,0.133795,-0.005179,312.689061,25.554243,0.999519,0.991747,0.003742,0.353925,-0.000010,-0.000001,-0.000008,0.000004,-0.000015,-59.724080,0.000016,
2371,3193,2.34793921985245,11.9237147004463,0.028111013152909,0.003155,-0.000335,-0.001325,0.149841,-0.013719,312.003666,25.709543,0.999531,0.991926,0.003568,0.373957,-0.000004,0.000001,-0.000004,0.000003,-0.000006,-59.898888,0.000006,
2431,2533,3.7794242865493,-2.43234009837831,-0.00166821517677818,0.002750,-0.000060,0.000376,0.124715,-0.000140,322.557586,23.854087,0.999367,0.987205,0.004453,0.339955,0.000003,-0.000022,-0.000004,0.000004,-0.000023,-8.362086,0.000025,
2356,2083,2.2315712666445,-12.2837896397782,0.0216969378864178,0.003065,-0.000017,0.002693,0.130802,0.041648,329.965847,22.817868,0.999420,0.981491,0.005170,0.322609,-0.000007,0.000011,0.000002,0.000011,-0.000007,82.353006,0.000011,
2506,2668,5.38605949619406,0.517024798863652,-0.0200801567407893,0.003038,-0.000361,0.001441,0.133660,0.011523,320.392282,24.179934,0.999487,0.986126,0.004636,0.448713,-0.000009,-0.000046,-0.000021,0.000001,-0.000055,-24.735435,0.000063,
2401,2233,3.18494990100216,-8.99539017909212,0.0154651923127744,0.002664,-0.000251,0.001485,0.116511,0.007031,327.511359,23.002155,0.999340,0.983627,0.005203,0.307657,-0.000010,-0.000015,-0.000008,-0.000004,-0.000021,-37.462515,0.000027,
2506,2923,5.33230752621676,6.07343611779448,-0.0296895957525294,0.002867,-0.000459,0.001721,0.124832,-0.004322,316.139236,25.315407,0.999412,0.986451,0.004295,0.335410,-0.000006,0.000004,0.000010,0.000010,-0.000013,57.591625,0.000013,
2326,3103,1.38675679038836,9.96744577632309,0.0193369453700711,0.003075,-0.000328,-0.001024,0.145018,-0.006932,313.404392,25.269515,0.999519,0.993780,0.003341,0.407919,-0.000018,-0.000009,-0.000017,0.000004,-0.000031,-52.766446,0.000033,
2491,2833,5.02450724834182,4.11251591726803,-0.0239833674249894,0.002643,-0.000249,0.000793,0.118185,-0.006195,317.608982,24.864944,0.999422,0.988353,0.004244,0.401712,-0.000017,-0.000016,0.000001,-0.000016,-0.000017,48.384411,0.000033,
2506,2428,5.43841605480543,-4.72680809612509,0.0053557811042424,0.003244,-0.000106,-0.001084,0.152696,-0.005675,324.527857,23.225789,0.998829,0.981168,0.005533,0.391775,0.000030,0.000031,0.000018,0.000048,0.000012,45.769600,0.000064,
2491,2623,5.06898178210217,-0.466925517668557,-0.0094913741631899,0.003038,-0.000647,0.003656,0.125055,0.004620,321.162022,23.950218,0.999856,0.994163,0.003407,0.499706,0.000008,-0.000042,-0.000006,0.000009,-0.000043,-6.661191,0.000045,
2356,2263,2.19649954455123,-8.33779422387148,0.00721786676706415,0.002981,0.000052,0.001034,0.132975,0.027401,326.943853,23.225707,0.999317,0.984088,0.005011,0.400117,-0.000019,-0.000041,-0.000015,-0.000011,-0.000048,-26.835474,0.000063,
2401,2383,3.15468326515704,-5.71031951640414,-0.0024985199112848,0.003030,0.000035,0.001418,0.133746,0.015091,324.951619,23.453828,0.999265,0.984666,0.004817,0.340184,0.000006,-0.000015,0.000005,0.000007,-0.000016,13.598943,0.000016,
2311,3253,1.0323768919772,13.2202474674807,0.017829130373002,0.002695,-0.000440,0.002193,0.116486,-0.013323,310.915222,25.579738,0.999524,0.991931,0.003472,0.342359,-0.000010,-0.000001,-0.000016,0.000011,-0.000021,-52.933968,0.000021,
2431,2308,3.82521199583681,-7.35241667663492,0.0137543905145208,0.002917,-0.000328,0.003720,0.119755,0.016500,326.329247,23.142645,0.999223,0.982698,0.005050,0.295297,-0.000003,-0.000011,-0.000011,0.000004,-0.000019,-34.874472,0.000020,
2446,2383,4.13694064153291,-5.71007885959816,-2.51462868163799E-05,0.002659,0.000437,-0.003701,0.135782,0.016207,325.042705,23.312842,0.999751,0.988000,0.004541,0.335414,0.000012,-0.000010,-0.000010,0.000016,-0.000014,-21.719971,0.000017,
2371,3088,2.36646601885104,9.64595992358333,0.0154537514502522,0.002705,-0.000355,0.000991,0.120846,-0.005773,313.588791,25.431310,0.999471,0.990435,0.003869,0.380815,-0.000017,-0.000006,-0.000016,0.000005,-0.000029,-54.420425,0.000031,
2386,3298,2.64941535721779,14.2044011135266,-0.0156058200386155,0.002756,-0.000266,0.001278,0.122244,-0.004177,309.891191,26.063132,0.999611,0.992456,0.003636,0.393927,0.000000,0.000002,-0.000002,0.000003,-0.000001,-52.838451,0.000003,
2341,2908,1.74683307968445,5.73582209908055,-0.0146824921490065,0.003161,0.000143,-0.001246,0.149851,0.024343,316.304300,24.917232,0.999287,0.990468,0.003942,0.383222,-0.000032,-0.000022,-0.000008,-0.000017,-0.000037,-61.269659,0.000055,
2386,2158,2.87173871961713,-10.6388011708869,0.0160274638133728,0.002671,-0.000347,0.003722,0.108829,0.013745,328.704475,22.864171,0.999280,0.979097,0.005493,0.293805,-0.000014,-0.000031,-0.000013,-0.000007,-0.000038,-27.742108,0.000049,
2416,2053,3.54918842054556,-12.9454078488604,0.0306552944362011,0.002657,-0.000335,0.001153,0.117184,-0.011628,330.563226,22.333373,0.998701,0.973999,0.006233,0.278356,-0.000040,-0.000028,0.000011,-0.000022,-0.000046,58.932017,0.000070,
2446,2158,4.18314336962957,-10.6402438508657,0.0160678127123788,0.002720,0.000092,-0.000254,0.125427,0.002690,328.807558,22.486742,0.999304,0.979294,0.005528,0.331087,0.000003,-0.000032,0.000003,0.000003,-0.000032,4.709961,0.000036,
2251,3148,-0.249444845340399,10.9375085930663,0.0261657229829666,0.003059,-0.000374,-0.000667,0.143016,-0.016741,312.817833,25.076372,0.998367,0.988133,0.004518,0.368349,-0.000022,-0.000006,-0.000013,0.000001,-0.000029,-61.209578,0.000033,
2506,2443,5.43455946663721,-4.39793534140637,-0.00137628592125338,0.002827,0.000326,-0.004003,0.145097,0.000100,324.220129,23.298525,0.998965,0.982385,0.005283,0.387664,0.000031,0.000007,0.000022,0.000044,-0.000006,30.361681,0.000048,
2461,2698,4.3988939656659,1.17104632975931,-0.0241521306052732,0.002991,0.000298,-0.001348,0.142493,0.022017,319.759586,24.416849,0.999694,0.988515,0.004233,0.352193,-0.000012,-0.000002,-0.000008,0.000002,-0.000016,-62.607438,0.000018,
2506,2683,5.38176976292998,0.845914552969816,-0.0331900144072392,0.002903,-0.000324,0.000605,0.130716,-0.005353,320.034551,24.310404,0.999640,0.990114,0.003928,0.362929,-0.000012,-0.000039,-0.000011,-0.000008,-0.000043,-19.714163,0.000055,
2356,2098,2.22772100920662,-11.9540435851122,0.0158484484884411,0.002653,-0.000219,0.004675,0.104972,0.032088,329.649539,22.862519,0.999382,0.980527,0.005307,0.310931,-0.000009,0.000007,-0.000001,0.000007,-0.000009,-87.534875,0.000009,
2386,2368,2.8294400330158,-6.03960137354068,0.000225705353102512,0.002487,-0.001006,0.008584,0.082857,0.008167,325.152810,23.390926,0.998900,0.983069,0.005073,0.400038,0.000001,-0.000018,0.000011,0.000006,-0.000023,25.655945,0.000024,
2431,2548,3.77701003390201,-2.10519317431482,0.00270408583895687,0.003028,-0.000320,0.001239,0.134162,-0.001642,322.360054,23.911485,0.999660,0.989842,0.003992,0.331810,0.000006,-0.000030,-0.000008,0.000008,-0.000032,-12.272582,0.000033,
2341,2233,1.87473628354649,-8.99544503682583,0.0151922354195335,0.002441,-0.000026,0.002299,0.103826,0.025419,327.464422,23.229964,0.998662,0.978819,0.005719,0.382165,-0.000020,-0.000026,-0.000008,-0.000014,-0.000032,-35.311799,0.000047,
2356,2278,2.19224703347336,-8.00831278260314,-0.00602662492906347,0.002625,-0.000297,0.001495,0.114927,-0.000169,326.572924,23.258955,0.999440,0.988530,0.004395,0.380783,-0.000021,-0.000042,-0.000016,-0.000012,-0.000051,-28.400922,0.000067,
2416,2473,3.46368499042589,-3.74382632276932,-0.00157931137789546,0.002407,0.000113,0.002145,0.102584,0.014697,323.487982,23.614968,0.999158,0.985648,0.004807,0.425028,-0.000001,-0.000027,0.000011,0.000003,-0.000031,19.772539,0.000035,
2491,2848,5.02176466115577,4.43966259982628,-0.0184285938050834,0.002639,-0.000454,0.002278,0.112261,-0.002047,317.404183,25.013334,0.999574,0.991635,0.003719,0.315879,-0.000016,-0.000010,-0.000006,-0.000006,-0.000020,-57.564131,0.000027,
2461,2473,4.44566930196276,-3.74230453265336,-0.00461744512051609,0.002956,-0.000241,0.001513,0.129714,0.009028,323.570055,23.548804,0.999510,0.987053,0.004486,0.378573,-0.000003,-0.000022,0.000011,0.000002,-0.000027,24.158973,0.000030,
2446,2593,4.09244448442578,-1.11969851217433,-0.0328345277208086,0.002865,0.000480,-0.004015,0.146635,0.035213,321.369593,23.958222,0.999714,0.992275,0.003830,0.457584,0.000016,-0.000019,0.000002,0.000016,-0.000019,3.331203,0.000020,
2401,1993,3.23393745462079,-14.263870274304,0.0385076409361318,0.002884,0.000036,-0.000847,0.134911,0.024331,331.593038,22.203464,0.998528,0.970444,0.006625,0.345256,-0.000070,-0.000008,-0.000003,-0.000008,-0.000070,-86.897864,0.000086,
2371,2308,2.51542406030578,-7.35284222682208,0.00978305734486185,0.003006,0.000103,0.002359,0.129459,0.037594,326.240002,23.293569,0.999861,0.995554,0.003036,0.405434,-0.000012,-0.000032,-0.000004,-0.000011,-0.000033,-9.491334,0.000046,
2416,2248,3.51016060434506,-8.66750571939697,0.017793048010958,0.003109,-0.000189,0.002312,0.133870,0.039444,327.324799,22.913422,0.999328,0.982883,0.005132,0.407496,-0.000003,-0.000021,-0.000010,0.000001,-0.000025,-23.465736,0.000029,
2401,2398,3.15191508437552,-5.38269839163766,-0.00267878264361343,0.003070,0.000037,-0.000140,0.141253,0.012174,324.714875,23.466384,0.999402,0.985437,0.004727,0.371841,0.000005,-0.000006,0.000010,0.000010,-0.000012,30.002098,0.000013,
2371,3208,2.34455955673314,12.2484787061083,0.0267397977376049,0.002918,-0.000678,0.000719,0.131534,-0.027784,311.728189,25.700255,0.999492,0.992204,0.003603,0.408938,-0.000002,-0.000001,-0.000003,0.000001,-0.000004,-52.421571,0.000004,
2356,2923,2.06998667688429,6.06273313640371,-0.015455651354614,0.003023,-0.000017,-0.001483,0.144326,0.014182,316.046712,24.975709,0.999302,0.990411,0.003949,0.382030,-0.000031,-0.000022,-0.000010,-0.000016,-0.000037,-57.066601,0.000054,
2371,2098,2.55571413239169,-11.9551882625047,0.0194699543914112,0.002772,-0.000442,0.006335,0.104271,0.033023,329.685687,22.731663,0.999141,0.976999,0.005776,0.351436,-0.000020,-0.000007,0.000000,-0.000007,-0.000020,89.206886,0.000028,
2341,3118,1.7097179287208,10.294245618018,0.0271335747790431,0.002629,-0.000293,0.001627,0.115255,-0.000124,313.188465,25.408542,0.999619,0.992632,0.003528,0.368779,-0.000017,-0.000004,-0.000016,0.000006,-0.000028,-56.115232,0.000030,
2491,2638,5.06461141750118,-0.136644210387985,-0.0265935358016804,0.003042,-0.000157,0.001791,0.132669,0.041058,320.780917,24.103763,0.999544,0.989062,0.004089,0.442569,0.000002,-0.000036,-0.000013,0.000006,-0.000040,-16.992803,0.000043,
2401,2248,3.18187797391698,-8.6669517440321,0.00638661893242443,0.003059,0.000156,-0.000597,0.142329,0.040661,327.219279,22.909144,0.999298,0.983419,0.005144,0.482376,-0.000011,-0.000021,-0.000012,-0.000003,-0.000030,-34.253487,0.000036,
2311,3028,1.07408904219698,8.3391074570646,0.00827484516969434,0.003227,-0.000491,0.000097,0.148043,-0.014015,314.551126,25.092695,0.999621,0.990959,0.003703,0.363368,-0.000019,0.000001,-0.000011,0.000006,-0.000023,-66.398756,0.000024,
2311,3268,1.029481259317,13.5458165390521,0.010545798101532,0.002928,-0.000224,-0.000528,0.136683,-0.004761,310.627961,25.604752,0.999616,0.992649,0.003273,0.356886,-0.000006,0.000001,-0.000013,0.000011,-0.000016,-52.592356,0.000017,
2476,2563,4.75359285485185,-1.77457029562912,-0.0175514965239927,0.003176,-0.000112,0.003594,0.131946,0.025618,322.036828,23.865694,0.998876,0.982539,0.005059,0.389386,0.000012,-0.000039,-0.000004,0.000012,-0.000039,-4.871876,0.000040,
2506,2938,5.33087885660148,6.39837800667875,-0.013731634761541,0.003200,-0.000526,0.001978,0.139164,0.000351,316.042496,25.357526,0.999513,0.990032,0.003932,0.358388,-0.000013,-0.000006,0.000006,-0.000003,-0.000016,60.234647,0.000021,
2446,2173,4.18092698448988,-10.3111581942234,0.0231695641248848,0.003050,0.000028,0.001127,0.135371,0.014341,328.634128,22.617372,0.999546,0.984262,0.004828,0.266620,0.000006,-0.000027,0.000007,0.000007,-0.000028,10.983570,0.000030,
2506,2458,5.43076039050363,-4.06950704065312,-0.00575118489717852,0.002843,-0.000052,-0.000162,0.130851,0.013243,323.925482,23.350974,0.999152,0.986009,0.004684,0.411179,0.000033,0.000007,0.000017,0.000041,-0.000001,25.980014,0.000046,
2461,2713,4.39571597956853,1.49792133323872,-0.0265582383930223,0.003074,0.000270,-0.000891,0.144592,0.025931,319.497232,24.438983,0.999683,0.990642,0.003883,0.389005,-0.000014,0.000012,-0.000014,0.000018,-0.000020,-66.985659,0.000022,
2506,2698,5.37921767448972,1.1719559597033,-0.0243112053742038,0.002683,-0.000329,0.000417,0.121342,-0.010881,319.855418,24.353945,0.999618,0.991168,0.003743,0.375384,-0.000015,-0.000013,-0.000008,-0.000005,-0.000022,-48.033217,0.000029,
2476,2773,4.70990241934132,2.80581431983686,-0.026314518733443,0.002841,-0.000431,0.002097,0.122295,0.006235,318.533588,24.666455,0.999245,0.985933,0.004442,0.368757,-0.000015,-0.000013,-0.000019,0.000005,-0.000034,-46.135477,0.000036,
2446,2398,4.13317623734234,-5.38236978020301,-0.0061035825931981,0.002704,-0.000196,0.000098,0.123464,0.006695,324.736849,23.284011,0.999682,0.987321,0.004644,0.408614,0.000011,-0.000005,-0.000004,0.000012,-0.000006,-13.656498,0.000012,
2326,2818,1.43659351140651,3.77661096310865,-0.0149247579351481,0.002642,-0.000519,0.003257,0.110033,-0.005720,317.735601,24.648601,0.999530,0.991551,0.003733,0.388047,-0.000029,-0.000027,0.000000,-0.000027,-0.000029,-80.764758,0.000056,
2416,2068,3.54571683183903,-12.6162055427309,0.0269817309976474,0.002525,-0.000656,0.002343,0.106684,-0.012143,330.280535,22.331713,0.998776,0.975719,0.006245,0.330704,-0.000036,-0.000024,0.000013,-0.000016,-0.000044,56.864353,0.000062,
2341,2923,1.74374392467806,6.0621297212627,-0.0143147756812709,0.002981,-0.000007,0.000239,0.136363,0.027426,316.048957,24.969710,0.999043,0.989228,0.004170,0.370148,-0.000033,-0.000020,-0.000011,-0.000013,-0.000039,-60.707848,0.000055,
2356,3163,2.02735961256129,11.2713726678184,0.0307399394393428,0.002648,-0.000362,0.001152,0.117746,-0.007017,312.482772,25.553403,0.999474,0.991665,0.003878,0.390267,-0.000007,0.000005,-0.000006,0.000007,-0.000010,-66.880792,0.000010,
2431,2323,3.8219315322972,-7.02459311859194,0.00736241467973286,0.002862,-0.000021,0.000508,0.129240,0.026825,326.043005,23.072762,0.999205,0.982203,0.005021,0.427525,-0.000002,-0.000008,-0.000004,0.000000,-0.000009,-27.015139,0.000011,
2251,3163,-0.251692235109147,11.2631583308905,0.0332618605406196,0.003092,-0.000280,0.000702,0.140109,-0.002368,312.628541,25.157553,0.999136,0.989930,0.004002,0.323464,-0.000021,0.000001,-0.000011,0.000005,-0.000026,-67.417166,0.000028,
2401,2008,3.23020271896248,-13.9334238145134,0.0333555192899553,0.002696,-0.000224,0.001792,0.116724,0.000802,331.290263,22.297673,0.998428,0.968197,0.006743,0.277093,-0.000058,-0.000033,-0.000001,-0.000033,-0.000058,-88.089069,0.000092,
2386,2173,2.86875112649961,-10.3107667772721,0.00938898744823291,0.002881,-0.000368,0.001102,0.127828,0.001414,328.426795,22.776406,0.999420,0.982502,0.005225,0.415478,-0.000012,-0.000031,-0.000006,-0.000010,-0.000033,-17.378422,0.000045,
2386,2383,2.8273642580344,-5.71064505329508,-0.00695001723772748,0.003148,-0.000141,-0.000587,0.146359,-0.003708,324.913356,23.461659,0.999157,0.984375,0.004994,0.362357,0.000002,-0.000017,0.000005,0.000003,-0.000019,14.475622,0.000020,
2506,2953,5.32899050749557,6.72380448304417,-0.0056199482643251,0.003503,-0.000377,-0.000563,0.162893,-0.018803,315.889298,25.415250,0.999555,0.991032,0.003836,0.341877,-0.000010,-0.000017,0.000012,-0.000001,-0.000026,36.721518,0.000031,
2491,2863,5.01912039236673,4.76565026132717,-0.0189279751020877,0.003013,-0.000217,0.001170,0.133848,0.013314,317.176797,25.002501,0.999540,0.991067,0.003801,0.400846,-0.000017,0.000001,-0.000010,0.000005,-0.000021,-65.640284,0.000022,
2431,2563,3.77347577997564,-1.7773613703858,-0.00408537134740072,0.003089,-0.000349,0.002119,0.133751,0.003996,322.059105,23.930585,0.999519,0.989147,0.004126,0.369269,0.000005,-0.000030,-0.000010,0.000007,-0.000032,-15.239802,0.000034,
2461,2488,4.44308905502173,-3.41480952566936,-0.00479217277273847,0.003252,0.000070,-0.000492,0.150929,0.011218,323.346467,23.575180,0.999557,0.985659,0.004609,0.410034,0.000002,-0.000024,0.000001,0.000002,-0.000024,1.960198,0.000026,
2491,2653,5.06181443172278,0.190811593228858,-0.025811821956836,0.003113,0.000084,0.000035,0.142747,0.036071,320.553187,24.196200,0.999550,0.987927,0.004270,0.404548,-0.000003,-0.000016,-0.000014,0.000006,-0.000024,-32.494785,0.000025,
2356,2293,2.1901885814358,-7.67848646987166,-0.00613143855383669,0.003368,-0.000118,0.000807,0.151480,0.013011,326.365345,23.421852,0.999661,0.993097,0.003881,0.272031,-0.000020,-0.000043,-0.000011,-0.000016,-0.000047,-22.424804,0.000066,
2476,2578,4.75016524109451,-1.44736072566681,-0.0172619329335362,0.002903,-0.000749,0.005049,0.113687,0.009496,321.777225,23.918444,0.998573,0.983677,0.005090,0.378074,0.000008,-0.000028,0.000003,0.000009,-0.000028,4.911508,0.000029,
2401,2413,3.14881566251004,-5.05507695552918,-0.000189302328806207,0.002840,-0.000114,0.001713,0.123952,0.028515,324.475345,23.490186,0.999463,0.985932,0.004661,0.411414,0.000000,-0.000005,0.000016,0.000014,-0.000018,40.505919,0.000019,
2416,2263,3.50675939704703,-8.33882156209232,0.018038958457737,0.002792,-0.000435,0.004203,0.112356,0.010944,327.062851,23.005976,0.999301,0.982914,0.005065,0.336460,-0.000004,-0.000023,-0.000016,0.000006,-0.000032,-29.476927,0.000035,
2476,2788,4.7071457169639,3.13254390767683,-0.0268333269120831,0.002968,-0.000361,-0.000427,0.137744,-0.003111,318.300065,24.726721,0.999241,0.985119,0.004516,0.355809,-0.000019,-0.000015,-0.000021,0.000004,-0.000038,-47.792232,0.000042,
2506,2473,5.42688567421623,-3.74111143126652,-0.00650592412216611,0.002498,-0.000463,0.003923,0.099110,0.016044,323.643442,23.449758,0.999344,0.985042,0.004627,0.377592,0.000014,-0.000023,0.000021,0.000024,-0.000032,24.449418,0.000033,
2341,3133,1.70656959039406,10.6200070064792,0.0207789632952426,0.002692,-0.000239,0.000279,0.122842,-0.010119,312.897139,25.436337,0.999448,0.992145,0.003664,0.366757,-0.000018,-0.000004,-0.000014,0.000005,-0.000027,-57.983014,0.000029,
2401,2263,3.17815748676407,-8.3367110377683,0.00255172750507882,0.003048,-0.000669,0.005281,0.120272,0.026459,326.922003,23.088791,0.999379,0.985747,0.004703,0.336636,-0.000011,-0.000024,-0.000017,0.000001,-0.000036,-34.461351,0.000041,
2371,2323,2.5118494996018,-7.0252257777225,0.0126134629372245,0.002486,-0.000471,0.007653,0.086627,0.025334,325.978499,23.318535,0.999575,0.991719,0.003871,0.411409,-0.000013,-0.000034,0.000001,-0.000013,-0.000034,3.193690,0.000048,
2446,2608,4.09043717072934,-0.793747371006091,-0.0127148610926042,0.003015,-0.000648,0.005754,0.116646,0.012254,321.264294,24.082869,0.999422,0.988460,0.004255,0.362132,0.000013,-0.000021,-0.000004,0.000014,-0.000021,-6.838684,0.000021,
2416,2083,3.54364508996422,-12.2858622510376,0.0309843334138122,0.003381,-0.000273,0.005969,0.132789,0.033011,330.097303,22.478908,0.998590,0.976714,0.006287,0.279572,-0.000031,-0.000012,0.000013,-0.000005,-0.000037,63.305821,0.000046,
2446,2413,4.13101558677245,-5.05436714047023,0.00108230272309129,0.003088,0.000056,0.001653,0.135379,0.023776,324.565369,23.387172,0.999683,0.988031,0.004626,0.376142,0.000007,-0.000004,0.000005,0.000009,-0.000006,19.347190,0.000009,
2446,2188,4.17770172123172,-9.98279025296503,0.0242371880767109,0.002890,-0.000221,0.002935,0.121255,0.022043,328.386768,22.627236,0.999641,0.986035,0.004667,0.319435,0.000014,-0.000022,0.000000,0.000014,-0.000022,-0.222498,0.000022,
2356,2938,2.06711746365052,6.38866194192553,-0.0137195882862784,0.003050,-0.000309,0.000875,0.137144,0.004919,315.809251,25.019740,0.999160,0.989030,0.004154,0.366979,-0.000027,-0.000020,-0.000011,-0.000012,-0.000036,-53.291422,0.000050,
2371,3223,2.341158406188,12.5742391032926,0.0277387593520757,0.002504,-0.000739,0.003076,0.104078,-0.016238,311.462695,25.774892,0.999577,0.992924,0.003373,0.385287,-0.000001,-0.000002,-0.000005,0.000003,-0.000006,-42.076148,0.000007,
2461,2728,4.39327383070411,1.82437456274769,-0.0186307042965268,0.003349,-0.000307,0.003270,0.141289,0.004535,319.316049,24.535544,0.999642,0.992358,0.003535,0.325345,-0.000014,0.000007,-0.000010,0.000011,-0.000018,-67.389519,0.000018,
2506,2713,5.37669490959582,1.49981739029745,-0.0235455911794702,0.003053,0.000069,-0.001369,0.145444,0.025132,319.640848,24.460685,0.999631,0.990689,0.003806,0.366081,-0.000020,0.000003,-0.000020,0.000015,-0.000031,-60.078281,0.000031,
2431,2338,3.81857085536118,-6.69515371638954,0.00330075921232265,0.002878,-0.000012,0.001279,0.127120,0.027412,325.763617,23.189456,0.999149,0.983392,0.004792,0.363523,0.000001,-0.000010,-0.000004,0.000002,-0.000012,-16.784267,0.000012,
2356,3178,2.02468597380764,11.5968761785063,0.0309541348913172,0.002789,-0.000297,0.000835,0.125305,-0.014590,312.246249,25.606905,0.999542,0.992181,0.003714,0.366784,-0.000006,0.000004,-0.000007,0.000008,-0.000009,-62.890054,0.000010,
2326,2833,1.43324774270138,4.10523499234191,-0.0280451120001999,0.002932,-0.000281,0.001182,0.130689,0.008088,317.401049,24.775624,0.999842,0.993411,0.003426,0.309263,-0.000028,-0.000019,0.000000,-0.000019,-0.000028,-88.590760,0.000048,
2506,2488,5.42434413933579,-3.41333814637838,-0.00670536055997673,0.002957,-0.000075,0.002430,0.126065,0.025639,323.425123,23.494534,0.999526,0.985206,0.004585,0.404652,0.000015,-0.000038,0.000007,0.000016,-0.000039,7.327961,0.000039,
2251,3178,-0.254209917095991,11.5874392329369,0.0386345919824294,0.002977,-0.000396,0.002092,0.130155,-0.014131,312.418543,25.131310,0.999461,0.991350,0.003580,0.360001,-0.000020,-0.000004,-0.000013,0.000004,-0.000027,-60.861837,0.000029,
2341,2938,1.74147190457625,6.38667548278124,-0.00977815160615592,0.003119,-0.000554,-0.000590,0.145350,-0.011279,315.851968,24.935234,0.998927,0.988260,0.004285,0.401744,-0.000030,-0.000018,-0.000013,-0.000010,-0.000038,-58.220428,0.000050,
2401,2023,3.22629869086682,-13.6033671615829,0.0261567984800308,0.002283,-0.000018,0.001785,0.097971,-0.000954,330.969959,22.317762,0.998668,0.971110,0.006470,0.304880,-0.000045,-0.000020,-0.000003,-0.000020,-0.000045,-82.269639,0.000067,
2416,2488,3.46052345238072,-3.41593793245177,-0.00993317069827526,0.002929,-0.000640,0.002918,0.123402,-0.013087,323.195888,23.631866,0.999271,0.986685,0.004564,0.429620,0.000006,-0.000024,0.000005,0.000007,-0.000025,8.868561,0.000025,
2431,2578,3.77008020921284,-1.44895934456761,-0.00710852224102609,0.003006,-0.000361,0.003192,0.125987,0.012872,321.781788,24.037398,0.999775,0.993163,0.003570,0.322390,0.000004,-0.000017,-0.000004,0.000005,-0.000018,-10.333149,0.000018,
2491,2668,5.05887729538786,0.516473302664153,-0.0204405708955164,0.002966,-0.000397,0.002035,0.128111,-0.000001,320.340014,24.197667,0.999414,0.986593,0.004465,0.426125,-0.000006,-0.000043,-0.000022,0.000004,-0.000053,-24.648964,0.000059,
2491,2878,5.01627429929841,5.09024710516135,-0.0115412267795705,0.002593,-0.000525,0.000931,0.115316,-0.010111,316.975997,24.964770,0.999472,0.992507,0.003604,0.473613,-0.000022,0.000009,-0.000011,0.000013,-0.000026,-72.510347,0.000026,
2476,2803,4.70388068309233,3.45922693453374,-0.0237096191246451,0.002861,-0.000583,0.003978,0.116025,0.007325,318.059577,24.795572,0.999176,0.984700,0.004749,0.353844,-0.000020,-0.000012,-0.000016,0.000001,-0.000033,-52.359043,0.000038,
2506,2968,5.32535325444093,7.05026000977536,-0.00540082061155545,0.002886,-0.000081,-0.001235,0.137360,0.000300,315.619803,25.478223,0.999561,0.990264,0.004015,0.358626,-0.000012,-0.000011,0.000011,0.000000,-0.000023,45.198874,0.000027,
2371,2113,2.55299908940723,-11.6258457723479,0.0146962633386352,0.002820,-0.000031,0.000291,0.128017,0.016201,329.427991,22.764375,0.999084,0.976983,0.005743,0.346154,-0.000018,-0.000013,0.000001,-0.000013,-0.000018,80.898411,0.000031,
2446,2623,4.08731420847831,-0.466420834082477,-0.012883031510853,0.002592,-0.000156,0.001926,0.111722,0.015886,321.013917,24.136121,0.999550,0.989019,0.004040,0.365628,0.000010,-0.000018,-0.000010,0.000014,-0.000022,-18.165955,0.000022,
2461,2503,4.43978993708375,-3.08692148220847,-0.00568033243627042,0.002944,0.000265,-0.001847,0.142048,0.027709,323.086410,23.621839,0.999487,0.986238,0.004462,0.435738,0.000004,-0.000018,0.000003,0.000004,-0.000018,6.924807,0.000019,
2356,2308,2.1879492562369,-7.35290446062395,0.00540917596771351,0.003259,-0.000440,0.003398,0.137263,0.004644,326.206053,23.339694,0.999382,0.990901,0.003985,0.386296,-0.000019,-0.000043,-0.000007,-0.000017,-0.000045,-14.459173,0.000064,
2476,2593,4.74714490788047,-1.12039833480407,-0.0159217399385057,0.002718,-0.000711,0.003779,0.110056,0.011326,321.541014,23.944296,0.998622,0.982957,0.004965,0.411214,0.000011,-0.000024,0.000010,0.000014,-0.000026,14.430527,0.000026,
2416,2098,3.53980244574155,-11.9563307393613,0.0195947548983781,0.002961,0.000107,0.000520,0.133590,0.031908,329.761520,22.434753,0.999054,0.977061,0.006060,0.374004,-0.000028,-0.000012,0.000008,-0.000008,-0.000031,67.977461,0.000042,
2386,2398,2.82490000108834,-5.38395737341686,3.18100262575172E-05,0.002956,-0.000128,-0.001408,0.140499,-0.018919,324.723427,23.469704,0.999330,0.985631,0.004785,0.383886,0.000001,-0.000009,0.000010,0.000007,-0.000015,30.603186,0.000015,
2446,2203,4.17376821952849,-9.65318425923098,0.0153296388804165,0.002484,0.000525,0.000418,0.112322,0.043376,328.060888,22.637323,0.999662,0.985124,0.004762,0.386045,0.000012,-0.000018,-0.000008,0.000014,-0.000020,-14.217471,0.000021,
2386,2188,2.86592143529576,-9.98092925533143,0.0141835803359527,0.002740,-0.000268,0.003183,0.113975,0.035025,328.209927,22.934219,0.999189,0.981721,0.005253,0.337116,-0.000010,-0.000028,-0.000011,-0.000005,-0.000033,-25.507768,0.000041,
2416,2278,3.50302952722489,-8.00987868268975,0.0108241840018195,0.002520,-0.000417,0.003324,0.103127,0.016277,326.750792,23.017997,0.999304,0.983595,0.004952,0.380135,-0.000003,-0.000019,-0.000012,0.000003,-0.000025,-27.678554,0.000027,
2401,2278,3.17343086847039,-8.00619675276137,-0.0112171083074486,0.002357,-0.000710,0.005413,0.088136,0.002352,326.531851,23.208661,0.999774,0.994036,0.003420,0.240965,-0.000010,-0.000021,-0.000014,-0.000001,-0.000030,-33.559033,0.000035,
2461,2743,4.38878739475526,2.15114325494148,-0.0288381946089089,0.002656,-0.000573,0.002390,0.112686,-0.011244,318.957731,24.514618,0.999664,0.991285,0.003691,0.385156,-0.000010,0.000004,-0.000012,0.000011,-0.000017,-59.158487,0.000017,
2446,2428,4.12685316573272,-4.72536618247568,-0.01239981401352,0.003027,-0.000526,0.001513,0.132880,-0.018269,324.206967,23.450129,0.999248,0.985264,0.004893,0.325072,0.000004,0.000006,0.000007,0.000012,-0.000002,49.460346,0.000013,
2401,2428,3.14595019998781,-4.72722523989676,-0.00342076561418025,0.002991,-0.000175,-0.000304,0.138152,-0.001046,324.219729,23.531520,0.999438,0.985420,0.004701,0.387532,-0.000001,-0.000001,0.000013,0.000012,-0.000015,45.087994,0.000016,
2371,2338,2.50895597516718,-6.69624844772053,0.00397849809775153,0.002712,-0.000352,0.002239,0.116207,0.007759,325.693318,23.364900,0.999071,0.984988,0.004872,0.390595,-0.000011,-0.000033,0.000001,-0.000010,-0.000033,1.932067,0.000046,
2506,2503,5.42110019941277,-3.08489406355292,-0.0113138851747863,0.003084,-0.000086,0.000821,0.138106,0.009721,323.154751,23.591283,0.999420,0.985403,0.004810,0.354333,0.000010,-0.000026,0.000002,0.000011,-0.000026,2.688512,0.000026,
2506,2728,5.37385466844094,1.8261253579531,-0.0206318174601847,0.002995,0.000083,-0.002214,0.146072,0.028579,319.421574,24.478986,0.999536,0.989395,0.003982,0.412540,-0.000018,0.000009,-0.000017,0.000018,-0.000026,-63.886987,0.000027,
2401,2038,3.22367705594666,-13.2739766714921,0.0240452206958253,0.002537,0.000410,-0.000839,0.119255,0.011457,330.732123,22.326413,0.998734,0.971172,0.006402,0.357669,-0.000042,-0.000035,-0.000003,-0.000034,-0.000043,-67.318035,0.000077,
2356,2953,2.06422254722475,6.71455397118909,-0.0148448728417065,0.002965,-0.000270,-0.000735,0.138932,0.000491,315.556748,25.039522,0.999183,0.989062,0.004151,0.381095,-0.000026,-0.000023,-0.000011,-0.000013,-0.000036,-49.364830,0.000050,
2341,3148,1.70450021082677,10.9454039811841,0.0250624762832672,0.003039,-0.000210,-0.000861,0.142819,-0.014936,312.707328,25.494670,0.999476,0.993257,0.003566,0.338987,-0.000016,0.000000,-0.000009,0.000004,-0.000020,-64.713364,0.000021,
2371,3238,2.33865082271992,12.9000286247576,0.0236448980655268,0.002961,-0.000316,0.000081,0.135977,-0.009692,311.213828,25.831902,0.999703,0.993923,0.003125,0.374780,0.000001,-0.000005,-0.000006,0.000004,-0.000008,-31.974041,0.000008,
2416,2503,3.45680939271098,-3.08677627405404,-0.0181428075605936,0.002886,-0.000363,0.003647,0.118883,0.005485,322.878629,23.726631,0.999535,0.989952,0.004085,0.402547,0.000006,-0.000016,0.000006,0.000007,-0.000018,15.101270,0.000018,
2491,2683,5.05507639367071,0.843971026090969,-0.0250679845521518,0.002851,-0.000951,0.004570,0.112885,-0.017177,320.041607,24.270369,0.999660,0.990126,0.003876,0.395566,-0.000009,-0.000033,-0.000015,-0.000002,-0.000040,-25.743200,0.000047,
2506,2983,5.32186383856324,7.37621539073007,-0.00698360625165151,0.002692,-0.000294,-0.000469,0.125408,0.001073,315.349110,25.505206,0.999435,0.988704,0.004129,0.392789,-0.000010,0.000009,0.000013,0.000016,-0.000017,63.182098,0.000019,
2326,2848,1.43081303757899,4.42955157125877,-0.0204656751151333,0.002709,-0.000252,0.001149,0.120518,0.003320,317.210757,24.686064,0.999769,0.992491,0.003561,0.428255,-0.000027,-0.000021,-0.000004,-0.000019,-0.000029,-64.424035,0.000049,
2491,2893,5.01235318738516,5.41932682323095,-0.0245420504546701,0.002681,-0.000057,-0.001063,0.127128,-0.017161,316.632548,25.178477,0.998791,0.986892,0.004440,0.311409,-0.000017,0.000000,-0.000007,0.000003,-0.000019,-70.309229,0.000021,
2446,2638,4.08417192048854,-0.138546794157463,-0.0190715130320882,0.002826,-0.000003,0.000306,0.128550,0.007629,320.734776,24.205277,0.999614,0.990128,0.003921,0.341100,0.000004,-0.000015,-0.000011,0.000009,-0.000020,-24.397806,0.000020,
2431,2593,3.76729573330629,-1.12339767090043,-0.00652234879584057,0.002740,0.000088,-0.001683,0.131951,0.006129,321.549798,23.935541,0.999625,0.990921,0.003925,0.468063,0.000008,-0.000017,-0.000002,0.000008,-0.000017,-4.819458,0.000017,
2356,3193,2.02159530150793,11.9229232080587,0.0256193106133651,0.002892,-0.000289,-0.000119,0.133490,-0.008997,311.963442,25.668719,0.999601,0.991821,0.003624,0.348176,-0.000004,0.000004,-0.000006,0.000007,-0.000007,-62.775461,0.000008,
2461,2518,4.4370473445403,-2.76017514394416,0.0012396602361946,0.002930,-0.000383,0.001421,0.128828,0.003411,322.887813,23.679896,0.999282,0.983291,0.004676,0.408443,0.000004,-0.000017,0.000006,0.000006,-0.000018,14.753300,0.000019,
2431,2353,3.81551713554991,-6.36721396991551,-4.04415411026093E-05,0.002933,-0.000408,-0.000440,0.135815,0.002571,325.501874,23.206966,0.999041,0.982242,0.005097,0.373119,0.000008,-0.000012,0.000004,0.000008,-0.000013,9.910040,0.000013,
2476,2818,4.70101659781986,3.78540880483478,-0.0219845953636764,0.002759,-0.000320,0.002298,0.117880,0.011623,317.831239,24.817695,0.999321,0.986513,0.004601,0.392590,-0.000019,-0.000019,-0.000008,-0.000010,-0.000027,-44.674923,0.000038,
2476,2608,4.74341778891502,-0.792642931845904,-0.0191672929653919,0.002328,-0.000532,0.003916,0.091726,0.015811,321.251284,24.005490,0.999021,0.984616,0.004627,0.412031,0.000013,-0.000024,0.000005,0.000014,-0.000025,7.965136,0.000025,
2506,2518,5.41707257819255,-2.75766121831902,-0.0123505106341781,0.002497,-0.000530,0.003691,0.099970,-0.000304,322.864359,23.608928,0.999458,0.986269,0.004705,0.389010,0.000002,-0.000006,0.000005,0.000004,-0.000009,27.038141,0.000009,
2446,2218,4.17071152677586,-9.32378625855281,0.00637206150696557,0.002964,0.000470,-0.002097,0.143646,0.007170,327.775187,22.691759,0.999474,0.983640,0.005036,0.350217,0.000010,-0.000024,-0.000009,0.000013,-0.000026,-14.314577,0.000026,
2386,2413,2.8222244542487,-5.05637055560693,0.00134380314904092,0.002977,-0.000050,-0.002570,0.145654,-0.008049,324.496660,23.484157,0.999326,0.985140,0.004807,0.425202,-0.000003,-0.000006,0.000017,0.000013,-0.000021,42.055549,0.000022,
2506,2998,5.31898952843219,7.70228360027428,-0.00446340117889577,0.002670,-0.000418,-0.000824,0.125750,-0.007523,315.125019,25.584059,0.999501,0.990066,0.003861,0.365572,-0.000002,0.000000,0.000016,0.000015,-0.000017,46.365164,0.000019,
2461,2758,4.38576025157655,2.4786604381752,-0.0331612834877433,0.002766,0.000063,-0.000576,0.129205,0.014163,318.693105,24.573536,0.999642,0.989708,0.003916,0.406506,-0.000006,0.000002,-0.000017,0.000015,-0.000019,-51.171766,0.000021,
2401,2293,3.17074090134828,-7.67875472106525,-0.0121889870113705,0.002584,-0.000570,0.004518,0.101841,-0.000068,326.295415,23.161395,0.999591,0.990574,0.003916,0.333387,-0.000010,-0.000023,-0.000008,-0.000006,-0.000027,-26.619464,0.000035,
2371,2128,2.55041661771196,-11.2972301812847,0.0147815562345954,0.003067,0.000073,0.000015,0.140354,0.022392,329.199397,22.766386,0.999231,0.980293,0.005456,0.394275,-0.000013,-0.000010,-0.000003,-0.000008,-0.000015,-59.959523,0.000023,
2491,2698,5.05176091584153,1.17226256099833,-0.0289605674128097,0.002674,-0.000460,0.001331,0.117399,-0.014229,319.768528,24.407086,0.999677,0.990138,0.003909,0.321080,-0.000012,-0.000010,-0.000013,0.000002,-0.000024,-47.766445,0.000026,
2371,3253,2.33542121857038,13.2253785561517,0.0175828785588692,0.003128,-0.000362,0.000651,0.141567,-0.013822,310.922331,25.852457,0.999687,0.993073,0.003262,0.389760,0.000003,-0.000001,-0.000008,0.000009,-0.000007,-38.451441,0.000009,
2416,2113,3.53786404099037,-11.6278740713502,0.027264306199811,0.003063,0.000827,-0.003074,0.151687,0.037097,329.601717,22.500499,0.999123,0.977880,0.005868,0.363685,-0.000024,-0.000016,0.000008,-0.000011,-0.000029,59.761373,0.000041,
2506,2743,5.36938258122683,2.15449147160772,-0.0302665764792209,0.002916,-0.000557,0.003240,0.121050,0.004650,319.070668,24.618198,0.999763,0.989785,0.003834,0.310707,-0.000015,0.000005,-0.000016,0.000014,-0.000024,-61.048711,0.000025,
2416,2293,3.50023346728447,-7.68103651377275,0.00659394269882796,0.002878,-0.000361,0.001627,0.125752,-0.005103,326.495523,23.083541,0.998935,0.979794,0.005539,0.343172,-0.000005,-0.000021,-0.000006,-0.000003,-0.000023,-19.206753,0.000029,
2401,2053,3.22020268054971,-12.942867966524,0.0209995794079418,0.002593,-0.000301,0.003538,0.105711,0.029094,330.450633,22.482085,0.998976,0.975360,0.006155,0.268708,-0.000037,-0.000032,-0.000001,-0.000031,-0.000037,-77.995239,0.000068,
2446,2443,4.12483638461332,-4.39886162736581,-0.00087178499370566,0.002994,-0.000101,0.000675,0.134676,0.006165,324.062118,23.458720,0.998654,0.982002,0.005238,0.394370,0.000007,-0.000018,0.000009,0.000010,-0.000020,17.394396,0.000020,
2371,2353,2.50665838932642,-6.36884575676193,0.00618964293533963,0.002926,-0.000126,0.000002,0.134079,0.010127,325.487274,23.359565,0.999064,0.985131,0.004868,0.441182,-0.000005,-0.000035,0.000008,-0.000003,-0.000037,13.727940,0.000044,
2416,2518,3.45413546220195,-2.76076820900776,-0.0097357613332747,0.002577,-0.000820,0.004852,0.100134,-0.007756,322.687321,23.719770,0.999378,0.987533,0.004446,0.444674,0.000005,-0.000017,0.000005,0.000006,-0.000018,11.493673,0.000018,
2491,2908,5.00964553884802,5.74544555548214,-0.0148047052632023,0.002480,-0.000261,0.001914,0.106395,-0.014522,316.448138,25.279663,0.999093,0.986880,0.004470,0.271188,-0.000011,0.000003,0.000001,0.000003,-0.000011,85.241613,0.000011,
2461,2533,4.43362749419453,-2.43138209920072,-0.00550158229862063,0.002920,-0.000035,-0.000761,0.136755,0.006293,322.595217,23.780169,0.999511,0.987306,0.004258,0.366811,0.000006,-0.000018,0.000003,0.000007,-0.000019,7.881844,0.000019,
2386,2203,2.86290603620598,-9.65170118473964,0.00602031884710641,0.003171,-0.000503,0.002029,0.137728,-0.005520,327.923634,22.979354,0.998889,0.979029,0.005535,0.297502,-0.000012,-0.000019,-0.000017,0.000002,-0.000032,-38.926131,0.000036,
2326,2863,1.42842222777834,4.7555812375084,-0.0168424843610637,0.002818,-0.000383,0.000856,0.126472,-0.012144,317.002648,24.738633,0.999738,0.992116,0.003621,0.394062,-0.000031,-0.000014,-0.000004,-0.000013,-0.000032,-76.274815,0.000046,
2476,2833,4.69860736060383,4.11154311694526,-0.0175241454400066,0.002746,0.000116,-0.001055,0.130179,0.014709,317.636199,24.861388,0.999547,0.988064,0.004057,0.408402,-0.000025,-0.000022,-0.000003,-0.000020,-0.000027,-59.126590,0.000047,
2446,2653,4.08112607419977,0.188278519510092,-0.0184614840982817,0.002915,-0.000258,0.002572,0.124109,0.009984,320.491471,24.230111,0.999678,0.991062,0.003782,0.371361,-0.000002,-0.000007,-0.000012,0.000008,-0.000017,-39.389907,0.000017,
2401,2443,3.14332918460993,-4.39928138168343,0.000396768654411517,0.003023,0.000185,0.000153,0.138166,0.046953,324.008108,23.575205,0.999439,0.986840,0.004614,0.438905,0.000001,-0.000017,0.000013,0.000008,-0.000023,27.397157,0.000024,
2356,3208,2.01896366160667,12.2475268908996,0.0292748111383503,0.002816,-0.000356,-0.000334,0.130719,-0.015533,311.745689,25.666127,0.999578,0.992477,0.003495,0.381747,-0.000001,0.000003,-0.000004,0.000006,-0.000003,-58.090482,0.000006,
2506,2533,5.41436312266073,-2.42923280296651,-0.011560701452197,0.002916,-0.000344,0.004630,0.115680,0.038926,322.642266,23.708088,0.999611,0.988112,0.004315,0.391357,0.000007,-0.000011,0.000009,0.000011,-0.000014,22.130233,0.000015,
2476,2623,4.74097090642804,-0.4645653763327,-0.0236562838692862,0.002859,-0.000120,-0.001525,0.136911,0.001950,321.014677,24.108926,0.999622,0.990842,0.003767,0.352204,0.000011,-0.000030,-0.000005,0.000012,-0.000030,-6.780476,0.000030,
2506,3013,5.31640260241008,8.02846644376854,-0.00282399689444901,0.002917,-0.000070,-0.002264,0.142773,-0.007078,314.910098,25.662250,0.999531,0.990652,0.003697,0.348193,-0.000008,0.000003,0.000017,0.000016,-0.000020,53.884411,0.000021,
2356,2968,2.06155010006616,7.0409844918354,-0.0102780423224544,0.002846,-0.000178,-0.000038,0.131100,0.027498,315.341700,25.121201,0.999502,0.991201,0.003779,0.364724,-0.000029,-0.000016,-0.000013,-0.000008,-0.000037,-59.204481,0.000048,
2461,2773,4.38258158403147,2.80519582929298,-0.0318150202661514,0.002580,-0.000316,0.000366,0.116964,-0.003411,318.447671,24.634698,0.999420,0.987546,0.004270,0.381972,-0.000010,-0.000010,-0.000018,0.000008,-0.000029,-45.378983,0.000030,
2341,3163,1.70163875207213,11.2706791531222,0.0305741106570281,0.002726,-0.000085,0.000962,0.122208,0.013327,312.487022,25.519542,0.999539,0.993148,0.003636,0.377861,-0.000013,0.000006,-0.000008,0.000009,-0.000016,-69.699568,0.000016,
2431,2608,3.76330560865784,-0.794509099898754,-0.0179655064887356,0.003004,-0.000351,0.002575,0.128217,0.009606,321.205865,24.030146,0.999421,0.987553,0.004389,0.428150,0.000005,-0.000019,-0.000008,0.000007,-0.000022,-17.139974,0.000022,
2416,2128,3.53332550613913,-11.2963998495055,0.011401705347339,0.002804,0.000483,-0.002571,0.137854,0.026412,329.212933,22.607645,0.999320,0.979784,0.005583,0.297554,-0.000018,-0.000017,0.000006,-0.000012,-0.000023,46.436986,0.000035,
2446,2233,4.16833424473724,-8.99585746161494,0.0158995388511585,0.002919,0.000394,-0.000809,0.136766,0.022221,327.605340,22.758236,0.999160,0.978852,0.005534,0.352996,0.000011,-0.000023,-0.000008,0.000013,-0.000024,-12.108399,0.000024,
2401,2068,3.21629885495497,-12.6137670655303,0.0102571457949807,0.002373,-0.000311,0.002503,0.099386,0.017595,330.113609,22.404311,0.999321,0.978720,0.006025,0.384293,-0.000034,-0.000027,0.000003,-0.000026,-0.000035,70.205012,0.000061,
2506,2758,5.36586464294385,2.48034972824584,-0.0316203253049139,0.002752,-0.000785,0.004922,0.106960,0.001409,318.801057,24.577300,0.999749,0.990528,0.003736,0.409453,-0.000010,-0.000001,-0.000021,0.000016,-0.000027,-51.350989,0.000027,
2386,2428,2.81940424575484,-4.72805382566663,0.000795820403595826,0.003112,-0.000188,-0.002370,0.151116,-0.019564,324.254352,23.575078,0.999443,0.987799,0.004518,0.367419,-0.000004,-0.000005,0.000015,0.000011,-0.000019,44.653472,0.000019,
2491,2923,5.00568277740242,6.07293367896433,-0.0300284004948139,0.002709,-0.000023,-0.000011,0.124555,0.019989,316.092863,25.300092,0.999411,0.986934,0.004268,0.344056,-0.000009,0.000003,0.000007,0.000006,-0.000012,65.018427,0.000012,
2416,2308,3.4981748204805,-7.35311687696075,0.0104034459577633,0.003174,0.000253,-0.001911,0.152476,0.017297,326.311425,23.106903,0.999265,0.984848,0.004747,0.391687,-0.000002,-0.000014,-0.000003,-0.000001,-0.000014,-14.476815,0.000017,
2491,2713,5.04851711801212,1.49892261902957,-0.0326333385633575,0.002808,-0.000257,0.001268,0.123889,0.010184,319.499921,24.379306,0.999657,0.989977,0.004110,0.432838,-0.000018,0.000006,-0.000021,0.000018,-0.000030,-60.332328,0.000030,
2416,2533,3.45164325638433,-2.43166648443698,-0.0150077680668801,0.003186,-0.000375,0.001400,0.140867,-0.016519,322.439839,23.873273,0.999263,0.987792,0.004549,0.331210,0.000002,-0.000019,0.000001,0.000002,-0.000019,2.260436,0.000020,
2431,2368,3.81266754543158,-6.03944534658662,0.00663036453505583,0.002693,-0.000293,0.001729,0.116901,-0.008170,325.295746,23.297496,0.999104,0.982557,0.005044,0.323372,0.000009,-0.000003,0.000009,0.000014,-0.000007,27.810778,0.000014,
2371,3268,2.33165665665548,13.551392322771,0.00937187921618943,0.002882,-0.000115,0.000641,0.130428,0.000005,310.595554,25.909171,0.999724,0.993281,0.003277,0.386398,0.000004,-0.000002,-0.000005,0.000007,-0.000004,-28.521044,0.000007,
2506,3028,5.31383958940467,8.35398062213999,0.000890047917721404,0.003090,0.000130,-0.002748,0.152667,-0.006008,314.705669,25.695835,0.999636,0.992096,0.003556,0.376068,-0.000015,0.000012,0.000015,0.000019,-0.000022,66.105431,0.000023,
2371,2143,2.54732130522224,-10.9681452665349,0.0187079758493951,0.002786,-0.000424,0.003250,0.115868,0.025976,328.965515,22.860607,0.999107,0.978529,0.005625,0.347788,-0.000013,-0.000020,-0.000008,-0.000008,-0.000025,-33.383051,0.000035,
2371,2368,2.50290293351187,-6.03930326246341,0.000589280855308516,0.002795,-0.000076,0.004067,0.113683,0.034834,325.176640,23.456874,0.998845,0.983814,0.004953,0.411741,-0.000004,-0.000024,0.000010,0.000000,-0.000028,22.861608,0.000032,
2401,2308,3.16814985499819,-7.35130699068806,-0.0120812945002058,0.002885,-0.000287,0.004387,0.116213,0.020609,326.068434,23.107597,0.999803,0.994044,0.003419,0.455525,-0.000006,-0.000017,-0.000004,-0.000004,-0.000018,-19.016690,0.000024,
2461,2788,4.38065213306817,3.13079107077402,-0.0214569355751451,0.002749,-0.000318,-0.000454,0.127819,-0.011648,318.301068,24.674099,0.999232,0.986273,0.004444,0.388550,-0.000015,-0.000010,-0.000020,0.000007,-0.000033,-48.609480,0.000034,
2476,2848,4.69490688836967,4.43827685288558,-0.022840122946036,0.002914,-0.000592,0.003434,0.120527,-0.009096,317.337138,24.917902,0.999410,0.988027,0.004104,0.384468,-0.000025,-0.000016,-0.000010,-0.000010,-0.000031,-57.541809,0.000043,
2461,2548,4.43049655800518,-2.10285530667116,-0.00658065601561475,0.002789,0.000314,-0.002257,0.136517,0.009777,322.341701,23.911449,0.999777,0.991321,0.003734,0.294489,0.000013,-0.000033,-0.000002,0.000013,-0.000033,-2.153204,0.000034,
2446,2458,4.12168409818259,-4.07002417887753,-0.00364571524863777,0.002849,0.000768,-0.002073,0.138618,0.046217,323.798890,23.535981,0.999243,0.985165,0.004801,0.410880,0.000005,-0.000016,0.000005,0.000006,-0.000017,11.716548,0.000017,
2506,2548,5.41260327128244,-2.10271445123169,0.00166567302989051,0.002962,-0.000411,0.002495,0.125986,0.013865,322.519745,23.811326,0.999788,0.990463,0.003934,0.324670,0.000017,-0.000052,-0.000002,0.000017,-0.000052,-1.588464,0.000053,
2446,2248,4.16531662926178,-8.66694980768677,0.0144897928428804,0.003190,-0.000052,0.001174,0.141647,0.024135,327.355803,22.818984,0.999144,0.978469,0.005564,0.349044,0.000011,-0.000022,-0.000011,0.000014,-0.000026,-17.470929,0.000026,
2491,2938,5.00339964836182,6.39870013516015,-0.0212696859468338,0.002908,-0.000313,0.001715,0.126963,0.016924,315.923526,25.375076,0.999448,0.989767,0.003861,0.324257,-0.000013,-0.000007,0.000003,-0.000006,-0.000014,69.002312,0.000021,
2386,2218,2.860399058195,-9.32356355403025,0.0150551309709499,0.002816,-0.000142,0.001700,0.122831,0.017659,327.741736,23.046526,0.999040,0.979927,0.005616,0.299220,-0.000008,-0.000014,-0.000013,0.000002,-0.000025,-38.565647,0.000028,
2506,2773,5.36346866607969,2.80696622286096,-0.0302645842436959,0.002998,-0.000369,0.000870,0.134079,0.000031,318.594944,24.629967,0.999707,0.990983,0.003755,0.416701,-0.000011,-0.000016,-0.000020,0.000006,-0.000033,-41.510517,0.000035,
2476,2638,4.73807644914023,-0.137764622143287,-0.0245446267806528,0.003155,-0.000088,-0.000733,0.147506,0.014833,320.773901,24.104263,0.999660,0.990458,0.003771,0.427018,0.000004,-0.000025,-0.000009,0.000007,-0.000028,-16.307704,0.000029,
2416,2143,3.5300373547744,-10.9684752389933,0.0115691316970015,0.002630,-0.000095,-0.000274,0.121336,-0.006513,328.956450,22.592752,0.999346,0.981336,0.005126,0.330147,-0.000014,-0.000020,0.000000,-0.000014,-0.000020,-1.343364,0.000035,
2356,3223,2.01559424646922,12.5734187954855,0.0267264522971686,0.002535,-0.000229,0.000123,0.116265,-0.003746,311.463452,25.731951,0.999558,0.992536,0.003406,0.365019,0.000001,0.000003,-0.000006,0.000008,-0.000004,-51.015548,0.000008,
2446,2668,4.07866780288385,0.515131942637773,-0.0192559680602358,0.003191,-0.000064,-0.001458,0.151899,0.013906,320.268629,24.248704,0.999518,0.989041,0.004109,0.409351,-0.000005,-0.000025,-0.000015,0.000004,-0.000033,-28.600839,0.000036,
2431,2623,3.76000690332259,-0.466881333124448,-0.0228454263340154,0.002904,-0.000422,0.000429,0.131497,-0.003326,320.924348,24.087633,0.999488,0.988908,0.004131,0.408378,0.000002,-0.000015,-0.000013,0.000009,-0.000023,-28.769820,0.000023,
2341,3178,1.69896384782011,11.5960188375156,0.0291757169978268,0.003122,-0.000229,0.002711,0.134240,0.001882,312.241600,25.552029,0.999582,0.993683,0.003720,0.369113,-0.000012,0.000005,-0.000009,0.000010,-0.000016,-66.234104,0.000016,
2401,2083,3.215228632149,-12.2845908470221,0.0201585755243627,0.002989,0.000678,-0.003145,0.148358,0.029969,330.003005,22.543705,0.999004,0.975928,0.006143,0.305349,-0.000031,-0.000014,0.000003,-0.000013,-0.000031,78.818374,0.000046,
2491,2728,5.04543633970529,1.82680541222257,-0.0335844439321704,0.002768,-0.000005,-0.000174,0.127774,0.029051,319.250741,24.496410,0.999628,0.991866,0.003579,0.393630,-0.000019,0.000008,-0.000018,0.000017,-0.000028,-63.298136,0.000028,
2371,3283,2.3284127622069,13.8765150969014,0.00352775123320725,0.002879,-0.000251,-0.000571,0.134549,-0.011590,310.304374,25.926700,0.999634,0.992805,0.003413,0.396658,0.000008,0.000003,-0.000008,0.000014,-0.000003,-36.395864,0.000015,
2386,2443,2.81546738653084,-4.39899880049254,-0.00992204643199557,0.003095,-0.000044,-0.000068,0.142169,0.005572,323.912299,23.606999,0.999287,0.988409,0.004542,0.405948,-0.000002,-0.000016,0.000015,0.000007,-0.000025,32.510737,0.000026,
2506,3043,5.31036850939463,8.68080606416172,0.00291856902572363,0.002866,-0.000119,0.001017,0.127780,0.015896,314.451372,25.822117,0.999760,0.992492,0.003668,0.331722,-0.000015,0.000012,0.000015,0.000019,-0.000022,65.790567,0.000024,
2491,2953,5.00117409279303,6.72380023394832,-0.017635470544235,0.003179,-0.000405,-0.001445,0.151468,-0.012547,315.733856,25.382190,0.999374,0.989938,0.003910,0.345957,-0.000009,-0.000019,0.000008,-0.000004,-0.000023,29.311724,0.000030,
2476,2863,4.69230920246735,4.76477204911693,-0.0191796227121017,0.002913,-0.000092,0.001678,0.127342,-0.000064,317.129532,24.991119,0.999227,0.985629,0.004415,0.376692,-0.000025,-0.000005,-0.000011,0.000000,-0.000030,-65.242360,0.000035,
2416,2548,3.44829901646334,-2.10434888856417,-0.0189085134493894,0.003183,-0.000638,0.002410,0.136922,-0.016923,322.159848,23.872703,0.999312,0.987946,0.004449,0.380302,0.000001,-0.000025,-0.000005,0.000002,-0.000026,-10.055377,0.000029,
2401,2458,3.13992977342993,-4.07137219682089,-0.00619687123531776,0.003254,-0.000121,0.002506,0.140141,0.032727,323.711972,23.585614,0.999503,0.986104,0.004744,0.461378,0.000002,-0.000018,0.000011,0.000007,-0.000023,24.317244,0.000023,
2356,2983,2.05874896389323,7.36598863152841,-0.00456329213784556,0.002535,-0.000421,0.001057,0.112811,0.005242,315.126705,25.132147,0.999408,0.988704,0.004157,0.369564,-0.000030,-0.000012,-0.000011,-0.000006,-0.000035,-63.947111,0.000045,
2506,2563,5.40906717588301,-1.77593010326914,-0.00631569222588269,0.002663,0.000343,-0.003849,0.137070,0.000699,322.220786,23.743349,0.999796,0.990749,0.003937,0.441548,0.000014,-0.000059,-0.000009,0.000015,-0.000060,-6.741180,0.000063,
2416,2323,3.4946147800606,-7.02400702892523,0.0078832768329562,0.002657,0.000552,-0.003303,0.134021,0.030837,326.028759,23.190065,0.999098,0.982856,0.004979,0.372128,-0.000002,-0.000014,0.000003,-0.000002,-0.000014,12.674469,0.000017,
2371,2383,2.4998258372069,-5.71088322966947,-0.00179188969485722,0.002536,-0.000029,0.001053,0.112545,0.023868,324.912718,23.523848,0.999203,0.984623,0.004884,0.376690,-0.000003,-0.000022,0.000004,-0.000003,-0.000022,10.511011,0.000027,
2461,2803,4.37664602249651,3.45862340524257,-0.0257359600297491,0.002671,-0.000934,0.006116,0.099282,0.000155,317.991307,24.789919,0.999321,0.986971,0.004397,0.339211,-0.000018,-0.000009,-0.000015,0.000002,-0.000030,-53.186550,0.000033,
2371,2158,2.5449228002618,-10.6391939932132,0.0204101318165613,0.002977,-0.000209,0.001437,0.131135,0.002818,328.753053,22.950249,0.999386,0.981350,0.005433,0.278570,-0.000013,-0.000028,-0.000013,-0.000005,-0.000036,-30.404119,0.000044,
2461,2563,4.42591691728324,-1.7744176280798,-0.0247590769361636,0.002861,0.000276,-0.000770,0.134229,0.021546,321.943412,23.880783,0.999480,0.988514,0.004281,0.392783,0.000013,-0.000034,-0.000004,0.000013,-0.000034,-4.713027,0.000035,
2491,2743,5.04211195851161,2.15336716829135,-0.034863175772216,0.002791,-0.000417,0.001756,0.121218,0.008523,318.989154,24.533558,0.999737,0.991503,0.003629,0.394920,-0.000017,0.000007,-0.000017,0.000016,-0.000026,-62.455214,0.000026,
2371,3298,2.32478099335673,14.2021872478762,-0.00644625142126642,0.002946,-0.000392,-0.000042,0.135720,-0.015559,309.975198,25.969701,0.999610,0.992993,0.003468,0.389302,0.000008,0.000004,-0.000008,0.000014,-0.000002,-38.206637,0.000015,
2401,2323,3.16590587321298,-7.0233667244186,0.00157208642809792,0.002140,0.000178,0.000105,0.097731,0.026435,325.920955,23.253158,0.999381,0.987747,0.004335,0.362920,-0.000006,-0.000018,0.000000,-0.000006,-0.000018,1.707218,0.000026,
2446,2263,4.16253858914503,-8.33733673660281,0.0103273538652502,0.003322,0.000595,-0.004220,0.168034,0.025214,327.104463,22.922356,0.999047,0.977168,0.005816,0.301121,0.000006,-0.000023,-0.000022,0.000017,-0.000035,-28.388449,0.000035,
2506,2788,5.36069351268747,3.13419997391873,-0.0303106159584559,0.003083,0.000074,-0.002034,0.149440,0.006484,318.364874,24.725035,0.999524,0.990688,0.003943,0.389066,-0.000014,-0.000014,-0.000023,0.000009,-0.000037,-44.959385,0.000038,
2506,3058,5.30794532533296,9.00516900006432,0.00912878647187654,0.003039,-0.000304,0.001431,0.134042,0.000525,314.264742,25.789408,0.999752,0.992364,0.003789,0.409438,-0.000016,0.000003,0.000014,0.000010,-0.000023,62.642551,0.000023,
2476,2653,4.7350085364053,0.189186021592604,-0.0207875272408842,0.003012,-0.000165,0.001490,0.132495,0.013242,320.546147,24.171647,0.999661,0.990092,0.003819,0.415079,-0.000004,-0.000011,-0.000011,0.000004,-0.000020,-36.058228,0.000021,
2431,2383,3.80948807033087,-5.71059114324262,-0.000782823738859406,0.002964,-0.000352,0.000110,0.135247,-0.009231,325.009003,23.346029,0.999570,0.986367,0.004642,0.325573,0.000011,-0.000011,-0.000001,0.000011,-0.000011,-1.741642,0.000013,
2491,2968,4.99838086655515,7.04917792295328,-0.00851584676775019,0.002669,-0.000256,-0.001679,0.129004,-0.001624,315.542591,25.416248,0.999302,0.988230,0.004250,0.380845,-0.000009,-0.000014,0.000008,-0.000003,-0.000020,35.669472,0.000025,
2446,2473,4.11865855867307,-3.7426491768465,0.000819474607624215,0.002674,0.000057,0.000492,0.120773,0.010545,323.575194,23.627013,0.999531,0.987113,0.004489,0.337459,-0.000003,-0.000028,0.000006,-0.000001,-0.000029,12.029794,0.000034,
2446,2683,4.07511753021044,0.84281848746032,-0.0217507371477836,0.003011,-0.000107,0.000531,0.136187,0.012219,319.987512,24.340318,0.999359,0.988025,0.004201,0.368610,-0.000004,-0.000009,-0.000009,0.000002,-0.000016,-37.483593,0.000017,
2416,2158,3.52728465992233,-10.6400086949709,0.0105085547668295,0.002735,-0.000283,-0.002464,0.134047,-0.029799,328.718619,22.609788,0.999232,0.979596,0.005361,0.340157,-0.000011,-0.000029,-0.000005,-0.000009,-0.000031,-14.082951,0.000042,
2476,2878,4.68855479648678,5.09232386320118,-0.0280299030496849,0.002934,-0.000087,0.001509,0.129042,0.017555,316.811472,25.065133,0.998746,0.985856,0.004712,0.376925,-0.000029,0.000002,-0.000010,0.000004,-0.000032,-74.008956,0.000035,
2386,2233,2.85761701306052,-8.99610930678635,0.027893123247793,0.002429,-0.000951,0.008207,0.081484,0.015855,327.565372,23.119560,0.999294,0.983275,0.005418,0.269753,-0.000009,-0.000017,-0.000011,-0.000001,-0.000025,-34.113158,0.000029,
2431,2638,3.75675509432967,-0.139729874087678,-0.0208183647925466,0.002661,-0.000338,0.002897,0.111270,-0.000132,320.677000,24.149098,0.999581,0.990868,0.003927,0.400681,-0.000004,-0.000012,-0.000013,0.000005,-0.000022,-36.336902,0.000023,
2356,3238,2.0127260955094,12.898574141816,0.0249108186206968,0.002723,-0.000293,0.000902,0.122141,-0.005505,311.208040,25.751545,0.999580,0.992562,0.003375,0.381449,0.000004,0.000000,-0.000007,0.000010,-0.000006,-36.430228,0.000010,
2506,2578,5.40496599712677,-1.44620659865045,-0.0142124797505971,0.002912,-0.000077,0.002700,0.123036,0.026965,321.895498,23.912442,0.999653,0.987181,0.004504,0.361123,0.000006,-0.000045,-0.000001,0.000006,-0.000045,-1.067390,0.000050,
2461,2578,4.42179842093139,-1.44717379922691,-0.0311655417963266,0.002752,-0.000501,0.004718,0.108331,0.024553,321.620215,23.859496,0.999597,0.991416,0.004087,0.472583,0.000009,-0.000024,0.000002,0.000009,-0.000024,3.913523,0.000024,
2386,2458,2.81257913906996,-4.0701634353494,-0.0142072443885581,0.003451,0.000070,0.000045,0.158160,0.010420,323.648872,23.705140,0.999348,0.987278,0.004617,0.357335,-0.000002,-0.000014,0.000015,0.000008,-0.000024,34.299066,0.000025,
2386,1993,2.90574329036565,-14.2634748697418,0.0409195157936324,0.002838,-0.000266,0.002970,0.119021,0.033234,331.581587,22.324420,0.998785,0.962885,0.007108,0.339821,-0.000049,0.000002,0.000004,0.000003,-0.000050,86.056711,0.000056,
2491,2758,5.03938036995001,2.47906726722879,-0.0269270231874543,0.002683,-0.000480,0.004365,0.106229,0.004572,318.796417,24.552338,0.999600,0.988603,0.004013,0.431046,-0.000013,0.000001,-0.000022,0.000017,-0.000029,-53.959537,0.000030,
2356,2998,2.05628009515671,7.69184788091506,0.00234088052826564,0.002609,-0.000405,0.003981,0.105927,0.011681,314.932405,25.204521,0.999606,0.992009,0.003633,0.341632,-0.000029,-0.000006,-0.000012,-0.000002,-0.000034,-67.038984,0.000040,
2461,2818,4.37422306288014,3.78466790252892,-0.0218879622705686,0.002737,-0.000389,0.003539,0.112237,0.007328,317.791931,24.812644,0.999306,0.986799,0.004497,0.377847,-0.000018,-0.000018,-0.000010,-0.000007,-0.000028,-45.888400,0.000038,
2416,2338,3.4913172324437,-6.69503010954618,0.00429114497796945,0.002631,0.000515,-0.002931,0.131464,0.037535,325.753105,23.262762,0.998943,0.982396,0.005011,0.355919,0.000001,-0.000015,0.000002,0.000001,-0.000016,8.144270,0.000017,
2371,2173,2.54221055720523,-10.3120925879347,0.0157411656396675,0.003246,-0.000252,-0.001494,0.153830,-0.017739,328.496013,22.805889,0.999317,0.981865,0.005295,0.446365,-0.000011,-0.000026,-0.000006,-0.000009,-0.000028,-20.850752,0.000039,
2476,2668,4.7315386372252,0.515703398068759,-0.0255189321658804,0.002944,-0.000305,0.000993,0.131170,-0.001028,320.261444,24.145403,0.999505,0.987310,0.004227,0.484199,-0.000009,-0.000037,-0.000017,-0.000001,-0.000045,-25.524142,0.000052,
2491,2983,4.99494253336472,7.37616802555527,-0.0111976905149049,0.002481,-0.000189,-0.002269,0.122683,-0.003814,315.267859,25.534079,0.999243,0.988150,0.004193,0.319136,-0.000005,0.000002,0.000008,0.000007,-0.000011,55.935255,0.000011,
2416,2563,3.44512327615825,-1.77702421143857,-0.015224152141684,0.002927,-0.000587,0.005765,0.113020,0.020922,321.922840,23.906701,0.998973,0.984801,0.004697,0.432888,-0.000003,-0.000026,-0.000008,0.000000,-0.000028,-17.863142,0.000033,
2401,2473,3.13700101630008,-3.74394452036399,-0.000346076292942143,0.002757,-0.000170,0.002188,0.118443,-0.002297,323.496046,23.693276,0.999345,0.987305,0.004591,0.365222,-0.000001,-0.000026,0.000011,0.000004,-0.000031,20.553178,0.000034,
2506,2803,5.35701162061709,3.46102426215188,-0.0299735347189767,0.002893,-0.000360,0.002878,0.121563,0.011464,318.094777,24.791480,0.999077,0.986667,0.004847,0.388720,-0.000010,-0.000001,-0.000019,0.000014,-0.000025,-51.725416,0.000025,
2446,2278,4.15932922507622,-8.00824080042278,0.0097161682418232,0.003259,0.000828,-0.003145,0.161271,0.052505,326.849503,22.994104,0.999230,0.978410,0.005659,0.311178,0.000003,-0.000023,-0.000019,0.000013,-0.000033,-27.996183,0.000033,
2431,2653,3.75423573694089,0.1867240512642,-0.0138743554585972,0.002631,-0.000519,0.003873,0.106283,0.017037,320.486171,24.178058,0.999562,0.990244,0.004032,0.439296,-0.000009,-0.000006,-0.000014,0.000006,-0.000022,-47.759869,0.000022,
2476,2893,4.68599543072008,5.4185395168442,-0.0264795869212548,0.003180,-0.000271,0.000131,0.145538,0.013049,316.595966,25.119291,0.998698,0.986077,0.004678,0.374460,-0.000023,-0.000009,-0.000005,-0.000007,-0.000024,-72.852629,0.000033,
2431,2398,3.80624552239833,-5.38272829444045,-0.00315557127277089,0.002957,-0.000216,0.000998,0.131764,0.007479,324.742699,23.340379,0.999714,0.987349,0.004604,0.399679,0.000011,-0.000005,0.000005,0.000012,-0.000006,15.209897,0.000012,
2491,2773,5.03653551890399,2.80669862283798,-0.0285346220708789,0.002742,-0.000179,0.000653,0.123324,0.007356,318.554961,24.670569,0.999231,0.986338,0.004408,0.374503,-0.000017,-0.000015,-0.000022,0.000006,-0.000039,-46.306627,0.000042,
2506,2593,5.40097958808227,-1.1172629875417,-0.0248196678442127,0.002772,-0.000229,0.000686,0.124403,0.018415,321.563508,24.027127,0.999861,0.993921,0.003535,0.299933,0.000007,-0.000034,0.000005,0.000008,-0.000035,6.191505,0.000036,
2476,2683,4.72810250718863,0.843701562514106,-0.0274852577214801,0.002852,-0.000672,0.002436,0.121379,-0.002974,319.990414,24.270979,0.999650,0.989223,0.003978,0.413851,-0.000012,-0.000024,-0.000011,-0.000005,-0.000030,-30.836641,0.000038,
2446,2698,4.0706612870178,1.17047276673595,-0.029624861950424,0.002512,-0.000354,0.004345,0.098971,0.005448,319.639882,24.395139,0.999653,0.990069,0.003934,0.359751,-0.000006,0.000002,-0.000007,0.000006,-0.000010,-60.199023,0.000010,
2386,2008,2.90214126327065,-13.9325851051956,0.0346852867568259,0.002761,-0.000560,0.004649,0.109413,0.007197,331.278263,22.448876,0.998561,0.972002,0.006349,0.236649,-0.000042,-0.000028,0.000004,-0.000027,-0.000042,76.683422,0.000070,
2446,2488,4.11619771955812,-3.41647840618792,0.00244173165197026,0.003084,-0.000210,0.000614,0.139004,-0.006008,323.364420,23.566641,0.999435,0.985888,0.004577,0.434614,0.000004,-0.000027,-0.000005,0.000005,-0.000028,-8.090990,0.000030,
2356,3253,2.00961323298978,13.2234507696729,0.0249942650075354,0.002562,-0.000503,0.002223,0.110009,-0.007416,310.950587,25.760220,0.999633,0.992338,0.003393,0.408220,0.000007,0.000004,-0.000008,0.000014,-0.000003,-39.169930,0.000015,
2386,2248,2.85373101315002,-8.66542340298457,0.00611228126149399,0.002860,-0.000239,0.004512,0.114738,0.039300,327.174080,23.110834,0.999244,0.982966,0.005302,0.348230,-0.000009,-0.000023,-0.000011,-0.000003,-0.000030,-29.023664,0.000036,
2461,2833,4.37067600449937,4.1131395338558,-0.0313784427308974,0.002836,0.000072,0.001504,0.124639,0.022022,317.479101,24.954422,0.999593,0.990092,0.003838,0.305128,-0.000023,-0.000020,-0.000007,-0.000015,-0.000029,-50.660509,0.000044,
2356,3013,2.05358765272658,8.01747933512356,0.0012665577320945,0.002694,-0.000173,0.001984,0.116908,0.007745,314.689329,25.215918,0.999579,0.991246,0.003741,0.364518,-0.000029,-0.000003,-0.000013,0.000002,-0.000034,-67.951388,0.000039,
2461,2593,4.42007409614001,-1.12102749090268,-0.0174193186954312,0.002859,-0.000570,0.003986,0.115918,0.007648,321.499303,23.937396,0.999233,0.987910,0.004411,0.432664,0.000012,-0.000022,0.000007,0.000014,-0.000024,11.825422,0.000024,
2506,2818,5.35449809992948,3.78791467828935,-0.0281399064613197,0.003214,-0.000200,0.001547,0.141531,0.021483,317.885045,24.874555,0.999330,0.988443,0.004355,0.376859,-0.000004,0.000005,-0.000003,0.000006,-0.000004,-74.432478,0.000006,
2416,2353,3.48823080752145,-6.36703826050843,0.00226622053526171,0.002763,0.000206,-0.001591,0.132483,0.027861,325.494575,23.282557,0.998550,0.981481,0.005243,0.376213,0.000008,-0.000017,0.000010,0.000012,-0.000021,19.226172,0.000021,
2416,2578,3.44207139466116,-1.44886641672013,-0.0168323857857331,0.002992,-0.001101,0.006158,0.114347,-0.010899,321.666781,24.044699,0.999410,0.988934,0.004171,0.311531,-0.000002,-0.000012,-0.000001,-0.000002,-0.000012,-5.461192,0.000015,
2401,2488,3.13418433653963,-3.41597353191004,-0.00186609668810434,0.003086,-0.000546,0.003448,0.128840,0.001666,323.250304,23.748317,0.999292,0.988533,0.004400,0.360829,0.000006,-0.000021,0.000008,0.000008,-0.000023,15.553691,0.000024,
2446,2293,4.1551981841104,-7.68180371367036,0.0107293132231234,0.002380,0.000031,0.001022,0.105175,0.026237,326.560194,22.897954,0.999266,0.979585,0.005544,0.435467,0.000000,-0.000025,-0.000014,0.000006,-0.000031,-23.426468,0.000033,
2506,2608,5.39814714246004,-0.791009553920716,-0.025367518750727,0.002747,0.000158,-0.003290,0.138779,0.008779,321.329858,23.988493,0.999865,0.993733,0.003590,0.390601,0.000008,-0.000038,-0.000002,0.000008,-0.000038,-2.149269,0.000040,
2476,2908,4.68353463377057,5.74416214508593,-0.020061756711641,0.003228,-0.000389,0.000091,0.147796,-0.004647,316.407214,25.171153,0.998831,0.985117,0.004753,0.361047,-0.000018,-0.000005,0.000003,-0.000004,-0.000019,76.798439,0.000024,
2476,2698,4.72527725491483,1.17113748428966,-0.0253559078182661,0.002774,-0.000261,0.000878,0.123863,0.003228,319.766069,24.375059,0.999680,0.989082,0.004113,0.372879,-0.000014,-0.000004,-0.000008,0.000001,-0.000019,-60.241341,0.000021,
2431,2413,3.80296884192352,-5.05529882352202,0.000222864784404919,0.002740,-0.000611,0.005428,0.105350,0.022931,324.501464,23.356312,0.999634,0.987294,0.004600,0.450944,0.000007,-0.000004,0.000012,0.000015,-0.000012,32.595229,0.000016,
2431,2668,3.75011987461696,0.516075420645507,-0.0297464746120681,0.002592,-0.000615,0.001483,0.113303,0.005935,320.115474,24.315384,0.999495,0.990023,0.004214,0.341678,-0.000010,-0.000020,-0.000017,0.000003,-0.000033,-36.740496,0.000037,
2506,2833,5.351825475871,4.11348913144545,-0.0186545785023213,0.002879,-0.000139,0.002089,0.124062,0.015305,317.702455,24.914724,0.999559,0.989431,0.004082,0.391135,-0.000010,0.000001,0.000010,0.000007,-0.000016,59.784980,0.000016,
2446,2713,4.06737844090177,1.4979272800237,-0.0338396954169866,0.002431,0.000077,0.002605,0.101957,0.029507,319.362942,24.435968,0.999752,0.991929,0.003657,0.395713,-0.000008,0.000013,-0.000013,0.000019,-0.000015,-64.043893,0.000020,
2461,2608,4.41742257079641,-0.793865702965007,-0.0123057434676639,0.002868,-0.000648,0.004636,0.113893,0.014634,321.296015,24.013291,0.999000,0.984992,0.004763,0.418517,0.000011,-0.000024,0.000002,0.000011,-0.000024,3.305158,0.000024,
2446,2503,4.11235289452063,-3.08785483797867,-0.00368606957641759,0.002571,-0.000001,-0.001545,0.123622,0.009720,323.053842,23.633297,0.999551,0.988170,0.004249,0.437268,0.000006,-0.000020,-0.000003,0.000006,-0.000021,-6.982656,0.000021,
2416,2368,3.4853466623905,-6.04016558896434,0.00820793789313257,0.002562,-0.000198,0.001114,0.113254,0.007391,325.282624,23.293398,0.999039,0.983222,0.004959,0.394315,0.000008,-0.000008,0.000015,0.000017,-0.000017,30.580532,0.000019,
2416,2593,3.43838739987675,-1.12166192419324,-0.0223059528557314,0.002341,-0.000485,0.001817,0.100589,-0.007488,321.363618,24.031594,0.999590,0.990695,0.003912,0.376827,0.000001,-0.000014,0.000000,0.000001,-0.000014,0.986035,0.000016,
2446,2308,4.15238065988778,-7.35078670724773,0.00234768211203118,0.003098,0.000169,-0.001107,0.146052,0.023238,326.287262,23.108368,0.999213,0.979441,0.005437,0.276326,0.000004,-0.000011,-0.000016,0.000014,-0.000021,-32.875341,0.000021,
2401,2503,3.13029467641809,-3.08661085434161,-0.0141273420680932,0.002955,-0.000185,0.001663,0.129460,0.011796,322.904429,23.832422,0.999474,0.989112,0.004233,0.334186,0.000004,-0.000014,0.000010,0.000009,-0.000018,24.252951,0.000018,
2506,2848,5.34852534072861,4.44039897988446,-0.0170416417869319,0.002602,-0.000570,0.002736,0.108680,-0.000848,317.455391,25.031968,0.999697,0.991799,0.003596,0.318606,-0.000013,0.000005,0.000002,0.000006,-0.000013,83.836127,0.000014,
2431,2428,3.79986763681341,-4.72585281324982,-0.00677403693828182,0.002723,-0.000464,-0.000365,0.125974,-0.020972,324.220067,23.522815,0.999451,0.986065,0.004762,0.291979,0.000003,0.000003,0.000012,0.000015,-0.000009,44.788471,0.000015,
2461,2623,4.41392069065839,-0.464620267902177,-0.0260673386725898,0.003074,0.000065,-0.000958,0.144660,0.010299,320.966949,24.134849,0.999455,0.988604,0.004126,0.348079,0.000009,-0.000025,-0.000006,0.000010,-0.000026,-9.332253,0.000026,
2431,2683,3.74764830686211,0.842965557935621,-0.0307633723970753,0.002859,0.000006,-0.002386,0.140092,0.007577,319.889698,24.343112,0.999510,0.989083,0.004184,0.365915,-0.000009,-0.000005,-0.000011,0.000004,-0.000018,-50.774280,0.000019,
2446,2518,4.1088143725975,-2.76040955754311,-0.00353282723978054,0.002486,-0.000687,0.004113,0.098403,-0.006659,322.786444,23.686334,0.999344,0.985661,0.004549,0.421290,0.000007,-0.000019,-0.000001,0.000008,-0.000019,-2.529614,0.000019,
2446,2728,4.06506080997293,1.82291108580575,-0.0289688885515602,0.002694,-0.000801,0.002409,0.114358,-0.023249,319.172903,24.404564,0.999693,0.991868,0.003623,0.426491,-0.000009,0.000007,-0.000011,0.000013,-0.000015,-62.822812,0.000016,
2416,2608,3.43578305938466,-0.793910848971798,-0.0268986997451748,0.002817,-0.000254,-0.001143,0.133355,0.003422,321.113969,24.074023,0.999474,0.988855,0.004151,0.393818,-0.000002,-0.000018,-0.000005,-0.000001,-0.000019,-17.186699,0.000023,
2416,2383,3.48341225570384,-5.71178232910857,0.0135637035755281,0.002978,-0.000134,-0.001057,0.140284,-0.003030,325.111202,23.430846,0.999708,0.987560,0.004381,0.295407,0.000009,-0.000013,0.000006,0.000011,-0.000015,14.100769,0.000015,
2401,2518,3.12753549933214,-2.76056717294781,-0.0143376089168328,0.002980,0.000002,-0.000116,0.137136,0.021730,322.667674,23.727519,0.999487,0.988003,0.004413,0.495458,0.000002,-0.000015,0.000008,0.000006,-0.000018,21.815915,0.000019,
2446,2743,4.0628028459693,2.14903511813058,-0.0169135520835084,0.002666,-0.001049,0.005051,0.103126,-0.026428,319.018290,24.489516,0.999651,0.990875,0.003741,0.390404,-0.000007,0.000003,-0.000014,0.000012,-0.000017,-54.832799,0.000017,
2431,2443,3.79677600588555,-4.39801626341739,-0.00856273946845931,0.002932,-0.000363,0.001892,0.127299,0.006319,323.963136,23.525475,0.999253,0.985304,0.004815,0.368021,0.000005,-0.000019,0.000011,0.000009,-0.000023,22.290665,0.000023,
2446,2533,4.10631918677666,-2.43045932960892,-0.0080878630855068,0.002958,0.000233,-0.001014,0.139527,0.018095,322.544666,23.890475,0.999319,0.986798,0.004533,0.295089,0.000009,-0.000021,-0.000003,0.000010,-0.000022,-6.404318,0.000022,
2416,2398,3.47966554583798,-5.38395435554325,0.00254145831587493,0.003057,-0.000315,-0.001080,0.143919,-0.002367,324.780175,23.354126,0.999628,0.987020,0.004530,0.422591,0.000009,-0.000005,0.000012,0.000016,-0.000011,29.740278,0.000016,
2446,2758,4.0590122903579,2.47728229246071,-0.0303303310155343,0.002710,-0.000317,0.001839,0.117472,0.001213,318.675171,24.540552,0.999616,0.989406,0.003985,0.419839,-0.000004,0.000002,-0.000016,0.000016,-0.000018,-49.523994,0.000019,
2401,2533,3.12497029914077,-2.43163886774363,-0.0138193817406886,0.003166,0.000344,-0.001845,0.152070,0.025547,322.442682,23.904551,0.999406,0.988460,0.004475,0.368697,0.000000,-0.000016,0.000005,0.000001,-0.000018,15.562342,0.000020,
2431,2458,3.79383668797538,-4.06997874241587,-0.0117101292085522,0.003021,0.000316,-0.000563,0.140708,0.028039,323.706821,23.544639,0.999379,0.985721,0.004788,0.422171,0.000003,-0.000018,0.000007,0.000004,-0.000020,16.251813,0.000021,
2446,2548,4.10279012174699,-2.10290600266421,-0.0133978535769188,0.002945,0.000162,-0.000016,0.135214,0.030509,322.252287,23.886063,0.999606,0.989185,0.004126,0.365433,0.000015,-0.000032,-0.000008,0.000016,-0.000034,-9.209969,0.000034,
2431,2473,3.79108190649939,-3.74278241200967,-0.00443488318450136,0.002816,0.000005,0.001455,0.123768,0.017031,323.507455,23.620946,0.999292,0.985273,0.004762,0.385849,-0.000004,-0.000029,0.000006,-0.000002,-0.000030,12.763015,0.000036,
