Image X[Pixel],Image Y[Pixel],X[mm],Y[mm],Z[mm],Horizontal Displacement U[mm],Vertical Displacement V[mm],Out-Of-Plane: W[mm],Horizontal: u[Pixel],Vertical: v[Pixel],Horizontal: q[Pixel],Vertical: r[Pixel],Correlation Value 2D,Correlation Value Persp,Sigma,Epipolar Distance,Strain-global frame: Exx,Strain-global frame: Eyy,Strain-global frame: Exy,Maximum Principal Strain: EI,Minimum Principal Strain: EII,Shear Angle Gamma,Von Mises Equivalent Strain,
2011,1993,-5.27989933941526,-14.2523106370844,0.035285136517814,0.004763,-0.000076,0.004870,0.205286,0.055074,332.645845,24.944780,0.998721,0.981771,0.005384,0.382676,0.000057,-0.000206,-0.000059,0.000069,-0.000218,-12.036011,0.000223,
2026,2068,-4.963751264663,-12.6089234142289,0.0350277852039653,0.004874,-0.000554,0.006041,0.206932,0.048811,331.352401,24.745224,0.999716,0.992046,0.003691,0.440350,0.000024,-0.000064,-0.000004,0.000024,-0.000064,-2.338502,0.000065,
2011,2008,-5.28316078225738,-13.9219355771028,0.0270859023723915,0.004503,-0.001139,0.010989,0.176507,0.046249,332.308921,24.977066,0.998790,0.984000,0.005131,0.334012,0.000073,-0.000081,-0.000003,0.000073,-0.000081,-1.155848,0.000089,
2026,2083,-4.9667020163291,-12.2797606321991,0.0329076922502054,0.004457,-0.000993,0.009727,0.177604,0.043596,331.065226,24.761020,0.999274,0.986662,0.004630,0.413139,0.000011,-0.000035,-0.000001,0.000011,-0.000035,-1.605162,0.000036,
2041,2143,-4.64859119607341,-10.9644292255954,0.0221869040469187,0.004824,-0.000115,0.002989,0.213105,0.063084,329.960078,24.630516,0.998386,0.980214,0.005883,0.453988,-0.000020,0.000005,-0.000004,0.000005,-0.000021,-80.128900,0.000022,
2011,2023,-5.28480897624538,-13.5937266574903,0.025303018415741,0.004902,-0.000531,0.007758,0.203770,0.050689,332.081690,24.877797,0.998501,0.983463,0.005317,0.429287,0.000055,-0.000142,-0.000013,0.000056,-0.000143,-3.683753,0.000144,
2026,2098,-4.96848477906099,-11.9502090149519,0.0302677515797427,0.004727,-0.000270,0.004862,0.203529,0.059938,330.828269,24.790555,0.998958,0.981240,0.005360,0.393290,0.000002,-0.000017,0.000004,0.000003,-0.000018,11.027254,0.000019,
2011,2038,-5.28667954201861,-13.2638044828163,0.0166305291567141,0.005489,-0.000184,0.004303,0.240145,0.055107,331.805561,24.862975,0.998312,0.979909,0.005601,0.440410,0.000036,-0.000119,-0.000014,0.000038,-0.000120,-5.050812,0.000123,
2041,2158,-4.6520484991223,-10.6337501089222,0.011667013101146,0.004875,-0.001416,0.013378,0.186281,0.039752,329.604593,24.741945,0.999389,0.986459,0.004747,0.314947,-0.000027,-0.000004,-0.000013,0.000002,-0.000033,-66.216768,0.000037,
2011,2053,-5.28954563135431,-12.93525025189,0.0219008544969483,0.004845,-0.001464,0.010716,0.192948,0.020902,331.562382,24.924362,0.999456,0.991159,0.003905,0.336434,0.000027,-0.000103,-0.000034,0.000036,-0.000111,-13.641087,0.000113,
2026,2113,-4.97115445082479,-11.6210782102391,0.0214830231757901,0.004953,-0.000778,0.007874,0.205531,0.049649,330.516963,24.747461,0.998390,0.977791,0.005970,0.419981,0.000000,-0.000023,0.000001,0.000000,-0.000023,2.821805,0.000026,
2011,2068,-5.29129743742485,-12.6080174097339,0.0296976003068039,0.004713,-0.001173,0.009716,0.189665,0.030626,331.384166,24.854201,0.999450,0.990548,0.003996,0.407346,0.000024,-0.000081,-0.000025,0.000030,-0.000086,-12.538769,0.000088,
2056,2218,-4.33375786572833,-9.32118297825787,0.0160304383437051,0.004698,-0.000056,0.005475,0.200332,0.086941,328.606168,24.607550,0.998533,0.981117,0.005388,0.404875,-0.000011,0.000058,0.000010,0.000059,-0.000013,81.607145,0.000062,
2071,2293,-4.01952635598182,-7.68093369363876,0.00114235198526558,0.004483,-0.000315,0.002684,0.198215,0.044516,327.193804,24.427736,0.999763,0.993164,0.003841,0.466630,0.000005,0.000029,-0.000004,0.000030,0.000005,-79.694810,0.000038,
2026,2128,-4.97370652898823,-11.2917178462932,0.0179859491623802,0.004808,-0.000502,0.007992,0.198649,0.071082,330.240182,24.757369,0.998550,0.976841,0.006146,0.424798,-0.000010,-0.000022,0.000003,-0.000009,-0.000022,12.601159,0.000033,
2266,3268,0.0553846035723318,13.5409889271513,0.0175013460691389,0.005102,-0.000095,0.005253,0.217938,0.043080,310.825411,25.293948,0.999616,0.992684,0.003468,0.469287,0.000010,0.000038,-0.000001,0.000038,0.000010,-88.441158,0.000051,
2086,2368,-3.70425341411403,-6.04169888906275,-0.00320258118654237,0.005116,-0.000297,0.002432,0.228005,0.041376,325.902354,24.359516,0.998443,0.981006,0.005445,0.475715,0.000011,0.000006,-0.000023,0.000031,-0.000015,-42.042451,0.000031,
2011,2083,-5.29379564886504,-12.2778164091431,0.0211067382996362,0.004778,-0.000895,0.007969,0.197453,0.058093,331.079747,24.860737,0.998698,0.981013,0.005457,0.420067,0.000011,-0.000049,-0.000016,0.000015,-0.000053,-13.916838,0.000055,
2131,2593,-2.76267454994258,-1.13011178406629,-0.0207020699804161,0.005050,-0.000480,0.005748,0.215039,0.056222,321.901603,24.311024,0.999431,0.989369,0.004290,0.492323,0.000010,0.000014,0.000000,0.000014,0.000010,-87.781291,0.000025,
2221,3043,-0.881884622077767,8.65885242099334,0.00963692907271252,0.004770,-0.000377,0.005544,0.202030,0.043293,314.521964,24.830144,0.999682,0.993390,0.003314,0.420682,0.000000,0.000013,-0.000006,0.000016,-0.000003,-68.414874,0.000016,
2161,2743,-2.13550638349222,2.13747052302578,-0.0255426507068819,0.005158,-0.000702,0.004590,0.223182,0.024781,319.319908,24.376664,0.999412,0.988615,0.004228,0.466246,0.000010,0.000010,-0.000011,0.000020,-0.000001,-44.651828,0.000023,
2206,2968,-1.19448664053018,7.03019581925526,0.00226977956458541,0.005035,0.000048,0.002469,0.224232,0.052043,315.746388,24.715520,0.999327,0.990615,0.003894,0.415489,0.000002,0.000028,0.000011,0.000032,-0.000002,70.621388,0.000036,
2191,2893,-1.50846648154484,5.40039495820542,-0.010502975529505,0.004738,-0.000336,0.002540,0.210241,0.041538,316.892243,24.576821,0.999742,0.995027,0.003183,0.435894,0.000005,0.000025,0.000012,0.000030,-0.000001,65.144789,0.000035,
2176,2818,-1.82308006856778,3.77111235356983,-0.0293734556413483,0.004463,-0.000103,0.002873,0.196587,0.030335,317.989333,24.540168,0.999352,0.990100,0.004002,0.374588,0.000004,0.000025,-0.000003,0.000025,0.000004,-82.177929,0.000031,
2041,2173,-4.65376061109023,-10.3067274848645,0.015992803314532,0.004807,-0.000798,0.008343,0.197306,0.045517,329.411311,24.654830,0.999383,0.988322,0.004417,0.403025,-0.000029,-0.000010,-0.000010,-0.000006,-0.000033,-67.918648,0.000042,
2251,3193,-0.255084320020554,11.9131402870549,0.0391700285333059,0.004906,-0.000332,0.004182,0.212434,0.033503,312.259007,25.151193,0.999509,0.992003,0.003546,0.410372,0.000005,0.000030,-0.000005,0.000031,0.000004,-78.838926,0.000038,
2101,2443,-3.39007692541445,-4.40395041822276,-0.00115655803415393,0.004905,-0.000728,0.007978,0.202012,0.065791,324.610664,24.319331,0.999269,0.987418,0.004541,0.504308,0.000000,0.000002,-0.000015,0.000016,-0.000014,-46.640283,0.000017,
2041,2188,-4.65643246615101,-9.97839590054483,0.0192312890176254,0.004405,-0.000818,0.012326,0.167812,0.083793,329.167821,24.648080,0.999169,0.985759,0.004818,0.443182,-0.000028,0.000023,0.000003,0.000024,-0.000028,86.144253,0.000030,
2296,2023,0.934645572345914,-13.6033760611456,0.035096761352122,0.005248,-0.001275,0.008072,0.212519,0.028700,331.143865,22.850736,0.998960,0.980873,0.005603,0.514050,-0.000031,0.000067,-0.000005,0.000067,-0.000032,-87.024892,0.000067,
2191,2908,-1.51068506414336,5.72449804919716,-0.00372122306680467,0.004811,-0.000639,0.005322,0.204801,0.038726,316.700075,24.471545,0.999745,0.994777,0.003256,0.552377,0.000005,0.000021,0.000012,0.000027,-0.000001,62.008902,0.000031,
2161,2758,-2.13819438949117,2.46350058488227,-0.0206819056266454,0.004790,-0.000786,0.006669,0.199909,0.039968,319.093736,24.377120,0.999100,0.985858,0.004485,0.490858,0.000008,0.000013,-0.000011,0.000022,-0.000001,-51.009663,0.000024,
2131,2608,-2.76491602642372,-0.803344737100495,-0.0189148076442507,0.004910,-0.000178,0.002367,0.218782,0.037446,321.677463,24.343137,0.999481,0.988568,0.004377,0.447881,0.000013,0.000005,0.000004,0.000015,0.000003,23.503956,0.000019,
2176,2833,-1.82606201381885,4.09723296403867,-0.0363349047780162,0.004458,-0.000104,0.002390,0.197898,0.031572,317.688652,24.494633,0.999650,0.993734,0.003434,0.433541,0.000007,0.000027,0.000003,0.000028,0.000007,82.959127,0.000036,
2221,3058,-0.883526254880014,8.98324934864466,0.0188613614191127,0.005028,-0.000338,0.004330,0.217806,0.040503,314.370392,24.803276,0.999725,0.994090,0.003108,0.462804,0.000003,0.000013,-0.000008,0.000017,-0.000002,-61.100398,0.000019,
2311,2098,1.24744755031596,-11.9543215264612,0.023025071695713,0.004868,-0.000515,0.006559,0.200382,0.066775,329.812017,23.076428,0.999267,0.980540,0.005583,0.403127,-0.000021,0.000032,-0.000004,0.000032,-0.000021,-86.206431,0.000033,
2206,2983,-1.19766262767367,7.35642080793784,-0.000155248959572418,0.004713,0.000076,0.003654,0.205663,0.054255,315.462735,24.755454,0.999386,0.991309,0.003722,0.393818,0.000002,0.000028,0.000010,0.000032,-0.000001,71.236062,0.000036,
2041,2203,-4.658770896432,-9.64931747146598,0.0123506897101038,0.004543,-0.000600,0.009514,0.182051,0.077546,328.883751,24.652719,0.998544,0.982343,0.005382,0.427545,-0.000026,0.000034,0.000005,0.000035,-0.000026,85.712222,0.000036,
2251,3208,-0.258002196150464,12.2377526467744,0.0385881536224701,0.004541,-0.000716,0.001661,0.203737,0.006748,312.000199,25.142465,0.999695,0.994708,0.003214,0.414289,0.000006,0.000027,-0.000004,0.000028,0.000006,-79.142378,0.000036,
2101,2458,-3.39244831275787,-4.0756450322679,-0.00902000638751588,0.005196,-0.000186,0.004679,0.225252,0.083614,324.325774,24.317540,0.999319,0.988011,0.004384,0.526611,0.000003,-0.000002,-0.000022,0.000022,-0.000022,-41.885007,0.000026,
2296,2038,0.932235929883138,-13.2717406594441,0.037001916004499,0.005059,-0.000218,0.003113,0.220996,0.047583,330.925583,23.100731,0.999250,0.983556,0.005088,0.316272,-0.000031,0.000055,-0.000012,0.000056,-0.000032,-82.002194,0.000056,
2191,2923,-1.51289200783767,6.05193069144916,-0.00518024560523145,0.005236,-0.000381,0.004654,0.226545,0.036134,316.464476,24.616711,0.999319,0.990938,0.003888,0.418665,0.000004,0.000023,0.000011,0.000028,-0.000001,64.135109,0.000032,
2161,2773,-2.14093334307518,2.7907262944931,-0.0270490598975925,0.004939,-0.000617,0.005926,0.209083,0.035043,318.805745,24.423315,0.999418,0.989677,0.004025,0.450063,0.000010,0.000011,-0.000009,0.000020,0.000001,-45.672766,0.000024,
2311,2113,1.2452430423912,-11.626971103534,0.0273541066820826,0.004964,-0.000754,0.005075,0.209748,0.038675,329.616742,23.036714,0.999215,0.981118,0.005411,0.449731,-0.000019,0.000025,-0.000005,0.000025,-0.000020,-82.940034,0.000027,
2176,2848,-1.82766937434775,4.42231875493435,-0.0224007900143874,0.004672,-0.000488,0.005714,0.197402,0.049796,317.560782,24.498407,0.999366,0.991274,0.003718,0.459985,0.000008,0.000030,0.000010,0.000034,0.000004,69.069716,0.000041,
2221,3073,-0.886283199924545,9.30895855297826,0.0194438473563423,0.004797,-0.000401,0.003353,0.210236,0.020336,314.122679,24.861900,0.999599,0.992864,0.003380,0.401876,0.000003,0.000021,-0.000004,0.000021,0.000002,-77.547444,0.000026,
2206,2998,-1.20030908617894,7.68170629484113,0.00046147018076681,0.004816,-0.000294,0.006391,0.201703,0.058250,315.219423,24.732174,0.999441,0.991024,0.003782,0.437110,-0.000001,0.000025,0.000006,0.000026,-0.000002,77.035255,0.000029,
2131,2623,-2.76737677484763,-0.476949504150816,-0.0144103914814764,0.004878,-0.000582,0.006677,0.204335,0.046285,321.457786,24.341270,0.999502,0.989096,0.004215,0.464767,0.000013,-0.000002,-0.000001,0.000014,-0.000002,-3.759700,0.000015,
2041,2218,-4.66081572141659,-9.32110855567903,0.00910676376150832,0.004782,-0.000200,0.007223,0.199521,0.067661,328.633373,24.625609,0.997968,0.975792,0.005985,0.439782,-0.000025,0.000055,0.000008,0.000056,-0.000026,84.207440,0.000056,
2251,3223,-0.259985995904916,12.5624308313972,0.0492599348554563,0.004630,-0.000457,0.003695,0.201319,0.025194,311.841473,25.162881,0.999655,0.994197,0.003300,0.434228,0.000008,0.000035,-0.000003,0.000035,0.000008,-82.792389,0.000046,
2146,2668,-2.44848256349457,0.503674962681757,-0.0195291919175133,0.005071,-0.000015,0.001117,0.230009,0.046060,320.650632,24.308083,0.999645,0.991223,0.003703,0.510240,0.000013,0.000004,-0.000007,0.000016,0.000001,-28.677719,0.000019,
2056,2233,-4.3361030943421,-8.99245162628095,0.00616580902993746,0.005171,-0.000314,0.004661,0.224309,0.058422,328.307092,24.583910,0.999263,0.987273,0.004650,0.397464,-0.000016,0.000063,0.000002,0.000063,-0.000016,88.827749,0.000066,
2266,3283,0.0518244899648543,13.8662336166648,0.00637795409755881,0.004899,-0.000229,0.002933,0.216243,0.029476,310.484429,25.293829,0.999534,0.992300,0.003444,0.479894,0.000005,0.000051,-0.000001,0.000051,0.000005,-88.335136,0.000062,
2011,2098,-5.29647338492532,-11.9476171398578,0.0152549659531473,0.004448,-0.000145,0.005308,0.189746,0.075416,330.782500,24.913846,0.998350,0.977732,0.005941,0.375852,0.000004,-0.000032,-0.000011,0.000007,-0.000035,-15.229993,0.000037,
2311,2128,1.24241576133122,-11.2962440961144,0.0255178272039416,0.004783,-0.000311,0.001741,0.212978,0.030931,329.362217,23.222921,0.999248,0.983605,0.005082,0.291181,-0.000015,0.000028,-0.000005,0.000028,-0.000016,-83.272041,0.000028,
2056,2248,-4.33836908266975,-8.66516622436663,0.00891091844795255,0.005042,-0.000543,0.005430,0.216145,0.044423,328.081094,24.549680,0.999135,0.984763,0.004895,0.414432,-0.000018,0.000062,-0.000009,0.000063,-0.000019,-83.945462,0.000064,
2341,2248,1.87330335903319,-8.66643146119123,0.00897196010447487,0.004938,-0.001113,0.010733,0.188547,0.045578,327.254927,23.231375,0.998979,0.981441,0.005267,0.439743,-0.000007,-0.000015,-0.000014,0.000003,-0.000025,-37.512305,0.000028,
2086,2383,-3.70754156209694,-5.71314435529246,-0.00435282189380359,0.004459,-0.000653,0.005885,0.187779,0.041691,325.610505,24.435049,0.998396,0.979998,0.005526,0.401290,0.000013,0.000009,-0.000024,0.000036,-0.000013,-42.947173,0.000036,
2146,2683,-2.45182375782792,0.830854000451296,-0.0228746781052109,0.004898,-0.001057,0.008166,0.200377,0.025759,320.349850,24.360136,0.999389,0.989907,0.003920,0.446359,0.000014,0.000004,-0.000011,0.000021,-0.000003,-32.074200,0.000023,
2266,3298,0.0496082931758828,14.1919741429041,0.0123614410926507,0.004919,-0.000044,0.002188,0.219705,0.032572,310.291459,25.419796,0.999578,0.993096,0.003405,0.380705,0.000002,0.000050,-0.000008,0.000051,0.000001,-80.668472,0.000059,
2011,2113,-5.29762272602752,-11.6208231929879,0.0229614983564375,0.004954,-0.000500,0.004680,0.214613,0.050919,330.631622,24.851705,0.998369,0.979422,0.005850,0.404109,0.000001,-0.000037,-0.000012,0.000005,-0.000041,-16.562519,0.000045,
2326,2173,1.56032017390582,-10.3088774341997,0.0191289932922132,0.004593,-0.000574,0.010118,0.175377,0.078719,328.538679,23.231716,0.998832,0.978131,0.005540,0.356277,-0.000017,-0.000009,-0.000015,0.000003,-0.000029,-53.031661,0.000032,
2356,2323,2.18613394041269,-7.02527700019399,0.00727867953253281,0.004629,-0.000869,0.009856,0.177267,0.046975,326.019213,23.301402,0.999744,0.993867,0.003677,0.507868,-0.000007,-0.000005,0.000000,-0.000005,-0.000007,-75.423884,0.000013,
2056,2263,-4.34081072536124,-8.33633869013079,0.00450259483181981,0.005209,-0.000617,0.006570,0.220608,0.055420,327.807371,24.563281,0.999138,0.983385,0.005227,0.409241,-0.000016,0.000044,-0.000005,0.000045,-0.000016,-85.502971,0.000045,
2281,1993,0.612315766905308,-14.2588755409273,0.0365651565043663,0.005035,-0.000289,0.006792,0.207685,0.075045,331.646663,23.117867,0.999371,0.968029,0.006795,0.331997,-0.000026,0.000074,-0.000017,0.000077,-0.000029,-80.517829,0.000077,
2341,2263,1.87046782185805,-8.33803920419117,0.0108203516625167,0.004564,-0.000518,0.008110,0.180782,0.055120,327.020260,23.275242,0.999061,0.982391,0.005169,0.444432,-0.000011,-0.000008,-0.000017,0.000008,-0.000027,-47.897247,0.000028,
2011,2128,-5.30000500958802,-11.2906475918846,0.0172323848802307,0.005220,-0.000443,0.007077,0.220363,0.073706,330.348548,24.909966,0.998344,0.978453,0.006030,0.359855,-0.000007,-0.000031,-0.000011,-0.000003,-0.000035,-21.183924,0.000042,
2311,2143,1.24008591609583,-10.9676686994539,0.0269127444369133,0.005138,-0.000233,0.002382,0.227138,0.055105,329.146339,23.221232,0.999318,0.983677,0.005161,0.351867,-0.000014,0.000020,-0.000007,0.000021,-0.000016,-79.083239,0.000022,
2086,2398,-3.70960074852497,-5.38625900977431,-0.00228993214903994,0.004587,-0.000751,0.005644,0.194363,0.044879,325.392667,24.390802,0.998823,0.982997,0.005062,0.449324,0.000012,-0.000002,-0.000025,0.000031,-0.000020,-37.047538,0.000031,
2146,2698,-2.45467106369165,1.15814082661107,-0.028847057456062,0.004830,-0.000556,0.006788,0.201666,0.054183,320.057598,24.357024,0.999421,0.989451,0.004022,0.486250,0.000014,0.000001,-0.000012,0.000021,-0.000006,-30.220748,0.000022,
2056,2278,-4.34356300696207,-8.00713660775273,0.00545868617678025,0.004835,-0.000485,0.009259,0.195945,0.063000,327.548850,24.674562,0.999657,0.990856,0.004169,0.302491,-0.000016,0.000021,-0.000010,0.000023,-0.000018,-75.821876,0.000025,
2281,2008,0.609992616809105,-13.9299060311574,0.0353236158837262,0.005372,-0.000117,0.005339,0.228012,0.081136,331.415878,23.090845,0.999273,0.982225,0.005349,0.396522,-0.000025,0.000063,-0.000005,0.000063,-0.000026,-86.802765,0.000064,
2011,2143,-5.30191983179224,-10.9621045069885,0.00996370445386674,0.005764,-0.000174,0.004909,0.251307,0.088126,330.078581,24.817398,0.998199,0.978322,0.005926,0.458209,0.000002,-0.000004,-0.000016,0.000015,-0.000017,-40.302316,0.000019,
2356,2338,2.183367584325,-6.69490466519131,0.00265935987010835,0.004805,-0.000228,0.006452,0.197542,0.070986,325.757218,23.473591,0.999415,0.988430,0.004466,0.400617,-0.000003,0.000000,-0.000001,0.000000,-0.000003,-72.357003,0.000004,
2326,2188,1.55879976932307,-9.98238778852451,0.0259059682338716,0.004935,-0.000428,0.004999,0.208724,0.049135,328.387698,23.166170,0.999092,0.981586,0.005271,0.428666,-0.000018,-0.000005,-0.000014,0.000003,-0.000026,-57.436563,0.000029,
2056,2293,-4.34542834649101,-7.68165396025726,0.00999117354336931,0.004797,-0.000685,0.006852,0.200914,0.051213,327.351398,24.506368,0.999841,0.994053,0.003601,0.455325,-0.000001,0.000031,-0.000004,0.000031,-0.000001,-82.358391,0.000035,
2341,2278,1.86720175112285,-8.00927088218089,0.00645839959418026,0.004310,-0.000320,0.006433,0.175042,0.054688,326.735775,23.305549,0.998964,0.982346,0.005229,0.452861,-0.000012,-0.000001,-0.000018,0.000013,-0.000026,-53.224498,0.000026,
2281,2023,0.606527263406537,-13.6008343481665,0.0319452007082646,0.004922,-0.000517,0.006545,0.203297,0.056229,331.122384,23.085853,0.999106,0.981333,0.005498,0.408284,-0.000026,0.000072,0.000006,0.000072,-0.000026,86.536565,0.000073,
2086,2413,-3.71194552888654,-5.0597801505519,0.00267939253501481,0.004420,-0.001182,0.008133,0.179387,0.016079,325.177773,24.373551,0.998819,0.984023,0.004884,0.438393,0.000016,-0.000009,-0.000024,0.000030,-0.000023,-31.191277,0.000032,
2011,2158,-5.30475454623431,-10.6331489984188,0.0107452240021075,0.005220,-0.000913,0.007704,0.218578,0.047538,329.811836,24.909496,0.998226,0.977942,0.006095,0.316474,-0.000012,-0.000009,-0.000026,0.000016,-0.000037,-46.719973,0.000037,
2311,2158,1.2369979952457,-10.6407416805378,0.0300622102038233,0.004943,-0.001306,0.007610,0.200009,0.040399,328.904723,23.131945,0.999393,0.985502,0.005025,0.461613,-0.000018,0.000002,-0.000015,0.000010,-0.000026,-62.155649,0.000026,
2146,2713,-2.45755597894372,1.4849338655161,-0.0263218198365394,0.004364,-0.000502,0.008407,0.175319,0.058318,319.808863,24.407073,0.999512,0.990986,0.003969,0.448254,0.000018,0.000000,-0.000012,0.000024,-0.000006,-27.257270,0.000025,
2101,2473,-3.39510441707504,-3.74842886144399,-0.00847294824518485,0.005099,-0.000844,0.008109,0.210535,0.040645,324.073706,24.360195,0.999300,0.988528,0.004338,0.443593,0.000007,-0.000001,-0.000018,0.000021,-0.000015,-38.623847,0.000022,
2296,2053,0.929496570366737,-12.9429364933958,0.0368502224158078,0.005362,-0.000703,0.007455,0.220116,0.049639,330.682424,23.091870,0.999243,0.982361,0.005137,0.360607,-0.000031,0.000045,-0.000014,0.000047,-0.000033,-80.041666,0.000049,
2356,2353,2.18099530462197,-6.36979365710587,0.00352129376727817,0.005017,-0.000481,0.004317,0.214661,0.041094,325.540606,23.277536,0.999461,0.988701,0.004549,0.607215,0.000002,-0.000012,0.000004,0.000003,-0.000013,15.197362,0.000014,
2161,2788,-2.14293579695458,3.1168341443931,-0.0220097111460973,0.005018,-0.000292,0.004590,0.216967,0.045115,318.611929,24.445611,0.999526,0.990066,0.004054,0.447922,0.000007,0.000021,-0.000003,0.000022,0.000006,-79.381353,0.000029,
2011,2173,-5.30704452795873,-10.305791581884,0.0116984014430841,0.004811,-0.000480,0.004012,0.209964,0.032789,329.571127,24.837142,0.998703,0.984408,0.005375,0.364968,-0.000009,-0.000005,-0.000026,0.000019,-0.000033,-46.840447,0.000033,
2206,3013,-1.20267062338496,8.00661431081071,0.00776206983363181,0.004613,-0.000474,0.007256,0.189474,0.038815,315.023933,24.746312,0.999398,0.990821,0.003787,0.419283,-0.000001,0.000020,0.000000,0.000020,-0.000001,89.681869,0.000023,
2086,2428,-3.71436935715169,-4.73144653284696,0.000282879460201002,0.004522,-0.000771,0.008660,0.182709,0.036936,324.918664,24.411298,0.999081,0.985968,0.004649,0.421923,0.000013,-0.000004,-0.000014,0.000021,-0.000012,-29.758064,0.000021,
2131,2638,-2.76892916090749,-0.151799052463616,0.0010504134604048,0.004646,-0.000691,0.005027,0.198569,0.044780,321.338528,24.332050,0.999726,0.991951,0.003616,0.478278,0.000013,-0.000001,-0.000002,0.000014,-0.000001,-8.730806,0.000015,
2146,2728,-2.45930793296363,1.81045173847593,-0.0204427327085455,0.004474,-0.000221,0.005040,0.190679,0.049789,319.630240,24.383668,0.999502,0.989519,0.004115,0.471319,0.000017,0.000005,-0.000010,0.000023,-0.000001,-29.401065,0.000026,
2296,2068,0.926655604737782,-12.6142114766848,0.038334057704958,0.005148,-0.000738,0.007810,0.209113,0.050219,330.442663,23.100915,0.999277,0.982078,0.005169,0.385545,-0.000028,0.000026,-0.000011,0.000028,-0.000031,-78.567017,0.000034,
2101,2488,-3.39775045377779,-3.42173236498782,-0.0108396062250335,0.004803,-0.000624,0.005443,0.204787,0.033773,323.806376,24.297480,0.999211,0.988694,0.004272,0.502154,0.000009,0.000003,-0.000014,0.000020,-0.000008,-39.008422,0.000020,
2011,2188,-5.31166551970965,-9.97444526753861,-0.00846613655676265,0.003739,-0.000822,0.006927,0.152735,0.037813,329.105061,24.892108,0.999501,0.991480,0.004296,0.306874,-0.000007,0.000040,-0.000009,0.000042,-0.000009,-79.098776,0.000044,
2356,2368,2.177637600855,-6.03957455680143,0.00240600609714647,0.004870,-0.000544,0.007856,0.195528,0.069519,325.268207,23.476536,0.999080,0.984244,0.004963,0.477358,0.000003,-0.000008,0.000008,0.000008,-0.000012,29.151724,0.000013,
2086,2443,-3.71720340946639,-4.4028955540601,-0.00938422139876138,0.004485,-0.000595,0.006145,0.188303,0.041104,324.601327,24.422920,0.999216,0.987333,0.004575,0.415324,0.000010,0.000002,-0.000016,0.000022,-0.000011,-37.530584,0.000022,
2206,3028,-1.20516224489248,8.3318509250968,0.0105033049737244,0.004615,-0.000696,0.008381,0.185941,0.029024,314.798734,24.753886,0.999593,0.992710,0.003526,0.417580,0.000001,0.000017,-0.000004,0.000018,0.000001,-77.725363,0.000021,
2161,2803,-2.14517924946949,3.44298158845987,-0.0187605687027599,0.004919,0.000025,0.002368,0.219358,0.058097,318.397604,24.458635,0.999576,0.991223,0.003825,0.457896,0.000008,0.000018,-0.000005,0.000020,0.000006,-67.854360,0.000027,
2131,2653,-2.77163524538229,0.175979262784232,-0.0108374195285705,0.005027,-0.000399,0.002928,0.222481,0.039195,321.019857,24.341254,0.999671,0.990787,0.003771,0.469920,0.000011,0.000008,-0.000001,0.000012,0.000008,-23.896923,0.000019,
2011,2203,-5.31196824687146,-9.64840504786729,0.00154901690359566,0.004987,-0.000695,0.006712,0.210712,0.069192,329.005810,24.759816,0.999532,0.991554,0.004235,0.460587,-0.000001,0.000049,-0.000012,0.000052,-0.000003,-77.105288,0.000058,
2146,2743,-2.4611045542678,2.13615832338044,-0.0154415839242574,0.004895,-0.000550,0.006096,0.206757,0.034573,319.444881,24.380921,0.999544,0.989620,0.004111,0.466677,0.000014,0.000010,-0.000011,0.000023,0.000001,-40.826246,0.000027,
2101,2503,-3.40023457471044,-3.09356893637815,-0.0134079660290354,0.004796,-0.000490,0.004405,0.207594,0.047283,323.544927,24.352020,0.999214,0.988560,0.004242,0.463469,0.000017,0.000021,-0.000009,0.000028,0.000010,-51.011957,0.000039,
2296,2083,0.922954845480458,-12.2837125317745,0.0323771322679818,0.004754,-0.000859,0.009743,0.184524,0.065257,330.126547,23.180654,0.999321,0.982468,0.005169,0.354595,-0.000024,0.000033,-0.000009,0.000034,-0.000026,-81.712659,0.000036,
2086,2458,-3.71956125893382,-4.07617815808387,-0.00770438475024093,0.004586,-0.000883,0.009710,0.182623,0.057441,324.367773,24.366217,0.999335,0.988469,0.004398,0.488903,0.000013,-0.000005,-0.000024,0.000030,-0.000021,-34.393958,0.000031,
2206,3043,-1.20707751582792,8.65736316463958,0.0163327357631147,0.004634,-0.000287,0.004492,0.199333,0.042304,314.615872,24.787698,0.999805,0.994885,0.003113,0.413213,0.000002,0.000015,-0.000006,0.000018,0.000000,-69.494929,0.000020,
2011,2218,-5.31384856359319,-9.32048097646722,0.00849748284366569,0.004938,-0.000528,0.007925,0.205251,0.067293,328.817207,24.804696,0.999025,0.986696,0.004913,0.404201,-0.000002,0.000057,-0.000015,0.000061,-0.000006,-76.879951,0.000067,
2356,2383,2.17443188017199,-5.70991686264725,-0.00393750809075755,0.004823,-0.000546,0.005539,0.201502,0.038258,324.977921,23.638562,0.999247,0.981389,0.005194,0.324952,0.000008,-0.000010,0.000004,0.000008,-0.000010,11.209866,0.000011,
2161,2818,-2.14758553711571,3.769575392851,-0.0132700034487812,0.004811,-0.000276,0.004597,0.207427,0.041267,318.187550,24.563397,0.999716,0.993120,0.003416,0.346136,0.000012,0.000025,-0.000004,0.000026,0.000011,-73.829639,0.000038,
2131,2668,-2.7721835388395,0.499643133197331,0.00883296087533836,0.005472,0.000018,0.000583,0.250140,0.054426,320.969459,24.220665,0.999717,0.991279,0.003707,0.611452,0.000010,0.000003,-0.000004,0.000012,0.000001,-25.359005,0.000015,
2146,2758,-2.4640365667875,2.46286067109882,-0.0159245168038638,0.004527,-0.000774,0.006821,0.187566,0.030147,319.178066,24.419484,0.999461,0.989991,0.003924,0.431450,0.000011,0.000012,-0.000012,0.000023,-0.000001,-45.839816,0.000026,
2116,2518,-3.07674733712625,-2.76615309863168,-0.0138571964283187,0.004686,-0.000943,0.007324,0.193571,0.033465,323.215811,24.331774,0.999171,0.986892,0.004511,0.444202,0.000023,0.000023,-0.000006,0.000029,0.000017,-46.052222,0.000046,
2326,2203,1.55556747004128,-9.65293448458097,0.019972765751902,0.004806,-0.000466,0.003330,0.208546,0.042365,328.095928,23.219994,0.999182,0.981511,0.005418,0.405543,-0.000020,-0.000001,-0.000016,0.000008,-0.000030,-60.351391,0.000031,
2281,2038,0.60281948742421,-13.2698188390159,0.0228828274342163,0.004737,-0.000926,0.008789,0.187226,0.056012,330.789179,23.175541,0.999255,0.984036,0.005055,0.350225,-0.000023,0.000061,-0.000001,0.000061,-0.000023,-89.452307,0.000061,
2026,2143,-4.97522149070479,-10.9636541904366,0.0174275674216915,0.005338,0.000199,0.005140,0.231014,0.099762,330.027285,24.679092,0.998289,0.977457,0.005975,0.525052,-0.000006,0.000004,-0.000007,0.000007,-0.000010,-64.099015,0.000010,
2101,2518,-3.40322916622365,-2.76624959721002,-0.0160682027130292,0.004532,-0.001079,0.007239,0.187004,0.024378,323.259949,24.370037,0.999612,0.992000,0.003703,0.424875,0.000019,0.000025,0.000000,0.000025,0.000019,-86.787107,0.000044,
2356,2398,2.17200113104909,-5.38356975102201,0.00282421097671204,0.004679,-0.000552,0.005291,0.195810,0.049791,324.786455,23.586060,0.999498,0.986200,0.004687,0.429303,0.000009,-0.000007,0.000003,0.000009,-0.000007,10.299945,0.000010,
2191,2938,-1.51540838002044,6.37678256473506,0.00362958352121723,0.004795,-0.000814,0.006196,0.201273,0.029348,316.268954,24.605708,0.999379,0.991959,0.003737,0.436710,0.000004,0.000026,0.000011,0.000030,0.000000,67.415177,0.000034,
2341,2293,1.8648579233155,-7.68057816611531,0.00790268667265082,0.004805,-0.000547,0.008245,0.191406,0.074610,326.521496,23.372629,0.999073,0.984526,0.004892,0.444207,-0.000012,-0.000001,-0.000010,0.000005,-0.000018,-59.934366,0.000019,
2116,2533,-3.07962227885882,-2.43925094580732,-0.0139856135656373,0.004286,-0.000792,0.008311,0.172354,0.047076,322.951149,24.303141,0.999030,0.985360,0.004826,0.490940,0.000018,0.000028,-0.000002,0.000028,0.000017,-80.784904,0.000046,
2281,2053,0.599892084536737,-12.9413696810088,0.0218049071521023,0.004621,-0.001022,0.009573,0.179295,0.062881,330.531506,23.120016,0.999061,0.981990,0.005253,0.444154,-0.000025,0.000050,-0.000003,0.000050,-0.000025,-87.886188,0.000050,
2026,2158,-4.97783239094076,-10.6343092706921,0.0191250545189519,0.005150,-0.001142,0.010449,0.207507,0.046579,329.777075,24.828738,0.999292,0.986069,0.004728,0.315286,-0.000013,-0.000007,-0.000017,0.000007,-0.000028,-50.040418,0.000029,
2326,2218,1.55294924953289,-9.3245837322501,0.0156920911364864,0.005189,-0.000577,0.002064,0.230428,0.029618,327.840444,23.202261,0.998831,0.978786,0.005711,0.447511,-0.000018,-0.000004,-0.000018,0.000008,-0.000030,-56.348886,0.000031,
2101,2533,-3.40662616126654,-2.43855864953889,-0.0239847695039543,0.004022,-0.000780,0.007285,0.163534,0.043884,322.927930,24.338109,0.999489,0.990630,0.003989,0.479004,0.000013,0.000031,0.000005,0.000032,0.000012,75.475024,0.000045,
2356,2413,2.16925376736525,-5.05506619085409,-0.000969315649342661,0.005081,-0.000476,0.005520,0.213494,0.038733,324.529432,23.657299,0.999731,0.989556,0.004216,0.387286,0.000005,-0.000002,0.000005,0.000008,-0.000005,27.165980,0.000008,
2341,2308,1.86257235490841,-7.35333007258341,0.0167992252904696,0.004703,-0.001029,0.008976,0.184019,0.052383,326.346280,23.429082,0.998590,0.980148,0.005294,0.403975,-0.000011,-0.000003,-0.000001,-0.000003,-0.000012,-81.715932,0.000015,
2191,2953,-1.51820098989314,6.70255852235164,0.00580413417151249,0.004483,-0.000576,0.007007,0.184481,0.040326,316.025866,24.618614,0.999325,0.991351,0.003793,0.448571,0.000004,0.000023,0.000010,0.000028,0.000000,66.359395,0.000032,
2026,2173,-4.97992216432279,-10.3068176618305,0.0194896302123198,0.004938,-0.000748,0.005661,0.211029,0.030918,329.543449,24.762981,0.999328,0.987819,0.004443,0.358406,-0.000011,-0.000009,-0.000017,0.000006,-0.000027,-46.276458,0.000028,
2281,2068,0.598365087829997,-12.6119698026942,0.0266052139829185,0.005144,-0.000543,0.005664,0.216449,0.045769,330.367072,23.245623,0.999049,0.982646,0.005145,0.331784,-0.000023,0.000026,-0.000001,0.000026,-0.000023,-88.333307,0.000029,
2116,2548,-3.08227025452473,-2.11134055388562,-0.0226576660113551,0.004471,-0.000357,0.006218,0.187224,0.058310,322.650791,24.298203,0.999160,0.987042,0.004545,0.511885,0.000018,0.000028,0.000004,0.000029,0.000017,69.833163,0.000047,
2326,2233,1.54912578717977,-8.99591342915223,0.0154962758502961,0.004563,-0.001091,0.007401,0.183213,0.036270,327.549453,23.242639,0.998461,0.974295,0.006227,0.450795,-0.000016,-0.000016,-0.000015,-0.000001,-0.000032,-44.968464,0.000037,
2101,2548,-3.40936299516268,-2.11176049712186,-0.030702315976157,0.004088,-0.000594,0.007242,0.166754,0.048458,322.632869,24.255712,0.999679,0.993265,0.003632,0.568383,0.000015,0.000028,0.000010,0.000034,0.000009,61.772869,0.000045,
2026,2188,-4.98273008351022,-9.97831534398649,0.0168023255498611,0.004496,-0.000545,0.005825,0.190353,0.054872,329.259712,24.723159,0.999200,0.986322,0.004755,0.415365,-0.000008,0.000029,0.000000,0.000029,-0.000008,89.770463,0.000030,
2356,2428,2.16646209138715,-4.72904024538229,-0.00448980681170497,0.005296,-0.000342,0.004397,0.227362,0.056282,324.271955,23.481183,0.999483,0.989398,0.004322,0.621604,0.000006,-0.000008,0.000009,0.000011,-0.000012,25.990660,0.000013,
2341,2323,1.85935553838338,-7.02405016188901,0.0076103107736003,0.004866,-0.000713,0.007248,0.197616,0.054408,326.040453,23.471759,0.999201,0.985347,0.004766,0.402143,-0.000011,-0.000008,0.000003,-0.000006,-0.000013,56.787272,0.000020,
2281,2083,0.595297205368315,-12.283733205518,0.0284550665426764,0.004847,-0.000953,0.008767,0.192384,0.047471,330.117505,23.218970,0.999050,0.981219,0.005354,0.391245,-0.000019,0.000032,-0.000001,0.000032,-0.000019,-88.661853,0.000032,
2191,2968,-1.52036830100938,7.02816657145329,0.0044121100090706,0.004752,-0.000500,0.003573,0.207655,0.025329,315.792988,24.621072,0.999218,0.990504,0.003946,0.444903,0.000005,0.000027,0.000011,0.000032,0.000000,66.724207,0.000037,
2116,2563,-3.08424609567819,-1.78422548845068,-0.0179444454890927,0.004728,-0.000505,0.008169,0.193224,0.056595,322.453253,24.356952,0.999280,0.986776,0.004620,0.455318,0.000018,0.000027,0.000002,0.000027,0.000018,80.116398,0.000046,
2026,2203,-4.98528255874542,-9.64913984693569,0.00397786723851823,0.004943,-0.000797,0.006301,0.209505,0.033832,328.931390,24.689124,0.998991,0.984584,0.005101,0.421919,-0.000003,0.000039,0.000001,0.000039,-0.000003,88.243746,0.000043,
2326,2248,1.54620212005095,-8.66666657962723,0.0127798583386607,0.004565,-0.000746,0.006617,0.186156,0.043971,327.287267,23.313853,0.998821,0.979427,0.005510,0.424119,-0.000012,-0.000019,-0.000015,-0.000001,-0.000030,-38.935881,0.000036,
2101,2563,-3.41066507742188,-1.78447312814114,-0.0253701951600647,0.004680,-0.000657,0.004874,0.200893,0.033322,322.468482,24.349190,0.999347,0.988692,0.004273,0.461639,0.000013,0.000027,0.000009,0.000031,0.000009,64.159920,0.000042,
2281,2098,0.592446886933782,-11.9536018298628,0.0204331981630048,0.005007,-0.000522,0.005149,0.211964,0.042762,329.828619,23.268466,0.998630,0.977137,0.005862,0.368490,-0.000016,0.000029,-0.000005,0.000029,-0.000017,-83.475042,0.000029,
2341,2338,1.85725064798594,-6.69667459655729,0.0141447207109877,0.004994,-0.000470,0.006313,0.206847,0.052679,325.861901,23.505073,0.999402,0.986481,0.004731,0.405447,-0.000008,-0.000003,0.000000,-0.000003,-0.000008,-89.346967,0.000011,
2356,2443,2.16390109708358,-4.40088680434292,0.00108431296342815,0.005092,-0.000385,0.003660,0.220605,0.046352,324.068439,23.617894,0.998841,0.982377,0.005198,0.515222,0.000010,-0.000019,0.000009,0.000013,-0.000022,16.127115,0.000022,
2056,2308,-4.34761577432947,-7.3534181954716,0.00998531855378815,0.004918,-0.000430,0.007487,0.204812,0.060755,327.113631,24.527527,0.999672,0.990237,0.004183,0.440591,-0.000002,0.000017,-0.000017,0.000027,-0.000012,-58.706120,0.000027,
2191,2983,-1.5227790131706,7.35387176239755,0.00845287083848234,0.004808,-0.000415,0.005994,0.202726,0.042381,315.577145,24.642100,0.999351,0.991268,0.003773,0.454820,0.000005,0.000025,0.000011,0.000030,0.000000,66.400948,0.000035,
2116,2578,-3.08633439930234,-1.45758669933374,-0.0154584993202889,0.004798,-0.000468,0.006777,0.200595,0.046084,322.238773,24.365502,0.999457,0.989025,0.004261,0.440639,0.000008,0.000019,0.000001,0.000019,0.000007,82.839201,0.000027,
2041,2233,-4.66275382008066,-8.99245484418783,0.0080111472411204,0.005072,-0.000528,0.005983,0.216192,0.061945,328.399632,24.662736,0.999098,0.982868,0.005136,0.391846,-0.000026,0.000059,-0.000003,0.000059,-0.000026,-87.681855,0.000059,
2221,3088,-0.889403999130806,9.63453544686642,0.0162688719194648,0.004521,-0.000555,0.003165,0.198117,0.014738,313.838919,24.873904,0.999471,0.992494,0.003435,0.402216,0.000000,0.000018,-0.000004,0.000019,-0.000001,-77.194125,0.000021,
2101,2578,-3.41242489480965,-1.45895720863911,-0.0144585241184814,0.004672,-0.000577,0.005994,0.197312,0.034133,322.313705,24.317304,0.999410,0.987750,0.004271,0.496042,0.000001,0.000018,0.000008,0.000022,-0.000002,67.626903,0.000024,
2251,3238,-0.263071995905403,12.8871328569322,0.0441785724806891,0.004659,-0.000374,0.004515,0.199960,0.022969,311.551981,25.119447,0.999772,0.995501,0.002975,0.497525,0.000009,0.000032,-0.000002,0.000032,0.000009,-85.291312,0.000043,
2056,2323,-4.34916018095435,-7.02571476666147,0.012564968651759,0.005079,0.000243,0.000902,0.230930,0.074202,326.919564,24.526776,0.999276,0.983387,0.004939,0.451241,0.000006,0.000014,-0.000019,0.000030,-0.000010,-50.696634,0.000030,
2116,2593,-3.08848447457255,-1.132370395245,-0.00828469032762769,0.004712,-0.000927,0.008656,0.190953,0.029617,322.047021,24.294626,0.999580,0.990241,0.004071,0.499121,0.000005,0.000015,0.000004,0.000016,0.000004,71.416251,0.000021,
2041,2248,-4.66511804896003,-8.66561525261229,0.0075499199758724,0.004956,-0.000923,0.005870,0.211061,0.034825,328.150438,24.567612,0.999146,0.984792,0.004838,0.454681,-0.000025,0.000057,-0.000016,0.000060,-0.000028,-79.152401,0.000060,
2191,2998,-1.52544287920945,7.6800113195479,0.00420891062458395,0.004986,-0.000289,0.005570,0.212319,0.045844,315.306374,24.664101,0.999514,0.991312,0.003762,0.450267,0.000002,0.000022,0.000007,0.000024,0.000000,71.966790,0.000028,
2251,3253,-0.266677796127247,13.2139282488302,0.0330220735139051,0.004690,-0.000372,0.006471,0.195027,0.031731,311.206873,25.228724,0.999614,0.993555,0.003356,0.418950,0.000007,0.000032,0.000002,0.000033,0.000007,86.348606,0.000042,
2101,2593,-3.41483502733489,-1.13183918030691,-0.0130679955822757,0.004582,-0.000559,0.006332,0.192183,0.035954,322.077321,24.352023,0.999283,0.987574,0.004404,0.465258,0.000000,0.000016,0.000012,0.000022,-0.000006,62.300654,0.000022,
2221,3103,-0.890873746083283,9.95910004694517,0.0254275131423469,0.005147,-0.000531,0.004619,0.222287,0.020456,313.694816,24.863098,0.999498,0.991806,0.003662,0.436802,-0.000001,0.000021,-0.000004,0.000022,-0.000002,-79.616707,0.000025,
2056,2338,-4.35254381310439,-6.69702337641493,0.00275086727094731,0.004633,0.000026,0.001832,0.207781,0.051760,326.573311,24.535177,0.999029,0.984284,0.004905,0.417306,0.000005,-0.000003,-0.000026,0.000027,-0.000025,-40.979021,0.000030,
2041,2263,-4.66710842668892,-8.33761564573367,0.0099169683730338,0.005033,-0.000755,0.005501,0.215734,0.053471,327.933502,24.566697,0.999171,0.985398,0.004847,0.469075,-0.000020,0.000039,-0.000012,0.000041,-0.000023,-78.567841,0.000041,
2116,2608,-3.09108828268245,-0.804795212582619,-0.0149256091767143,0.004734,-0.000732,0.005262,0.202071,0.021808,321.759705,24.316349,0.999329,0.987161,0.004527,0.473893,0.000009,0.000006,0.000008,0.000016,-0.000001,40.668277,0.000018,
2251,3268,-0.270291307061072,13.5395352473555,0.0194288126814968,0.004762,-0.000399,0.006698,0.197634,0.032719,310.849403,25.228024,0.999429,0.991908,0.003666,0.442382,0.000006,0.000041,0.000001,0.000041,0.000006,88.471220,0.000051,
2191,3013,-1.52735025982864,8.0043358086388,0.0177708760171527,0.004889,-0.000516,0.007910,0.200335,0.027326,315.163738,24.665004,0.999464,0.990849,0.003851,0.444300,0.000002,0.000019,0.000001,0.000019,0.000001,85.022721,0.000023,
2056,2353,-4.35538741552774,-6.36899650439685,-0.00162182131089139,0.004719,-0.000441,0.008073,0.194068,0.084097,326.281547,24.487801,0.998805,0.982632,0.005212,0.493716,0.000006,-0.000012,-0.000024,0.000023,-0.000029,-34.826463,0.000030,
2101,2608,-3.41721040452755,-0.805111937162273,-0.0122574575072463,0.004339,-0.000330,0.003179,0.190352,0.041418,321.839495,24.346830,0.999029,0.985120,0.004812,0.477660,0.000004,0.000007,0.000014,0.000020,-0.000008,48.283308,0.000020,
2221,3118,-0.89330805811765,10.2851097236232,0.0306204066542932,0.004916,-0.000064,0.003588,0.215143,0.040906,313.485454,24.948857,0.999582,0.991539,0.003738,0.389148,-0.000002,0.000020,-0.000006,0.000022,-0.000003,-75.494116,0.000024,
2041,2278,-4.66933998183803,-8.00926797403842,0.0145517746183259,0.005020,-0.000883,0.009770,0.203252,0.060357,327.718075,24.637059,0.999785,0.991730,0.004144,0.399936,-0.000016,0.000017,-0.000016,0.000024,-0.000023,-67.303811,0.000027,
2116,2623,-3.09421147683167,-0.476780164901797,-0.0251642208658041,0.004777,-0.000897,0.006568,0.200189,0.032510,321.429096,24.335003,0.999225,0.984714,0.004849,0.470337,0.000009,-0.000002,0.000002,0.000010,-0.000002,11.427758,0.000010,
2251,3283,-0.273303914711491,13.8648842161866,0.0091585189039165,0.004940,-0.000247,0.003316,0.216949,0.022600,310.536512,25.238218,0.999422,0.991696,0.003664,0.444032,0.000000,0.000051,-0.000001,0.000051,0.000000,-88.704920,0.000059,
2056,2368,-4.35743999945233,-6.04039533844902,-0.0071190054343333,0.005089,-0.000242,0.004882,0.220129,0.072003,326.019805,24.531734,0.998714,0.983873,0.005097,0.434162,0.000016,0.000003,-0.000024,0.000035,-0.000015,-37.429198,0.000035,
2041,2293,-4.67158769060748,-7.68217417290781,0.0121509410049612,0.004781,-0.000388,0.003701,0.209271,0.049208,327.463416,24.544792,0.999825,0.992890,0.003922,0.475749,0.000000,0.000031,-0.000009,0.000033,-0.000002,-75.105758,0.000037,
2101,2623,-3.42025556846626,-0.477300874704426,-0.0270056927301425,0.004752,-0.000629,0.005121,0.203608,0.038445,321.486675,24.321495,0.999195,0.986377,0.004548,0.502347,0.000005,-0.000003,0.000008,0.000009,-0.000008,32.285571,0.000010,
2191,3028,-1.53022291421583,8.33005810402858,0.0143173170099544,0.004843,-0.000748,0.008023,0.197883,0.029657,314.887606,24.663148,0.999541,0.991947,0.003835,0.462278,0.000001,0.000016,-0.000002,0.000016,0.000001,-82.108024,0.000019,
2251,3298,-0.275282389248726,14.1899575505343,0.0144310037713353,0.005227,-0.000036,0.002538,0.232817,0.027416,310.350310,25.296591,0.999310,0.990901,0.003747,0.412187,-0.000007,0.000051,-0.000012,0.000053,-0.000009,-78.939113,0.000057,
2116,2638,-3.09685004483147,-0.14946076034613,-0.0273447693790558,0.004660,-0.000542,0.005989,0.196656,0.052840,321.164083,24.354421,0.999415,0.988355,0.004186,0.475193,0.000009,-0.000001,0.000001,0.000009,-0.000001,6.558870,0.000010,
2221,3133,-0.896178341688259,10.609474273673,0.0293012229169562,0.004873,-0.000054,0.005008,0.208658,0.047311,313.223112,24.860316,0.999614,0.992427,0.003601,0.501908,-0.000007,0.000025,-0.000005,0.000026,-0.000008,-81.161826,0.000027,
2056,2383,-4.36076926058017,-5.71267957407046,-0.0124102236234194,0.004400,-0.000544,0.005462,0.186765,0.052945,325.701074,24.509712,0.999249,0.987889,0.004568,0.433781,0.000019,0.000010,-0.000026,0.000041,-0.000011,-40.261981,0.000042,
2266,1993,0.284235615758053,-14.2582030420163,0.0273778347792586,0.005021,0.000016,0.002982,0.219983,0.065102,331.602139,23.151104,0.999224,0.963702,0.007259,0.395275,-0.000013,0.000057,-0.000014,0.000060,-0.000016,-79.169914,0.000062,
2071,2308,-4.02256014828798,-7.35166579657276,-0.00904942734007363,0.004500,-0.000316,0.004506,0.193837,0.041389,326.862821,24.455266,0.999802,0.992719,0.003967,0.435364,0.000003,0.000015,-0.000017,0.000027,-0.000009,-54.754057,0.000028,
2101,2638,-3.42308171252215,-0.150103524370422,-0.0260454518973461,0.004374,-0.000516,0.006952,0.180914,0.055451,321.228842,24.359429,0.999202,0.987360,0.004315,0.483354,0.000006,-0.000002,0.000007,0.000010,-0.000006,30.604723,0.000010,
2056,2398,-4.36139442731115,-5.38743991723177,-0.00529119051168436,0.005467,-0.000688,0.003191,0.242155,0.021959,325.574809,24.397093,0.998990,0.985356,0.004832,0.511316,0.000014,-0.000006,-0.000028,0.000033,-0.000026,-35.091433,0.000035,
2311,2173,1.23383948850804,-10.3109364281601,0.0248448546585678,0.004853,-0.001033,0.006640,0.199303,0.032831,328.618429,23.214340,0.999188,0.981510,0.005292,0.406883,-0.000015,-0.000005,-0.000014,0.000005,-0.000025,-54.677436,0.000027,
2356,2458,2.16036417580371,-4.07152051870943,-0.00884213303584147,0.005132,-0.000719,0.003175,0.224020,0.018067,323.745438,23.744278,0.999244,0.985771,0.004674,0.400847,0.000008,-0.000009,0.000010,0.000013,-0.000014,24.529162,0.000015,
2266,2008,0.282095742032581,-13.9300092426575,0.0399306128929311,0.004885,-0.000551,0.006590,0.201655,0.057720,331.447491,23.224080,0.999186,0.981269,0.005462,0.343654,-0.000017,0.000052,0.000000,0.000052,-0.000017,-89.620948,0.000053,
2071,2323,-4.0235934436608,-7.02522126422608,0.00126016654274963,0.005104,-0.000495,0.004268,0.222229,0.037822,326.735793,24.434604,0.999222,0.987092,0.004651,0.450779,0.000009,0.000014,-0.000017,0.000029,-0.000006,-48.991376,0.000031,
2056,2413,-4.36389911948558,-5.05983218858562,-0.00229529100982973,0.005184,-0.000765,0.005180,0.223567,0.035236,325.339243,24.422013,0.998442,0.981733,0.005369,0.495962,0.000016,-0.000012,-0.000026,0.000031,-0.000027,-30.677667,0.000034,
2101,2653,-3.4251892323162,0.176938782961557,-0.0227197919932678,0.004564,-0.000435,0.008764,0.184375,0.056509,321.016792,24.423245,0.999444,0.989135,0.004006,0.422220,0.000002,0.000005,0.000008,0.000012,-0.000004,50.253811,0.000012,
2266,2023,0.279389701284888,-13.5999375429285,0.0338116663679102,0.004918,0.000024,0.001665,0.219628,0.054282,331.173360,23.257116,0.998935,0.978198,0.005987,0.336529,-0.000020,0.000067,0.000011,0.000068,-0.000021,82.599531,0.000070,
2311,2188,1.23169801608759,-9.98334390908459,0.0347416741404345,0.004698,-0.001044,0.006434,0.192957,0.022513,328.453028,23.262654,0.999125,0.981061,0.005243,0.382754,-0.000015,0.000001,-0.000012,0.000007,-0.000022,-61.737140,0.000022,
2071,2338,-4.02550060883418,-6.69756227941218,0.00386597403274891,0.005020,0.000299,-0.000743,0.232891,0.058388,326.526429,24.428846,0.998786,0.985103,0.004895,0.475656,0.000009,0.000001,-0.000020,0.000025,-0.000016,-39.468167,0.000026,
2356,2473,2.15752444116759,-3.74359356861224,-0.00499713560628834,0.004998,-0.000408,0.005297,0.210579,0.058222,323.520572,23.803725,0.999590,0.987714,0.004267,0.421682,0.000006,-0.000013,0.000014,0.000013,-0.000020,27.711349,0.000020,
2056,2428,-4.3666990084454,-4.73114414433586,-0.00597903489654072,0.005086,-0.000674,0.008195,0.210639,0.068823,325.053132,24.467156,0.998840,0.984668,0.004866,0.480752,0.000013,0.000001,-0.000012,0.000020,-0.000006,-31.461221,0.000021,
2101,2668,-3.42724436136214,0.502735735691445,-0.0221317101245972,0.004721,-0.000500,0.006570,0.198050,0.048451,320.792732,24.363364,0.999530,0.990464,0.003831,0.475705,0.000002,-0.000003,0.000006,0.000005,-0.000007,33.822279,0.000007,
2266,2038,0.276532040080603,-13.2705899341659,0.030614991575419,0.005149,-0.000305,0.004492,0.220787,0.063531,330.906875,23.250746,0.998964,0.980107,0.005573,0.381500,-0.000019,0.000059,0.000005,0.000059,-0.000019,86.325257,0.000061,
2071,2353,-4.02846654863111,-6.36888218269853,0.00103025787751676,0.004845,-0.000141,0.004147,0.210818,0.090044,326.238697,24.457079,0.998513,0.982244,0.005283,0.478002,0.000009,-0.000010,-0.000021,0.000023,-0.000023,-32.649558,0.000026,
2056,2443,-4.36948206581756,-4.40366424688257,-0.00718538891010212,0.004573,-0.000633,0.006731,0.191213,0.042915,324.781934,24.489695,0.999071,0.986572,0.004664,0.428278,0.000012,0.000007,-0.000013,0.000022,-0.000003,-39.624774,0.000024,
2311,2203,1.22839590545634,-9.65390635656165,0.0265655767566955,0.004872,-0.001214,0.007964,0.195665,0.021334,328.145573,23.285156,0.998804,0.978898,0.005636,0.394342,-0.000018,0.000003,-0.000013,0.000009,-0.000024,-64.254036,0.000024,
2356,2488,2.15503772523978,-3.41759350712152,0.000319185932198707,0.005029,-0.000859,0.006548,0.207464,0.043712,323.319480,23.758959,0.999453,0.987060,0.004421,0.491955,0.000006,-0.000011,0.000010,0.000011,-0.000016,25.362066,0.000016,
2101,2683,-3.42947368977381,0.828688830492297,-0.0203035977701234,0.004767,-0.000588,0.006547,0.200225,0.048532,320.567338,24.324427,0.999485,0.991062,0.003728,0.516224,0.000004,-0.000010,0.000000,0.000004,-0.000010,-1.848560,0.000011,
2266,2053,0.272954572721051,-12.9414024636296,0.0254033487409515,0.004678,-0.000539,0.005578,0.195620,0.058392,330.597458,23.227734,0.998695,0.978918,0.005677,0.428697,-0.000021,0.000049,0.000002,0.000049,-0.000021,88.063917,0.000049,
2071,2368,-4.03043557538693,-6.04115120704178,-0.00325651628207879,0.005263,-0.000110,0.001191,0.238474,0.061285,325.989078,24.449952,0.997909,0.980303,0.005616,0.454941,0.000017,0.000005,-0.000022,0.000034,-0.000012,-37.542044,0.000034,
2056,2458,-4.37201317364767,-4.0772261332224,-0.00330664735889741,0.004221,-0.000945,0.008888,0.168885,0.041158,324.550395,24.445130,0.999121,0.986343,0.004796,0.467141,0.000016,-0.000001,-0.000022,0.000032,-0.000017,-34.174674,0.000032,
2311,2218,1.22494960983638,-9.32433256821889,0.0139175333912362,0.004829,-0.000589,0.004102,0.207072,0.040310,327.809416,23.259903,0.998763,0.977425,0.005757,0.473654,-0.000014,0.000001,-0.000015,0.000010,-0.000023,-58.509403,0.000023,
2101,2698,-3.4318239291347,1.15597139568079,-0.0180018982241563,0.004658,-0.000438,0.006348,0.195857,0.057928,320.338562,24.406319,0.999302,0.990348,0.003917,0.445394,0.000008,-0.000014,-0.000003,0.000009,-0.000014,-7.001618,0.000014,
2356,2503,2.15170665790189,-3.08950644885166,-0.00518758309715395,0.004868,-0.000938,0.005301,0.204419,0.018265,323.027197,23.822260,0.999378,0.987112,0.004559,0.443392,-0.000001,-0.000004,0.000007,0.000005,-0.000010,38.036523,0.000010,
2266,2068,0.27046726497705,-12.6116721500394,0.0273983874563442,0.004791,-0.000431,0.006753,0.196952,0.065863,330.373761,23.327532,0.998997,0.981163,0.005361,0.365325,-0.000021,0.000024,0.000002,0.000024,-0.000021,86.950746,0.000026,
2056,2473,-4.37393815201879,-3.74891122332936,-0.00400480475519771,0.004548,-0.000925,0.007467,0.187944,0.047618,324.320919,24.526109,0.999191,0.986584,0.004930,0.388535,0.000018,-0.000005,-0.000019,0.000029,-0.000016,-29.641710,0.000029,
2071,2383,-4.03346326000681,-5.71339268109259,-0.00201350199921535,0.004574,-0.000302,0.002928,0.201835,0.048588,325.721186,24.488388,0.998643,0.983037,0.005191,0.402736,0.000020,0.000010,-0.000023,0.000038,-0.000009,-39.022969,0.000040,
2206,3058,-1.20968984717431,8.98246291341769,0.0188859458573916,0.004614,-0.000490,0.006817,0.191019,0.047839,314.384160,24.773300,0.999737,0.994279,0.003184,0.448799,0.000003,0.000014,-0.000009,0.000019,-0.000002,-60.122529,0.000021,
2116,2653,-3.09922918365761,0.178071531563411,-0.0297527228320291,0.004770,-0.000261,0.004636,0.205810,0.046797,320.909740,24.422631,0.999506,0.989394,0.003962,0.404941,0.000006,0.000007,0.000002,0.000008,0.000004,51.904926,0.000013,
2071,2398,-4.0356787822407,-5.38625544765866,-0.00336753642443455,0.004840,-0.000571,0.004383,0.209843,0.039806,325.476381,24.445987,0.999018,0.983959,0.005055,0.434628,0.000017,-0.000004,-0.000023,0.000032,-0.000019,-32.559032,0.000032,
2281,2113,0.58956881385043,-11.6250408216924,0.0187633312491471,0.004774,-0.000119,0.003028,0.208542,0.047419,329.570117,23.241089,0.998720,0.978457,0.005687,0.431467,-0.000015,0.000023,-0.000006,0.000024,-0.000016,-81.370702,0.000024,
2266,2083,0.267286816715366,-12.2814595338296,0.0172959481253088,0.004969,-0.000314,0.006333,0.206606,0.055616,330.057853,23.360966,0.999201,0.982623,0.005239,0.350654,-0.000016,0.000029,0.000001,0.000029,-0.000016,88.238655,0.000029,
2341,2353,1.85452388006461,-6.36838844523704,0.0090300119411495,0.005187,-0.000141,0.002693,0.228455,0.058709,325.598272,23.504262,0.999271,0.985239,0.004788,0.450965,-0.000004,-0.000015,0.000004,-0.000003,-0.000016,16.769371,0.000021,
2071,2413,-4.03804949841304,-5.05966225311539,0.000105584103721412,0.004725,-0.000915,0.007048,0.196895,0.021881,325.251019,24.413934,0.998820,0.983919,0.004966,0.447121,0.000020,-0.000011,-0.000021,0.000030,-0.000022,-26.994497,0.000031,
2281,2128,0.587538274681485,-11.2968736164173,0.0272625155443507,0.004894,-0.000189,0.004226,0.210006,0.057183,329.400912,23.288131,0.998299,0.977543,0.005757,0.424475,-0.000012,0.000025,-0.000006,0.000025,-0.000013,-81.115394,0.000026,
2206,3073,-1.21181215705974,9.30734973993208,0.0225490312052443,0.004719,-0.000664,0.004966,0.201653,0.026656,314.180794,24.776643,0.999641,0.992835,0.003426,0.439904,0.000003,0.000021,-0.000005,0.000022,0.000002,-76.329617,0.000027,
2116,2668,-3.10189208463304,0.504573823225094,-0.0351721965258207,0.004744,-0.000097,0.002606,0.210679,0.039804,320.626507,24.377335,0.999578,0.990789,0.003763,0.447530,0.000005,0.000000,-0.000001,0.000006,0.000000,-14.515936,0.000006,
2266,2098,0.264349745554512,-11.9519243441694,0.0162277022729427,0.004842,-0.000632,0.007308,0.197457,0.047219,329.798290,23.436559,0.999005,0.979993,0.005558,0.295593,-0.000013,0.000025,-0.000002,0.000026,-0.000014,-86.430759,0.000026,
2341,2368,1.85037860794339,-6.03880148183323,-0.00512265923111954,0.005064,0.000011,0.004387,0.216986,0.082256,325.225534,23.523250,0.999025,0.984066,0.004950,0.494589,-0.000004,-0.000008,0.000007,0.000001,-0.000014,35.879771,0.000015,
2071,2428,-4.04043224112847,-4.73166674186965,0.00488652045976323,0.004544,-0.000795,0.010004,0.180193,0.042193,325.031781,24.488782,0.999002,0.985959,0.004556,0.391042,0.000015,-0.000003,-0.000010,0.000019,-0.000007,-23.936584,0.000019,
2281,2143,0.584577026483728,-10.9663323254948,0.0256992620539336,0.004949,-0.000470,0.006965,0.203329,0.071516,329.138761,23.443433,0.999139,0.981154,0.005393,0.314434,-0.000013,0.000017,-0.000003,0.000018,-0.000013,-84.488152,0.000018,
2116,2683,-3.10395188153648,0.829588313717394,-0.0286448910470654,0.004884,-0.000782,0.005752,0.207607,0.028983,320.435491,24.303108,0.999558,0.992018,0.003553,0.514478,0.000008,-0.000004,-0.000007,0.000011,-0.000007,-23.203798,0.000011,
2206,3088,-1.21419167081537,9.63337762367457,0.0256428989433743,0.004824,-0.000642,0.006194,0.202610,0.031540,313.962232,24.858962,0.999487,0.991892,0.003649,0.378005,-0.000001,0.000019,-0.000005,0.000020,-0.000002,-77.233968,0.000023,
2266,2113,0.26273869415903,-11.6241433879567,0.0251629412655916,0.004765,0.000411,0.000909,0.215446,0.061627,329.649501,23.443598,0.998972,0.980159,0.005504,0.330958,-0.000012,0.000018,-0.000004,0.000019,-0.000013,-83.423184,0.000019,
2071,2443,-4.04237301649682,-4.40431629233564,0.00104260186446936,0.004792,-0.000322,0.004199,0.208296,0.033596,324.785916,24.456987,0.999184,0.987329,0.004523,0.412343,0.000011,0.000002,-0.000012,0.000019,-0.000006,-35.265502,0.000019,
2341,2383,1.84723781866344,-5.71034374650111,-0.00714251671513466,0.004955,-0.000579,0.005207,0.208951,0.038453,324.957933,23.629995,0.999339,0.984639,0.004883,0.382453,0.000001,-0.000010,0.000002,0.000001,-0.000011,8.828636,0.000012,
2281,2158,0.581729742841599,-10.6383583028319,0.0233648434843303,0.004972,-0.000649,0.007224,0.203468,0.059400,328.878419,23.388208,0.999498,0.982140,0.005280,0.388311,-0.000016,0.000008,-0.000006,0.000009,-0.000017,-76.633433,0.000017,
2116,2698,-3.10580599102682,1.15659008452058,-0.0199820564188826,0.004979,-0.000665,0.007037,0.208259,0.038832,320.264760,24.411590,0.999459,0.990426,0.003849,0.419216,0.000011,-0.000008,-0.000008,0.000014,-0.000011,-19.930713,0.000015,
2206,3103,-1.21626503073046,9.95770734354621,0.0280183101273792,0.005124,-0.000546,0.005164,0.219769,0.033070,313.754597,24.787224,0.999396,0.990558,0.004001,0.467188,-0.000003,0.000023,-0.000005,0.000024,-0.000004,-78.952921,0.000025,
2071,2458,-4.04485884488939,-4.07781956931545,0.00145353662719572,0.004732,-0.000745,0.006427,0.199076,0.030240,324.538569,24.386914,0.999448,0.989453,0.004298,0.477428,0.000013,-0.000006,-0.000022,0.000028,-0.000021,-33.308525,0.000029,
2266,2128,0.259740953731988,-11.2953086282195,0.0186802711184555,0.005021,-0.000009,0.002685,0.221159,0.064523,329.360041,23.395889,0.998860,0.980073,0.005508,0.410388,-0.000011,0.000018,-0.000004,0.000019,-0.000012,-83.171886,0.000019,
2281,2173,0.578246739109193,-10.3106212213361,0.0165573731406994,0.004676,-0.000854,0.007383,0.189334,0.041734,328.566773,23.275183,0.999311,0.981498,0.005357,0.514539,-0.000012,0.000002,-0.000006,0.000004,-0.000014,-70.109816,0.000015,
2341,2398,1.8443237062871,-5.38328457579428,-0.00061898815800987,0.004519,-0.000798,0.007426,0.181154,0.056801,324.742009,23.633718,0.999587,0.986849,0.004653,0.435350,0.000001,-0.000006,0.000000,0.000001,-0.000006,1.639350,0.000007,
2116,2713,-3.10825845187219,1.48281651109448,-0.0182190982316115,0.004844,-0.000732,0.007141,0.201710,0.033170,320.029824,24.411952,0.999445,0.989475,0.004016,0.417141,0.000013,-0.000006,-0.000009,0.000017,-0.000009,-21.349346,0.000017,
2236,3118,-0.568728306810382,10.2867141598226,0.0186952658621635,0.004815,-0.000216,0.003701,0.209993,0.040863,313.344098,24.973881,0.999563,0.991878,0.003692,0.424295,0.000000,0.000016,-0.000007,0.000019,-0.000003,-69.987600,0.000020,
2341,2413,1.84291681614589,-5.05663683485993,0.0131252988726374,0.004662,-0.000587,0.004722,0.197209,0.033591,324.630344,23.713673,0.999616,0.989113,0.004348,0.369879,-0.000002,0.000000,0.000001,0.000000,-0.000002,63.066372,0.000002,
2161,2833,-2.14957910640068,4.09383237112961,-0.0062943889492999,0.005012,-0.000647,0.006881,0.209563,0.034319,318.004940,24.458417,0.999668,0.993189,0.003421,0.453901,0.000014,0.000026,0.000001,0.000026,0.000014,86.906610,0.000040,
2131,2683,-2.77650163199407,0.828326070847183,-0.00405183052777147,0.004775,-0.000786,0.005469,0.203226,0.036144,320.571365,24.327849,0.999548,0.990766,0.003772,0.492542,0.000012,0.000001,-0.000008,0.000017,-0.000003,-28.190033,0.000018,
2116,2728,-3.11115033714711,1.80969087849738,-0.0244746340873121,0.004615,-0.000313,0.004558,0.199007,0.046358,319.731439,24.392922,0.999409,0.989176,0.004102,0.453132,0.000010,0.000003,-0.000005,0.000013,0.000000,-27.213548,0.000015,
2236,3133,-0.571967505799449,10.6124627852445,0.0155443617313722,0.004479,-0.000122,0.003929,0.193821,0.049515,313.056026,25.000518,0.999615,0.992206,0.003741,0.426267,-0.000005,0.000022,-0.000005,0.000023,-0.000006,-79.925354,0.000024,
2341,2428,1.84107088245034,-4.72970504636825,0.0134912973462065,0.005301,0.000128,0.000970,0.239879,0.065843,324.433509,23.641148,0.999716,0.993474,0.003765,0.512614,0.000001,-0.000006,0.000004,0.000003,-0.000008,25.073241,0.000008,
2161,2848,-2.15247019815195,4.41935391780517,-0.00992192204256526,0.004831,-0.000678,0.006195,0.203356,0.036321,317.724850,24.384906,0.999701,0.993224,0.003348,0.539365,0.000012,0.000031,0.000007,0.000033,0.000010,71.678540,0.000045,
2116,2743,-3.11406295375364,2.13713549748307,-0.0300604343614168,0.004584,-0.000470,0.005907,0.193538,0.047961,319.435547,24.448479,0.999438,0.989974,0.003999,0.402916,0.000004,0.000009,-0.000005,0.000013,0.000001,-57.817913,0.000015,
2131,2698,-2.77980967791388,1.15627520207569,-0.0171895749177224,0.004873,-0.000836,0.006882,0.203498,0.038985,320.218310,24.350869,0.999528,0.989862,0.003908,0.478396,0.000013,-0.000003,-0.000010,0.000018,-0.000008,-25.309839,0.000018,
2236,3148,-0.573472824832951,10.9369518780392,0.0256311371782658,0.004924,-0.000034,0.003970,0.214255,0.051965,312.915770,25.001809,0.999272,0.990759,0.003905,0.447507,-0.000004,0.000024,-0.000004,0.000025,-0.000005,-81.729755,0.000026,
2341,2443,1.83689357063173,-4.40006722719052,0.00108026440472031,0.005082,-0.000415,0.003447,0.221026,0.042879,324.067562,23.757223,0.999380,0.987781,0.004452,0.412087,0.000006,-0.000015,0.000006,0.000008,-0.000016,15.488121,0.000016,
2161,2863,-2.15562000499093,4.74717542328882,-0.0163370852883986,0.004670,-0.000611,0.006735,0.194276,0.019970,317.417489,24.525228,0.999371,0.991293,0.003700,0.392442,0.000017,0.000029,0.000005,0.000031,0.000015,70.036462,0.000047,
2116,2758,-3.11506940648661,2.46175933475182,-0.0147819275618417,0.004888,-0.000218,0.003968,0.213392,0.052332,319.339956,24.412059,0.999544,0.990797,0.003780,0.446890,0.000002,0.000009,-0.000007,0.000013,-0.000003,-57.666204,0.000014,
2131,2713,-2.78266310404512,1.48400657295517,-0.0217235213364688,0.004719,-0.000288,0.006111,0.198962,0.067753,319.931966,24.404129,0.999476,0.989672,0.004035,0.460096,0.000017,-0.000002,-0.000010,0.000021,-0.000007,-23.391838,0.000021,
2236,3163,-0.576335211039055,11.2617587527567,0.0277942512026925,0.004610,-0.000150,0.004489,0.198023,0.043142,312.672487,24.998690,0.999375,0.990584,0.003867,0.461599,0.000002,0.000029,-0.000005,0.000030,0.000001,-80.599733,0.000035,
2341,2458,1.83298138769408,-4.07203517753837,-0.00709533369575865,0.004763,-0.000738,0.005524,0.199064,0.026667,323.734462,23.765503,0.999528,0.987666,0.004344,0.426007,0.000004,-0.000005,0.000008,0.000009,-0.000010,30.806026,0.000011,
2116,2773,-3.1174409034223,2.78813759820855,-0.0150863883999364,0.005099,-0.000155,0.005997,0.217147,0.066919,319.097537,24.407097,0.999720,0.992356,0.003449,0.469832,0.000002,0.000005,-0.000006,0.000010,-0.000003,-51.924080,0.000010,
2161,2878,-2.15749988410775,5.07259254032215,-0.00864703874151473,0.004837,-0.000530,0.007413,0.199998,0.037384,317.243458,24.519468,0.999392,0.992188,0.003657,0.425360,0.000021,0.000036,0.000002,0.000036,0.000020,81.022939,0.000057,
2131,2728,-2.78468232186438,1.80920925729535,-0.0222841519941994,0.004866,-0.000102,0.001269,0.220270,0.043475,319.705911,24.315198,0.999416,0.988367,0.004246,0.530526,0.000015,0.000005,-0.000007,0.000019,0.000001,-27.138684,0.000023,
2236,3178,-0.57821582845915,11.585942319218,0.0397942544378793,0.004752,-0.000680,0.007415,0.194880,0.021115,312.524859,25.013077,0.999385,0.990950,0.003744,0.444840,0.000005,0.000031,-0.000005,0.000032,0.000004,-79.923452,0.000039,
2341,2473,1.83048561639655,-3.74433752067074,-0.00347359632826283,0.004831,-0.000399,0.005921,0.200979,0.063585,323.523269,23.804737,0.999501,0.987386,0.004321,0.461519,0.000004,-0.000007,0.000011,0.000010,-0.000014,32.230211,0.000014,
2116,2788,-3.12014999100709,3.11431208004002,-0.0179606371215755,0.005012,-0.000255,0.006043,0.213002,0.070583,318.825918,24.378923,0.999597,0.991984,0.003596,0.505260,-0.000002,0.000017,-0.000001,0.000017,-0.000002,-86.504213,0.000019,
2131,2743,-2.78692335574851,2.13590560291108,-0.0198402693226853,0.005081,-0.000362,0.003699,0.222804,0.034922,319.485252,24.376174,0.999484,0.989782,0.004028,0.466728,0.000011,0.000010,-0.000008,0.000019,0.000003,-43.153233,0.000023,
2161,2893,-2.16016363186441,5.39904758173726,-0.0131510273023423,0.004832,-0.000226,0.004964,0.207364,0.039255,316.968837,24.539315,0.999512,0.992029,0.003694,0.417330,0.000015,0.000030,0.000006,0.000032,0.000013,71.284768,0.000046,
2236,3193,-0.580943769390643,11.9115278182527,0.0356394128505144,0.004914,-0.000484,0.006394,0.205721,0.024305,312.255123,25.039045,0.999367,0.990743,0.003783,0.442030,0.000007,0.000028,-0.000005,0.000029,0.000006,-78.146239,0.000038,
2341,2488,1.82784002791405,-3.41796252558532,0.00100211880561574,0.004712,-0.000605,0.006750,0.192577,0.052858,323.309714,23.782582,0.999430,0.987094,0.004321,0.510804,0.000003,-0.000005,0.000008,0.000008,-0.000010,31.417006,0.000011,
2041,2308,-4.67407929859883,-7.35380429911696,0.0082290362993831,0.005003,-0.000957,0.007500,0.208815,0.062019,327.188831,24.535472,0.999768,0.990789,0.004227,0.492754,0.000003,0.000017,-0.000021,0.000032,-0.000012,-54.139322,0.000032,
2191,3043,-1.53206402595085,8.6562853918063,0.0223057325165996,0.004781,-0.000530,0.004218,0.207059,0.034720,314.718295,24.784572,0.999702,0.994288,0.003321,0.359356,0.000001,0.000013,-0.000005,0.000015,-0.000001,-69.039960,0.000017,
2056,2488,-4.37624869120744,-3.42144417665681,-0.00631004274282532,0.004583,-0.000419,0.006060,0.193693,0.065899,324.065157,24.508122,0.999378,0.988132,0.004512,0.420564,0.000014,-0.000001,-0.000014,0.000023,-0.000010,-31.161651,0.000023,
2236,3208,-0.583063968237184,12.2367700836272,0.042588371143836,0.004743,-0.000099,0.003175,0.208456,0.039291,312.070222,25.090273,0.999434,0.992062,0.003676,0.425717,0.000009,0.000025,-0.000004,0.000026,0.000008,-77.610126,0.000036,
2221,3148,-0.898972849968576,10.9347906256776,0.0341430964896858,0.004475,-0.000305,0.006355,0.185933,0.040441,312.995611,24.914195,0.999605,0.992358,0.003523,0.458857,-0.000005,0.000025,-0.000003,0.000026,-0.000005,-84.201071,0.000027,
2041,2323,-4.67642306947841,-7.02481884892268,0.00233356643298066,0.005073,-0.000482,0.004347,0.220924,0.061547,326.910013,24.581668,0.999172,0.982154,0.005014,0.440540,0.000015,0.000015,-0.000026,0.000041,-0.000011,-45.261825,0.000042,
2056,2503,-4.37934082849307,-3.09481146798787,-0.0161861311412395,0.004378,-0.000691,0.005881,0.184670,0.044245,323.732368,24.390178,0.999430,0.988331,0.004320,0.513057,0.000019,0.000019,-0.000014,0.000033,0.000005,-45.322618,0.000041,
2191,3058,-1.53481466206564,8.98058738174085,0.0232837059223243,0.004700,-0.000528,0.006507,0.196243,0.049999,314.471307,24.676121,0.999778,0.995306,0.003089,0.496848,0.000003,0.000011,-0.000009,0.000017,-0.000002,-57.468417,0.000018,
2236,3223,-0.586549834640568,12.5621815270324,0.0378985549372146,0.004388,-0.000390,0.004992,0.186094,0.023956,311.762899,25.123717,0.999371,0.991501,0.003868,0.396369,0.000010,0.000033,-0.000004,0.000034,0.000009,-80.071408,0.000045,
2221,3163,-0.901144479042653,11.2599319446971,0.0388073270102609,0.004550,-0.000423,0.005365,0.192563,0.041492,312.795872,24.946094,0.999517,0.992319,0.003555,0.445775,0.000001,0.000029,-0.000004,0.000029,0.000000,-82.817297,0.000034,
2041,2338,-4.67893325660715,-6.69735131339635,0.00272986265446207,0.004897,-0.000608,0.006250,0.207555,0.043617,326.658797,24.574442,0.999250,0.986015,0.004574,0.424328,0.000013,-0.000005,-0.000035,0.000040,-0.000032,-37.746139,0.000043,
2056,2518,-4.38089914148489,-2.7677860353793,-0.0112005136600146,0.004690,-0.000417,0.003970,0.204533,0.042260,323.551318,24.428289,0.999349,0.988981,0.004205,0.468356,0.000016,0.000025,-0.000008,0.000029,0.000012,-60.357626,0.000042,
2191,3073,-1.53666234494513,9.3057373669218,0.0255300356940893,0.004971,-0.000196,0.001946,0.223120,0.039716,314.272133,24.683086,0.999631,0.993673,0.003360,0.493043,0.000003,0.000018,-0.000004,0.000019,0.000002,-74.557997,0.000024,
2236,3238,-0.588948618697753,12.8869547346493,0.0324880797576839,0.004836,-0.000254,0.002080,0.216226,0.017743,311.502084,25.089409,0.999585,0.993455,0.003393,0.444601,0.000012,0.000030,-0.000003,0.000030,0.000011,-82.053045,0.000043,
2041,2353,-4.68130322581471,-6.36921103540178,-0.000701944877846472,0.005129,-0.000671,0.008648,0.211589,0.068189,326.392507,24.553937,0.998927,0.983876,0.005059,0.463865,0.000016,-0.000011,-0.000031,0.000037,-0.000032,-33.312877,0.000040,
2221,3178,-0.903126398890965,11.5845384892419,0.0424708704306909,0.004768,-0.000705,0.002708,0.210955,0.004479,312.599898,24.963890,0.999350,0.991280,0.003717,0.408517,0.000004,0.000030,-0.000003,0.000030,0.000004,-83.950952,0.000037,
2056,2533,-4.38276220744472,-2.4414195895694,-0.00738359061887195,0.004937,-0.000449,0.004780,0.213632,0.056239,323.350045,24.383910,0.999157,0.987611,0.004387,0.522442,0.000007,0.000028,0.000000,0.000028,0.000007,-88.914190,0.000037,
2236,3253,-0.5920276339344,13.2121859266439,0.0266624471790919,0.004905,-0.000230,0.002987,0.216457,0.010194,311.207649,25.100946,0.999517,0.993349,0.003385,0.445083,0.000011,0.000031,0.000001,0.000031,0.000011,87.712917,0.000044,
2191,3088,-1.53923000550182,9.6314780691017,0.024665285461424,0.005214,-0.000455,0.004308,0.226787,0.030481,314.023444,24.727404,0.999439,0.991682,0.003735,0.452997,0.000000,0.000017,-0.000005,0.000018,-0.000002,-74.240566,0.000020,
2041,2368,-4.68377976156495,-6.04164365819226,0.0031474268181455,0.004673,-0.000440,0.008745,0.190430,0.082494,326.161791,24.567444,0.998894,0.984668,0.004991,0.458700,0.000032,0.000004,-0.000029,0.000051,-0.000014,-32.140106,0.000052,
2221,3193,-0.905605201996327,11.9101817606555,0.0401297218244849,0.005092,-0.000142,0.002639,0.226350,0.032367,312.349744,24.980699,0.999446,0.992294,0.003590,0.437515,0.000006,0.000026,-0.000002,0.000026,0.000006,-85.345632,0.000034,
2056,2548,-4.38566511117004,-2.11314326268503,-0.0200811205160676,0.005015,-0.000276,0.003105,0.222010,0.039503,323.009939,24.402977,0.999348,0.989107,0.004152,0.482521,0.000007,0.000020,0.000002,0.000021,0.000007,81.120436,0.000029,
2236,3268,-0.595363089983987,13.5378158487318,0.0214684109524228,0.004758,-0.000197,0.005053,0.203021,0.022617,310.904456,25.137407,0.999418,0.992733,0.003534,0.440749,0.000011,0.000039,0.000002,0.000039,0.000011,86.738178,0.000053,
2041,2383,-4.68619135436247,-5.71452623161499,0.000413471587307868,0.004541,-0.000630,0.006518,0.190500,0.050333,325.897955,24.527193,0.999297,0.987260,0.004425,0.461130,0.000036,0.000013,-0.000029,0.000055,-0.000007,-34.064888,0.000060,
2191,3103,-1.54137355426647,9.95637569609078,0.0315473216920736,0.005270,-0.000565,0.005512,0.225537,0.023963,313.834912,24.744109,0.999473,0.992051,0.003666,0.443135,-0.000004,0.000019,-0.000006,0.000021,-0.000006,-76.049674,0.000021,
2221,3208,-0.908206323518684,12.2357788452424,0.0424865148503955,0.004884,0.000185,0.001387,0.220924,0.044043,312.118156,25.040808,0.999301,0.991296,0.003840,0.406656,0.000009,0.000023,0.000000,0.000023,0.000009,88.662861,0.000033,
2236,3283,-0.59849490958722,13.8638916944969,0.0134923773582045,0.004719,0.000127,0.002974,0.208136,0.033035,310.596177,25.206270,0.999239,0.992420,0.003642,0.401950,0.000007,0.000048,0.000000,0.000048,0.000007,89.763057,0.000060,
2056,2563,-4.38752935357972,-1.78662865168837,-0.0130093527319559,0.005019,-0.000140,0.003143,0.222122,0.054940,322.826507,24.408947,0.999309,0.988590,0.004253,0.487412,0.000006,0.000023,0.000000,0.000023,0.000006,-89.211658,0.000031,
2041,2398,-4.68846271476242,-5.38753726955898,-0.00500190383087329,0.004775,-0.000658,0.005331,0.204552,0.029235,325.625699,24.443888,0.999250,0.987842,0.004335,0.517378,0.000031,-0.000006,-0.000029,0.000047,-0.000022,-28.647788,0.000047,
2191,3118,-1.54418588475419,10.2812743736,0.0382661555269692,0.004742,-0.000633,0.007779,0.194043,0.016764,313.614797,24.763646,0.999497,0.992596,0.003573,0.429857,-0.000006,0.000020,-0.000009,0.000023,-0.000009,-72.371563,0.000023,
2236,3298,-0.601774924871666,14.1893705225704,0.00231287727774543,0.004753,0.000292,0.000802,0.216806,0.034559,310.264855,25.216543,0.999311,0.992295,0.003590,0.412671,0.000000,0.000048,-0.000010,0.000050,-0.000002,-78.476211,0.000056,
2221,3223,-0.911710124080198,12.5609802491452,0.0424369041725186,0.004387,-0.000134,0.006484,0.181591,0.043657,311.832792,25.066284,0.999529,0.992932,0.003531,0.398014,0.000011,0.000029,0.000001,0.000029,0.000011,88.236160,0.000041,
2056,2578,-4.38991400016344,-1.45928520089984,-0.0181407391712014,0.005276,-0.000051,0.003497,0.233020,0.065301,322.551917,24.393230,0.999064,0.988214,0.004346,0.509044,-0.000007,0.000016,-0.000002,0.000016,-0.000007,-85.164032,0.000016,
2041,2413,-4.69147407062815,-5.05862912355693,-0.00948825675232001,0.004621,-0.000797,0.010647,0.182693,0.069418,325.324050,24.489649,0.998945,0.984156,0.004848,0.506243,0.000034,-0.000008,-0.000025,0.000045,-0.000020,-25.097731,0.000046,
2296,2098,0.919810971153346,-11.9543156982479,0.0266507212431861,0.004731,-0.000986,0.009510,0.184271,0.052307,329.837263,23.196533,0.999049,0.979784,0.005560,0.359229,-0.000023,0.000029,-0.000012,0.000032,-0.000025,-77.518697,0.000034,
2191,3133,-1.54665907961039,10.6077344226648,0.0331914514317759,0.004900,-0.000089,0.003252,0.215907,0.061384,313.348154,24.805801,0.999409,0.992466,0.003684,0.445723,-0.000007,0.000023,-0.000009,0.000026,-0.000009,-74.853389,0.000026,
2101,2713,-3.43438006188384,1.48203624408249,-0.0188131139552752,0.004609,-0.000636,0.007259,0.190888,0.041027,320.083951,24.381774,0.999347,0.989703,0.004014,0.454702,0.000012,-0.000009,-0.000004,0.000012,-0.000010,-11.675038,0.000013,
2056,2593,-4.39336145563477,-1.13089645422534,-0.023515940366849,0.004759,-0.000504,0.008160,0.196024,0.065513,322.227086,24.486866,0.998792,0.987065,0.004477,0.411199,-0.000006,0.000019,0.000005,0.000020,-0.000007,78.252661,0.000021,
2296,2113,0.916677244479814,-11.6253438512177,0.0174399394605302,0.004691,-0.000642,0.005496,0.196070,0.037342,329.531260,23.143931,0.998977,0.978991,0.005626,0.430071,-0.000021,0.000022,-0.000013,0.000026,-0.000025,-74.772798,0.000029,
2341,2503,1.82430076912147,-3.08967780765447,-0.00818420221895622,0.004598,-0.000648,0.005566,0.191440,0.042450,322.988573,23.815339,0.999292,0.986068,0.004512,0.505641,-0.000004,0.000001,0.000005,0.000004,-0.000008,57.959047,0.000008,
2056,2608,-4.39539073777065,-0.806084741649656,-0.0180887921739554,0.004606,-0.000935,0.006679,0.192981,0.027021,322.027743,24.389359,0.999001,0.988491,0.004301,0.465418,-0.000005,0.000009,0.000003,0.000010,-0.000005,79.068773,0.000010,
2101,2728,-3.43724850527969,1.80923999970442,-0.0282045792347958,0.004515,-0.000345,0.003688,0.197092,0.044836,319.768250,24.376846,0.999335,0.988888,0.004148,0.464957,0.000009,0.000002,0.000001,0.000009,0.000002,4.763482,0.000011,
2191,3148,-1.54951912923973,10.9328590821974,0.033613616728644,0.004824,-0.000554,0.006451,0.202148,0.037622,313.092904,24.831186,0.999072,0.991061,0.004066,0.410076,-0.000004,0.000024,-0.000006,0.000026,-0.000005,-79.125956,0.000027,
2296,2128,0.914889794481283,-11.2964731148127,0.0235426812873811,0.005074,-0.000153,0.004243,0.218067,0.024100,329.362380,23.252448,0.998968,0.980298,0.005463,0.341211,-0.000017,0.000025,-0.000012,0.000028,-0.000021,-75.037498,0.000029,
2056,2623,-4.39706130281793,-0.479261249823629,-0.0186789361893034,0.005041,-0.000579,0.002793,0.224069,0.017603,321.811058,24.399772,0.999175,0.989939,0.004095,0.440781,-0.000007,-0.000005,-0.000006,0.000000,-0.000012,-50.354740,0.000014,
2341,2518,1.82143840077235,-2.76153981807337,-0.00666094578787124,0.004425,-0.000574,0.005422,0.184040,0.039636,322.750296,23.929660,0.999056,0.983079,0.004816,0.426165,-0.000005,-0.000003,0.000004,0.000000,-0.000008,53.616653,0.000009,
2101,2743,-3.43934910760279,2.13523730984623,-0.0198327257979258,0.004536,-0.000760,0.007650,0.186388,0.049110,319.584131,24.407893,0.999395,0.989542,0.004040,0.439323,0.000003,0.000009,0.000002,0.000010,0.000002,77.242486,0.000013,
2056,2638,-4.3998594524463,-0.151911647455393,-0.0225526003235927,0.004825,-0.000478,0.003285,0.212780,0.023999,321.524496,24.419838,0.999198,0.988941,0.004228,0.422402,-0.000001,-0.000003,-0.000008,0.000007,-0.000010,-41.241098,0.000010,
2296,2143,0.911956621951621,-10.9662430225234,0.0227815417229635,0.005239,-0.001164,0.008405,0.211237,0.046218,329.106812,23.380681,0.999349,0.981052,0.005389,0.267914,-0.000017,0.000017,-0.000011,0.000020,-0.000020,-74.046013,0.000023,
2191,3163,-1.55266228508048,11.259055537446,0.0212211631458104,0.004983,-0.000526,0.004370,0.215937,0.011588,312.757374,24.884492,0.999614,0.994670,0.003249,0.344057,-0.000004,0.000030,-0.000007,0.000032,-0.000006,-79.410113,0.000034,
2056,2653,-4.40268239319759,0.174414803436832,-0.025874118550405,0.004768,-0.000947,0.007339,0.198636,0.018776,321.240170,24.367520,0.999377,0.989854,0.004090,0.464904,-0.000008,0.000001,-0.000010,0.000007,-0.000014,-56.856229,0.000014,
2341,2533,1.81907808609818,-2.43392458321421,-0.0116360276241494,0.005016,-0.000335,0.002292,0.222200,0.043672,322.503609,23.935610,0.999233,0.984127,0.004738,0.461921,-0.000005,0.000004,0.000002,0.000005,-0.000005,80.192134,0.000006,
2296,2158,0.908931925358925,-10.6382514785642,0.0195131142556875,0.005036,-0.000516,0.006751,0.207798,0.046380,328.835030,23.305265,0.999411,0.982511,0.005263,0.376551,-0.000021,0.000004,-0.000016,0.000012,-0.000029,-63.679974,0.000029,
2101,2758,-3.44070791781894,2.46047158770045,-0.0138437481537608,0.005065,-0.000612,0.005621,0.216702,0.032364,319.421413,24.374235,0.999479,0.989692,0.003914,0.457467,-0.000002,0.000008,-0.000002,0.000008,-0.000002,-80.990245,0.000009,
2191,3178,-1.55491706909993,11.5833782758415,0.0299657855550777,0.004901,-0.000450,0.006972,0.204071,0.026482,312.573598,24.855283,0.999829,0.996306,0.002920,0.401281,-0.000002,0.000033,-0.000005,0.000034,-0.000003,-82.407883,0.000037,
2056,2668,-4.40421483637586,0.500825937134934,-0.0194392842944922,0.004797,-0.000261,0.001541,0.216516,0.035785,321.068579,24.386728,0.999324,0.989140,0.004194,0.457591,-0.000010,-0.000009,-0.000005,-0.000005,-0.000015,-48.780556,0.000020,
2296,2173,0.905753039156341,-10.3099044806369,0.0110602602304084,0.004914,-0.000408,0.002981,0.214937,0.042590,328.530533,23.217010,0.999403,0.981348,0.005359,0.493988,-0.000017,-0.000001,-0.000016,0.000008,-0.000027,-58.784332,0.000027,
2341,2548,1.8163061934386,-2.10717216231168,-0.00686241506622309,0.004974,-0.000678,0.006000,0.207250,0.049341,322.285379,23.952947,0.999094,0.982236,0.004975,0.487902,-0.000005,0.000013,0.000002,0.000013,-0.000005,83.895869,0.000013,
2101,2773,-3.44377656500804,2.78810725840105,-0.022528242232454,0.005010,-0.000464,0.006402,0.212033,0.056460,319.100171,24.409383,0.999558,0.991023,0.003802,0.448072,-0.000002,0.000004,-0.000002,0.000004,-0.000002,-73.417519,0.000004,
2056,2683,-4.40566966829988,0.826893466032033,-0.0157504966662145,0.005254,0.000022,-0.001307,0.245753,0.049929,320.885554,24.358342,0.999388,0.990468,0.004004,0.495073,-0.000007,-0.000025,-0.000008,-0.000004,-0.000028,-21.422090,0.000035,
2191,3193,-1.55704886323319,11.9078576188944,0.0382730592534699,0.004633,0.000014,0.004602,0.199397,0.050223,312.393135,24.831694,0.999719,0.995388,0.003122,0.461896,-0.000001,0.000031,-0.000004,0.000032,-0.000001,-82.194913,0.000036,
2296,2188,0.904033433792389,-9.98148021915521,0.0253999759537464,0.005084,-0.000428,0.006079,0.212327,0.061010,328.405182,23.360092,0.998881,0.979174,0.005609,0.401370,-0.000018,0.000005,-0.000015,0.000012,-0.000025,-64.142258,0.000025,
2056,2698,-4.40836659854416,1.15425835757237,-0.0229325303182577,0.005292,0.000409,-0.001751,0.248886,0.057825,320.585425,24.370567,0.999281,0.990308,0.003973,0.485734,0.000000,-0.000027,-0.000007,0.000001,-0.000028,-13.534504,0.000032,
2341,2563,1.812995457135,-1.7792582969321,-0.00824026398146316,0.004685,-0.000877,0.007309,0.189406,0.049485,322.012343,24.032313,0.999146,0.984595,0.004730,0.446411,-0.000004,0.000015,-0.000001,0.000015,-0.000004,-86.401900,0.000015,
2101,2788,-3.44590463340312,3.1134477000378,-0.0175036867844369,0.004906,-0.000413,0.005460,0.210005,0.054455,318.896938,24.371659,0.999499,0.990963,0.003911,0.484655,-0.000005,0.000016,0.000001,0.000016,-0.000005,87.076094,0.000017,
2116,2803,-3.12210249933502,3.44006368726664,-0.0102348114928645,0.004881,-0.000264,0.004296,0.212132,0.046249,318.646143,24.425947,0.999529,0.992078,0.003600,0.437325,0.000001,0.000014,-0.000003,0.000014,0.000000,-77.958937,0.000016,
2251,1993,-0.0455414013706452,-14.2552887081685,0.0072476706808402,0.004751,-0.001093,0.008748,0.188565,0.043761,331.426574,23.275202,0.999677,0.989885,0.004402,0.356919,0.000000,0.000056,-0.000022,0.000064,-0.000008,-70.752310,0.000069,
2161,2908,-2.16210252369997,5.72377994347367,-0.00495441290058807,0.004832,-0.000233,0.004505,0.208785,0.041329,316.795018,24.496791,0.999455,0.991153,0.003859,0.471320,0.000015,0.000025,0.000007,0.000028,0.000011,64.875486,0.000041,
2281,2188,0.576075501078989,-9.98109936730555,0.0206005698215108,0.004927,-0.000651,0.007688,0.199940,0.045184,328.368703,23.424349,0.998852,0.978693,0.005710,0.399062,-0.000012,0.000005,-0.000006,0.000007,-0.000014,-71.788382,0.000014,
2251,2008,-0.0481329030301687,-13.9273110188345,0.0175070941916715,0.004172,-0.001220,0.010602,0.155980,0.047170,331.238801,23.292957,0.999605,0.987806,0.004632,0.369341,-0.000007,0.000048,-0.000006,0.000049,-0.000008,-83.486717,0.000052,
2296,2203,0.901183623526212,-9.65202162358018,0.0181956691338883,0.005560,-0.000461,0.007037,0.230897,0.045268,328.121734,23.409615,0.998145,0.975596,0.006126,0.369099,-0.000021,0.000008,-0.000014,0.000014,-0.000027,-68.192692,0.000027,
2116,2818,-3.12453237994974,3.76634747572199,-0.0158752520316057,0.005163,-0.000253,0.002914,0.229207,0.034838,318.372448,24.410585,0.999457,0.991730,0.003747,0.444391,0.000006,0.000020,-0.000006,0.000022,0.000004,-70.737112,0.000028,
2161,2923,-2.16490260867093,6.05021233982971,-0.00373041475921809,0.004577,-0.000308,0.006033,0.192422,0.052345,316.544332,24.555161,0.999125,0.988116,0.004335,0.433510,0.000014,0.000027,0.000007,0.000030,0.000011,64.666926,0.000042,
2251,2023,-0.0496203914738338,-13.5987499426845,0.0286697178938766,0.004341,-0.000649,0.008348,0.171310,0.059845,331.105912,23.368669,0.999140,0.981431,0.005440,0.332648,-0.000011,0.000061,0.000004,0.000061,-0.000012,86.630728,0.000065,
2281,2203,0.573256857444655,-9.65231651400037,0.0172699269809868,0.005020,-0.000858,0.007362,0.205198,0.027082,328.104516,23.455211,0.998578,0.978932,0.005737,0.380570,-0.000015,0.000007,-0.000007,0.000009,-0.000017,-73.741179,0.000017,
2116,2833,-3.12762214470561,4.0931769533183,-0.0179336898587508,0.004880,-0.000567,0.006495,0.205473,0.033883,318.087552,24.467208,0.999654,0.992514,0.003611,0.390165,0.000005,0.000018,-0.000002,0.000018,0.000005,-79.651527,0.000024,
2296,2218,0.897850574788755,-9.32346406278447,0.0169712937821487,0.004949,-0.000476,0.005861,0.206881,0.048929,327.845664,23.426073,0.998654,0.978271,0.005714,0.389116,-0.000019,0.000005,-0.000018,0.000015,-0.000028,-61.904977,0.000028,
2161,2938,-2.16705307794731,6.37542052266154,0.00203711972670817,0.004710,-0.000467,0.008215,0.191829,0.057676,316.347833,24.542655,0.999249,0.988334,0.004303,0.460874,0.000014,0.000027,0.000007,0.000030,0.000012,67.467023,0.000043,
2251,2038,-0.0519679756301308,-13.2694457465585,0.0269979300750833,0.004763,-0.000454,0.008764,0.189361,0.080579,330.868938,23.364057,0.998972,0.979275,0.005574,0.384789,-0.000012,0.000054,0.000000,0.000054,-0.000012,89.943143,0.000056,
2281,2218,0.570011184652014,-9.32301549807406,0.0137950578534287,0.004518,-0.000482,0.004593,0.191601,0.058379,327.819709,23.488404,0.998743,0.980500,0.005534,0.409128,-0.000016,0.000005,-0.000011,0.000010,-0.000020,-66.560981,0.000020,
2116,2848,-3.12996092772982,4.41842063675153,-0.0148272554519053,0.004787,-0.000552,0.006650,0.200787,0.038012,317.865345,24.416251,0.999699,0.992825,0.003455,0.448654,0.000004,0.000022,0.000004,0.000023,0.000003,78.428880,0.000028,
2251,2053,-0.0543263927111255,-12.9410007520442,0.0296386689662427,0.004773,-0.000775,0.007863,0.192648,0.056470,330.653506,23.379749,0.998867,0.978733,0.005615,0.371664,-0.000015,0.000042,0.000000,0.000042,-0.000015,-89.504904,0.000043,
2161,2953,-2.16949306505694,6.70023685746983,0.00719034872980728,0.004487,-0.000848,0.008775,0.179683,0.033211,316.134977,24.522936,0.999445,0.990861,0.003786,0.465566,0.000014,0.000024,0.000006,0.000026,0.000011,65.810592,0.000038,
2296,2233,0.895455503776009,-8.99388123948649,0.0125029832868222,0.005298,0.000355,0.001700,0.237217,0.081068,327.596200,23.479466,0.998966,0.979561,0.005439,0.400298,-0.000019,-0.000005,-0.000015,0.000005,-0.000028,-57.248565,0.000030,
2281,2233,0.567562175351529,-8.99448713841755,0.0158484462329511,0.004635,-0.000718,0.004896,0.195864,0.046715,327.599134,23.556615,0.998933,0.979959,0.005445,0.359347,-0.000017,-0.000005,-0.000009,-0.000001,-0.000022,-62.069020,0.000026,
2116,2863,-3.13188313137745,4.74409051709603,-0.00891356169188384,0.004919,-0.000458,0.006582,0.207102,0.037873,317.677219,24.433287,0.999715,0.992191,0.003507,0.434311,0.000009,0.000022,0.000005,0.000024,0.000007,71.615086,0.000032,
2251,2068,-0.0566501970271567,-12.6121461125176,0.0315731517205222,0.004768,-0.000267,0.005602,0.200019,0.060425,330.435874,23.402021,0.999044,0.980462,0.005382,0.379882,-0.000015,0.000021,0.000000,0.000021,-0.000015,89.582718,0.000021,
2161,2968,-2.17177158154517,7.02631414201993,0.00649539875672644,0.004747,-0.001029,0.008219,0.193334,0.024125,315.898225,24.566821,0.999671,0.992802,0.003375,0.421910,0.000013,0.000025,0.000005,0.000027,0.000011,69.719971,0.000040,
2296,2248,0.892252146701306,-8.66673957755904,0.011621215992875,0.005015,-0.000529,0.003598,0.217547,0.037707,327.328095,23.428033,0.999119,0.981993,0.005202,0.440842,-0.000016,-0.000008,-0.000013,0.000001,-0.000025,-53.794524,0.000029,
2116,2878,-3.13454715874153,5.0696681649789,-0.00962379039413008,0.004719,-0.000427,0.006213,0.198974,0.030791,317.419501,24.403774,0.999581,0.991695,0.003740,0.460005,0.000015,0.000032,0.000004,0.000032,0.000014,78.183670,0.000048,
2281,2248,0.564938070721134,-8.66733226124127,0.0145961816980389,0.004747,-0.001028,0.004381,0.202647,0.022332,327.354337,23.483088,0.999172,0.980914,0.005297,0.438681,-0.000016,-0.000008,-0.000006,-0.000004,-0.000020,-61.816406,0.000025,
2251,2083,-0.0603162214406865,-12.281671925092,0.021223758630299,0.004755,-0.000948,0.009450,0.186643,0.041746,330.094887,23.464573,0.999202,0.981174,0.005382,0.325890,-0.000009,0.000026,0.000000,0.000026,-0.000009,89.542236,0.000026,
2161,2983,-2.17487703584277,7.35278747400885,0.00152891748058437,0.004544,-0.000630,0.008818,0.182294,0.042624,315.600781,24.594789,0.999571,0.992945,0.003448,0.421864,0.000011,0.000021,0.000004,0.000023,0.000010,71.236111,0.000033,
2116,2893,-3.13743749649327,5.39625759215662,-0.0163988926616412,0.004684,-0.000457,0.005754,0.198737,0.030778,317.118436,24.420539,0.999384,0.991544,0.004056,0.446418,0.000007,0.000022,0.000006,0.000024,0.000005,71.156486,0.000031,
2296,2263,0.888608130447718,-8.33643110088276,0.00255103971880999,0.004988,-0.000941,0.006480,0.206511,0.022886,326.998710,23.559372,0.999548,0.987448,0.004625,0.327339,-0.000018,-0.000001,-0.000014,0.000007,-0.000025,-61.043991,0.000026,
2251,2098,-0.0624150954754761,-11.9530529000016,0.0206667010651245,0.004943,-0.000512,0.004226,0.212472,0.031102,329.875035,23.463800,0.999217,0.980052,0.005628,0.342352,-0.000007,0.000024,-0.000002,0.000024,-0.000007,-86.029377,0.000025,
2191,3208,-1.55968342559739,12.2327554347336,0.0383886127995652,0.004677,-0.000379,0.005874,0.197311,0.038797,312.146664,24.836960,0.999466,0.993108,0.003664,0.458207,0.000002,0.000030,-0.000004,0.000030,0.000001,-81.885834,0.000036,
2026,2218,-4.98711434192498,-9.3212246805212,0.00518215241072539,0.005177,-0.000494,0.005315,0.223063,0.028340,328.714122,24.677263,0.998586,0.980107,0.005609,0.420882,-0.000003,0.000057,0.000004,0.000057,-0.000004,86.459348,0.000064,
2311,2233,1.22219559176162,-8.99444668406242,0.0123727198180177,0.004840,-0.000128,0.002692,0.212605,0.067839,327.559250,23.376267,0.998745,0.977833,0.005717,0.419692,-0.000013,-0.000012,-0.000012,0.000000,-0.000025,-45.990802,0.000029,
2041,2428,-4.69365694061529,-4.73087994053072,-0.0108271936297797,0.004606,-0.000748,0.007818,0.189916,0.058982,325.078168,24.514952,0.998845,0.984409,0.004874,0.464410,0.000029,0.000010,-0.000007,0.000031,0.000008,-18.818162,0.000042,
2116,2908,-3.13902692399268,5.72170408637476,-0.00578008222072413,0.004775,-0.000276,0.004535,0.206677,0.045672,316.970952,24.447579,0.999264,0.989943,0.004171,0.437151,0.000007,0.000021,0.000007,0.000024,0.000004,66.686880,0.000030,
2101,2803,-3.44905025888248,3.43951666991838,-0.0174381779978603,0.004381,-0.000769,0.008829,0.175825,0.028840,318.620075,24.390085,0.999405,0.991335,0.003808,0.441945,-0.000003,0.000014,-0.000001,0.000014,-0.000003,-86.077508,0.000015,
2251,2113,-0.0654309654294281,-11.624225876853,0.0222138437089257,0.004437,-0.000238,0.004178,0.189559,0.049187,329.623638,23.481891,0.999067,0.979924,0.005533,0.368839,-0.000005,0.000014,-0.000003,0.000014,-0.000005,-81.778260,0.000014,
2191,3223,-1.56233105297764,12.5586047963529,0.0373098805536074,0.004750,-0.000208,0.006538,0.198653,0.043565,311.892979,24.910729,0.999669,0.994392,0.003254,0.402227,0.000003,0.000037,-0.000005,0.000038,0.000002,-81.210515,0.000046,
2026,2233,-4.98967045755633,-8.99150955889867,0.00351238521659525,0.004966,-0.000249,0.005898,0.211896,0.065035,328.447248,24.763122,0.999353,0.985039,0.004836,0.364473,-0.000004,0.000058,-0.000009,0.000059,-0.000005,-81.849999,0.000066,
2041,2443,-4.69492356889706,-4.40473654047048,-0.00127404403707487,0.004833,-0.000248,0.004888,0.208634,0.042052,324.934873,24.506680,0.998724,0.982963,0.005221,0.449353,0.000026,0.000017,-0.000007,0.000030,0.000013,-29.441533,0.000044,
2116,2923,-3.14076411947792,6.04693033846667,-0.00206002764775803,0.005085,-0.000190,0.002064,0.228286,0.038267,316.779702,24.430208,0.998915,0.988387,0.004432,0.450045,0.000009,0.000024,0.000010,0.000029,0.000004,63.199007,0.000037,
2311,2248,1.21950196501872,-8.66660244506461,0.0136070410257503,0.004770,-0.000162,0.002314,0.210700,0.056434,327.325904,23.378953,0.998791,0.980049,0.005446,0.440081,-0.000010,-0.000015,-0.000010,-0.000002,-0.000023,-37.365220,0.000028,
2191,3238,-1.56405313604321,12.88243335044,0.0449304563612145,0.004856,-0.000078,0.002896,0.215076,0.046976,311.728010,24.852541,0.999736,0.994253,0.003176,0.477287,0.000005,0.000034,-0.000004,0.000035,0.000004,-82.073064,0.000043,
2041,2458,-4.69767896139653,-4.07737231520458,-0.00477391441808095,0.004566,-0.000314,0.005147,0.195666,0.049478,324.650929,24.468494,0.998773,0.982761,0.005294,0.488878,0.000029,0.000007,-0.000020,0.000041,-0.000005,-30.948956,0.000045,
2026,2248,-4.99203975569836,-8.66534943110107,0.00581987321783117,0.004708,-0.000748,0.006801,0.197416,0.037887,328.212094,24.634419,0.999368,0.986239,0.004640,0.458702,-0.000005,0.000055,-0.000024,0.000063,-0.000013,-70.999201,0.000067,
2251,2128,-0.0678297947787705,-11.2953259733324,0.0188678904464723,0.004788,0.000023,0.002578,0.210958,0.053836,329.375845,23.472165,0.998760,0.978712,0.005627,0.409794,-0.000003,0.000012,-0.000002,0.000012,-0.000004,-83.825078,0.000012,
2101,2818,-3.4510465786882,3.76612970824385,-0.0199836680697558,0.004670,-0.000257,0.004306,0.202534,0.034569,318.381530,24.411566,0.999352,0.992019,0.003727,0.427387,0.000003,0.000021,-0.000005,0.000023,0.000001,-74.758663,0.000027,
2191,3253,-1.56761294521022,13.2077700620285,0.0373250308723527,0.004727,-0.000333,0.007368,0.194993,0.045656,311.398476,24.856002,0.999673,0.993816,0.003249,0.485356,0.000008,0.000035,0.000002,0.000035,0.000008,86.465556,0.000045,
2116,2938,-3.14378914911556,6.37319485111037,-0.00584218026256167,0.004682,-0.000082,0.000925,0.213163,0.042353,316.488652,24.447787,0.999299,0.990155,0.004049,0.439510,0.000011,0.000025,0.000010,0.000030,0.000006,62.332155,0.000039,
2041,2473,-4.70029867808872,-3.74932904483958,-0.00939980757868852,0.004606,-0.000700,0.006962,0.192350,0.050353,324.366811,24.493912,0.998770,0.982721,0.005217,0.458162,0.000032,-0.000002,-0.000017,0.000039,-0.000009,-22.449829,0.000041,
2026,2263,-4.99389933403932,-8.33595197333272,0.00337318551373755,0.005019,-0.000439,0.003644,0.220502,0.035301,327.972984,24.732965,0.999010,0.981818,0.005084,0.350149,-0.000002,0.000035,-0.000019,0.000043,-0.000011,-66.785919,0.000045,
2311,2263,1.21700455958892,-8.33811713776785,0.0171015392096479,0.005146,-0.000578,0.007419,0.210389,0.063956,327.112409,23.449347,0.999154,0.983118,0.005014,0.411516,-0.000013,-0.000007,-0.000011,0.000002,-0.000021,-51.727356,0.000024,
2251,2143,-0.0703754698284733,-10.9665739322002,0.0210064389822264,0.004906,-0.000349,0.005187,0.207761,0.067235,329.148912,23.505015,0.998888,0.980628,0.005403,0.416428,-0.000008,0.000007,0.000003,0.000008,-0.000009,78.133923,0.000010,
2191,3268,-1.57104419906226,13.5331796072457,0.0234200374865736,0.004748,-0.000355,0.005848,0.200672,0.024213,311.041886,24.856274,0.999468,0.991643,0.003642,0.476798,0.000012,0.000039,0.000005,0.000040,0.000011,79.669206,0.000054,
2041,2488,-4.70160854804852,-3.42270566281839,-0.00407651957823418,0.005140,-0.000342,0.005431,0.221343,0.065833,324.197975,24.471135,0.999386,0.987303,0.004558,0.489725,0.000028,0.000000,-0.000015,0.000035,-0.000006,-23.010884,0.000037,
2116,2953,-3.14623233509722,6.69890568974948,-0.00162331557936568,0.004682,-0.000245,0.005007,0.201046,0.044554,316.267533,24.476867,0.999526,0.990765,0.003789,0.415396,0.000013,0.000022,0.000010,0.000028,0.000006,56.621891,0.000037,
2101,2833,-3.45341058709107,4.09175726364797,-0.0167800715540807,0.004703,-0.000782,0.007253,0.195264,0.018557,318.157593,24.412367,0.999635,0.993322,0.003403,0.411457,0.000002,0.000016,-0.000004,0.000017,0.000001,-76.528817,0.000020,
2026,2278,-4.99599127452371,-8.00892416067901,0.00403944586975058,0.004927,-0.000254,0.000933,0.223762,0.035480,327.741101,24.649558,0.998507,0.982254,0.005379,0.426204,0.000004,0.000017,-0.000025,0.000037,-0.000015,-52.164211,0.000037,
2191,3283,-1.5732720862564,13.8584641829948,0.02102308938953,0.004862,-0.000091,-0.000419,0.225724,0.024794,310.800743,24.891203,0.999640,0.994203,0.003152,0.455469,0.000013,0.000046,0.000010,0.000049,0.000010,74.247719,0.000064,
2041,2503,-4.70462332412147,-3.09515605437197,-0.010739203656783,0.004823,-0.000183,0.005857,0.205606,0.064262,323.884678,24.445739,0.999496,0.989034,0.004168,0.507521,0.000032,0.000020,-0.000015,0.000042,0.000010,-34.794461,0.000055,
2311,2278,1.21441768361824,-8.00901903458158,0.0147789001795218,0.005217,-0.000173,0.003837,0.226054,0.072385,326.866149,23.520649,0.999222,0.983051,0.004887,0.383196,-0.000010,0.000001,-0.000014,0.000010,-0.000020,-56.007341,0.000020,
2191,3298,-1.5774720606348,14.1851802788692,0.00308519820595166,0.004658,-0.000053,0.001900,0.209119,0.036649,310.387129,24.967719,0.999802,0.995963,0.002776,0.403467,0.000016,0.000054,0.000003,0.000054,0.000016,85.186087,0.000074,
2101,2848,-3.45593246041739,4.41736748685593,-0.0185838388130719,0.004605,-0.000467,0.005642,0.195644,0.041410,317.899259,24.339363,0.999788,0.994093,0.003176,0.508426,0.000001,0.000020,0.000003,0.000020,0.000001,82.268423,0.000024,
2206,1993,-1.02594764827845,-14.2571781506158,0.0310600319375567,0.004982,-0.000326,0.004625,0.213434,0.042868,331.747449,23.578062,0.999452,0.983197,0.004996,0.369231,-0.000021,0.000022,-0.000030,0.000037,-0.000036,-63.009900,0.000042,
2161,2998,-2.17689441538161,7.67784920982223,0.00903359659326952,0.004459,-0.000504,0.007411,0.182753,0.044328,315.419608,24.598814,0.999620,0.992594,0.003635,0.428825,0.000009,0.000018,0.000002,0.000018,0.000008,80.593824,0.000027,
2296,2278,0.886299882585067,-8.0096259225451,0.0124310674469257,0.004874,-0.001107,0.009332,0.191586,0.049102,326.824405,23.527704,0.999435,0.985914,0.004705,0.417040,-0.000015,0.000003,-0.000016,0.000013,-0.000024,-59.934492,0.000024,
2311,2293,1.2110081218589,-7.68111792507419,0.0110879702574493,0.004939,-0.000213,0.005318,0.208257,0.082645,326.575616,23.472601,0.999264,0.984513,0.004875,0.475893,-0.000011,0.000001,-0.000004,0.000002,-0.000012,-73.673690,0.000013,
2101,2863,-3.45749966649639,4.74332452969735,-0.00922396625668398,0.004860,-0.000426,0.005673,0.207286,0.036713,317.745062,24.412718,0.999644,0.992313,0.003576,0.431368,0.000007,0.000021,0.000005,0.000023,0.000006,73.464587,0.000030,
2206,2008,-1.0281362043163,-13.9293990900969,0.0374414476095239,0.004961,-0.000726,0.005870,0.208467,0.013172,331.555530,23.564218,0.999265,0.980191,0.005381,0.373546,-0.000021,0.000027,-0.000013,0.000030,-0.000024,-76.064471,0.000032,
2161,3013,-2.17913765716268,8.00356990135248,0.00737882172120408,0.004749,-0.000241,0.005786,0.201213,0.048573,315.179479,24.602591,0.999392,0.990177,0.004052,0.438656,0.000010,0.000018,-0.000003,0.000019,0.000010,-71.985127,0.000029,
2296,2293,0.883460044884753,-7.68086133026794,0.0136033850300805,0.004702,-0.000977,0.009747,0.182411,0.056934,326.582486,23.609764,0.999320,0.985400,0.004784,0.375195,-0.000016,0.000003,-0.000005,0.000004,-0.000018,-75.329729,0.000018,
2206,2023,-1.03007138648537,-13.6006625078587,0.0427016983676367,0.005161,-0.000530,0.005446,0.219053,0.022647,331.369081,23.590401,0.998888,0.979864,0.005575,0.376742,-0.000018,0.000044,-0.000003,0.000044,-0.000018,-87.082080,0.000045,
2311,2308,1.20686339549715,-7.35125529160285,-0.00355722656695434,0.004850,-0.000578,0.008030,0.194833,0.065959,326.197409,23.527157,0.999372,0.986867,0.004775,0.439678,-0.000009,-0.000002,0.000005,0.000000,-0.000012,61.580953,0.000013,
2101,2878,-3.46012553199884,5.06881412075374,-0.0120076133449061,0.004792,-0.000557,0.005104,0.205787,0.022378,317.476779,24.366838,0.999676,0.992204,0.003639,0.463641,0.000014,0.000031,0.000003,0.000031,0.000013,81.229121,0.000046,
2206,2038,-1.03360494713525,-13.2696570548607,0.0318539938280082,0.004866,-0.000061,0.004682,0.208078,0.070513,331.026320,23.609241,0.998948,0.979276,0.005516,0.426809,-0.000011,0.000040,0.000001,0.000040,-0.000011,89.182432,0.000041,
2161,3028,-2.18116629899024,8.32870792735182,0.0121869760577056,0.004961,-0.000367,0.006224,0.209590,0.041585,314.983537,24.611118,0.999263,0.988650,0.004470,0.432661,0.000012,0.000017,-0.000004,0.000019,0.000009,-59.090155,0.000029,
2101,2893,-3.46206471847857,5.39435483602068,-0.00619896839333478,0.004885,-0.000270,0.004860,0.210918,0.042179,317.286424,24.358622,0.999452,0.992135,0.003842,0.492758,0.000005,0.000021,0.000004,0.000022,0.000004,77.402499,0.000028,
2311,2323,1.20456555355274,-7.02380270260389,0.000623042328754764,0.004969,-0.000928,0.007748,0.201113,0.046443,325.996519,23.557724,0.999161,0.983381,0.005110,0.423620,-0.000008,-0.000004,0.000009,0.000003,-0.000015,52.467329,0.000016,
2296,2308,0.880359549635479,-7.35307461809216,0.00634617848834296,0.004787,-0.000706,0.008873,0.189379,0.056405,326.287135,23.531617,0.999235,0.984443,0.005049,0.484929,-0.000015,-0.000001,0.000003,0.000000,-0.000015,78.168670,0.000018,
2206,2053,-1.03716033320557,-12.9387664929029,0.0200784822162063,0.004593,-0.000237,0.003549,0.199152,0.039275,330.678190,23.693210,0.998861,0.975532,0.005822,0.332371,-0.000010,0.000035,0.000004,0.000035,-0.000011,84.458219,0.000036,
2161,3043,-2.18286522762583,8.65371768035229,0.023336662165093,0.004931,-0.000328,0.004436,0.213688,0.036176,314.836269,24.651231,0.999510,0.992650,0.003653,0.395932,0.000011,0.000014,-0.000009,0.000021,0.000003,-49.184782,0.000027,
2101,2908,-3.4641832041983,5.72010456611741,0.00187278027885895,0.004734,-0.000392,0.005811,0.201220,0.049554,317.100067,24.401733,0.999337,0.991743,0.003943,0.457654,0.000004,0.000020,0.000006,0.000021,0.000002,72.457952,0.000026,
2311,2338,1.20183288252428,-6.69634483885583,0.00334642229410065,0.005025,-0.001268,0.011008,0.192472,0.051800,325.768413,23.554170,0.999214,0.983285,0.004914,0.466610,-0.000007,0.000001,0.000004,0.000002,-0.000008,66.903565,0.000008,
2206,2068,-1.03874277826239,-12.6113308167886,0.0315120733567369,0.004897,-0.000240,0.005740,0.206140,0.058231,330.539658,23.676380,0.999111,0.978518,0.005564,0.387628,-0.000009,0.000014,0.000003,0.000015,-0.000009,82.310175,0.000015,
2296,2323,0.87814555342867,-7.02509756329391,0.00856993459120758,0.005091,-0.000908,0.008306,0.205159,0.046714,326.079200,23.579992,0.998993,0.982481,0.005387,0.458738,-0.000013,-0.000003,0.000006,0.000000,-0.000016,63.997296,0.000018,
2101,2923,-3.46659743821404,6.04594250594037,0.000595764684476308,0.004734,-0.000363,0.004380,0.205377,0.034781,316.849549,24.411563,0.999183,0.990147,0.004113,0.433646,0.000006,0.000023,0.000009,0.000027,0.000002,67.810174,0.000032,
2161,3058,-2.18443957761517,8.9775703412981,0.0348129827131629,0.004983,-0.000144,0.002386,0.222432,0.030584,314.696860,24.589601,0.999631,0.994668,0.003412,0.461226,0.000012,0.000014,-0.000012,0.000025,0.000001,-47.466223,0.000030,
2206,2083,-1.04183355230602,-12.2819803524797,0.0241760491065293,0.004921,-0.000445,0.006757,0.203991,0.069319,330.235498,23.639218,0.999058,0.977873,0.005660,0.456113,-0.000003,0.000020,0.000002,0.000020,-0.000004,85.397406,0.000021,
2311,2353,1.19871476498817,-6.36724860505626,-0.000862639283013777,0.004600,-0.000546,0.005978,0.190414,0.052896,325.488325,23.641693,0.999391,0.985345,0.004597,0.414459,-0.000005,-0.000013,0.000001,-0.000005,-0.000013,7.876940,0.000018,
2296,2338,0.874806469754692,-6.6964506663518,0.00375346972793977,0.004852,-0.000999,0.008552,0.193377,0.056000,325.784698,23.606344,0.999235,0.984351,0.004901,0.473908,-0.000012,0.000001,0.000003,0.000002,-0.000013,78.500455,0.000014,
2251,2158,-0.07243190978242,-10.6381452442726,0.0214132497487185,0.005025,0.000211,-0.000682,0.232581,0.051056,328.935804,23.524333,0.998516,0.979954,0.005462,0.406980,-0.000006,-0.000004,0.000003,-0.000002,-0.000009,53.450549,0.000011,
2026,2293,-4.99850962025533,-7.68067081120842,0.00593567306503928,0.004841,-0.000528,0.006480,0.204551,0.072586,327.496168,24.658696,0.998421,0.982530,0.005377,0.446462,0.000021,0.000036,-0.000015,0.000045,0.000012,-57.778344,0.000060,
2101,2938,-3.46911010203398,6.37182478348632,-0.00114312810967476,0.004673,-0.000400,0.003047,0.206505,0.033921,316.591978,24.412764,0.999182,0.990035,0.004120,0.432431,0.000007,0.000024,0.000010,0.000028,0.000003,64.808664,0.000034,
2071,2473,-4.04689473960735,-3.75068896818484,0.00286169054555785,0.004858,-0.000939,0.005325,0.207968,0.021281,324.317123,24.394315,0.999375,0.988857,0.004451,0.459131,0.000015,-0.000007,-0.000020,0.000027,-0.000019,-30.045449,0.000027,
2341,2578,1.81016223300328,-1.45197656617975,-0.0122179696692228,0.004695,-0.000400,0.003762,0.202356,0.036601,321.748739,24.048871,0.999105,0.984797,0.004631,0.454413,0.000004,0.000023,0.000002,0.000023,0.000004,84.554203,0.000029,
2026,2308,-5.00100716870345,-7.35227104047895,-0.000212195092387901,0.005074,-0.001030,0.008901,0.208486,0.031487,327.207775,24.683708,0.998752,0.982408,0.005248,0.372866,0.000020,0.000021,-0.000029,0.000050,-0.000008,-45.522285,0.000053,
2101,2953,-3.47173404045406,6.69773513315862,-0.00226037820823421,0.004793,-0.000561,0.006869,0.200812,0.042792,316.332645,24.415650,0.999379,0.990900,0.003848,0.439107,0.000011,0.000020,0.000010,0.000026,0.000005,57.887324,0.000033,
2251,2173,-0.0760102755157028,-10.3096288323262,0.0201537796246498,0.004610,-0.000542,0.005494,0.193152,0.071161,328.644448,23.503338,0.999094,0.983871,0.005039,0.474429,-0.000006,-0.000010,0.000004,-0.000003,-0.000013,31.082407,0.000017,
2071,2488,-4.04970857044363,-3.42231707954223,-0.00494367185541478,0.004749,-0.000291,0.003697,0.207853,0.046791,324.009315,24.401531,0.999507,0.990312,0.004241,0.475522,0.000013,-0.000004,-0.000014,0.000021,-0.000012,-30.171714,0.000021,
2026,2323,-5.00306609459124,-7.0250705880931,0.000828196854172347,0.004912,-0.000601,0.004736,0.212636,0.040072,326.979468,24.626808,0.998981,0.983629,0.005022,0.430606,0.000027,0.000022,-0.000035,0.000060,-0.000011,-42.687598,0.000064,
2341,2593,1.80722191580987,-1.12402439875296,-0.012819096045007,0.004901,-0.000601,0.007468,0.198900,0.048151,321.496309,24.137114,0.999333,0.987043,0.004391,0.415223,0.000006,0.000013,0.000002,0.000013,0.000006,77.050869,0.000020,
2101,2968,-3.47358357880421,7.02264435127068,0.00829590465832553,0.004736,-0.000812,0.007476,0.196326,0.023906,316.172452,24.439061,0.999557,0.990741,0.003714,0.397034,0.000011,0.000018,0.000008,0.000023,0.000006,57.272570,0.000031,
2071,2503,-4.05215188315884,-3.09471247971732,-0.012547208503463,0.004915,-0.000140,0.000703,0.224054,0.037640,323.719868,24.380774,0.999391,0.989568,0.004159,0.485482,0.000019,0.000016,-0.000012,0.000030,0.000005,-42.153883,0.000038,
2026,2338,-5.00557904090033,-6.69830228582178,0.00631245895556276,0.004464,-0.000880,0.007740,0.183709,0.023301,326.755369,24.604376,0.999078,0.985850,0.004684,0.428402,0.000025,-0.000005,-0.000048,0.000061,-0.000040,-36.314330,0.000062,
2251,2188,-0.0791523459738137,-9.97886595438419,0.0153752678039041,0.004632,-0.000745,0.007942,0.186137,0.061601,328.355093,23.685290,0.999490,0.989303,0.004402,0.309299,-0.000007,-0.000005,0.000004,-0.000002,-0.000010,50.972527,0.000013,
2341,2608,1.8036502398351,-0.795882034369733,-0.025578035725573,0.005087,-0.000535,0.007042,0.208957,0.060754,321.155858,24.142138,0.999312,0.985756,0.004626,0.460383,0.000005,0.000006,0.000002,0.000008,0.000003,51.975031,0.000011,
2101,2983,-3.47597504787104,7.34809840875009,0.00808769067123194,0.004766,-0.000727,0.007124,0.198783,0.031392,315.928882,24.415369,0.999608,0.992298,0.003485,0.429014,0.000006,0.000014,0.000009,0.000020,0.000001,57.121271,0.000023,
2026,2353,-5.00754353596524,-6.36902665852319,-2.08218030479657E-05,0.004983,-0.000261,0.005736,0.213275,0.066944,326.489769,24.639596,0.999060,0.986267,0.004797,0.428948,0.000029,-0.000007,-0.000043,0.000057,-0.000035,-33.584168,0.000058,
2071,2518,-4.05486547648288,-2.76756799426394,-0.0130942558093921,0.004801,-0.000642,0.004575,0.207653,0.025851,323.456750,24.390003,0.999472,0.990339,0.003947,0.462486,0.000019,0.000023,-0.000006,0.000028,0.000014,-55.621334,0.000043,
2251,2203,-0.0817163634301927,-9.65273072022521,0.01509584837288,0.004732,-0.001084,0.008365,0.189228,0.035920,328.115594,23.513855,0.998993,0.984009,0.005094,0.480791,-0.000009,-0.000005,0.000003,-0.000003,-0.000011,61.650895,0.000015,
2341,2623,1.80131344891884,-0.469766465813713,-0.0184932379096381,0.005015,-0.000608,0.006981,0.205869,0.054750,320.968731,24.155306,0.999296,0.986886,0.004457,0.478413,0.000003,0.000013,-0.000005,0.000015,0.000001,-66.966021,0.000018,
2101,2998,-3.47851646515196,7.67432889667486,0.00199523275324509,0.004803,-0.000414,0.003300,0.211827,0.037925,315.646287,24.428342,0.999626,0.992671,0.003438,0.423173,0.000003,0.000016,0.000009,0.000020,-0.000002,63.467430,0.000022,
2026,2368,-5.00972096472469,-6.04213256279827,0.000777672701588017,0.004888,-0.000069,0.004319,0.212903,0.084932,326.254808,24.557930,0.999189,0.986815,0.004693,0.520665,0.000046,0.000007,-0.000039,0.000071,-0.000017,-31.799373,0.000074,
2071,2533,-4.05659140771133,-2.43965374785419,-0.0125227238813181,0.005231,0.000072,0.002410,0.233881,0.077791,323.244531,24.420931,0.999426,0.989975,0.004062,0.481193,0.000011,0.000028,0.000001,0.000028,0.000011,87.244456,0.000040,
2026,2383,-5.01215876121776,-5.71482891033901,0.00355864065818423,0.004550,-0.000477,0.005023,0.195327,0.061881,326.019065,24.578541,0.999470,0.988921,0.004062,0.468749,0.000047,0.000014,-0.000039,0.000073,-0.000012,-33.548765,0.000078,
2251,2218,-0.083278528994299,-9.32335500743108,0.0146431878434896,0.005248,-0.000131,0.000128,0.240114,0.038447,327.920418,23.613385,0.998452,0.977695,0.005876,0.409597,-0.000009,0.000003,0.000001,0.000003,-0.000010,83.837643,0.000010,
2341,2638,1.79871212871218,-0.143301788639789,-0.0127656314012938,0.004666,-0.000350,0.005378,0.195503,0.046256,320.762769,24.195219,0.999283,0.986679,0.004507,0.467177,0.000000,0.000013,-0.000013,0.000021,-0.000008,-58.773375,0.000021,
2101,3013,-3.4806685813288,7.99881996405219,0.00815040324897609,0.004928,-0.000503,0.007033,0.206596,0.030768,315.448542,24.381987,0.999382,0.991420,0.003646,0.462725,0.000005,0.000024,0.000004,0.000025,0.000004,78.806105,0.000032,
2071,2548,-4.05955322656844,-2.11276709199353,-0.0188928420357115,0.005020,-0.000230,0.002862,0.222816,0.063065,322.938307,24.367571,0.999440,0.990054,0.004120,0.517845,0.000011,0.000022,0.000007,0.000026,0.000008,63.286448,0.000035,
2026,2398,-5.0142983963922,-5.38745734458012,0.00263159113427491,0.004810,-0.000467,0.007039,0.201759,0.034871,325.776333,24.578407,0.999409,0.989045,0.004104,0.433784,0.000041,-0.000007,-0.000038,0.000061,-0.000028,-28.762361,0.000061,
2101,3028,-3.48287668237198,8.32433158251468,0.00780428955374646,0.005009,-0.000316,0.004386,0.218144,0.025930,315.212648,24.387270,0.999211,0.990963,0.003801,0.453092,0.000009,0.000025,0.000002,0.000025,0.000008,81.666360,0.000035,
2341,2653,1.79510994559861,0.184759910551392,-0.0238139743241277,0.004711,-0.000425,0.005188,0.198240,0.045991,320.429070,24.236759,0.999425,0.988194,0.004325,0.462760,-0.000002,0.000018,-0.000014,0.000026,-0.000009,-63.069193,0.000026,
2071,2563,-4.06226496739576,-1.78493198282607,-0.0229449796519248,0.004935,-0.000154,0.003550,0.216987,0.058983,322.655905,24.416442,0.999196,0.988482,0.004351,0.462690,0.000008,0.000024,0.000006,0.000026,0.000006,70.721419,0.000033,
2251,2233,-0.0869330642789343,-8.99446608676504,0.00818200818491732,0.004899,-0.000492,0.003038,0.214542,0.035668,327.599256,23.617414,0.998654,0.978979,0.005630,0.428954,-0.000011,-0.000001,0.000002,0.000000,-0.000011,77.403798,0.000013,
2221,3238,-0.91452849534069,12.8861708867693,0.0335598210144212,0.004579,-0.000237,0.002780,0.202270,0.022973,311.533454,25.064765,0.999679,0.993468,0.003344,0.396547,0.000014,0.000026,0.000004,0.000027,0.000013,74.529529,0.000041,
2206,2098,-1.04469484721862,-11.952818883446,0.0212861723311448,0.004653,-0.000458,0.004656,0.198387,0.045080,329.964860,23.675149,0.999147,0.980773,0.005391,0.416119,-0.000003,0.000027,0.000004,0.000028,-0.000003,82.087860,0.000031,
2056,2713,-4.41083464096445,1.48093140756181,-0.0254338259499605,0.005503,-0.000162,0.001517,0.249249,0.052652,320.321804,24.375800,0.999073,0.989047,0.004105,0.470179,0.000007,-0.000013,-0.000010,0.000012,-0.000017,-22.561794,0.000018,
2041,2518,-4.70710585292996,-2.76824455888602,-0.0117203135230852,0.004702,-0.000475,0.006407,0.198450,0.045023,323.627402,24.436345,0.999339,0.989644,0.004168,0.491032,0.000025,0.000024,-0.000007,0.000031,0.000018,-43.339459,0.000050,
2071,2578,-4.0649252528859,-1.45817084300089,-0.0234986894470239,0.004824,-0.000499,0.006509,0.203351,0.050882,322.395294,24.406798,0.999015,0.988309,0.004462,0.462111,-0.000006,0.000017,0.000008,0.000020,-0.000008,73.547340,0.000020,
2221,3253,-0.917512963416851,13.2107661170811,0.0279254241684725,0.004761,-0.000462,0.004545,0.204859,0.007599,311.243366,25.026167,0.999610,0.993761,0.003297,0.437273,0.000015,0.000026,0.000009,0.000031,0.000010,60.550911,0.000043,
2041,2533,-4.709414681492,-2.44110995248559,-0.010576849174015,0.004716,-0.000997,0.008359,0.193542,0.035407,323.389750,24.461665,0.999274,0.989310,0.004046,0.449673,0.000015,0.000023,0.000001,0.000024,0.000015,85.049714,0.000039,
2056,2728,-4.4138057993676,1.80723994071041,-0.0245341298140147,0.005093,-0.000588,0.006277,0.216852,0.047883,320.053997,24.379464,0.999225,0.989880,0.003990,0.456796,0.000004,0.000002,-0.000003,0.000006,0.000000,-38.085949,0.000007,
2071,2593,-4.06732019478001,-1.13141522743723,-0.0207495250294301,0.004743,-0.000591,0.008960,0.192600,0.052708,322.164871,24.420096,0.999027,0.987992,0.004382,0.448107,-0.000003,0.000019,0.000014,0.000025,-0.000010,64.671548,0.000026,
2206,2113,-1.04687275372719,-11.6243595518713,0.0212724864786082,0.004947,-0.000388,0.003727,0.214804,0.051572,329.740164,23.653385,0.998971,0.981525,0.005210,0.464078,-0.000002,0.000019,0.000003,0.000019,-0.000003,81.227613,0.000021,
2221,3268,-0.920229399576865,13.5355217300645,0.0234237609580532,0.004958,-0.000466,0.003819,0.216349,0.011972,310.971349,24.993381,0.999489,0.993256,0.003442,0.491860,0.000019,0.000034,0.000012,0.000041,0.000012,60.632776,0.000055,
2041,2548,-4.71231426766063,-2.11323676684756,-0.0216472866742947,0.004624,-0.000592,0.006068,0.195761,0.026257,323.057261,24.450600,0.999488,0.990173,0.003847,0.445336,0.000013,0.000014,0.000002,0.000016,0.000011,55.360281,0.000027,
2056,2743,-4.41690338702466,2.13288387891144,-0.0246416200579347,0.004414,-0.000937,0.007712,0.181404,0.029238,319.775097,24.332355,0.999380,0.990898,0.003873,0.480053,-0.000004,0.000017,-0.000001,0.000017,-0.000004,-87.370419,0.000018,
2071,2608,-4.0699686778008,-0.803912023692206,-0.0229847519676696,0.004654,-0.000807,0.010282,0.184700,0.054594,321.895378,24.463374,0.999187,0.989411,0.004126,0.404142,0.000000,0.000011,0.000014,0.000020,-0.000010,55.980898,0.000020,
2206,2128,-1.04956891890792,-11.2957332800761,0.0230137019948415,0.004769,-0.000610,0.005163,0.202087,0.043471,329.500830,23.685848,0.998972,0.981100,0.005291,0.443121,-0.000002,0.000012,0.000005,0.000014,-0.000004,72.315106,0.000014,
2221,3283,-0.923783319929679,13.8628302310597,0.00888730229354451,0.004874,-0.000340,0.000911,0.221938,0.020210,310.608072,25.142037,0.999435,0.991905,0.003517,0.368801,0.000019,0.000042,0.000014,0.000048,0.000012,64.686910,0.000064,
2041,2563,-4.71384168005336,-1.78656867969639,-0.0174201903783455,0.004980,-0.000270,0.003885,0.218382,0.055689,322.872457,24.431400,0.999557,0.989702,0.003865,0.487142,0.000010,0.000019,0.000000,0.000019,0.000010,87.868732,0.000029,
2056,2758,-4.4186526624394,2.45894951982051,-0.016253134256317,0.004453,-0.000500,0.007372,0.184345,0.055024,319.604553,24.350986,0.999241,0.990255,0.004070,0.481574,-0.000005,0.000010,-0.000005,0.000012,-0.000006,-72.679927,0.000012,
2071,2623,-4.07158634554586,-0.478528402362848,-0.0226109246714827,0.005041,-0.000658,0.005459,0.216334,0.032168,321.688019,24.363703,0.999197,0.988600,0.004227,0.479112,-0.000002,-0.000003,0.000006,0.000004,-0.000009,42.575448,0.000009,
2221,3298,-0.927453167974303,14.1875922131609,0.00430661708151092,0.004499,-0.000331,0.005516,0.189840,0.025691,310.291706,25.117795,0.999486,0.992353,0.003355,0.415741,0.000018,0.000045,0.000004,0.000045,0.000017,81.203259,0.000064,
2041,2578,-4.71646245172001,-1.45978408123518,-0.0245997750036508,0.005019,-0.000580,0.003024,0.222534,0.040699,322.574596,24.371903,0.999142,0.988892,0.004194,0.524983,-0.000002,0.000011,-0.000002,0.000011,-0.000002,-82.022772,0.000012,
2056,2773,-4.42053356203172,2.78471364636748,-0.010687346527277,0.004516,-0.000341,0.006702,0.189141,0.043739,319.412630,24.360086,0.998959,0.988008,0.004430,0.455942,-0.000002,0.000005,-0.000004,0.000007,-0.000005,-64.068363,0.000007,
2206,2143,-1.05195798973789,-10.9658063330961,0.0228514858114295,0.005066,-0.000602,0.006963,0.210001,0.063999,329.265390,23.792995,0.999331,0.983865,0.004928,0.376203,-0.000005,0.000010,0.000010,0.000015,-0.000010,63.538868,0.000016,
2071,2638,-4.07376372608055,-0.151352316607991,-0.0175909388358946,0.004857,-0.000334,0.004923,0.209539,0.055781,321.479833,24.426353,0.999100,0.986737,0.004472,0.437199,0.000002,-0.000001,0.000004,0.000005,-0.000004,31.956883,0.000005,
2236,1993,-0.370791993897562,-14.2595493721408,0.042012563117396,0.004701,-0.000957,0.010378,0.181378,0.066037,331.737701,23.329353,0.999611,0.988354,0.004633,0.429241,0.000005,0.000052,-0.000019,0.000059,-0.000002,-70.688640,0.000067,
2041,2593,-4.71878598399934,-1.13213886150491,-0.0186714467457705,0.004727,-0.000141,0.004837,0.204229,0.075844,322.362539,24.460418,0.999000,0.988704,0.004233,0.464633,-0.000003,0.000017,0.000006,0.000019,-0.000005,74.095641,0.000020,
2056,2788,-4.42318520781473,3.11144763658366,-0.0142481451034087,0.004651,-0.000827,0.010490,0.184537,0.035032,319.134800,24.388651,0.999101,0.988508,0.004277,0.413152,-0.000004,0.000018,-0.000001,0.000018,-0.000004,-86.097678,0.000019,
2071,2653,-4.07664379632228,0.175181108874177,-0.0213940657506555,0.004803,-0.000919,0.008913,0.195499,0.043704,321.191492,24.395782,0.999314,0.988551,0.004188,0.453137,-0.000004,0.000003,0.000002,0.000004,-0.000005,72.938585,0.000005,
2236,2008,-0.374359768716491,-13.9303402038254,0.0402123975135851,0.004013,-0.001335,0.012653,0.142403,0.064010,331.443154,23.325126,0.999601,0.987783,0.004641,0.456739,-0.000003,0.000044,-0.000003,0.000044,-0.000003,-86.684224,0.000049,
2206,2158,-1.05482783894954,-10.6377755725098,0.0174827276377414,0.004928,-0.000390,0.004471,0.211652,0.056823,328.981598,23.704723,0.999157,0.984764,0.004969,0.477236,0.000001,0.000003,0.000008,0.000011,-0.000006,49.340072,0.000011,
2041,2608,-4.72085713629517,-0.806110581214398,-0.0189985487361355,0.004943,-0.000477,0.004643,0.214595,0.051974,322.128042,24.409720,0.998849,0.987548,0.004506,0.484512,-0.000005,0.000009,0.000002,0.000009,-0.000005,83.173782,0.000009,
2056,2803,-4.42540171318276,3.43831405812578,-0.0216848344548453,0.004978,-0.000459,0.006466,0.211145,0.049414,318.855445,24.381468,0.999214,0.989814,0.004112,0.429626,0.000002,0.000016,-0.000005,0.000018,0.000000,-71.363644,0.000021,
2071,2668,-4.07945744487074,0.50206091376397,-0.0253633140200122,0.004400,-0.000574,0.006059,0.185212,0.050975,320.905128,24.381438,0.999243,0.988290,0.004273,0.472203,-0.000006,-0.000005,0.000004,-0.000001,-0.000010,48.635837,0.000012,
2236,2023,-0.375729584268811,-13.6018221384622,0.0474155510523815,0.004517,-0.001074,0.009769,0.174920,0.046862,331.294829,23.380071,0.999049,0.980444,0.005568,0.408709,-0.000006,0.000060,0.000007,0.000061,-0.000007,83.691563,0.000067,
2041,2623,-4.72314529528306,-0.479240353759188,-0.0235253814627185,0.004941,-0.000060,0.000199,0.226988,0.031837,321.860112,24.401404,0.998810,0.987122,0.004608,0.465998,-0.000013,-0.000006,-0.000009,0.000000,-0.000018,-55.610622,0.000021,
2206,2173,-1.057321757916,-10.3092189606898,0.016276709743579,0.004886,-0.000408,0.001957,0.217695,0.037244,328.736358,23.726907,0.999275,0.985852,0.004767,0.454885,0.000000,0.000002,0.000007,0.000008,-0.000006,50.212127,0.000008,
2116,2968,-3.14817350632631,7.02399099921498,0.00592605030027471,0.004684,-0.000245,0.004673,0.202120,0.039847,316.087599,24.481846,0.999646,0.992181,0.003476,0.408411,0.000012,0.000020,0.000008,0.000024,0.000007,58.998152,0.000033,
2131,2758,-2.78989749510776,2.46277950531866,-0.0196091956847795,0.004782,-0.000743,0.007227,0.198356,0.028193,319.219115,24.438433,0.999539,0.991165,0.003757,0.403632,0.000008,0.000011,-0.000010,0.000019,0.000000,-48.549405,0.000022,
2101,3043,-3.48514221881438,8.65001468530665,0.0162670523119459,0.004725,-0.000441,0.005664,0.201308,0.033369,315.021794,24.458039,0.999523,0.992349,0.003530,0.389906,0.000010,0.000023,-0.000003,0.000023,0.000009,-76.603637,0.000033,
2041,2638,-4.72563673736914,-0.152764487277267,-0.0202914641363918,0.004674,0.000011,0.002448,0.208471,0.047502,321.625896,24.392180,0.999141,0.989233,0.004255,0.483911,-0.000007,-0.000002,-0.000009,0.000005,-0.000014,-52.902209,0.000014,
2341,2668,1.79273970647917,0.512084775434438,-0.0195237378634943,0.004899,-0.000340,0.006074,0.203849,0.051940,320.226413,24.338060,0.999660,0.990794,0.004036,0.404453,-0.000003,0.000014,-0.000017,0.000024,-0.000013,-59.041684,0.000024,
2116,2983,-3.14975218477241,7.34834353098299,0.0154197920494425,0.004936,-0.000137,0.004549,0.214134,0.043934,315.935018,24.427015,0.999733,0.993490,0.003236,0.470076,0.000007,0.000016,0.000008,0.000021,0.000003,59.952575,0.000026,
2131,2773,-2.79233658473155,2.78888564540615,-0.0203116233006995,0.004696,-0.000483,0.004968,0.201312,0.038658,318.972701,24.410139,0.999640,0.992344,0.003493,0.448098,0.000009,0.000007,-0.000008,0.000016,0.000001,-41.332218,0.000019,
2041,2653,-4.72842712031325,0.174317162036303,-0.0272579416060239,0.004873,-0.000558,0.006990,0.204806,0.029595,321.321409,24.390664,0.999373,0.989765,0.004072,0.460552,-0.000016,0.000000,-0.000010,0.000005,-0.000021,-63.614352,0.000022,
2101,3058,-3.48707520197727,8.97422145594038,0.0209727412408824,0.004830,-0.000192,0.004134,0.210748,0.038784,314.826385,24.373398,0.999637,0.993716,0.003331,0.480508,0.000012,0.000024,-0.000009,0.000029,0.000008,-62.762255,0.000039,
2116,2998,-3.15263725029091,7.67488297193428,0.00782770074556538,0.004939,0.000003,0.003602,0.217273,0.069918,315.629757,24.438720,0.999527,0.992231,0.003520,0.487346,0.000004,0.000016,0.000006,0.000018,0.000001,67.744248,0.000022,
2341,2683,1.7896502948975,0.838628262812584,-0.0223588528319283,0.004937,-0.000687,0.007343,0.201045,0.032633,319.956365,24.338189,0.999621,0.990903,0.003963,0.421992,-0.000005,0.000025,-0.000016,0.000032,-0.000012,-65.892720,0.000032,
2131,2788,-2.79472373326178,3.11493932264779,-0.018095669225886,0.004572,-0.000425,0.004203,0.197976,0.052307,318.744260,24.401006,0.999640,0.992537,0.003424,0.476489,0.000006,0.000019,-0.000001,0.000019,0.000006,-86.249245,0.000026,
2041,2668,-4.73008089065061,0.500151771954748,-0.021605326394365,0.004968,-0.000489,0.003796,0.218129,0.022902,321.139224,24.373919,0.999287,0.987948,0.004408,0.463382,-0.000020,-0.000014,-0.000005,-0.000011,-0.000022,-62.375723,0.000034,
2101,3073,-3.4895992627837,9.30026400628435,0.0231142065009635,0.004604,-0.000049,0.003982,0.200787,0.041712,314.589304,24.447098,0.999561,0.991062,0.003735,0.409994,0.000009,0.000034,-0.000004,0.000034,0.000009,-81.634081,0.000046,
2116,3013,-3.15469849870437,7.99954542590455,0.016547774245339,0.004966,-0.000294,0.006593,0.209514,0.060307,315.450807,24.427658,0.998999,0.988714,0.004172,0.491265,0.000007,0.000022,0.000001,0.000022,0.000007,85.767830,0.000030,
2341,2698,1.78746463282596,1.16398989782099,-0.0120940703686756,0.004862,-0.000734,0.008444,0.193797,0.046717,319.791514,24.308439,0.999628,0.992246,0.003829,0.502682,-0.000005,0.000026,-0.000012,0.000031,-0.000010,-71.382258,0.000031,
2041,2683,-4.73302517864057,0.827377262758873,-0.0262303246549891,0.004706,-0.000492,0.005581,0.201178,0.045489,320.840531,24.374850,0.999413,0.990682,0.003975,0.477963,-0.000017,-0.000034,-0.000007,-0.000014,-0.000037,-18.262285,0.000053,
2131,2803,-2.79720326049509,3.44076606568317,-0.0167940315311057,0.004517,-0.000462,0.004977,0.193077,0.035709,318.506835,24.398262,0.999527,0.991813,0.003653,0.468287,0.000007,0.000014,-0.000002,0.000015,0.000006,-74.928488,0.000021,
2101,3088,-3.49145385009039,9.62470638779808,0.0257741689628688,0.004948,-0.000369,0.002819,0.219923,0.014771,314.386378,24.410183,0.999389,0.986851,0.004323,0.420248,0.000003,0.000033,-0.000004,0.000033,0.000002,-82.497305,0.000040,
2041,2698,-4.73505959402512,1.15428771741535,-0.0274879820007072,0.004930,-0.000208,0.003734,0.216753,0.061596,320.602276,24.385931,0.999301,0.990477,0.003989,0.475843,-0.000011,-0.000035,-0.000003,-0.000010,-0.000035,-6.838501,0.000047,
2116,3028,-3.15710649777044,8.32535327907791,0.0150851863885464,0.005095,-0.000266,0.006312,0.216304,0.047753,315.200733,24.460232,0.999331,0.990813,0.003814,0.448996,0.000011,0.000022,0.000000,0.000022,0.000011,89.954801,0.000033,
2341,2713,1.78390734453452,1.49205575252598,-0.0208927425880461,0.004680,-0.000507,0.006909,0.190873,0.049107,319.470525,24.387427,0.999315,0.989385,0.004150,0.463041,-0.000003,0.000021,-0.000014,0.000028,-0.000010,-65.118187,0.000028,
2131,2818,-2.79920341558361,3.76640694643496,-0.0125163438620461,0.004586,-0.000473,0.003258,0.201380,0.027221,318.307325,24.397156,0.999292,0.990309,0.004050,0.466184,0.000011,0.000020,-0.000004,0.000021,0.000010,-70.413106,0.000032,
2101,3103,-3.49373926675875,9.95040435486159,0.0316226202293706,0.004939,-0.000403,0.006005,0.210299,0.038068,314.180475,24.462472,0.999660,0.992560,0.003398,0.391258,0.000000,0.000032,-0.000007,0.000034,-0.000001,-78.655932,0.000038,
2041,2713,-4.73754508146771,1.48099581032255,-0.0305240906699282,0.005002,-0.000452,0.004991,0.216515,0.051549,320.333652,24.394889,0.999039,0.988881,0.004321,0.449658,-0.000001,-0.000020,-0.000005,0.000000,-0.000021,-14.736397,0.000024,
2116,3043,-3.1592180498732,8.65118195420061,0.0252949186491946,0.004909,-0.000783,0.008154,0.202060,0.024505,315.027124,24.586215,0.999643,0.992797,0.003445,0.301998,0.000011,0.000019,-0.000005,0.000021,0.000009,-64.588655,0.000031,
2341,2728,1.78111248831883,1.81978331543688,-0.0233849640148378,0.004856,-0.000497,0.006373,0.200873,0.047209,319.215175,24.496006,0.999190,0.988665,0.004256,0.389493,-0.000001,0.000013,-0.000012,0.000020,-0.000008,-60.024759,0.000020,
2101,3118,-3.4963561741272,10.2752082191881,0.0280634691641808,0.005007,-0.000590,0.006170,0.212912,0.033213,313.908705,24.405219,0.999724,0.994457,0.003028,0.443972,-0.000001,0.000032,-0.000011,0.000036,-0.000004,-73.518639,0.000039,
2131,2833,-2.80162279770125,4.09330249269796,-0.0154413007266498,0.004831,-0.000402,0.003362,0.212421,0.038641,318.049691,24.440940,0.999547,0.992000,0.003669,0.439369,0.000011,0.000020,0.000000,0.000020,0.000011,-88.108232,0.000031,
2041,2728,-4.7394015704201,1.80652805991167,-0.0224129855515685,0.005080,-0.000554,0.007159,0.213998,0.043615,320.156002,24.388257,0.999342,0.990695,0.003774,0.440642,-0.000005,-0.000001,0.000004,0.000001,-0.000007,58.715586,0.000008,
2281,2263,0.560802017193851,-8.33528094919744,0.000324410531732156,0.004490,-0.000621,0.006067,0.185412,0.044795,326.974538,23.683097,0.999502,0.986247,0.004719,0.291923,-0.000018,0.000000,-0.000009,0.000004,-0.000022,-68.025407,0.000024,
2116,3058,-3.16180808353773,8.97514387380706,0.0207455855236276,0.004887,-0.000289,0.005306,0.209627,0.024491,314.752716,24.424129,0.999601,0.992829,0.003543,0.466703,0.000013,0.000021,-0.000010,0.000028,0.000006,-55.937784,0.000036,
2131,2848,-2.80467291402788,4.41999395987308,-0.0221254336475454,0.004787,-0.000647,0.004918,0.205723,0.040044,317.743118,24.452741,0.999639,0.992501,0.003527,0.434482,0.000009,0.000024,0.000005,0.000025,0.000007,71.356336,0.000034,
2161,3073,-2.18741603870302,9.30339251954241,0.0326696109665932,0.004833,-0.000060,0.004542,0.208996,0.048267,314.420424,24.601138,0.999626,0.994104,0.003327,0.476579,0.000009,0.000020,-0.000007,0.000023,0.000006,-64.684047,0.000031,
2116,3073,-3.16465573750169,9.30181757127414,0.0136873818926802,0.004917,0.000009,0.004572,0.213265,0.032503,314.451984,24.492138,0.999727,0.992629,0.003697,0.409342,0.000009,0.000029,-0.000006,0.000031,0.000007,-74.547944,0.000040,
2281,2278,0.558669557296611,-8.00901268799791,0.00327789198883011,0.004740,-0.000598,0.004992,0.200493,0.046421,326.773110,23.556699,0.999651,0.987757,0.004523,0.449826,-0.000017,0.000003,-0.000010,0.000007,-0.000021,-67.498889,0.000021,
2131,2863,-2.80656185658651,4.74489797972358,-0.00823117301519005,0.004614,-0.000636,0.007380,0.190375,0.039686,317.600310,24.459549,0.999604,0.991786,0.003610,0.432530,0.000014,0.000023,0.000005,0.000025,0.000012,64.023721,0.000038,
2161,3088,-2.19050226602233,9.62999992871721,0.0243176562061649,0.004910,-0.000288,0.005446,0.209685,0.039073,314.105871,24.676607,0.999464,0.990869,0.003778,0.400884,0.000003,0.000017,-0.000008,0.000021,-0.000001,-65.419806,0.000023,
2116,3088,-3.16668729099601,9.62690685269202,0.0193320678865803,0.004953,-0.000122,0.004028,0.216587,0.036751,314.257714,24.503673,0.999697,0.992596,0.003521,0.404458,0.000002,0.000027,-0.000007,0.000029,0.000000,-76.409462,0.000034,
2281,2293,0.556071949331972,-7.68074708007401,0.00247160245544364,0.004857,-0.000800,0.004452,0.207582,0.029528,326.531412,23.598311,0.999389,0.985010,0.004912,0.421251,-0.000018,0.000004,0.000000,0.000004,-0.000018,89.208536,0.000019,
2161,3103,-2.19278402259267,9.95473114551001,0.0269259417715944,0.004774,-0.000022,0.002181,0.213505,0.031720,313.886819,24.651433,0.999601,0.993438,0.003319,0.427973,-0.000002,0.000016,-0.000009,0.000020,-0.000006,-67.164015,0.000021,
2116,3103,-3.16853490401672,9.95145247431601,0.0286830234026638,0.005020,-0.000453,0.004798,0.217341,0.032603,314.092077,24.499962,0.999837,0.995573,0.002958,0.406356,-0.000002,0.000027,-0.000009,0.000030,-0.000004,-73.258931,0.000032,
2131,2878,-2.80815168584681,5.06893573188941,0.00225599413028021,0.004775,-0.000648,0.006985,0.198953,0.032754,317.453324,24.370618,0.999549,0.990841,0.003757,0.519921,0.000020,0.000031,0.000003,0.000032,0.000019,74.085308,0.000052,
2281,2308,0.553819438129526,-7.35321971703399,0.0103251954338361,0.004764,-0.000785,0.005045,0.201394,0.039940,326.348569,23.636853,0.999253,0.983023,0.005252,0.422646,-0.000015,0.000000,0.000008,0.000003,-0.000019,66.419804,0.000020,
2011,2233,-5.31665913209398,-8.99212943959724,0.0095688966164289,0.004368,-0.000572,0.010097,0.173181,0.080996,328.553141,24.816846,0.999283,0.983964,0.005011,0.396115,-0.000002,0.000056,-0.000028,0.000067,-0.000013,-67.743110,0.000071,
2116,3118,-3.17128507795303,10.2765954384492,0.0265157110145537,0.004792,-0.000261,0.003426,0.210983,0.040034,313.822727,24.470882,0.999783,0.995597,0.002925,0.445409,-0.000003,0.000028,-0.000014,0.000033,-0.000008,-68.428363,0.000035,
2131,2893,-2.81079243074399,5.39605253757061,-0.00250890322712394,0.004744,-0.000344,0.004299,0.205654,0.031411,317.175641,24.451192,0.999450,0.989970,0.004047,0.443231,0.000013,0.000022,0.000006,0.000025,0.000010,63.564979,0.000036,
2161,3118,-2.19524846139367,10.2804383025562,0.0295790234113724,0.004652,0.000176,0.001830,0.209125,0.055429,313.659236,24.689047,0.999558,0.993146,0.003414,0.423023,-0.000004,0.000017,-0.000012,0.000023,-0.000010,-65.834569,0.000023,
2011,2248,-5.31838364196309,-8.66541807450435,0.0112125932578238,0.004624,-0.000769,0.008567,0.189072,0.049566,328.342448,24.735014,0.999212,0.983405,0.004997,0.437005,-0.000004,0.000056,-0.000044,0.000079,-0.000027,-62.090308,0.000081,
2281,2323,0.551265671354788,-7.02492214664876,0.0102356382757876,0.004955,-0.000682,0.005633,0.208217,0.039034,326.112301,23.682397,0.999038,0.981819,0.005384,0.405943,-0.000011,-0.000003,0.000010,0.000004,-0.000018,55.615508,0.000019,
2116,3133,-3.17413000090572,10.6025520633282,0.022948640191828,0.004774,-0.000309,0.005314,0.204513,0.030261,313.541189,24.529488,0.999844,0.996999,0.002645,0.379252,-0.000001,0.000028,-0.000016,0.000035,-0.000008,-65.298465,0.000037,
2011,2263,-5.3201567456987,-8.3373789202634,0.0084556535257434,0.004977,-0.000608,0.004941,0.215161,0.031699,328.104592,24.720956,0.998871,0.979107,0.005267,0.423524,-0.000002,0.000033,-0.000038,0.000057,-0.000027,-57.569144,0.000057,
2131,2908,-2.81257553692262,5.72111629526417,0.00160152972267724,0.005160,-0.000371,0.004279,0.224889,0.030643,316.985391,24.411191,0.999421,0.988096,0.004251,0.487684,0.000013,0.000020,0.000007,0.000024,0.000009,59.116249,0.000034,
2161,3133,-2.19766045055428,10.6052036547673,0.0298406339296662,0.004848,-0.000120,0.003054,0.214302,0.041404,313.421786,24.666383,0.999471,0.992675,0.003621,0.440544,-0.000003,0.000020,-0.000013,0.000026,-0.000009,-66.549416,0.000026,
2281,2338,0.548754221377063,-6.69599545233072,0.00310800310342074,0.005289,0.000027,0.000561,0.240747,0.041330,325.842791,23.718072,0.999167,0.983476,0.005036,0.402536,-0.000010,0.000003,0.000006,0.000006,-0.000012,68.302231,0.000012,
2011,2278,-5.32258224297063,-8.00907692737218,0.0010403894128217,0.004934,-0.000485,0.000933,0.224071,0.012029,327.810857,24.691254,0.998646,0.979461,0.005635,0.424185,0.000008,0.000017,-0.000042,0.000055,-0.000030,-48.155393,0.000055,
2116,3148,-3.17646950252215,10.9266518457805,0.0277640157071914,0.004723,-0.000244,0.007284,0.196401,0.044690,313.328712,24.448258,0.999696,0.994835,0.003067,0.477272,0.000001,0.000029,-0.000017,0.000037,-0.000007,-64.765392,0.000039,
2131,2923,-2.81500827070179,6.04748727072441,-0.00181506772588591,0.005296,-0.000454,0.002297,0.237124,0.022717,316.724693,24.448591,0.999221,0.988418,0.004297,0.447628,0.000014,0.000023,0.000009,0.000029,0.000009,58.472021,0.000039,
2011,2293,-5.32556087630594,-7.67920313147463,-0.0081981192282683,0.004955,-0.000817,0.005325,0.213086,0.032901,327.481126,24.752628,0.998947,0.985383,0.004960,0.374376,0.000022,0.000040,-0.000029,0.000061,0.000000,-53.373613,0.000071,
2161,3148,-2.20088621812603,10.9303535496975,0.028291091258609,0.004512,-0.000518,0.006645,0.187648,0.024098,313.137231,24.675374,0.999389,0.991623,0.003875,0.422912,-0.000002,0.000023,-0.000012,0.000028,-0.000007,-68.268872,0.000029,
2281,2353,0.54560046275644,-6.36914081782208,0.00692586781161708,0.004931,-0.000459,0.005831,0.206591,0.032532,325.598683,23.688540,0.999229,0.983909,0.004968,0.452818,-0.000010,-0.000013,0.000003,-0.000009,-0.000015,31.108584,0.000024,
2341,2743,1.77876262685725,2.14488702736756,-0.0162249140366271,0.004791,-0.000747,0.006634,0.196898,0.037400,319.027714,24.453192,0.999470,0.989960,0.003976,0.459293,0.000000,0.000015,-0.000013,0.000022,-0.000007,-60.611995,0.000022,
2161,3163,-2.20280647430061,11.2554567266452,0.0329052457058765,0.004743,-0.000437,0.005328,0.202347,0.024360,312.945232,24.703474,0.999586,0.992417,0.003561,0.404186,-0.000001,0.000033,-0.000015,0.000038,-0.000007,-69.634503,0.000041,
2296,2353,0.872988618208016,-6.3691394718291,0.0120051163519861,0.004989,-0.000465,0.006478,0.206855,0.056024,325.624700,23.653033,0.999566,0.988164,0.004268,0.458675,-0.000013,-0.000014,0.000000,-0.000013,-0.000014,9.097739,0.000026,
2251,2248,-0.0901701650096634,-8.6643092218964,0.00624698215688113,0.004585,-0.000450,0.004966,0.193864,0.093142,327.319494,23.729637,0.998268,0.976890,0.006073,0.400196,-0.000008,-0.000004,0.000006,0.000000,-0.000012,52.558565,0.000014,
2341,2758,1.77570994224005,2.47173638383937,-0.0150782001502989,0.004377,-0.000342,0.005440,0.182235,0.061601,318.778233,24.492880,0.999587,0.989971,0.003969,0.480514,0.000002,0.000021,-0.000011,0.000026,-0.000003,-64.696378,0.000029,
2161,3178,-2.2052808513754,11.5801978129471,0.0396011868289747,0.004618,-0.000584,0.009057,0.185134,0.029134,312.738916,24.709356,0.999566,0.990751,0.003726,0.411809,0.000001,0.000035,-0.000014,0.000040,-0.000004,-70.427307,0.000044,
2296,2368,0.870101744440021,-6.04185286579889,0.0153116379570974,0.004565,-0.000359,0.006311,0.188019,0.059820,325.391239,23.649777,0.999285,0.984826,0.004809,0.497321,-0.000016,-0.000008,-0.000001,-0.000008,-0.000016,-79.854425,0.000025,
2251,2263,-0.0923333329820117,-8.3369480733006,0.0114919510812683,0.004652,0.000023,0.004702,0.198025,0.093359,327.125777,23.722073,0.999049,0.982962,0.005230,0.433393,-0.000009,0.000001,0.000002,0.000002,-0.000009,78.597723,0.000010,
2341,2773,1.77376960683642,2.79820596680189,-0.00940574715968978,0.004883,-0.000463,0.006220,0.202711,0.052257,318.601946,24.570732,0.999623,0.991808,0.003654,0.429871,0.000004,0.000017,-0.000011,0.000023,-0.000002,-60.761431,0.000026,
2161,3193,-2.2077749270948,11.9047768740509,0.0375527753396909,0.004619,-0.000537,0.006191,0.193987,0.023918,312.485522,24.661871,0.999633,0.993385,0.003297,0.462772,0.000003,0.000035,-0.000014,0.000040,-0.000002,-69.467378,0.000045,
2296,2383,0.866644828787752,-5.71221849659392,0.00409439375829379,0.004539,-0.000620,0.004494,0.192891,0.037194,325.059512,23.752351,0.998928,0.981039,0.005420,0.404394,-0.000014,-0.000011,-0.000005,-0.000008,-0.000018,-53.277660,0.000026,
2251,2278,-0.0948377056476026,-8.00944335751258,0.0119192257441796,0.004858,-0.000478,0.006214,0.202377,0.061865,326.892243,23.714980,0.999321,0.983836,0.005003,0.434537,-0.000010,0.000003,-0.000001,0.000003,-0.000010,-86.164720,0.000010,
2161,3208,-2.20969963501794,12.2301069403084,0.0393492180476187,0.004888,-0.000152,0.002635,0.217474,0.031616,312.278328,24.697004,0.999571,0.994030,0.003194,0.444458,0.000006,0.000035,-0.000013,0.000040,0.000001,-68.846257,0.000047,
2371,2398,2.49877257508158,-5.38362514173961,0.00199501396929236,0.004496,-0.000296,0.006805,0.181952,0.073235,324.770949,23.488223,0.999427,0.987008,0.004686,0.504073,0.000012,-0.000006,0.000000,0.000012,-0.000006,-0.191228,0.000012,
2341,2788,1.7709019008576,3.12464325463013,-0.0106308481267092,0.004860,-0.000364,0.005351,0.204731,0.054948,318.349505,24.583883,0.999639,0.993010,0.003501,0.456164,0.000003,0.000022,-0.000009,0.000026,0.000000,-67.639516,0.000030,
2386,2473,2.81104520609039,-3.74332748503758,-0.00415601187472703,0.004630,-0.000518,0.007814,0.184216,0.068558,323.515628,23.704426,0.999315,0.988321,0.004573,0.460668,0.000009,-0.000028,0.000016,0.000015,-0.000034,20.332412,0.000034,
2251,2293,-0.0977306559096398,-7.68118945995655,0.00787710249824158,0.004828,-0.000479,0.005346,0.203831,0.043849,326.618160,23.723114,0.999119,0.983088,0.005094,0.434117,-0.000009,0.000005,0.000009,0.000009,-0.000014,62.448302,0.000014,
2296,2398,0.863924491991231,-5.38418087894372,0.00130926406677645,0.004569,-0.000180,0.002077,0.202614,0.054049,324.803295,23.756579,0.999159,0.984381,0.005072,0.448799,-0.000013,-0.000008,-0.000006,-0.000004,-0.000017,-55.820715,0.000023,
2401,2548,3.123674142244,-2.1056674671625,-0.00666640060416057,0.004928,-0.000648,0.007090,0.200213,0.044828,322.307635,23.858405,0.999442,0.988637,0.004589,0.480610,0.000001,-0.000001,0.000008,0.000008,-0.000008,40.641877,0.000009,
2161,3223,-2.21200107034276,12.5548936365462,0.0434200213962868,0.004897,-0.000238,0.003079,0.216582,0.037540,312.066058,24.700436,0.999651,0.994206,0.003137,0.455527,0.000008,0.000041,-0.000014,0.000046,0.000003,-69.994876,0.000055,
2371,2413,2.49610649518117,-5.05536461407579,0.0026113173874478,0.004604,-0.000514,0.006179,0.189013,0.048063,324.540147,23.593449,0.999540,0.988311,0.004467,0.416332,0.000009,-0.000004,0.000005,0.000011,-0.000006,19.940716,0.000011,
2341,2803,1.76801427650235,3.45180809544619,-0.0162966295376918,0.005143,-0.000319,0.004265,0.221592,0.062298,318.074339,24.629709,0.999584,0.992276,0.003608,0.454398,0.000003,0.000017,-0.000008,0.000021,-0.000001,-66.036844,0.000024,
2386,2488,2.80816274131243,-3.41591627967185,-0.00289551643368213,0.004729,-0.000699,0.010206,0.180136,0.078545,323.278860,23.727733,0.999394,0.987919,0.004445,0.491851,0.000010,-0.000028,0.000013,0.000014,-0.000031,17.104008,0.000032,
2251,2308,-0.1002174330462,-7.35290647002224,0.00919083977157698,0.004704,-0.000145,0.002826,0.206502,0.064960,326.389478,23.753966,0.998679,0.979664,0.005537,0.449680,-0.000004,0.000000,0.000015,0.000013,-0.000017,49.082800,0.000018,
2401,2563,3.12003727987037,-1.77765321150889,-0.011688679699148,0.004748,-0.000573,0.008809,0.185830,0.064375,322.007352,23.896274,0.999331,0.986838,0.004533,0.508956,0.000000,0.000007,0.000005,0.000009,-0.000002,63.824329,0.000009,
2296,2413,0.861405230849446,-5.05656825552909,0.00271046909136885,0.004954,-0.000781,0.005850,0.207292,0.020525,324.577218,23.817309,0.999361,0.985381,0.004839,0.385755,-0.000013,-0.000006,-0.000009,0.000000,-0.000019,-55.079004,0.000022,
2026,2413,-5.01700971622799,-5.05888033543629,-0.00449340162532508,0.004757,-0.000269,0.007041,0.199411,0.068040,325.472463,24.574943,0.999175,0.986986,0.004504,0.462695,0.000041,-0.000004,-0.000027,0.000053,-0.000017,-24.950626,0.000054,
2161,3238,-2.21526818939876,12.8801274485724,0.039228582036742,0.004641,-0.000529,0.005681,0.196641,0.023457,311.765530,24.721622,0.999707,0.994106,0.003136,0.428770,0.000011,0.000039,-0.000012,0.000044,0.000006,-69.294324,0.000054,
2071,2683,-4.08110278151007,0.828117491124786,-0.0217166210951518,0.004796,-0.000515,0.004891,0.206807,0.044088,320.714232,24.373416,0.999386,0.990355,0.003921,0.470564,-0.000005,-0.000017,-0.000001,-0.000005,-0.000018,-5.949762,0.000023,
2041,2743,-4.74238589026158,2.13248427323326,-0.0234009000525361,0.004489,-0.000799,0.007746,0.185131,0.037607,319.876146,24.349702,0.999444,0.991159,0.003809,0.465933,-0.000016,0.000019,0.000006,0.000020,-0.000017,81.152499,0.000021,
2371,2428,2.49300223570136,-4.72860550336638,-0.00296027276868926,0.004773,-0.000525,0.005988,0.197465,0.057896,324.259789,23.472795,0.999643,0.992187,0.004109,0.589502,0.000011,-0.000011,0.000008,0.000014,-0.000014,18.623787,0.000016,
2386,2503,2.80540105533209,-3.08798692412545,-0.000148971727014668,0.004568,-0.000482,0.009209,0.176449,0.075137,323.054569,23.830086,0.999553,0.989270,0.004160,0.430545,0.000003,-0.000017,0.000012,0.000009,-0.000023,24.967951,0.000023,
2461,2848,4.36923219999499,4.43830763985663,-0.0295957635693753,0.004608,-0.000603,0.005670,0.190156,0.035430,317.315388,24.883265,0.999741,0.992736,0.003414,0.444215,0.000010,0.000024,-0.000022,0.000040,-0.000006,-53.578428,0.000043,
2476,2923,4.68172906506697,6.07061988354361,-0.0148898115236307,0.004486,-0.000598,0.005427,0.185305,0.027387,316.242616,25.244554,0.999333,0.985265,0.004553,0.375922,0.000007,0.000024,-0.000007,0.000026,0.000005,-70.353902,0.000034,
2446,2773,4.05789626069204,2.80332439168929,-0.0288651665032944,0.004564,-0.000666,0.002976,0.198300,0.013073,318.524129,24.527143,0.999564,0.988091,0.004297,0.497468,0.000019,0.000008,-0.000019,0.000033,-0.000006,-36.874332,0.000035,
2416,2623,3.43460883170866,-0.46817410500163,-0.0153220498127666,0.004564,-0.001263,0.010148,0.171932,0.037436,321.005886,24.051540,0.999259,0.987634,0.004321,0.498480,0.000016,0.000015,0.000000,0.000016,0.000015,-26.708990,0.000031,
2431,2698,3.74685549844429,1.16979313045849,-0.0200941438090467,0.004862,-0.000542,0.006042,0.200772,0.046023,319.795206,24.428395,0.999755,0.991734,0.003719,0.369270,0.000012,0.000017,-0.000021,0.000036,-0.000007,-48.691678,0.000038,
2026,2428,-5.0196092844658,-4.73136291022703,-0.00931288717146117,0.004608,-0.000442,0.005896,0.195659,0.062554,325.186951,24.540754,0.998967,0.984701,0.004853,0.483112,0.000031,0.000015,-0.000008,0.000035,0.000011,-22.994121,0.000048,
2206,2188,-1.06033938412564,-9.98060268639928,0.0211229678033646,0.004548,-0.001094,0.008700,0.180708,0.029359,328.498204,23.812206,0.998881,0.981036,0.005374,0.381057,0.000001,0.000009,0.000008,0.000014,-0.000003,57.799175,0.000014,
2506,3073,5.30606279137635,9.33113232217211,0.0069402118908215,0.005026,-0.000654,0.008385,0.198377,0.032174,314.064839,25.806280,0.999665,0.991478,0.003956,0.484730,0.000033,0.000042,0.000012,0.000050,0.000025,55.512679,0.000077,
2491,2998,4.99485645628492,7.70072312574389,0.00461253385401506,0.004778,-0.000408,0.005410,0.198727,0.031131,315.231559,25.519816,0.999370,0.987692,0.004181,0.426518,0.000039,0.000032,0.000006,0.000043,0.000028,29.907819,0.000071,
2161,3253,-2.21859966749787,13.2056304570829,0.0255939964397385,0.004719,-0.000409,0.004782,0.202993,0.014925,311.411948,24.713708,0.999691,0.993977,0.003185,0.436898,0.000015,0.000042,-0.000006,0.000043,0.000014,-78.282047,0.000059,
2071,2698,-4.08366864012295,1.15444074487246,-0.0197125150274928,0.004572,-0.000488,0.006862,0.190900,0.046211,320.472105,24.371653,0.999363,0.991242,0.003794,0.471371,0.000002,-0.000020,-0.000003,0.000002,-0.000020,-6.708646,0.000022,
2041,2758,-4.74391024891612,2.45802776444949,-0.0207552757777876,0.004956,-0.000313,0.005359,0.213472,0.056849,319.683384,24.281188,0.999231,0.990714,0.004129,0.546089,-0.000018,0.000008,-0.000001,0.000008,-0.000018,-87.771727,0.000018,
2371,2443,2.49036900940242,-4.39976473119204,0.00298062690819734,0.004705,-0.000448,0.007966,0.187420,0.068961,324.055542,23.655031,0.999154,0.987064,0.004709,0.460826,0.000016,-0.000026,0.000008,0.000017,-0.000027,10.080297,0.000028,
2056,2818,-4.42779657578356,3.76387479179697,-0.0168546128971343,0.004741,-0.000593,0.008442,0.194684,0.061822,318.635986,24.355236,0.999197,0.989265,0.004162,0.462532,0.000006,0.000022,-0.000010,0.000027,0.000001,-64.132888,0.000032,
2461,2863,4.36672414072567,4.76446342915258,-0.0229609960543939,0.004560,-0.000385,0.005489,0.188759,0.051134,317.124596,24.940955,0.999489,0.990527,0.003782,0.456266,0.000008,0.000037,-0.000018,0.000045,0.000000,-64.610857,0.000052,
2086,2473,-3.72214858401814,-3.74862281082666,-0.00926556257735456,0.004591,-0.001273,0.012040,0.176048,0.045454,324.106025,24.389204,0.999356,0.989079,0.004334,0.454316,0.000017,-0.000005,-0.000020,0.000029,-0.000017,-30.539627,0.000029,
2026,2443,-5.0216730461444,-4.4028824103036,-0.0108832730515473,0.004783,-0.000039,0.004383,0.207978,0.043557,324.943827,24.643937,0.999375,0.989550,0.004160,0.352586,0.000027,0.000023,-0.000008,0.000033,0.000016,-38.239286,0.000051,
2476,2938,4.67946178980921,6.39647816291014,-0.0106203192320322,0.004889,-0.000321,0.005201,0.204857,0.048436,316.052757,25.270949,0.999427,0.988202,0.004137,0.426822,0.000011,0.000029,-0.000007,0.000031,0.000009,-71.900034,0.000043,
2446,2788,4.05538028038967,3.12991078583501,-0.0248199834670686,0.004772,-0.000643,0.003653,0.205353,0.017152,318.320406,24.596092,0.999439,0.988106,0.004249,0.484623,0.000017,0.000011,-0.000028,0.000042,-0.000014,-41.855116,0.000043,
2431,2713,3.74478441370991,1.49460301575395,-0.0120255615143492,0.005050,-0.000565,0.005422,0.211687,0.035143,319.630384,24.359773,0.999720,0.991411,0.003741,0.477150,0.000009,0.000017,-0.000023,0.000037,-0.000010,-49.553657,0.000038,
2116,3163,-3.17855796704981,11.2516662151583,0.0327435833462459,0.004624,-0.000224,0.004706,0.199418,0.030331,313.128334,24.484054,0.999516,0.992952,0.003497,0.429168,-0.000002,0.000039,-0.000022,0.000048,-0.000012,-66.195812,0.000050,
2416,2638,3.43206821750097,-0.139713107613638,-0.0183121348667328,0.004710,-0.000297,0.003857,0.202016,0.046296,320.766390,24.184280,0.999369,0.987998,0.004301,0.422979,0.000009,0.000014,-0.000006,0.000018,0.000005,-55.394305,0.000025,
2101,3133,-3.49845967955848,10.6005746487939,0.0315480359096796,0.004932,-0.000403,0.003046,0.218603,0.022143,313.698502,24.453554,0.999782,0.995277,0.002889,0.384540,0.000002,0.000031,-0.000013,0.000036,-0.000003,-69.102069,0.000040,
2011,2458,-5.34913152891123,-4.07787077702202,0.000670275117272467,0.004885,0.000058,0.003504,0.215309,0.070975,324.900787,24.569048,0.999482,0.989529,0.004041,0.482935,0.000013,0.000008,-0.000020,0.000031,-0.000010,-41.539009,0.000032,
2041,2773,-4.74675311141022,2.7853229834936,-0.0263848403765792,0.004681,-0.000464,0.003997,0.204490,0.030677,319.383912,24.358158,0.998914,0.989101,0.004343,0.435643,-0.000017,0.000002,0.000000,0.000002,-0.000017,-89.366939,0.000019,
2311,2368,1.1960461539747,-6.03984712190154,-0.00253172870014851,0.004821,-0.000543,0.006218,0.199745,0.052555,325.241546,23.605839,0.999588,0.988223,0.004282,0.483952,-0.000006,-0.000007,0.000000,-0.000006,-0.000007,-31.189455,0.000013,
2506,3088,5.30372642895002,9.65732751243738,0.0125672318798706,0.004880,-0.000163,0.003343,0.211439,0.045767,313.878895,25.916731,0.999719,0.992567,0.003484,0.448036,0.000034,0.000051,0.000013,0.000058,0.000027,61.813423,0.000087,
2341,2818,1.76482887603926,3.77817233867598,-0.0165307274493216,0.004911,-0.000190,0.005816,0.205586,0.063049,317.812019,24.655191,0.999364,0.988490,0.004029,0.466239,0.000000,0.000021,-0.000005,0.000022,-0.000001,-77.996067,0.000025,
2386,2518,2.80267305038402,-2.76108510315283,-0.00458591717523404,0.004733,-0.000293,0.004843,0.199732,0.051518,322.797979,23.798098,0.999494,0.987751,0.004447,0.483331,0.000000,-0.000016,0.000011,0.000005,-0.000022,27.320483,0.000023,
2131,2938,-2.81748880746221,6.37337641780325,0.00734490330239623,0.004841,-0.000544,0.004556,0.209389,0.033018,316.529158,24.516979,0.999575,0.991434,0.003854,0.394488,0.000015,0.000025,0.000009,0.000030,0.000010,60.011410,0.000042,
2476,2953,4.67678240247016,6.72185721399509,-0.00519360120114243,0.004859,-0.000562,0.005877,0.200841,0.042182,315.849269,25.292268,0.999383,0.988042,0.004201,0.455362,0.000017,0.000031,-0.000001,0.000031,0.000017,-85.375824,0.000049,
2251,2323,-0.10306371409418,-7.02441828081559,0.00499449736992119,0.005111,-0.000714,0.007173,0.210797,0.037658,326.116677,23.802244,0.998810,0.981718,0.005338,0.399507,-0.000002,0.000000,0.000016,0.000015,-0.000017,46.959533,0.000019,
2491,3013,4.99178428707574,8.02725785765481,0.00105231460344157,0.005076,-0.000518,0.005384,0.212515,0.033278,314.969691,25.593127,0.999613,0.992273,0.003529,0.413690,0.000038,0.000040,0.000002,0.000041,0.000037,58.220298,0.000078,
2296,2428,0.859039901610117,-4.72852185867904,0.0026229220088112,0.005310,-0.000432,0.005706,0.224311,0.052226,324.350471,23.843347,0.999532,0.987861,0.004430,0.423135,-0.000008,-0.000020,-0.000010,-0.000003,-0.000025,-30.055042,0.000031,
2446,2803,4.0523301634621,3.45770343612362,-0.0264476180267934,0.004906,-0.000431,0.004221,0.209474,0.031579,318.065575,24.725952,0.999557,0.989348,0.004016,0.421448,0.000018,0.000007,-0.000030,0.000043,-0.000018,-39.501568,0.000043,
2011,2473,-5.35225358747239,-3.75037751348674,-0.00320746359938084,0.004393,-0.000528,0.006702,0.183851,0.051184,324.595410,24.570664,0.999221,0.987079,0.004401,0.450941,0.000016,-0.000009,-0.000011,0.000020,-0.000013,-21.239397,0.000021,
2431,2728,3.74162161273894,1.82076813357906,-0.0131497147682467,0.005136,-0.000875,0.007735,0.206937,0.021532,319.372342,24.348028,0.999725,0.991895,0.003627,0.525436,0.000008,0.000008,-0.000017,0.000025,-0.000009,-45.016917,0.000026,
2506,3103,5.3010099917957,9.98224994894704,0.016833088654721,0.005053,-0.000374,0.005245,0.211919,0.034573,313.669638,25.929268,0.999725,0.992200,0.003466,0.484308,0.000034,0.000057,0.000022,0.000070,0.000021,58.515093,0.000095,
2056,2923,-4.4427242138124,6.04353384278937,-0.00377780793803595,0.005111,-0.000345,0.003640,0.225381,0.033591,317.070108,24.307498,0.999468,0.992273,0.003637,0.442358,0.000000,0.000027,-0.000002,0.000028,0.000000,-85.945750,0.000032,
2041,2848,-4.75761302959338,4.41495236121501,-0.024636943130929,0.005133,-0.000270,0.001920,0.231295,0.030562,318.208109,24.285344,0.999214,0.989860,0.004084,0.469883,-0.000011,0.000024,-0.000002,0.000024,-0.000011,-86.289348,0.000024,
2326,2263,1.543919915027,-8.33835310137933,0.0132433461959636,0.004877,-0.000376,0.004687,0.207242,0.044078,327.070068,23.345253,0.999053,0.981923,0.005100,0.429667,-0.000015,-0.000011,-0.000016,0.000003,-0.000030,-48.594439,0.000032,
2266,2143,0.257032920461029,-10.9645320385269,0.0211888997509959,0.005139,-0.000336,0.007261,0.211373,0.077192,329.128477,23.618424,0.999408,0.983881,0.005145,0.229342,-0.000014,0.000012,0.000000,0.000012,-0.000014,88.927371,0.000015,
2416,2653,3.42934913547736,0.186921874859259,-0.0158193368126831,0.005059,-0.000752,0.007869,0.203244,0.049281,320.544648,24.206385,0.999440,0.988337,0.004330,0.452122,0.000007,0.000017,-0.000009,0.000022,0.000002,-59.879335,0.000027,
2086,2488,-3.72438067387247,-3.42141690267575,-0.0119320521613417,0.004547,-0.000491,0.006927,0.189036,0.061841,323.854517,24.346876,0.999307,0.989343,0.004243,0.513114,0.000018,-0.000002,-0.000016,0.000026,-0.000011,-28.973003,0.000026,
2026,2458,-5.02458309570433,-4.07609121151462,-0.0213399362378937,0.004793,-0.000391,0.005443,0.205473,0.046538,324.612911,24.493623,0.999410,0.989899,0.004077,0.497829,0.000026,0.000015,-0.000021,0.000043,-0.000001,-37.757588,0.000049,
2101,3148,-3.50070032126246,10.9245796183098,0.0365538594188024,0.004885,-0.000261,0.004059,0.213507,0.024164,313.490770,24.376166,0.999846,0.996426,0.002739,0.464238,0.000003,0.000032,-0.000015,0.000038,-0.000003,-67.120694,0.000043,
2056,2833,-4.42958905149703,4.0898412960524,-0.0131968088854251,0.005019,-0.000423,0.007768,0.209376,0.045612,318.437611,24.389489,0.998977,0.986480,0.004516,0.406414,0.000004,0.000016,-0.000011,0.000023,-0.000002,-58.761047,0.000025,
2491,3028,4.98858457323628,8.35329966639538,-0.000164233660314039,0.005112,-0.000412,0.006152,0.211329,0.043895,314.712560,25.632747,0.999730,0.993610,0.003333,0.442942,0.000038,0.000046,-0.000002,0.000047,0.000037,-78.698802,0.000084,
2341,2833,1.76222053769092,4.10465890444183,-0.0141719570117971,0.004947,-0.000527,0.005840,0.207019,0.038316,317.588773,24.741262,0.999645,0.990514,0.003838,0.391780,0.000000,0.000034,-0.000002,0.000034,0.000000,-86.929598,0.000039,
2461,2878,4.36345401627306,5.09145923983235,-0.0288927444157707,0.004632,-0.000168,0.003414,0.199999,0.049933,316.840932,25.004077,0.999304,0.991223,0.003832,0.446242,0.000011,0.000045,-0.000011,0.000048,0.000008,-73.268373,0.000060,
2176,2863,-1.82954575821713,4.74737788823046,-0.0137241798312857,0.004620,-0.000485,0.003827,0.200823,0.031130,317.393108,24.499964,0.998881,0.988150,0.004148,0.451480,0.000014,0.000027,0.000007,0.000030,0.000011,66.620535,0.000042,
2011,2488,-5.35464237905031,-3.42297299607063,-0.011529097616517,0.004711,-0.000626,0.006775,0.198292,0.045480,324.298637,24.514805,0.999344,0.987234,0.004377,0.490758,0.000004,-0.000011,-0.000013,0.000012,-0.000019,-30.145438,0.000019,
2371,2458,2.48706404482542,-4.07181551289613,-0.00528165464680797,0.004690,-0.000805,0.005123,0.196649,0.017621,323.753021,23.690123,0.999019,0.985329,0.004887,0.416839,0.000015,-0.000019,0.000010,0.000018,-0.000022,14.945889,0.000023,
2476,2968,4.67456916784812,7.04873444081671,-0.00445007366369055,0.005062,0.000185,-0.000974,0.236563,0.056889,315.645459,25.401561,0.999466,0.989827,0.004014,0.416864,0.000026,0.000032,0.000005,0.000035,0.000023,59.719565,0.000058,
2071,2713,-4.0862629668166,1.4816319957027,-0.0263164896830972,0.004846,-0.000631,0.008575,0.198602,0.050717,320.181289,24.381659,0.999211,0.989818,0.004021,0.463108,0.000008,-0.000010,-0.000007,0.000010,-0.000012,-18.903473,0.000013,
2386,2533,2.79913512618117,-2.43225953638609,-0.0154578322978409,0.004762,-0.000035,0.002471,0.209708,0.073906,322.473120,23.844529,0.999488,0.988750,0.004391,0.503984,-0.000004,-0.000006,0.000011,0.000006,-0.000016,41.723503,0.000016,
2131,2953,-2.82004661120696,6.69869282432753,0.00672161313548258,0.004848,-0.000357,0.005311,0.207533,0.047198,316.277964,24.463440,0.999612,0.991675,0.003644,0.467256,0.000015,0.000022,0.000008,0.000027,0.000010,55.942982,0.000039,
2206,3118,-1.21892786980817,10.2830595149898,0.0320119554214102,0.004805,-0.000524,0.005254,0.204755,0.021974,313.527895,24.835986,0.999533,0.992074,0.003678,0.422944,-0.000005,0.000023,-0.000008,0.000025,-0.000008,-74.294126,0.000026,
2506,3118,5.29777094534085,10.3087367440293,0.0175984740158697,0.004847,-0.000451,0.005271,0.202405,0.040537,313.420038,26.050630,0.999550,0.991575,0.003676,0.428932,0.000034,0.000074,0.000017,0.000080,0.000028,69.771054,0.000112,
2026,2533,-5.03553708108825,-2.44133049889877,-0.0135081294185966,0.004777,-0.001174,0.008940,0.195020,0.029921,323.457598,24.477742,0.999445,0.989438,0.004036,0.454039,0.000010,0.000011,-0.000003,0.000013,0.000007,-49.585516,0.000021,
2206,2203,-1.06324939928118,-9.65052058500189,0.0152789049123498,0.004582,-0.000638,0.008519,0.182986,0.066997,328.209506,23.878589,0.998904,0.980426,0.005478,0.371877,0.000003,0.000008,0.000007,0.000013,-0.000002,55.329160,0.000014,
2011,2308,-5.32785274973761,-7.35194187373191,-0.00333568607572943,0.004583,-0.000712,0.005780,0.194836,0.041256,327.262321,24.734882,0.999097,0.986232,0.004794,0.390458,0.000019,0.000022,-0.000041,0.000061,-0.000020,-45.965302,0.000063,
2161,3268,-2.22122197448678,13.5306178490505,0.0227336682827968,0.004859,-0.000462,0.004966,0.208897,0.015059,311.148143,24.714563,0.999662,0.993869,0.003277,0.444831,0.000019,0.000044,-0.000002,0.000044,0.000019,-86.086113,0.000065,
2356,2518,2.14867264601691,-2.76224436755707,-0.00352708880950559,0.004538,-0.000875,0.005228,0.189575,0.025785,322.782995,23.847228,0.999314,0.985278,0.004711,0.465908,-0.000002,-0.000007,0.000005,0.000001,-0.000010,31.307960,0.000011,
2011,2503,-5.35735041558826,-3.09412481999059,-0.0183837408867475,0.004585,-0.000630,0.006031,0.194555,0.053587,323.995052,24.596625,0.999699,0.992319,0.003698,0.406263,0.000003,0.000012,-0.000010,0.000019,-0.000004,-57.623677,0.000020,
2041,2863,-4.75958515978695,4.74072622831966,-0.0155628498703209,0.004983,-0.000067,0.002866,0.221824,0.046611,318.030608,24.318266,0.999206,0.989617,0.004278,0.444852,-0.000008,0.000025,0.000003,0.000025,-0.000008,84.344674,0.000026,
2116,3178,-3.18025842527051,11.5759360030686,0.0403152413954331,0.004910,-0.000429,0.004670,0.212716,0.032594,312.960035,24.453194,0.999558,0.991949,0.003516,0.464737,0.000000,0.000037,-0.000022,0.000047,-0.000010,-65.111592,0.000049,
2026,2473,-5.02717323772621,-3.74895443563857,-0.0182806104857036,0.004430,-0.000909,0.008323,0.180733,0.039802,324.371824,24.515319,0.999042,0.985379,0.004698,0.461080,0.000030,0.000000,-0.000017,0.000038,-0.000007,-23.715797,0.000040,
2041,2788,-4.74865012928499,3.11144391621061,-0.0206656984167353,0.004897,-0.000648,0.006544,0.207349,0.034111,319.191025,24.390953,0.999011,0.987712,0.004324,0.398581,-0.000020,0.000018,0.000004,0.000019,-0.000020,83.975073,0.000022,
2416,2668,3.42611215320921,0.514210860939926,-0.0106520209105838,0.004626,-0.000905,0.011199,0.171081,0.037157,320.311443,24.330273,0.999402,0.987919,0.004454,0.364074,0.000006,0.000008,-0.000015,0.000022,-0.000008,-47.238161,0.000022,
2281,2368,0.543174992208389,-6.04226665310809,0.0134597900513427,0.004918,-0.001043,0.008512,0.196833,0.022462,325.401432,23.692785,0.999056,0.981877,0.005266,0.467958,-0.000014,-0.000008,0.000000,-0.000008,-0.000014,-85.069363,0.000023,
2266,2158,0.254777385725877,-10.6373451201768,0.0208069353107589,0.005211,-0.000079,0.002509,0.230473,0.072883,328.903684,23.504444,0.999228,0.982447,0.005241,0.367325,-0.000013,0.000003,-0.000001,0.000003,-0.000013,-87.688902,0.000014,
2506,3133,5.29459966267332,10.6343644953871,0.0167724414613986,0.004960,-0.000488,0.006723,0.201984,0.043881,313.166595,26.089403,0.999503,0.991539,0.003693,0.453360,0.000048,0.000070,0.000010,0.000074,0.000044,68.794106,0.000118,
2116,2068,-3.00239421165861,-12.6075137633773,0.0167703945919584,0.005244,0.000503,0.001604,0.235873,0.061480,330.759519,24.256785,0.998667,0.970058,0.006541,0.377739,-0.000008,-0.000012,0.000005,-0.000004,-0.000016,34.517473,0.000021,
2131,3058,-2.83651602258088,8.97728473376256,0.019270892762222,0.004734,-0.000025,0.002163,0.211920,0.038560,314.675597,24.550271,0.999399,0.992173,0.003700,0.405882,0.000013,0.000019,-0.000010,0.000026,0.000005,-53.742019,0.000034,
2056,2848,-4.43209673774235,4.41537839020175,-0.0160782071795325,0.004818,-0.000512,0.004387,0.209646,0.029116,318.170559,24.339686,0.999292,0.989944,0.003994,0.434395,0.000002,0.000022,-0.000004,0.000023,0.000001,-78.120090,0.000027,
2446,2818,4.04972250711806,3.78295046388565,-0.024468141137902,0.004893,-0.000242,0.001354,0.219684,0.036557,317.848288,24.663195,0.999503,0.989062,0.004123,0.541387,0.000018,0.000004,-0.000030,0.000042,-0.000020,-38.268308,0.000042,
2116,3223,-3.18736696763777,12.5502929147186,0.0476780558227006,0.004916,-0.000650,0.006896,0.206367,0.025719,312.279678,24.445621,0.999721,0.994226,0.003149,0.471673,0.000005,0.000042,-0.000024,0.000053,-0.000007,-64.086800,0.000058,
2071,2728,-4.08799918410485,1.80755934194457,-0.0212171172764783,0.005103,-0.000499,0.008004,0.212180,0.063723,319.994219,24.366575,0.999105,0.988882,0.004210,0.488336,0.000005,0.000003,0.000000,0.000005,0.000003,6.502008,0.000008,
2056,2938,-4.44522985651144,6.3690464457956,0.000235064942273766,0.004825,-0.000285,0.005529,0.206901,0.036790,316.841256,24.310566,0.999312,0.991287,0.003792,0.436220,0.000002,0.000026,0.000005,0.000027,0.000001,78.388698,0.000031,
2086,2503,-3.72657739413664,-3.09409670391835,-0.0137460064356105,0.004609,-0.000360,0.003695,0.201269,0.041864,323.609356,24.364168,0.999154,0.989290,0.004127,0.476089,0.000024,0.000018,-0.000012,0.000034,0.000009,-37.075629,0.000044,
2461,2893,4.36088662633405,5.4178857324639,-0.0212416279116496,0.004687,-0.000548,0.006163,0.192076,0.054576,316.651864,25.112804,0.999076,0.988839,0.004235,0.395848,0.000015,0.000041,-0.000011,0.000045,0.000011,-70.132712,0.000059,
2101,3163,-3.50350038087967,11.2502870843344,0.0305203767042599,0.004842,-0.000205,0.002762,0.215312,0.016576,313.196842,24.402075,0.999736,0.994974,0.003021,0.430683,-0.000002,0.000041,-0.000021,0.000049,-0.000011,-67.369838,0.000052,
2041,2878,-4.76228042984144,5.06703875699857,-0.0186154421170386,0.004900,-0.000369,0.004628,0.213024,0.036569,317.752552,24.340861,0.998953,0.986379,0.004626,0.404502,0.000004,0.000032,-0.000002,0.000032,0.000003,-86.792880,0.000040,
2176,2128,-1.70440704015667,-11.2939432710828,0.0152003696382508,0.004828,-0.000855,0.005280,0.204767,0.029996,329.525718,23.908836,0.998888,0.979477,0.005604,0.378625,0.000016,0.000004,0.000015,0.000026,-0.000006,33.518010,0.000027,
2146,2893,-2.48526579740764,5.39718068562306,-0.00750163057648479,0.004931,-0.000343,0.003703,0.215987,0.046660,317.082382,24.452512,0.999445,0.989400,0.004124,0.484260,0.000013,0.000025,0.000005,0.000028,0.000011,69.328103,0.000040,
2131,2968,-2.82259890622217,7.02467041327692,0.00667420481107683,0.004707,-0.000342,0.004235,0.204295,0.038379,316.029911,24.501840,0.999770,0.993728,0.003164,0.425258,0.000013,0.000022,0.000006,0.000025,0.000010,61.942778,0.000036,
2371,2473,2.48445266005704,-3.7447210856908,0.00106262637876853,0.004607,-0.000645,0.007185,0.185622,0.048089,323.551831,23.705911,0.999335,0.986921,0.004566,0.473758,0.000014,-0.000022,0.000014,0.000019,-0.000027,18.361431,0.000027,
2041,2803,-4.75089457989591,3.43717473288633,-0.0211662112547515,0.004938,-0.000581,0.005700,0.211605,0.034300,318.947877,24.347077,0.999344,0.989952,0.003877,0.434986,-0.000013,0.000014,0.000000,0.000014,-0.000013,-89.601987,0.000016,
2431,2743,3.73831611667053,2.14874437555399,-0.0156696562868888,0.005005,-0.000912,0.007616,0.201415,0.031908,319.100715,24.472336,0.999622,0.990251,0.003847,0.461797,0.000012,0.000011,-0.000016,0.000027,-0.000004,-43.700627,0.000029,
2236,2038,-0.378434401272255,-13.2718183595131,0.0383246934275689,0.004992,-0.000918,0.008955,0.199385,0.048997,331.002594,23.372956,0.998901,0.978138,0.005700,0.443081,-0.000004,0.000054,0.000006,0.000054,-0.000004,84.578770,0.000060,
2251,2338,-0.106196129558281,-6.69585016128683,-0.00116096417156086,0.004724,-0.000440,0.002490,0.208456,0.030950,325.820744,23.823733,0.999143,0.982944,0.005139,0.396878,-0.000004,0.000005,0.000012,0.000013,-0.000012,55.574931,0.000015,
2326,2278,1.5403034836198,-8.0089197135771,0.0046232818094154,0.004616,-0.000439,0.003647,0.198887,0.031862,326.747344,23.404696,0.999095,0.982513,0.005067,0.394904,-0.000014,-0.000002,-0.000017,0.000010,-0.000026,-54.139521,0.000026,
2011,2518,-5.35921642421309,-2.7687387025693,-0.0137390190513429,0.004600,-0.000460,0.005184,0.197612,0.062580,323.795363,24.469977,0.999694,0.992822,0.003607,0.530966,-0.000002,0.000015,-0.000004,0.000016,-0.000003,-75.980386,0.000017,
2356,2533,2.14607384213918,-2.43473362655302,-0.00864180458091823,0.005027,-0.000643,0.003374,0.218668,0.034840,322.526077,23.837336,0.999359,0.985727,0.004685,0.524935,-0.000003,-0.000001,0.000005,0.000003,-0.000007,51.320500,0.000007,
2491,3043,4.98537193514446,8.68008067871969,-0.00237766189201238,0.005083,-0.000268,0.005246,0.213474,0.035879,314.450046,25.756849,0.999720,0.992736,0.003597,0.368638,0.000036,0.000046,0.000005,0.000049,0.000034,66.848639,0.000083,
2206,3133,-1.22111754334686,10.6084350852233,0.0344292011554899,0.004885,-0.000243,0.002675,0.216754,0.033500,313.314734,24.857960,0.999656,0.993603,0.003401,0.428090,-0.000008,0.000026,-0.000008,0.000027,-0.000010,-77.660366,0.000028,
2116,3193,-3.18306588164513,11.9011559975367,0.0414178358774393,0.004640,-0.000472,0.006658,0.194361,0.027966,312.705675,24.481695,0.999648,0.992266,0.003563,0.433566,0.000001,0.000037,-0.000022,0.000048,-0.000009,-64.323112,0.000051,
2071,2743,-4.09007275751264,2.13316321944793,-0.0183314582496337,0.005073,-0.000536,0.005988,0.216463,0.029137,319.779808,24.355415,0.999302,0.990199,0.004008,0.461791,-0.000002,0.000015,0.000003,0.000015,-0.000002,80.863425,0.000016,
2086,2518,-3.72847745655353,-2.76771111119202,-0.00571274660256904,0.004601,-0.000591,0.004484,0.198546,0.030169,323.431474,24.381359,0.999468,0.990881,0.003893,0.447202,0.000025,0.000024,-0.000004,0.000029,0.000020,-40.748437,0.000049,
2011,2323,-5.32888070374685,-7.02583919138976,0.0105050334381644,0.004879,-0.000571,0.005153,0.210151,0.042568,327.151817,24.711426,0.998996,0.983492,0.005120,0.404563,0.000025,0.000022,-0.000049,0.000073,-0.000026,-44.237840,0.000074,
2026,2548,-5.0376072502528,-2.11398017615894,-0.0121543586761845,0.004703,-0.000381,0.006155,0.199527,0.050646,323.230742,24.498918,0.999558,0.990131,0.003764,0.444504,0.000009,0.000000,-0.000002,0.000010,-0.000001,-12.114406,0.000011,
2116,3238,-3.19052870355055,12.8759022125068,0.0390218292427562,0.004741,-0.000513,0.005986,0.201064,0.026669,311.956261,24.459918,0.999694,0.994589,0.002990,0.460555,0.000007,0.000038,-0.000023,0.000050,-0.000005,-62.153767,0.000055,
2401,2578,3.11704499811906,-1.44992460206651,-0.0138592166369449,0.004692,-0.000829,0.006774,0.190527,0.040273,321.750206,23.981833,0.999305,0.986358,0.004590,0.445556,0.000006,0.000025,0.000008,0.000028,0.000004,70.305472,0.000034,
2026,2488,-5.02843466098945,-3.42322425661836,-0.0110570434199531,0.004863,-0.000570,0.006627,0.205435,0.044071,324.215034,24.439655,0.999316,0.986929,0.004391,0.532003,0.000023,-0.000003,-0.000017,0.000031,-0.000012,-26.157442,0.000032,
2161,3283,-2.22393370689926,13.8557132976905,0.026441810115216,0.004602,-0.000231,0.007106,0.190669,0.044289,310.914939,24.736250,0.999709,0.994402,0.003095,0.460876,0.000023,0.000050,0.000005,0.000051,0.000022,79.976119,0.000075,
2296,2443,0.854745140586274,-4.40174805860449,-0.00722496341103351,0.004752,-0.001158,0.009604,0.185327,0.044171,323.987355,23.706481,0.999649,0.988560,0.004257,0.583827,-0.000006,-0.000024,-0.000004,-0.000005,-0.000025,-12.212950,0.000033,
2071,2758,-4.09277797846557,2.46011917483174,-0.0234463635866859,0.004938,-0.000293,0.004346,0.215111,0.058249,319.492093,24.345909,0.999396,0.991402,0.003850,0.497444,-0.000004,0.000010,-0.000002,0.000010,-0.000004,-83.416689,0.000010,
2236,2053,-0.381442004991801,-12.9409273807508,0.0314915280559944,0.004905,-0.000661,0.006587,0.203192,0.023429,330.707961,23.506349,0.998758,0.976275,0.005828,0.308679,-0.000005,0.000043,0.000005,0.000044,-0.000006,83.788997,0.000047,
2056,2953,-4.4475577590403,6.69449064424228,0.00508563193307054,0.004562,-0.000164,0.005700,0.194376,0.050294,316.625205,24.306534,0.999162,0.991579,0.003820,0.447853,0.000011,0.000018,0.000002,0.000018,0.000010,74.493531,0.000029,
2416,2683,3.42365685566316,0.8406919536435,-0.0109452522041806,0.004933,-0.000586,0.008666,0.194615,0.041510,320.088701,24.322182,0.999336,0.986104,0.004755,0.425023,0.000006,0.000016,-0.000016,0.000027,-0.000006,-53.282973,0.000029,
2206,2218,-1.06559857765014,-9.32198165143468,0.0112738428762214,0.004809,-0.000349,0.004989,0.204697,0.055891,327.956374,23.877841,0.998900,0.981132,0.005452,0.380700,0.000003,0.000017,0.000005,0.000018,0.000002,73.126895,0.000022,
2461,2908,4.35874834214547,5.74307102425206,-0.0137146098898597,0.004753,-0.000524,0.003818,0.203923,0.034837,316.482270,25.133865,0.998989,0.987262,0.004486,0.408976,0.000013,0.000026,-0.000005,0.000028,0.000012,-71.762310,0.000040,
2176,2923,-1.83941665571395,6.05136556044699,-0.0061952981428135,0.004803,-0.000411,0.009428,0.191967,0.051320,316.470067,24.593743,0.998824,0.987220,0.004526,0.425403,0.000014,0.000023,0.000009,0.000029,0.000009,58.687296,0.000039,
2086,2533,-3.73077095716147,-2.4400060718139,-0.00852034102820198,0.004835,-0.000298,0.004450,0.209562,0.058582,323.176239,24.386265,0.999636,0.991895,0.003794,0.470761,0.000019,0.000029,0.000001,0.000029,0.000018,85.322947,0.000048,
2341,2848,1.75845398502302,4.43070290218832,-0.0182402046731909,0.004557,-0.000746,0.009091,0.177650,0.029686,317.281112,24.726709,0.999688,0.990793,0.003766,0.434042,-0.000001,0.000038,-0.000002,0.000039,-0.000001,-87.765730,0.000044,
2491,3058,4.98311584040847,9.00431356898567,0.0104340509490157,0.004874,-0.000565,0.005944,0.201077,0.021972,314.300096,25.753837,0.999677,0.991284,0.003895,0.415510,0.000033,0.000042,0.000009,0.000048,0.000027,56.937887,0.000076,
2056,2863,-4.43405009264634,4.741016129987,-0.00917457375152253,0.004683,-0.000073,0.002812,0.207959,0.035075,317.982816,24.353824,0.999344,0.990158,0.003973,0.420407,0.000007,0.000023,0.000000,0.000023,0.000007,89.587049,0.000032,
2206,2278,-1.07519090630602,-8.00955215088856,0.0108801881459044,0.005438,-0.000720,0.005053,0.233313,0.051486,327.015193,23.893165,0.998877,0.982118,0.005273,0.437269,-0.000004,0.000002,-0.000003,0.000003,-0.000006,-65.950276,0.000006,
2131,3073,-2.83890035037312,9.30207191594587,0.0254280615740754,0.004780,-0.000357,0.007424,0.198211,0.043176,314.468852,24.533310,0.999675,0.994036,0.003357,0.432197,0.000008,0.000026,-0.000007,0.000028,0.000006,-72.508911,0.000037,
2176,2143,-1.70649723171176,-10.9657789304844,0.0203529512528462,0.004980,-0.000751,0.006939,0.206643,0.049945,329.329322,23.912901,0.998563,0.979771,0.005628,0.409565,0.000014,0.000003,0.000018,0.000028,-0.000010,36.404575,0.000028,
2506,3148,5.29192276594799,10.9599044471505,0.0216861242923869,0.004788,-0.000402,0.004708,0.201865,0.032368,312.961619,26.173788,0.999486,0.990250,0.003854,0.417403,0.000048,0.000058,0.000009,0.000064,0.000042,59.062423,0.000107,
2086,2593,-3.74111116741365,-1.13156889652137,-0.0140766927964364,0.004365,-0.000296,0.005935,0.183726,0.055100,322.133770,24.405272,0.999114,0.987183,0.004464,0.448138,0.000000,0.000017,0.000008,0.000020,-0.000003,67.388203,0.000022,
2041,2818,-4.75331716861298,3.76278002571124,-0.0156430064735673,0.004635,-0.000591,0.008119,0.190976,0.056755,318.730004,24.319835,0.999263,0.989991,0.003965,0.476996,-0.000009,0.000019,-0.000008,0.000021,-0.000011,-75.861218,0.000021,
2026,2563,-5.03953550202013,-1.78741571517497,-0.0116737574452941,0.004926,-0.000499,0.005024,0.212868,0.057942,323.005799,24.458396,0.999572,0.989327,0.003915,0.483543,0.000006,0.000011,-0.000003,0.000013,0.000005,-62.802024,0.000018,
2311,2383,1.19392303061054,-5.71217023396922,0.00421807856338319,0.004690,-0.000010,0.002827,0.205548,0.059441,325.060974,23.674291,0.999328,0.985498,0.004832,0.456090,-0.000004,-0.000010,-0.000004,-0.000002,-0.000012,-27.179083,0.000015,
2476,2983,4.6707011556984,7.37522807086785,-0.00833632573971954,0.004840,-0.000274,0.002313,0.213684,0.037596,315.344432,25.482134,0.999368,0.989115,0.004142,0.372854,0.000030,0.000031,0.000008,0.000038,0.000023,47.461494,0.000062,
2281,2383,0.539707495023734,-5.71304945333618,0.00179391297501752,0.004771,-0.000915,0.005301,0.200907,0.017823,325.065370,23.734821,0.998883,0.981644,0.005357,0.450935,-0.000014,-0.000011,-0.000005,-0.000008,-0.000017,-51.382505,0.000026,
2116,3208,-3.18474253962087,12.2259898174668,0.0464574317230699,0.004960,-0.000214,0.004188,0.216592,0.040013,312.524625,24.484320,0.999693,0.993488,0.003270,0.445163,0.000002,0.000039,-0.000022,0.000050,-0.000008,-64.560890,0.000053,
2146,2773,-2.4664548505078,2.79005753489891,-0.0224548711063335,0.004802,-0.000417,0.003444,0.210597,0.030404,318.902555,24.455915,0.999661,0.993318,0.003343,0.403513,0.000013,0.000008,-0.000011,0.000021,0.000000,-38.317613,0.000024,
2116,2083,-3.00522000508959,-12.2782232391527,0.0160623249453806,0.004841,0.000241,0.001812,0.216726,0.059858,330.493694,24.299284,0.998511,0.975524,0.006219,0.340456,-0.000005,0.000001,0.000006,0.000005,-0.000009,59.969151,0.000009,
2161,3298,-2.22649315757944,14.1805743853325,0.022621345341804,0.004759,-0.000155,0.005598,0.202456,0.023846,310.648969,24.748497,0.999812,0.996037,0.002669,0.436774,0.000031,0.000060,0.000000,0.000060,0.000031,89.850981,0.000092,
2041,2893,-4.76403730863804,5.39174118340303,-0.00580515329102127,0.004813,-0.000456,0.006772,0.203038,0.045012,317.606088,24.316930,0.999288,0.991489,0.003767,0.428782,-0.000003,0.000022,-0.000005,0.000023,-0.000004,-79.469687,0.000024,
2206,3148,-1.22413677334872,10.9337771826196,0.0317758591578468,0.004749,-0.000423,0.003867,0.206653,0.026526,313.037179,24.868176,0.999518,0.993020,0.003526,0.426417,-0.000005,0.000025,-0.000004,0.000026,-0.000005,-81.707392,0.000027,
2461,2923,4.35529050822772,6.06990336716069,-0.0150800689445418,0.004608,-0.000441,0.005943,0.189274,0.041156,316.210660,25.220508,0.999354,0.988828,0.004213,0.382845,0.000017,0.000021,-0.000007,0.000026,0.000012,-53.877355,0.000038,
2431,2758,3.73523698231824,2.47583410997194,-0.0150096284259575,0.004832,-0.000531,0.007442,0.194260,0.043864,318.854383,24.543560,0.999590,0.988933,0.003991,0.452501,0.000017,0.000017,-0.000014,0.000031,0.000003,-45.422466,0.000038,
2176,2878,-1.83148797609014,5.07336632081651,-0.00568431994139473,0.004812,-0.000462,0.005812,0.203555,0.042583,317.218738,24.555318,0.999440,0.992694,0.003515,0.419626,0.000019,0.000031,0.000004,0.000032,0.000017,72.964841,0.000050,
2386,2548,2.79686172699839,-2.10600608230898,-0.00501299361934571,0.004829,-0.000571,0.005901,0.200239,0.041062,322.307965,23.905675,0.999467,0.988060,0.004464,0.453844,-0.000002,-0.000001,0.000012,0.000010,-0.000013,46.176070,0.000014,
2026,2503,-5.0313682439634,-3.09327418109707,-0.0239347903074645,0.004890,-0.000319,0.005573,0.209677,0.068614,323.868670,24.551636,0.999721,0.992508,0.003598,0.436437,0.000024,0.000017,-0.000016,0.000036,0.000004,-38.649652,0.000045,
2071,2773,-4.09446843537258,2.78606282206498,-0.0180855855841173,0.005196,-0.000236,0.003190,0.230258,0.039024,319.308673,24.378594,0.999277,0.989748,0.004114,0.442306,-0.000003,0.000005,-0.000002,0.000005,-0.000003,-78.121655,0.000005,
2011,2533,-5.36117723454462,-2.44189255277924,-0.0108875984172982,0.004698,-0.000743,0.005345,0.201605,0.043532,323.581012,24.492943,0.999295,0.987506,0.004447,0.477990,-0.000010,0.000002,0.000000,0.000002,-0.000010,88.584738,0.000011,
2056,2968,-4.44938428718737,7.01960432509773,0.00714208062981925,0.005026,-0.000281,0.006719,0.212802,0.030464,316.416904,24.289401,0.999203,0.990687,0.003843,0.439099,0.000010,0.000012,-0.000001,0.000013,0.000009,-64.701237,0.000022,
2206,3193,-1.23148354476405,11.9094281573306,0.0354593629347733,0.004861,0.000175,0.001796,0.218662,0.050166,312.343483,24.913285,0.999767,0.995860,0.003019,0.451475,0.000003,0.000026,-0.000002,0.000026,0.000003,-84.487520,0.000032,
2101,3178,-3.50614941684096,11.5748833907132,0.0258556017815295,0.004886,-0.000240,0.001840,0.220130,0.026583,312.917682,24.320935,0.999795,0.995370,0.002876,0.522189,0.000000,0.000038,-0.000020,0.000047,-0.000008,-66.928205,0.000050,
2326,2293,1.5377685035084,-7.68064892011424,0.00498449469773732,0.004928,-0.000573,0.004909,0.208809,0.054779,326.517872,23.419294,0.999141,0.982732,0.005053,0.439989,-0.000015,-0.000002,-0.000008,0.000002,-0.000018,-64.887419,0.000020,
2056,2878,-4.43642265548972,5.06646200238285,-0.00816116615345663,0.004734,-0.000482,0.005149,0.203692,0.038800,317.743464,24.312772,0.999236,0.989357,0.004183,0.459336,0.000015,0.000031,-0.000006,0.000033,0.000013,-72.066345,0.000047,
2011,2338,-5.33172007941051,-6.69826246170317,0.00740167018085458,0.004609,-0.000743,0.008511,0.188621,0.043978,326.863454,24.659338,0.998983,0.985503,0.004874,0.448241,0.000020,-0.000010,-0.000066,0.000073,-0.000063,-38.659287,0.000079,
2236,2188,-0.405497153888213,-9.97926863359733,0.0165004533470778,0.005100,-0.000452,0.003723,0.221610,0.047953,328.429022,23.738066,0.999186,0.985273,0.004869,0.319863,-0.000001,-0.000001,0.000009,0.000008,-0.000010,44.958932,0.000011,
2251,2503,-0.136075921982286,-3.09058548471221,-0.00624857416119085,0.004701,-0.000564,0.008261,0.188728,0.048213,323.090089,24.101962,0.999468,0.988677,0.004249,0.409477,-0.000005,0.000005,-0.000002,0.000006,-0.000005,-79.102272,0.000006,
2506,3163,5.28890065165756,11.2851768081863,0.0220176733317885,0.004799,-0.000300,0.004383,0.203665,0.027053,312.720175,26.202999,0.999597,0.991370,0.003626,0.442850,0.000047,0.000058,0.000013,0.000067,0.000038,55.496209,0.000107,
2116,3253,-3.19322850532219,13.2016921860163,0.0360764668747038,0.004676,-0.000390,0.005293,0.200208,0.035907,311.684781,24.519395,0.999731,0.996127,0.002655,0.412138,0.000012,0.000035,-0.000017,0.000044,0.000002,-62.083290,0.000053,
2131,2983,-2.82509993339356,7.35018981599638,0.00453934157712865,0.004803,-0.000155,0.003907,0.209755,0.040121,315.773181,24.477449,0.999740,0.993927,0.003189,0.456349,0.000010,0.000019,0.000007,0.000022,0.000006,61.759361,0.000030,
2146,2908,-2.48748524962535,5.72286630684921,-0.00272923735502673,0.004850,-0.000336,0.003061,0.214224,0.048105,316.876385,24.472942,0.999323,0.988601,0.004222,0.472621,0.000012,0.000022,0.000006,0.000025,0.000010,65.254473,0.000036,
2371,2488,2.48153489846785,-3.41729819420294,0.00258751861440487,0.004516,-0.000690,0.008225,0.177785,0.059101,323.313539,23.731139,0.999416,0.986319,0.004537,0.502101,0.000015,-0.000020,0.000012,0.000018,-0.000024,16.988947,0.000025,
2446,2833,4.04713887984927,4.11119214374863,-0.0147495204697066,0.004863,-0.000318,0.005479,0.202899,0.046278,317.666988,24.933759,0.999689,0.991568,0.003689,0.332118,0.000017,0.000015,-0.000025,0.000041,-0.000009,-43.749851,0.000043,
2086,2548,-3.73364725755982,-2.11303509490775,-0.0161607390631957,0.004717,-0.000173,0.003270,0.207599,0.054298,322.868374,24.318973,0.999444,0.990547,0.004029,0.534040,0.000019,0.000025,0.000008,0.000030,0.000014,55.859459,0.000045,
2311,2398,1.19307624123127,-5.38712589119188,0.0231961492055461,0.005167,-0.000226,0.002836,0.227320,0.066962,324.999369,23.622050,0.999302,0.986476,0.004891,0.548932,-0.000004,-0.000005,-0.000004,0.000000,-0.000009,-38.763250,0.000010,
2251,2353,-0.108923980378748,-6.36950219313631,0.0127035152445956,0.004143,-0.001056,0.009547,0.158543,0.038096,325.644662,23.829967,0.999162,0.984248,0.005022,0.422612,-0.000008,-0.000008,0.000007,-0.000001,-0.000015,45.124660,0.000018,
2491,3073,4.98017019304588,9.32973588581284,0.00915805176089179,0.005094,-0.000525,0.005843,0.211617,0.026919,314.054333,25.753346,0.999622,0.990489,0.004003,0.479193,0.000038,0.000036,0.000009,0.000046,0.000028,42.121697,0.000075,
2266,2173,0.250980866578139,-10.3097192605959,0.016812485844298,0.004732,-0.000843,0.007720,0.191089,0.068613,328.590215,23.397794,0.999492,0.983812,0.005078,0.498407,-0.000012,-0.000003,0.000000,-0.000003,-0.000012,-87.138977,0.000015,
2041,2833,-4.75516463871815,4.08875796527589,-0.0137613101725265,0.004943,-0.000512,0.007433,0.207050,0.035011,318.518266,24.346828,0.999023,0.988094,0.004257,0.420388,-0.000009,0.000015,-0.000009,0.000018,-0.000012,-71.171090,0.000018,
2086,2608,-3.74354228411892,-0.804449132042151,-0.0152568304890224,0.004428,-0.000441,0.006835,0.184002,0.065341,321.881301,24.413970,0.999164,0.987507,0.004404,0.449322,0.000002,0.000009,0.000009,0.000015,-0.000004,55.928803,0.000016,
2296,2458,0.852020917076562,-4.0720057483973,-0.00983037067561554,0.004790,-0.000550,0.007315,0.195036,0.067042,323.731310,23.883879,0.999394,0.986772,0.004588,0.460730,-0.000008,-0.000014,0.000000,-0.000008,-0.000014,2.194974,0.000023,
2131,3088,-2.84055949660188,9.62692264925273,0.0292441005914839,0.005073,-0.000183,0.003002,0.225019,0.034291,314.282870,24.523781,0.999834,0.995331,0.003105,0.437487,0.000003,0.000024,-0.000007,0.000026,0.000000,-72.701142,0.000031,
2476,2998,4.66813420433044,7.700022935506,-0.000521509538486953,0.004994,-0.000542,0.006265,0.205545,0.023172,315.156921,25.485165,0.999340,0.989220,0.004036,0.411048,0.000032,0.000027,0.000006,0.000036,0.000023,32.664173,0.000059,
2056,2983,-4.45170948179787,7.34526043661129,0.00960285142923567,0.005105,-0.000517,0.009924,0.207348,0.029893,316.187773,24.309645,0.999146,0.988785,0.004045,0.412253,0.000002,0.000006,-0.000001,0.000006,0.000002,-79.451485,0.000008,
2401,2593,3.11425083460686,-1.12293897095992,-0.0128931698318979,0.004790,-0.000663,0.007424,0.192743,0.033716,321.516950,24.013910,0.999437,0.988311,0.004305,0.453214,0.000010,0.000018,0.000009,0.000024,0.000004,56.752191,0.000030,
2206,3163,-1.22704526716492,11.2589508575056,0.0313441031213983,0.004495,-0.000499,0.003964,0.194581,0.013532,312.776263,24.886451,0.999740,0.995056,0.003112,0.410664,-0.000002,0.000028,-0.000005,0.000029,-0.000003,-81.609048,0.000032,
2176,2158,-1.71255130850345,-10.6310776545943,-0.0238704627707307,0.004525,-0.000737,0.008314,0.181583,0.030860,328.693503,24.030585,0.999312,0.958427,0.007010,0.289957,0.000017,-0.000002,0.000016,0.000026,-0.000012,29.941589,0.000026,
2206,2233,-1.06790245496427,-8.99517096585729,0.0163134150070618,0.004912,-0.000873,0.008115,0.199367,0.047236,327.752108,23.816052,0.999068,0.982865,0.005370,0.453088,-0.000003,0.000015,0.000004,0.000016,-0.000004,76.226780,0.000016,
2071,2788,-4.09675540842928,3.11101829463662,-0.0109794490626314,0.005071,-0.000664,0.007231,0.212871,0.031365,319.107788,24.326378,0.999222,0.988500,0.004243,0.483703,-0.000004,0.000017,0.000001,0.000017,-0.000004,87.064208,0.000018,
2176,2938,-1.84123959534748,6.37678817894135,-0.000931397936199119,0.005033,-0.000400,0.007381,0.209006,0.058616,316.286788,24.595853,0.999183,0.989762,0.004066,0.442412,0.000013,0.000025,0.000008,0.000030,0.000009,63.224932,0.000040,
2011,2353,-5.33404734207683,-6.36825485860996,-0.00688299571129392,0.005017,-0.000080,0.003297,0.221728,0.050437,326.535303,24.720456,0.999123,0.988613,0.004583,0.383898,0.000025,-0.000007,-0.000059,0.000071,-0.000052,-37.408197,0.000073,
2071,3013,-4.13068117633528,7.99593309391545,0.0233272413446457,0.004421,-0.000300,0.004591,0.190873,0.049569,315.714191,24.294062,0.999442,0.991119,0.003678,0.479906,0.000000,0.000027,-0.000001,0.000027,0.000000,-88.508216,0.000031,
2431,2773,3.73224222032043,2.80239638390838,-0.0156486334856254,0.004776,-0.000693,0.006384,0.195603,0.040266,318.605980,24.576037,0.999523,0.988638,0.004169,0.466606,0.000019,0.000010,-0.000017,0.000032,-0.000002,-37.438973,0.000036,
2416,2698,3.42003575994756,1.16789360178232,-0.0224326769392746,0.004898,-0.000455,0.005155,0.205883,0.033150,319.759829,24.306197,0.999541,0.989444,0.004120,0.480855,0.000005,0.000020,-0.000015,0.000029,-0.000004,-57.711724,0.000031,
2356,2548,2.14307243412555,-2.10756765544058,-0.00540109342472306,0.004870,-0.000708,0.006689,0.199779,0.035661,322.290904,23.883831,0.999332,0.985606,0.004667,0.518910,-0.000001,0.000007,0.000006,0.000010,-0.000005,62.393180,0.000010,
2116,3268,-3.19581787143253,13.526616615032,0.0323938459687838,0.004696,-0.000265,0.003467,0.206561,0.028079,311.414736,24.516154,0.999740,0.995678,0.002808,0.409604,0.000015,0.000034,-0.000012,0.000039,0.000009,-64.208028,0.000051,
2266,2338,0.221042253568026,-6.69540869632404,-0.00055947713445903,0.004927,-0.000015,0.001822,0.220034,0.052161,325.811940,23.786894,0.999043,0.981709,0.005334,0.399908,-0.000013,0.000006,0.000009,0.000009,-0.000016,68.551351,0.000016,
2086,2623,-3.74621893465352,-0.47830557267752,-0.0235248740411862,0.004617,-0.000786,0.006599,0.193244,0.023191,321.579484,24.329906,0.999326,0.988314,0.004215,0.491440,0.000001,-0.000003,0.000002,0.000002,-0.000004,23.927525,0.000004,
2206,2293,-1.07762265171428,-7.68075436274236,0.00773857438480263,0.005448,0.000084,0.000337,0.248963,0.064507,326.762458,23.928363,0.999066,0.984502,0.004956,0.434066,-0.000001,0.000000,0.000004,0.000004,-0.000005,47.801180,0.000005,
2131,2998,-2.82722519154461,7.67502611544823,0.00710838872487329,0.004843,0.000001,0.001675,0.218391,0.049614,315.559079,24.418742,0.999750,0.994051,0.003233,0.529450,0.000006,0.000018,0.000005,0.000019,0.000004,69.847155,0.000025,
2176,1993,-1.67974681822344,-14.2577512876857,0.0452784398084987,0.005227,-0.000552,0.006283,0.219828,0.045743,331.958684,23.820666,0.999262,0.982066,0.005244,0.340053,0.000033,-0.000013,-0.000031,0.000048,-0.000028,-26.662017,0.000048,
2011,2548,-5.36314233147319,-2.1150709815287,-0.0110063080219334,0.005079,-0.000555,0.007404,0.213607,0.045488,323.349783,24.470812,0.999344,0.988116,0.004183,0.490792,-0.000010,-0.000007,0.000000,-0.000007,-0.000010,-81.721066,0.000017,
2056,2998,-4.45413482871713,7.67099494697444,0.0101341229112109,0.004769,-0.000251,0.006057,0.202928,0.046135,315.943363,24.311085,0.999195,0.989147,0.004060,0.421016,-0.000001,0.000012,-0.000001,0.000012,-0.000001,-86.768398,0.000014,
2506,3178,5.28680964011551,11.6107681738779,0.0300047104601049,0.005048,-0.000186,0.003500,0.218641,0.040056,312.555809,26.292487,0.999660,0.991934,0.003555,0.425998,0.000047,0.000061,0.000013,0.000069,0.000039,59.577113,0.000109,
2236,2068,-0.383693898991275,-12.6123808141852,0.036361918969078,0.004874,-0.000495,0.006232,0.202980,0.041327,330.507231,23.518823,0.999045,0.978815,0.005548,0.338730,-0.000004,0.000020,0.000005,0.000020,-0.000005,79.568922,0.000021,
2206,2248,-1.07134621475198,-8.66510725050114,0.00609454380008856,0.004756,-0.000742,0.008456,0.191187,0.070190,327.416462,23.867954,0.998841,0.982113,0.005356,0.443547,-0.000002,0.000007,0.000004,0.000009,-0.000004,69.613335,0.000009,
2461,2938,4.35280982706271,6.39559124953345,-0.0120320265870077,0.004835,-0.000632,0.005192,0.202476,0.027722,316.004504,25.256951,0.999461,0.989925,0.004136,0.386704,0.000021,0.000026,-0.000008,0.000032,0.000015,-53.743499,0.000048,
2026,2578,-5.04206208420995,-1.45971582854175,-0.0203025493886457,0.005075,-0.000441,0.003461,0.224094,0.051652,322.702470,24.460647,0.999237,0.988218,0.004294,0.466307,-0.000005,0.000005,-0.000004,0.000006,-0.000007,-69.062524,0.000007,
2056,2893,-4.4388235193799,5.39266575558653,-0.00504208384239746,0.004619,-0.000540,0.007276,0.192400,0.047596,317.514184,24.355707,0.999469,0.992402,0.003734,0.419600,0.000006,0.000020,-0.000009,0.000025,0.000002,-63.980251,0.000030,
2041,2908,-4.76592320143911,5.7174240830531,-0.00385335301035639,0.004977,-0.000090,0.004260,0.217738,0.054096,317.393128,24.306798,0.999496,0.991757,0.003597,0.439734,-0.000001,0.000028,-0.000002,0.000028,-0.000002,-85.507079,0.000031,
2281,2398,0.536475938836439,-5.38406512728136,-0.000614910913498079,0.004608,-0.000939,0.007862,0.184890,0.057707,324.786007,23.806335,0.999045,0.984627,0.005137,0.449004,-0.000013,-0.000008,-0.000005,-0.000005,-0.000016,-56.557626,0.000022,
2176,2893,-1.83321276230675,5.39796661471806,0.00494420592025335,0.004734,-0.000264,0.003241,0.207970,0.032075,317.068383,24.526907,0.999756,0.995376,0.003136,0.448998,0.000014,0.000026,0.000008,0.000030,0.000010,63.292948,0.000042,
2446,2848,4.04482937630936,4.43538611632071,-0.00788843390671445,0.004897,-0.000455,0.004459,0.208235,0.038525,317.486085,24.830966,0.999621,0.990916,0.003701,0.479260,0.000009,0.000024,-0.000026,0.000044,-0.000011,-52.749321,0.000046,
2206,3208,-1.23417095611195,12.2341665152935,0.0370022459393908,0.004917,-0.000317,0.005096,0.210662,0.043576,312.103071,24.907797,0.999574,0.993932,0.003399,0.465642,0.000006,0.000023,-0.000001,0.000023,0.000006,-86.643493,0.000031,
2491,3088,4.97764522086578,9.65605532608787,0.0134340708264062,0.005087,-0.000181,0.003536,0.220351,0.043411,313.852675,25.863495,0.999452,0.990231,0.003909,0.443203,0.000040,0.000042,0.000006,0.000047,0.000035,49.073083,0.000082,
2146,2788,-2.46910731114226,3.11586701505048,-0.0234923664233406,0.004783,-0.000596,0.004682,0.205954,0.035524,318.645830,24.408127,0.999619,0.992062,0.003590,0.464250,0.000010,0.000018,-0.000004,0.000020,0.000009,-67.994407,0.000029,
2131,3103,-2.84338097315638,9.95209301732452,0.0326101691663325,0.004692,-0.000306,0.005556,0.199764,0.035336,314.040996,24.534545,0.999806,0.995658,0.002965,0.432417,0.000000,0.000024,-0.000010,0.000027,-0.000004,-70.144903,0.000030,
2416,2713,3.41804901297187,1.49460493831928,-0.0193015047389622,0.005070,0.000132,-0.001520,0.238475,0.034013,319.574461,24.360457,0.999667,0.990299,0.003906,0.475474,0.000003,0.000018,-0.000017,0.000030,-0.000008,-57.145873,0.000031,
2506,3193,5.28376793773127,11.9358422296317,0.0326254096839307,0.005018,-0.000253,0.005219,0.210585,0.035853,312.323619,26.322809,0.999647,0.992135,0.003555,0.451625,0.000045,0.000059,0.000016,0.000069,0.000035,56.784984,0.000106,
2026,2518,-5.03346991823429,-2.76814643754935,-0.0205428476821794,0.004817,-0.000459,0.005571,0.206299,0.049163,323.652417,24.419144,0.999722,0.993603,0.003422,0.540748,0.000018,0.000019,-0.000009,0.000027,0.000010,-46.512909,0.000038,
2371,2503,2.4785130500414,-3.08920026890643,0.00072061084199504,0.004626,-0.000923,0.009721,0.177442,0.039014,323.054202,23.823136,0.999453,0.986973,0.004510,0.432092,0.000007,-0.000011,0.000010,0.000012,-0.000016,24.450958,0.000016,
2011,2368,-5.33626850984817,-6.04201177827509,-0.00257239883364946,0.004802,-0.000499,0.004531,0.208387,0.043519,326.317061,24.638324,0.999296,0.988178,0.004535,0.448819,0.000043,0.000005,-0.000050,0.000078,-0.000030,-34.594243,0.000079,
2386,2563,2.79336331713391,-1.77731908086501,-0.00979577987004632,0.004687,-0.000337,0.006936,0.190151,0.059182,322.013682,24.008474,0.999570,0.989082,0.004134,0.413402,-0.000003,0.000008,0.000009,0.000013,-0.000008,60.799775,0.000013,
2116,2098,-3.00695773042584,-11.950124124151,0.0222034861789098,0.005217,-0.000683,0.004074,0.227016,0.017716,330.314585,24.353870,0.999006,0.974815,0.006126,0.249991,-0.000005,0.000012,0.000010,0.000017,-0.000010,64.492013,0.000017,
2236,2203,-0.40803004443573,-9.65352361885056,0.0227275858977123,0.004931,-0.000440,0.006896,0.203660,0.056665,328.222600,23.564510,0.999459,0.988101,0.004518,0.525688,-0.000004,-0.000004,0.000009,0.000005,-0.000013,43.705764,0.000014,
2251,2518,-0.138747022937931,-2.76298028001901,-0.0110787524394595,0.004761,-0.000234,0.004607,0.203623,0.063924,322.821640,24.090242,0.999178,0.986474,0.004614,0.461591,-0.000002,0.000004,-0.000001,0.000004,-0.000002,-80.245650,0.000004,
2326,2308,1.53467756118939,-7.35168984343375,0.00171186830306169,0.004805,-0.000343,0.004108,0.206046,0.055985,326.245164,23.487400,0.999042,0.982659,0.005121,0.409679,-0.000012,-0.000003,0.000002,-0.000002,-0.000012,77.820536,0.000016,
2311,2413,1.18867311162536,-5.05770204878779,0.00756133834261163,0.004758,-0.000438,0.003708,0.205527,0.030007,324.604187,23.689109,0.999428,0.986912,0.004675,0.479421,-0.000005,-0.000001,-0.000005,0.000003,-0.000008,-55.227819,0.000008,
2401,2608,3.11175338096875,-0.795166732247971,-0.0145074643025964,0.004935,-0.000230,0.002273,0.218263,0.055122,321.284874,24.072567,0.999433,0.988672,0.004210,0.462312,0.000009,0.000015,0.000009,0.000021,0.000003,54.263196,0.000026,
2176,2953,-1.84394710729338,6.70192536611856,-7.73251313148648E-05,0.004847,-0.000512,0.007827,0.198945,0.037663,316.039913,24.572648,0.999281,0.991534,0.003697,0.456210,0.000012,0.000023,0.000009,0.000028,0.000007,60.175417,0.000037,
2146,2923,-2.48978186828408,6.04839613709462,0.000532399574183273,0.004775,-0.000322,0.002155,0.213476,0.029086,316.658907,24.492255,0.998974,0.985756,0.004652,0.441573,0.000013,0.000025,0.000007,0.000028,0.000009,65.876410,0.000039,
2041,2953,-4.77335637937697,6.69373128711673,0.00039350345400635,0.004197,-0.000196,0.003154,0.184873,0.047522,316.664385,24.254620,0.999480,0.992452,0.003456,0.461140,0.000007,0.000019,0.000008,0.000023,0.000003,62.696966,0.000028,
2476,3013,4.6651397684265,8.02608199229627,0.00302903360511664,0.004839,-0.000544,0.007328,0.194448,0.035984,314.929875,25.551926,0.999539,0.991272,0.003655,0.413021,0.000032,0.000033,0.000003,0.000035,0.000030,54.023827,0.000065,
2251,2368,-0.112429601119505,-6.03992158478059,-0.00025762401440943,0.004388,-0.001527,0.011958,0.161771,0.021586,325.297068,23.898281,0.999505,0.987334,0.004673,0.363364,-0.000016,0.000002,0.000002,0.000002,-0.000017,83.090449,0.000018,
2266,2188,0.248740119370805,-9.98036796601746,0.020934206966956,0.004860,-0.000757,0.007720,0.197009,0.055639,328.388319,23.548390,0.999101,0.983186,0.005192,0.362774,-0.000013,0.000001,-0.000002,0.000002,-0.000014,-81.098096,0.000015,
2026,2593,-5.04521061229916,-1.13194445053983,-0.0238569932168389,0.004640,-0.000334,0.007539,0.192889,0.068370,322.398875,24.496499,0.999029,0.988362,0.004445,0.438123,-0.000006,0.000015,0.000009,0.000018,-0.000009,70.375581,0.000018,
2071,3028,-4.13300478014603,8.32203258425603,0.0170895340331185,0.004853,-0.000080,0.004246,0.211863,0.052164,315.438285,24.305215,0.999565,0.993034,0.003366,0.467578,0.000005,0.000029,-0.000001,0.000029,0.000005,-87.722240,0.000037,
2176,2008,-1.68373607181793,-13.9272030074095,0.0285699438674669,0.004883,-0.000756,0.006867,0.202215,0.050410,331.561595,23.761228,0.999275,0.984060,0.004982,0.421044,0.000026,0.000005,-0.000004,0.000026,0.000004,-10.709213,0.000033,
2116,3283,-3.19855564850057,13.8513128026786,0.0294077957200329,0.004727,-0.000121,0.004779,0.204146,0.034633,311.141718,24.485564,0.999735,0.995496,0.002924,0.448760,0.000016,0.000041,-0.000003,0.000041,0.000016,-83.026612,0.000059,
2011,2563,-5.36525294887802,-1.787785936788,-0.0122220348682163,0.005174,-0.000435,0.005902,0.222126,0.054216,323.105620,24.479513,0.999187,0.987023,0.004423,0.479925,-0.000016,0.000009,-0.000006,0.000010,-0.000017,-77.229022,0.000018,
2131,3013,-2.82946757717867,8.0009861005112,0.0143519620015127,0.004884,-0.000431,0.005811,0.207790,0.053829,315.364230,24.503742,0.999375,0.990923,0.003831,0.453459,0.000009,0.000021,0.000001,0.000021,0.000009,87.326674,0.000031,
2086,2563,-3.73527669111809,-1.78618702077348,-0.00777197741115287,0.004739,-0.000277,0.000454,0.216669,0.026915,322.704776,24.410021,0.999020,0.986975,0.004570,0.415199,0.000016,0.000025,0.000006,0.000027,0.000013,63.987325,0.000041,
2176,2173,-1.71745299752465,-10.2971796874386,-0.0590259006449401,0.004392,-0.000277,0.006552,0.181138,0.066674,328.157321,24.127805,0.999760,0.924062,0.009052,0.245148,0.000013,-0.000005,0.000015,0.000021,-0.000013,29.543409,0.000021,
2206,3178,-1.22937531945188,11.5846983102952,0.0296756972618937,0.004819,-0.000209,0.002778,0.213444,0.036180,312.535279,24.918566,0.999671,0.994625,0.003192,0.416694,0.000000,0.000029,-0.000003,0.000030,0.000000,-83.612815,0.000034,
2296,2473,0.849307766315473,-3.74468485860157,-0.0112070739613728,0.004849,-0.000630,0.006553,0.200272,0.031275,323.482486,23.914676,0.998796,0.981460,0.005360,0.425229,-0.000004,-0.000012,0.000006,0.000000,-0.000015,29.470857,0.000018,
2206,2308,-1.08032266850156,-7.35351666736027,0.00889169095131592,0.005123,0.000032,-0.000986,0.238247,0.046518,326.519949,23.900430,0.998917,0.984218,0.004928,0.462789,0.000001,-0.000006,0.000003,0.000002,-0.000007,19.495673,0.000008,
2281,2413,0.533905727573188,-5.05716075849119,0.00225007599806304,0.004568,-0.001263,0.008476,0.180879,0.019734,324.563854,23.820517,0.999277,0.986110,0.004759,0.426068,-0.000011,-0.000008,-0.000008,-0.000001,-0.000018,-49.734853,0.000022,
2431,2788,3.72938570911271,3.12953253304645,-0.0149371059179657,0.004814,-0.000690,0.006088,0.198462,0.035574,318.370001,24.677386,0.999423,0.989355,0.004161,0.410336,0.000018,0.000013,-0.000023,0.000039,-0.000008,-42.002620,0.000041,
2056,2908,-4.44099404629687,5.71803757800909,-0.00432576672255891,0.004751,-0.000506,0.007298,0.198451,0.043430,317.282525,24.321633,0.999495,0.992077,0.003658,0.443584,0.000004,0.000023,-0.000007,0.000025,0.000002,-70.606035,0.000030,
2266,2353,0.217854431811979,-6.36798303925357,0.000817904230643762,0.004632,-0.000438,0.006340,0.191434,0.056671,325.552782,23.772499,0.999125,0.982120,0.005300,0.446184,-0.000015,-0.000010,0.000005,-0.000007,-0.000018,59.698712,0.000025,
2011,2383,-5.33809386311474,-5.71417996406774,0.000980894106533015,0.005054,-0.000442,0.006069,0.215887,0.080999,326.112123,24.654158,0.999342,0.987651,0.004355,0.459992,0.000040,0.000014,-0.000052,0.000081,-0.000027,-37.948114,0.000082,
2416,2728,3.41445556820912,1.82137647871953,-0.0212889539319576,0.004986,-0.000514,0.003477,0.216085,0.027743,319.291225,24.390590,0.999636,0.990380,0.003893,0.487044,0.000002,0.000009,-0.000013,0.000019,-0.000008,-52.493966,0.000019,
2086,2638,-3.74831029077895,-0.15083168752529,-0.0207432581538569,0.004721,-0.000472,0.006655,0.198001,0.051206,321.363963,24.396920,0.999291,0.987934,0.004230,0.451889,0.000004,-0.000001,0.000001,0.000004,-0.000001,9.793970,0.000004,
2476,3028,4.66237623896643,8.35174215007759,0.00828752340390793,0.004752,-0.000573,0.008157,0.187334,0.044946,314.721274,25.600683,0.999690,0.992438,0.003497,0.428984,0.000029,0.000037,0.000000,0.000037,0.000029,88.053729,0.000066,
2041,2968,-4.77519245207685,7.01835689305225,0.00445124485497672,0.004484,-0.000260,0.003841,0.196146,0.029135,316.465911,24.205012,0.999478,0.992252,0.003461,0.484074,0.000003,0.000009,0.000005,0.000011,0.000000,59.768983,0.000013,
2206,3223,-1.23795966229627,12.5610363089643,0.0258363412170297,0.004538,-0.000210,0.005235,0.192715,0.034457,311.745304,25.032289,0.999764,0.995463,0.003071,0.347252,0.000008,0.000031,-0.000002,0.000031,0.000008,-85.036687,0.000041,
2041,2923,-4.76789934006601,6.04236431377397,-0.00331353395142742,0.005194,-0.000133,0.002674,0.232130,0.038859,317.168512,24.246559,0.999459,0.991857,0.003623,0.476828,-0.000004,0.000034,0.000003,0.000034,-0.000004,84.843220,0.000037,
2236,2083,-0.386946820592609,-12.2820821661848,0.0283939442889505,0.004856,-0.000748,0.007174,0.199039,0.051393,330.195432,23.562293,0.999349,0.981560,0.005280,0.329945,0.000001,0.000024,0.000004,0.000025,0.000000,80.268402,0.000029,
2101,3193,-3.50835642685214,11.8998866704501,0.0389301168384009,0.004559,-0.000322,0.005865,0.193238,0.032063,312.754932,24.390206,0.999652,0.993688,0.003210,0.457969,0.000001,0.000038,-0.000021,0.000048,-0.000008,-65.995465,0.000051,
2011,2578,-5.36789342642851,-1.46024648302936,-0.0209671286696675,0.004960,0.000020,0.000585,0.226863,0.052419,322.794989,24.461306,0.999003,0.985358,0.004861,0.485387,-0.000024,0.000004,-0.000006,0.000006,-0.000025,-77.962258,0.000026,
2056,3013,-4.457181969092,7.99666407157143,0.00858993040782252,0.004168,0.000089,0.005899,0.175864,0.074772,315.659001,24.284383,0.998940,0.986260,0.004684,0.470190,0.000004,0.000027,-0.000003,0.000027,0.000003,-82.436747,0.000034,
2116,2113,-3.00998896180163,-11.6232472324208,0.0250105394483171,0.004729,-0.001188,0.009891,0.187373,0.028112,330.058513,24.213258,0.999129,0.984071,0.005091,0.407767,-0.000005,0.000006,0.000012,0.000014,-0.000013,56.867268,0.000015,
2356,2563,2.13959003533103,-1.77861561624943,-0.00971475578643322,0.004529,-0.000468,0.006188,0.186048,0.055906,321.996832,24.012586,0.999505,0.988690,0.004264,0.450310,-0.000003,0.000011,0.000003,0.000012,-0.000003,76.644703,0.000012,
2491,3103,4.9749670284062,9.98156033141031,0.0168255784205371,0.005164,-0.000205,0.003200,0.225158,0.036732,313.640133,25.919548,0.999395,0.989457,0.003896,0.438304,0.000039,0.000047,0.000010,0.000054,0.000032,54.612173,0.000087,
2446,2863,4.04202815015128,4.76163855074527,-0.00484410675602476,0.004767,-0.000164,0.003529,0.205879,0.043973,317.264357,24.879525,0.999749,0.992621,0.003418,0.488041,0.000005,0.000035,-0.000022,0.000047,-0.000007,-62.379043,0.000051,
2086,2578,-3.73828587984774,-1.45841782697163,-0.0167475795710175,0.004805,-0.000196,0.002844,0.212881,0.042739,322.383290,24.394683,0.999140,0.987554,0.004442,0.446577,0.000002,0.000017,0.000004,0.000018,0.000000,75.212971,0.000021,
2026,2638,-5.05091370880466,-0.153845291875051,-0.014605241410834,0.004886,-0.000084,0.003264,0.216067,0.048757,321.772133,24.394467,0.999279,0.990341,0.004037,0.493070,-0.000007,-0.000005,-0.000009,0.000003,-0.000015,-48.061888,0.000016,
2461,2953,4.35019288145998,6.72132230320489,-0.00729682357439287,0.004863,-0.000528,0.005378,0.203149,0.038414,315.799688,25.288862,0.999491,0.990160,0.004015,0.419246,0.000024,0.000028,-0.000003,0.000029,0.000023,-62.490481,0.000052,
2131,3028,-2.83205469236947,8.32589717737552,0.0155143863685794,0.004859,-0.000868,0.008171,0.199441,0.037375,315.121420,24.475616,0.999472,0.990779,0.003838,0.470050,0.000011,0.000021,0.000000,0.000021,0.000011,-89.337948,0.000032,
2251,2383,-0.114335828479373,-5.71359610963022,-0.00382381314233271,0.004932,-0.000954,0.005932,0.206644,0.019485,325.070656,23.751567,0.999174,0.985434,0.004856,0.533180,-0.000016,-0.000001,-0.000001,-0.000001,-0.000016,-88.130453,0.000019,
2326,2323,1.53175798488175,-7.0239108182734,0.00241822062679375,0.004779,-0.000612,0.006355,0.197044,0.060075,325.999811,23.489737,0.999067,0.980890,0.005363,0.447691,-0.000010,-0.000005,0.000007,0.000000,-0.000015,54.788249,0.000018,
2071,3043,-4.13542929432255,8.64790392398492,0.0147317129598719,0.005038,-0.000333,0.005382,0.217125,0.053360,315.179129,24.327196,0.999561,0.992944,0.003378,0.442875,0.000006,0.000027,-0.000005,0.000029,0.000005,-77.229170,0.000036,
2416,2743,3.41152499129698,2.14865574808876,-0.0196284599317664,0.004985,-0.000604,0.004880,0.210939,0.032183,319.055314,24.490461,0.999540,0.989547,0.003975,0.439498,0.000005,0.000011,-0.000012,0.000020,-0.000005,-52.205952,0.000021,
2176,2188,-1.71501480233272,-9.97844663668045,0.00907998524013465,0.004665,-0.000589,0.006644,0.193253,0.037597,328.497934,24.002595,0.999000,0.946598,0.007696,0.353236,0.000012,0.000005,0.000014,0.000023,-0.000006,38.204904,0.000024,
2056,3268,-4.494788399781,13.5206131772537,0.0446341552283798,0.004685,-0.000112,0.003766,0.205818,0.031544,311.828060,24.193896,0.999726,0.995012,0.002943,0.406655,0.000001,0.000023,-0.000027,0.000041,-0.000017,-55.961391,0.000041,
2101,3208,-3.51008973078099,12.225333961455,0.0443438820998949,0.004858,-0.000268,0.004584,0.210856,0.032537,312.572211,24.462889,0.999684,0.993504,0.003217,0.385789,0.000002,0.000039,-0.000021,0.000049,-0.000008,-65.581512,0.000052,
2206,3238,-1.23998739983375,12.8849194276525,0.0297201762796249,0.004630,-0.000031,0.001864,0.207743,0.035840,311.547636,24.961161,0.999734,0.994539,0.003152,0.435050,0.000011,0.000028,0.000000,0.000028,0.000011,88.709786,0.000040,
2131,2188,-2.69450186138788,-9.97981703156533,0.0241319911853566,0.004894,-0.000430,0.004698,0.210402,0.050705,328.805275,24.215881,0.999170,0.983324,0.005097,0.382636,0.000001,0.000012,0.000027,0.000034,-0.000021,50.569379,0.000035,
2026,2608,-5.04756714343198,-0.804796453520311,-0.0317927088610759,0.004886,-0.000682,0.005382,0.210096,0.048449,322.107388,24.479189,0.998975,0.986601,0.004659,0.426627,-0.000006,0.000007,0.000003,0.000008,-0.000007,78.730461,0.000009,
2401,2623,3.10885914105808,-0.468204643315609,-0.0122059979036635,0.005059,-0.000482,0.005804,0.211097,0.060582,321.053152,24.111213,0.999234,0.987281,0.004391,0.475399,0.000009,0.000016,0.000000,0.000016,0.000009,87.637918,0.000026,
2131,3118,-2.84625475979213,10.2778128469948,0.0275247554904468,0.004614,-0.000231,0.005055,0.197800,0.055434,313.751258,24.527877,0.999729,0.995358,0.003070,0.463823,-0.000001,0.000025,-0.000014,0.000031,-0.000007,-66.361328,0.000033,
2041,2938,-4.77150966815546,6.36797330407294,-0.00194193548082922,0.004269,-0.000478,0.009947,0.169153,0.049170,316.873363,24.232561,0.999240,0.990947,0.003847,0.493121,-0.000002,0.000030,0.000011,0.000034,-0.000006,72.495090,0.000036,
2026,2653,-5.0538554207785,0.173368264435894,-0.0235367250958802,0.004828,-0.000460,0.004676,0.209411,0.026846,321.448349,24.391845,0.999342,0.990811,0.003876,0.464614,-0.000013,-0.000005,-0.000009,0.000001,-0.000019,-56.431811,0.000022,
2491,3118,4.97178739663112,10.3071001363878,0.0198601093051138,0.004980,-0.000368,0.005379,0.208342,0.040534,313.402768,25.969683,0.999490,0.990771,0.003692,0.449769,0.000038,0.000064,0.000006,0.000065,0.000037,78.655807,0.000103,
2386,2578,2.79075193680984,-1.45060185506151,-0.0104341545908824,0.004968,-0.000850,0.006288,0.205187,0.035905,321.780227,24.013453,0.999456,0.987579,0.004415,0.429233,0.000003,0.000025,0.000012,0.000031,-0.000003,66.702490,0.000034,
2176,2968,-1.84544960927186,7.02732803414317,0.00359146124822018,0.005251,-0.000460,0.001973,0.235794,0.028746,315.863005,24.585188,0.999364,0.991697,0.003670,0.446429,0.000013,0.000026,0.000010,0.000031,0.000008,62.351209,0.000041,
2116,3298,-3.20111602743966,14.1766259933288,0.0232448620091645,0.004916,0.000174,0.002568,0.219578,0.050146,310.859450,24.489927,0.999601,0.993204,0.003467,0.462000,0.000020,0.000058,-0.000007,0.000059,0.000019,-80.444068,0.000081,
2476,3043,4.65923528821168,8.67809502301827,0.00609799095360586,0.004767,-0.000413,0.007282,0.191478,0.058171,314.461122,25.663479,0.999722,0.992170,0.003578,0.435458,0.000028,0.000038,0.000006,0.000040,0.000026,64.586722,0.000067,
2506,3208,5.280150993847,12.2622845927661,0.0293186443221316,0.004918,-0.000394,0.006900,0.199417,0.035901,312.037783,26.444378,0.999356,0.991102,0.003816,0.389728,0.000047,0.000054,0.000011,0.000062,0.000039,52.777455,0.000102,
2371,2518,2.47540328795762,-2.76201062696857,-0.00369955866358396,0.004612,-0.000946,0.008286,0.181879,0.034554,322.778694,23.798374,0.999464,0.985193,0.004784,0.494800,0.000003,-0.000012,0.000009,0.000007,-0.000016,24.618456,0.000016,
2041,2983,-4.77714214135957,7.34414790852471,0.0101622000790371,0.004763,-0.000491,0.007807,0.197899,0.030477,316.270998,24.257770,0.999283,0.991330,0.003743,0.424429,-0.000004,0.000000,0.000007,0.000005,-0.000009,52.545963,0.000009,
2056,3283,-4.49759310056442,13.8452368883129,0.0381011402851072,0.004773,-0.000181,0.005242,0.205752,0.037471,311.527923,24.135730,0.999771,0.995370,0.002834,0.463879,0.000001,0.000022,-0.000015,0.000029,-0.000006,-62.443396,0.000031,
2296,2488,0.846905060948135,-3.4176259323337,-0.00833930601680777,0.004959,-0.000503,0.006535,0.205442,0.048120,323.268723,23.912834,0.999365,0.987565,0.004433,0.475001,-0.000003,-0.000008,0.000001,-0.000003,-0.000008,14.779056,0.000011,
2086,2698,-3.75796347139514,1.15498337171952,-0.0182142829856389,0.004610,-0.000721,0.010292,0.182405,0.055794,320.397698,24.370240,0.999380,0.990777,0.003825,0.480672,0.000002,-0.000016,-0.000007,0.000005,-0.000019,-19.077172,0.000020,
2011,2593,-5.37056276082616,-1.13318338961691,-0.0191593652412507,0.004606,-0.000030,0.003889,0.201629,0.066485,322.542303,24.480960,0.998946,0.986225,0.004915,0.468618,-0.000025,0.000015,0.000008,0.000016,-0.000027,78.651954,0.000027,
2056,3028,-4.45864692807587,8.32184795203896,0.00468190682659042,0.005106,0.000055,0.002640,0.228222,0.038328,315.434407,24.266232,0.999430,0.991492,0.003728,0.445844,0.000011,0.000031,-0.000002,0.000031,0.000011,-83.089200,0.000043,
2206,2263,-1.07322769227322,-8.33786799428723,0.00999224771021545,0.004902,-0.000703,0.004905,0.209142,0.045513,327.225612,23.859592,0.998755,0.981106,0.005431,0.445996,-0.000003,0.000009,0.000003,0.000009,-0.000004,76.879904,0.000009,
2176,2023,-1.68559407246985,-13.5981330683926,0.0322539553101251,0.005119,-0.000382,0.004991,0.218971,0.066483,331.368116,23.793512,0.998990,0.984146,0.004995,0.420538,0.000023,0.000017,0.000006,0.000027,0.000013,31.441868,0.000041,
2176,2908,-1.83675272028564,5.72429468579104,-0.00202062790890523,0.004507,-0.000737,0.007560,0.183999,0.031836,316.741958,24.523522,0.999445,0.992131,0.003694,0.464133,0.000015,0.000022,0.000008,0.000028,0.000009,56.591304,0.000039,
2461,2968,4.34774500972015,7.0469952851944,-0.00250252901219028,0.004990,-0.000378,0.004776,0.211365,0.050482,315.602876,25.317949,0.999438,0.989930,0.004083,0.456133,0.000029,0.000028,0.000003,0.000031,0.000026,43.395288,0.000057,
2236,2218,-0.410926192436328,-9.32295973695905,0.0109890600845119,0.005256,-0.000448,0.003698,0.228925,0.040312,327.907717,23.673472,0.999014,0.982452,0.005152,0.424298,-0.000003,0.000004,0.000007,0.000008,-0.000007,57.661718,0.000009,
2146,2938,-2.49226042163962,6.3749288804833,0.00109461224798224,0.004805,-0.000247,0.002809,0.212952,0.045397,316.418358,24.553309,0.999344,0.989075,0.004145,0.404150,0.000012,0.000027,0.000008,0.000031,0.000009,67.130336,0.000042,
2341,2863,1.75638776405317,4.75611163587894,-0.00892766413107893,0.004606,-0.000811,0.009185,0.179568,0.029098,317.116708,24.749491,0.999620,0.990654,0.003862,0.447044,-0.000004,0.000038,-0.000005,0.000039,-0.000005,-83.138543,0.000042,
2491,3133,4.96843973878596,10.6327145223417,0.0212126338738017,0.004790,-0.000598,0.007788,0.190253,0.036232,313.149954,26.027996,0.999475,0.990795,0.003646,0.444972,0.000050,0.000059,-0.000001,0.000059,0.000050,-82.634296,0.000110,
2311,2428,1.18503404747937,-4.72797191512772,-0.00284981833061693,0.004824,-0.000374,0.005892,0.201160,0.052105,324.269312,23.781584,0.999620,0.989220,0.004212,0.442934,-0.000001,-0.000011,-0.000004,0.000001,-0.000012,-17.895457,0.000014,
2266,2203,0.245916335645919,-9.65204711065292,0.0134162361075596,0.005099,-0.000873,0.005820,0.214222,0.021812,328.101691,23.508692,0.998570,0.980939,0.005579,0.396972,-0.000017,0.000001,-0.000003,0.000001,-0.000018,-80.131537,0.000020,
2416,2758,3.40830854233608,2.47493365375739,-0.0176401620761908,0.004627,-0.000583,0.005793,0.191171,0.031154,318.807969,24.510676,0.999528,0.988645,0.004114,0.466162,0.000008,0.000018,-0.000011,0.000026,0.000001,-56.791384,0.000030,
2281,2428,0.53170531059811,-4.72899723660522,0.00062967640980105,0.004999,-0.000603,0.005960,0.209353,0.045100,324.335805,23.848922,0.999499,0.988283,0.004410,0.452306,-0.000008,-0.000021,-0.000012,-0.000001,-0.000027,-30.228181,0.000032,
2011,2398,-5.34027922588879,-5.38741578281189,0.00147460202970251,0.005042,-0.000530,0.006217,0.214888,0.039449,325.874215,24.626433,0.999252,0.987471,0.004417,0.435885,0.000033,-0.000011,-0.000048,0.000064,-0.000042,-32.760164,0.000065,
2506,3223,5.2767324246988,12.5877383807021,0.0278816709584362,0.004589,-0.000115,0.005479,0.189917,0.040546,311.769699,26.485042,0.999515,0.991054,0.003819,0.413478,0.000046,0.000037,0.000016,0.000058,0.000025,37.799554,0.000085,
2041,3193,-4.80795780057919,11.895435404228,0.0424507871840092,0.004592,-0.000008,0.003126,0.203516,0.050464,313.122111,24.154482,0.999622,0.993435,0.003322,0.427616,-0.000009,0.000057,-0.000032,0.000070,-0.000022,-67.928431,0.000072,
2206,2323,-1.08324706675797,-7.02583333436168,0.0100606311331148,0.004990,-0.000465,0.003629,0.217405,0.025017,326.267163,23.921849,0.998963,0.984656,0.004745,0.438546,0.000002,-0.000008,0.000004,0.000004,-0.000009,18.630144,0.000009,
2086,2653,-3.75012068349105,0.175000019993604,-0.0113696090649,0.004997,-0.000843,0.011622,0.196262,0.052717,321.197705,24.399258,0.999537,0.989323,0.003917,0.450272,-0.000001,0.000004,0.000001,0.000004,-0.000001,76.801677,0.000005,
2266,2368,0.215190395284949,-6.0394178230857,-0.00356315357356607,0.005096,-0.000588,0.008265,0.206335,0.055367,325.288541,23.816979,0.999047,0.982591,0.005212,0.427874,-0.000021,-0.000003,0.000001,-0.000003,-0.000021,88.186414,0.000026,
2326,2338,1.53018973313992,-6.69718766552718,0.0157389474888987,0.004934,-0.000473,0.005764,0.206236,0.070630,325.877951,23.518030,0.999219,0.983091,0.004983,0.465843,-0.000008,0.000000,0.000002,0.000000,-0.000008,75.983889,0.000009,
2476,3058,4.65719594956479,9.00329628093237,0.0158290561183776,0.004644,-0.000322,0.003462,0.200354,0.040647,314.306237,25.732546,0.999626,0.989610,0.004089,0.404404,0.000028,0.000037,0.000012,0.000045,0.000020,55.823838,0.000066,
2446,2878,4.0379828277226,5.08872943030751,-0.0128333685819371,0.004635,-0.000861,0.006677,0.187814,0.026716,316.934219,24.951012,0.999484,0.991366,0.003713,0.451085,0.000006,0.000041,-0.000016,0.000047,0.000000,-69.238968,0.000054,
2431,2803,3.72699826700626,3.4564380760611,-0.0116492467038256,0.004933,-0.000505,0.003581,0.213296,0.042909,318.167525,24.769602,0.999461,0.989010,0.004200,0.375569,0.000018,0.000009,-0.000023,0.000037,-0.000010,-39.557816,0.000039,
2056,3043,-4.46123308885829,8.64699899554532,0.00907918050609169,0.004852,-0.000446,0.006477,0.205591,0.039787,315.204249,24.266589,0.999704,0.994752,0.003098,0.440599,0.000011,0.000028,-0.000008,0.000031,0.000008,-68.912252,0.000042,
2251,2398,-0.116680765208546,-5.38449211866845,-0.00220518895127952,0.005060,-0.000412,0.005109,0.215461,0.050416,324.849626,23.881271,0.999320,0.988435,0.004452,0.459151,-0.000014,-0.000003,-0.000002,-0.000003,-0.000014,-80.293162,0.000018,
2116,2128,-3.0126198505148,-11.2946810308664,0.0231363397538189,0.004459,-0.001065,0.007994,0.180600,0.027588,329.795468,24.191766,0.998911,0.981420,0.005426,0.435309,-0.000009,-0.000002,0.000015,0.000010,-0.000020,51.905894,0.000020,
2236,2098,-0.389315532573395,-11.9537789043259,0.0276591260632131,0.004931,-0.000504,0.004374,0.211581,0.051368,329.961019,23.519517,0.999248,0.980175,0.005480,0.397109,0.000002,0.000028,0.000003,0.000029,0.000002,83.106107,0.000034,
2041,3208,-4.80985087830692,12.219746696344,0.042772533201628,0.004930,-0.000195,0.001225,0.224292,0.024664,312.900786,24.117588,0.999589,0.993118,0.003275,0.429837,-0.000007,0.000058,-0.000035,0.000073,-0.000023,-66.472592,0.000075,
2056,3298,-4.50041080026759,14.1707471063422,0.0282427794369937,0.004818,0.000203,0.002861,0.214689,0.044187,311.208417,24.145196,0.999574,0.993776,0.003155,0.454168,-0.000003,0.000048,-0.000019,0.000055,-0.000009,-71.636075,0.000059,
2221,2158,-0.726889438936414,-10.6367651168782,0.0152210446734671,0.005508,0.000472,-0.000470,0.254134,0.073871,328.967103,23.690826,0.998938,0.984368,0.005185,0.426631,0.000003,0.000001,0.000010,0.000012,-0.000008,42.930829,0.000012,
2026,2668,-5.05582334237032,0.499042194281358,-0.0216428621112073,0.005099,-0.000861,0.006208,0.217567,0.010423,321.229942,24.338286,0.999263,0.990026,0.003996,0.492451,-0.000014,-0.000017,-0.000004,-0.000011,-0.000020,-38.045577,0.000032,
2176,2983,-1.84896925969259,7.35357699908207,0.0006256830259872,0.004738,-0.000521,0.005675,0.200691,0.041362,315.558377,24.612637,0.999285,0.991946,0.003660,0.443143,0.000012,0.000024,0.000009,0.000029,0.000007,60.770026,0.000038,
2386,2593,2.78783816044407,-1.12315811027792,-0.0135104443399428,0.005077,-0.000556,0.004863,0.215389,0.027234,321.521071,24.054227,0.999499,0.987624,0.004435,0.424117,0.000006,0.000019,0.000013,0.000027,-0.000001,57.942197,0.000030,
2146,2803,-2.47116907695886,3.44127232555934,-0.0176711810323695,0.004763,-0.000422,0.003847,0.207653,0.039679,318.452707,24.381345,0.999648,0.992327,0.003540,0.502947,0.000011,0.000015,-0.000005,0.000018,0.000007,-54.919338,0.000026,
2071,2803,-4.09934329822287,3.43794728898899,-0.0182339420275639,0.005228,-0.000798,0.006123,0.223246,0.029469,318.813824,24.342691,0.999253,0.989842,0.004101,0.462297,-0.000001,0.000015,-0.000002,0.000015,-0.000001,-84.216329,0.000017,
2131,1993,-2.66343312039123,-14.254708124769,0.0323712277064487,0.004435,-0.000365,0.005864,0.185607,0.050957,331.979065,24.149120,0.999225,0.979873,0.005350,0.334094,0.000000,-0.000044,-0.000036,0.000020,-0.000064,-29.214940,0.000066,
2401,2638,3.10528976617791,-0.140860147706803,-0.0140382276125592,0.004706,-0.000616,0.007676,0.188056,0.052810,320.770838,24.167671,0.999181,0.986016,0.004510,0.457112,0.000003,0.000015,-0.000005,0.000017,0.000001,-69.630376,0.000021,
2011,2413,-5.34288088119741,-5.06011412905193,0.000648530116279744,0.004686,-0.000406,0.006205,0.198623,0.050448,325.609579,24.587959,0.999200,0.987805,0.004379,0.474998,0.000029,-0.000007,-0.000032,0.000049,-0.000026,-30.480593,0.000049,
2461,2983,4.34491673223765,7.37353774893311,0.000616259700223054,0.004957,-0.000338,0.005112,0.208598,0.050093,315.380571,25.431661,0.999440,0.989826,0.004043,0.395734,0.000032,0.000028,0.000005,0.000035,0.000025,33.994531,0.000060,
2356,2578,2.13711383179245,-1.45176814217803,-0.00848172025337135,0.004668,-0.000420,0.004532,0.198272,0.047967,321.776090,24.030149,0.999337,0.986798,0.004483,0.464555,0.000004,0.000025,0.000008,0.000028,0.000001,71.272204,0.000033,
2071,3058,-4.13771476176792,8.97233076489141,0.0146472600404763,0.005038,-0.000614,0.003611,0.222084,0.030816,314.939392,24.259041,0.999374,0.992073,0.003504,0.484412,0.000007,0.000030,-0.000011,0.000034,0.000002,-67.927057,0.000041,
2176,2038,-1.68826009546486,-13.2678771939419,0.0296396787613844,0.005036,-0.000230,0.003884,0.218686,0.054811,331.104917,23.895947,0.999190,0.983992,0.004922,0.322406,0.000025,0.000018,0.000013,0.000036,0.000008,37.809857,0.000047,
2206,3253,-1.24280744793773,13.2093701732687,0.0307782032252248,0.004585,-0.000314,0.005090,0.195381,0.036688,311.298656,24.930410,0.999755,0.994970,0.003016,0.482061,0.000013,0.000028,0.000006,0.000030,0.000011,70.532531,0.000043,
2251,2533,-0.14220498606419,-2.43465033291325,-0.0197962050717706,0.004729,-0.000670,0.006648,0.195342,0.049511,322.497371,24.145850,0.999582,0.991396,0.003795,0.416097,-0.000001,0.000014,-0.000001,0.000014,-0.000001,-86.834282,0.000016,
2131,3043,-2.83409100445152,8.65172846487978,0.0196918536059911,0.004897,-0.000492,0.006036,0.207729,0.045508,314.919675,24.531261,0.999494,0.992004,0.003616,0.427082,0.000012,0.000017,-0.000005,0.000020,0.000009,-59.696824,0.000029,
2026,2623,-5.04916331266671,-0.479326751339507,-0.0227564111670517,0.004939,-0.000374,0.004387,0.215352,0.047427,321.945742,24.439505,0.998986,0.987058,0.004660,0.455950,-0.000015,-0.000010,-0.000010,-0.000002,-0.000023,-51.703661,0.000028,
2131,2203,-2.69825910193761,-9.650983074025,0.0120702737988836,0.004519,-0.001224,0.007606,0.184273,0.019993,328.438005,24.170112,0.998601,0.978885,0.005555,0.406562,0.000002,0.000015,0.000026,0.000036,-0.000018,51.935785,0.000036,
2371,2533,2.4722826235418,-2.43338142380738,-0.00989998665824032,0.004531,-0.000567,0.004254,0.192676,0.043203,322.493798,23.882004,0.999420,0.986360,0.004651,0.462169,0.000001,-0.000002,0.000008,0.000007,-0.000009,39.969823,0.000009,
2146,2953,-2.49501600369988,6.70033891361022,-0.00134799853583445,0.004801,-0.000300,0.004182,0.208635,0.045503,316.149520,24.510466,0.999579,0.990774,0.003770,0.454648,0.000012,0.000024,0.000008,0.000028,0.000008,64.257291,0.000038,
2236,2233,-0.414660550486314,-8.99396134553332,0.00242617186671623,0.004790,-0.000719,0.004470,0.204972,0.039563,327.570719,23.663807,0.999048,0.982470,0.005058,0.457365,-0.000005,0.000002,0.000008,0.000007,-0.000010,56.935054,0.000010,
2416,2773,3.40568791232386,2.80081671755707,-0.0136637221985438,0.004659,-0.000742,0.006123,0.191390,0.036507,318.597340,24.507881,0.999514,0.988174,0.004225,0.522132,0.000009,0.000012,-0.000013,0.000024,-0.000003,-48.090896,0.000027,
2491,3148,4.96564277306432,10.958389888414,0.0246769381964214,0.004729,-0.000598,0.007291,0.189368,0.036183,312.931961,26.104162,0.999476,0.989562,0.003872,0.426200,0.000051,0.000048,0.000001,0.000051,0.000048,18.345760,0.000099,
2011,2608,-5.37392971964049,-0.805162390487183,-0.0320095528110755,0.004466,-0.000790,0.007790,0.184370,0.047993,322.175338,24.499482,0.999544,0.991549,0.003876,0.420605,-0.000028,0.000004,0.000000,0.000004,-0.000028,89.971646,0.000030,
2266,2218,0.243179617769631,-9.32381393943302,0.0172607195547698,0.004729,-0.000805,0.005603,0.197981,0.032083,327.875693,23.541444,0.998654,0.979499,0.005625,0.402627,-0.000018,0.000003,-0.000007,0.000005,-0.000020,-74.342433,0.000021,
2326,2353,1.52630666595333,-6.36722116559007,0.00421258264668722,0.004484,0.000098,0.002798,0.196054,0.084716,325.528353,23.600101,0.999195,0.981709,0.004924,0.434666,-0.000003,-0.000013,0.000003,-0.000002,-0.000013,14.820099,0.000017,
2131,3133,-2.84847364838135,10.6025203437342,0.0322520879590797,0.004659,-0.000559,0.006227,0.196195,0.027716,313.544531,24.540465,0.999670,0.994661,0.003150,0.428047,0.000002,0.000026,-0.000015,0.000033,-0.000005,-64.478344,0.000035,
2011,2428,-5.34507570063064,-4.73246438801392,-0.00165525096213059,0.004749,-0.000355,0.004831,0.205289,0.065913,325.355172,24.567922,0.999148,0.986353,0.004555,0.500224,0.000016,0.000006,-0.000016,0.000028,-0.000006,-36.176628,0.000030,
2086,2713,-3.75987908583885,1.48059187556429,-0.0160282158909126,0.004946,-0.001156,0.010585,0.196931,0.041013,320.187691,24.325600,0.999304,0.990100,0.003975,0.510092,0.000006,-0.000009,-0.000009,0.000011,-0.000013,-25.811665,0.000014,
2131,2008,-2.66452849009196,-13.9275985058763,0.0383861348233268,0.005395,-0.001101,0.007035,0.225868,0.033355,331.829688,24.056533,0.999182,0.984206,0.005183,0.417937,0.000002,-0.000007,-0.000003,0.000003,-0.000008,-19.406993,0.000008,
2176,2203,-1.71741363426759,-9.65130903813517,0.0144428429858294,0.004449,-0.001024,0.007598,0.180272,0.031625,328.288785,23.961285,0.998071,0.974352,0.006208,0.403305,0.000012,0.000011,0.000014,0.000026,-0.000002,43.754918,0.000029,
2041,2998,-4.77941267118812,7.66953665914741,0.0128955937837532,0.004594,-0.000703,0.006682,0.193185,0.019189,316.045021,24.269328,0.999121,0.989690,0.004020,0.393256,-0.000008,0.000008,0.000004,0.000009,-0.000009,76.689266,0.000010,
2311,2443,1.1825643794256,-4.40210371978876,0.00645072838881333,0.004567,-0.000804,0.008047,0.181905,0.056418,324.085573,23.728994,0.999536,0.988117,0.004387,0.533377,0.000002,-0.000017,0.000000,0.000002,-0.000017,-0.205339,0.000019,
2056,3058,-4.46344522455794,8.97230580130744,0.00959316530702381,0.004868,-0.000572,0.004706,0.211306,0.033229,314.969765,24.267399,0.999561,0.993195,0.003383,0.427026,0.000010,0.000031,-0.000015,0.000039,0.000002,-62.776401,0.000046,
2446,2893,4.03397546236111,5.41589108749725,-0.0236149239600536,0.004661,-0.001230,0.008520,0.182012,0.024329,316.592799,24.999278,0.999388,0.991028,0.003893,0.452571,0.000008,0.000036,-0.000015,0.000043,0.000002,-66.922843,0.000050,
2206,2338,-1.08651436251775,-6.6963489568106,0.00624303502212342,0.004738,-0.000377,0.006346,0.197284,0.047086,325.972456,24.020349,0.999474,0.988197,0.004387,0.381097,0.000002,-0.000006,0.000004,0.000004,-0.000007,22.459898,0.000007,
2296,2503,0.843318167741952,-3.08846541552933,-0.0175107239086287,0.004867,-0.000603,0.007598,0.197631,0.045450,322.940686,24.018308,0.999661,0.991953,0.003821,0.398455,-0.000008,0.000000,-0.000001,0.000000,-0.000009,-82.003428,0.000010,
2101,3223,-3.51230350341187,12.5493973973524,0.0506989365766231,0.004841,-0.000488,0.006802,0.203496,0.031513,312.373093,24.418053,0.999661,0.993559,0.003248,0.429313,0.000003,0.000041,-0.000023,0.000052,-0.000008,-64.981529,0.000056,
2146,2818,-2.47400868301499,3.76844524237404,-0.018376993127788,0.004639,-0.000524,0.006520,0.193843,0.050271,318.188726,24.464470,0.999565,0.992108,0.003623,0.438128,0.000014,0.000022,-0.000006,0.000025,0.000011,-61.939639,0.000037,
2071,1993,-3.97249183086395,-14.252605862219,0.0295030591518639,0.004390,-0.000293,0.005943,0.184277,0.064756,332.230595,24.567287,0.998871,0.978157,0.005679,0.350659,0.000062,-0.000140,-0.000022,0.000064,-0.000143,-6.138723,0.000143,
2431,2818,3.72376840749082,3.78283001943265,-0.0182939285531916,0.005101,-0.000102,0.002245,0.226132,0.055821,317.880196,24.737386,0.999493,0.989996,0.004110,0.470726,0.000015,0.000008,-0.000023,0.000035,-0.000012,-40.586721,0.000036,
2341,2878,1.75276579561465,5.08225568114935,-0.0172489111475898,0.004331,-0.000702,0.007793,0.171856,0.034395,316.794874,24.707834,0.999549,0.990853,0.003886,0.530519,-0.000006,0.000036,-0.000005,0.000036,-0.000006,-83.466122,0.000039,
2071,3073,-4.14016048038621,9.29775993386839,0.0158017568837181,0.004771,-0.000310,0.001305,0.216475,0.041850,314.698717,24.261655,0.999406,0.991289,0.003683,0.488538,0.000004,0.000038,-0.000007,0.000040,0.000002,-78.307574,0.000048,
2506,3238,5.27371872141721,12.9132363522468,0.0214519949716987,0.004943,0.000291,0.002354,0.218504,0.052551,311.497779,26.498090,0.999582,0.990725,0.003804,0.472235,0.000045,0.000051,0.000020,0.000069,0.000028,48.807484,0.000099,
2041,3223,-4.81239217280686,12.544622399188,0.0442737998687903,0.004882,-0.000357,0.004781,0.212158,0.029320,312.656063,24.112915,0.999534,0.993295,0.003214,0.430135,-0.000005,0.000054,-0.000039,0.000073,-0.000025,-63.618020,0.000074,
2386,2608,2.78478936296358,-0.796110029436967,-0.0134035868478009,0.004855,-0.000372,0.004143,0.207926,0.055669,321.270718,24.054186,0.999260,0.987421,0.004435,0.496588,0.000006,0.000015,0.000012,0.000023,-0.000002,55.233939,0.000025,
2251,2548,-0.144455719236294,-2.10876028562146,-0.0143343840802004,0.004848,-0.001035,0.008259,0.195396,0.042345,322.300581,24.102270,0.999731,0.993186,0.003496,0.476560,0.000003,0.000025,0.000003,0.000025,0.000003,82.278158,0.000031,
2011,2443,-5.34725860866604,-4.40432920269556,0.00211431611450053,0.004743,-0.000515,0.008062,0.196261,0.068131,325.135265,24.667461,0.999474,0.989169,0.004096,0.392392,0.000015,0.000014,-0.000009,0.000024,0.000006,-42.661175,0.000031,
2206,3268,-1.24581118116748,13.5354471527226,0.0152835230914548,0.005133,-0.000179,0.002926,0.227548,0.028813,310.954711,24.970640,0.999540,0.992995,0.003386,0.449350,0.000018,0.000034,0.000009,0.000038,0.000013,65.352896,0.000053,
2011,2623,-5.37529067047236,-0.480339377521268,-0.0208735720708546,0.004659,-0.000831,0.007627,0.193702,0.039320,322.035585,24.425692,0.999546,0.991792,0.003754,0.474241,-0.000037,-0.000016,-0.000015,-0.000008,-0.000045,-62.619527,0.000057,
2401,2653,3.10277129090256,0.186098674394756,-0.0145986733052723,0.005078,-0.000666,0.006738,0.208543,0.050619,320.542796,24.198544,0.999265,0.986982,0.004491,0.470240,0.000001,0.000019,-0.000007,0.000021,-0.000002,-71.969740,0.000023,
2026,2683,-5.05971075175112,0.827986447459935,-0.0385291595528088,0.004574,-0.001075,0.007474,0.189953,0.032496,320.817866,24.396080,0.999793,0.995566,0.003021,0.447611,-0.000008,-0.000041,-0.000007,-0.000006,-0.000043,-11.190981,0.000053,
2206,2383,-1.09508992410836,-5.71249953208945,-0.00508457652068728,0.004575,-0.000504,0.005783,0.191642,0.060033,325.146039,23.982662,0.999196,0.985495,0.004700,0.487615,-0.000005,-0.000003,-0.000008,0.000004,-0.000013,-47.899817,0.000013,
2176,2053,-1.69120290646233,-12.9390862087172,0.0283514068808586,0.004862,-0.000761,0.006942,0.201100,0.057278,330.836081,23.871575,0.999359,0.983622,0.004794,0.365245,0.000024,0.000014,0.000018,0.000038,0.000001,37.162909,0.000044,
2116,2143,-3.01487117380981,-10.9646130147238,0.0168091028257322,0.004874,-0.000583,0.006250,0.204985,0.035241,329.525635,24.256757,0.998455,0.976044,0.006145,0.384728,-0.000010,0.000004,0.000016,0.000014,-0.000021,56.605402,0.000022,
2236,2113,-0.392275569393945,-11.6262496728142,0.0278921223114708,0.004590,-0.000733,0.005070,0.193675,0.041247,329.704612,23.432370,0.999318,0.980773,0.005371,0.498421,0.000003,0.000019,0.000003,0.000020,0.000003,80.966002,0.000024,
2416,2788,3.40237679426894,3.13008024147247,-0.0214316654409572,0.004734,-0.000172,0.003698,0.204031,0.067014,318.299069,24.703586,0.999458,0.988158,0.004304,0.404820,0.000007,0.000014,-0.000019,0.000030,-0.000008,-50.480512,0.000031,
2086,2668,-3.75262128233159,0.501372735609664,-0.0147938578563753,0.004901,-0.000690,0.008824,0.200028,0.054889,320.930107,24.347593,0.999465,0.989874,0.003908,0.503856,-0.000003,-0.000004,0.000001,-0.000002,-0.000005,29.028705,0.000007,
2176,3028,-1.85579511972137,8.32928305445925,0.0145061370653821,0.004894,-0.000783,0.009437,0.196195,0.046212,314.936349,24.625888,0.999473,0.991232,0.003893,0.469307,0.000009,0.000015,-0.000001,0.000015,0.000009,-82.947843,0.000025,
2461,2998,4.34230358812751,7.69818913865515,0.00184620996145668,0.005297,-0.000477,0.005588,0.222316,0.026598,315.159992,25.385090,0.999320,0.989607,0.004069,0.472500,0.000034,0.000024,0.000004,0.000035,0.000022,17.628236,0.000058,
2131,3163,-2.85312754979832,11.2525948310982,0.0344922708892454,0.004696,-0.000285,0.003767,0.205349,0.023864,313.082253,24.541362,0.999485,0.991040,0.003689,0.432309,0.000001,0.000037,-0.000019,0.000045,-0.000007,-66.720516,0.000049,
2071,2818,-4.10156430050707,3.76410126689657,-0.0164772534794224,0.005022,-0.000145,0.002371,0.224709,0.042160,318.586260,24.347290,0.999335,0.990775,0.004055,0.467072,0.000005,0.000022,-0.000006,0.000024,0.000003,-72.704326,0.000029,
2281,2443,0.528414369738698,-4.40174957865256,-0.00133402907158597,0.004776,-0.001075,0.009052,0.188641,0.037256,324.056322,23.828789,0.999597,0.989017,0.004270,0.493981,-0.000007,-0.000022,-0.000007,-0.000004,-0.000025,-23.028365,0.000031,
2041,3013,-4.78251083357847,7.99614446207761,0.00699146297347397,0.004153,-0.000446,0.006001,0.174897,0.044766,315.732631,24.302217,0.999409,0.991473,0.003798,0.377492,-0.000003,0.000026,0.000003,0.000026,-0.000003,83.812425,0.000029,
2056,3073,-4.4655155270085,9.29658023801229,0.0140055254917684,0.004748,-0.000482,0.002338,0.212529,0.033793,314.763720,24.195097,0.999463,0.991618,0.003786,0.493713,0.000007,0.000040,-0.000010,0.000043,0.000004,-74.287234,0.000052,
2011,2683,-5.38340197241306,0.825033729484957,-0.0167863305377409,0.004967,-0.000548,0.002951,0.220686,0.018808,321.126091,24.371248,0.999776,0.995822,0.002953,0.462018,-0.000026,-0.000042,-0.000009,-0.000022,-0.000046,-25.209521,0.000070,
2131,2218,-2.70090329694667,-9.32212717946035,0.0140978962481881,0.004262,-0.000761,0.009407,0.167278,0.060411,328.196145,24.208592,0.998422,0.978491,0.005601,0.416959,-0.000001,0.000027,0.000019,0.000037,-0.000011,62.751910,0.000038,
2311,2458,1.17901130065762,-4.07347170294866,-0.00357915222446081,0.004475,-0.000945,0.007400,0.179876,0.063637,323.756659,23.750738,0.999439,0.987080,0.004575,0.552699,-0.000002,-0.000006,0.000003,0.000000,-0.000008,27.864817,0.000009,
2326,2368,1.52330655157542,-6.03951752060798,-0.00180358760485433,0.004812,-0.000179,0.004092,0.206582,0.058332,325.246545,23.575584,0.999326,0.985063,0.004723,0.468951,-0.000003,-0.000006,0.000004,0.000000,-0.000009,34.233619,0.000011,
2101,3238,-3.51521209513369,12.8745849833218,0.0453688331938906,0.004676,-0.000291,0.005875,0.198716,0.039732,312.078205,24.404480,0.999698,0.994068,0.003106,0.451112,0.000004,0.000037,-0.000023,0.000048,-0.000008,-62.959923,0.000052,
2176,2998,-1.8509740253072,7.67897178295297,0.00657730103688436,0.004816,-0.000289,0.004668,0.207519,0.051910,315.370344,24.628314,0.999456,0.991292,0.003769,0.449663,0.000010,0.000020,0.000007,0.000023,0.000006,62.960201,0.000031,
2221,2173,-0.729599989859157,-10.3090814451057,0.0165199118584383,0.005185,0.000364,-0.001703,0.243285,0.058887,328.726180,23.655802,0.999002,0.983478,0.005127,0.468247,0.000000,-0.000002,0.000009,0.000008,-0.000010,41.081290,0.000011,
2011,2638,-5.37769728247767,-0.152597542012764,-0.0290983114610981,0.004802,-0.000355,0.004734,0.208309,0.049655,321.738513,24.440097,0.999141,0.986083,0.004533,0.458832,-0.000028,-0.000008,-0.000013,-0.000002,-0.000034,-64.572893,0.000040,
2146,2833,-2.47515704014999,4.09311948399557,-0.00594782110806591,0.004984,-0.000374,0.003971,0.217463,0.036219,318.072831,24.445970,0.999604,0.992677,0.003487,0.450009,0.000013,0.000023,-0.000001,0.000023,0.000013,-84.811485,0.000037,
2491,3163,4.96287249052537,11.2838005956246,0.0239292915553051,0.004853,-0.000392,0.004500,0.205822,0.023196,312.696166,26.146928,0.999542,0.990716,0.003684,0.428278,0.000046,0.000050,0.000007,0.000055,0.000041,52.389318,0.000097,
2251,2413,-0.119276413615818,-5.05667319550071,0.000458350561245879,0.004847,-0.000155,0.004134,0.208948,0.046722,324.622738,23.942693,0.999286,0.987513,0.004416,0.418822,-0.000011,-0.000005,-0.000008,0.000001,-0.000017,-54.441501,0.000019,
2026,2878,-5.08716970186199,5.066484296075,-0.0200996043500936,0.005262,0.000156,0.001155,0.239554,0.033626,317.858349,24.331106,0.998963,0.988336,0.004376,0.386218,0.000017,0.000035,0.000002,0.000036,0.000017,83.258288,0.000054,
2371,2548,2.46960180733756,-2.1062482339139,-0.00687164550788566,0.004603,-0.000508,0.005837,0.190362,0.044973,322.273410,23.922889,0.999369,0.985772,0.004744,0.464919,0.000002,0.000006,0.000009,0.000013,-0.000005,50.652420,0.000013,
2266,2233,0.240524695600346,-8.9944529199833,0.00931821540831379,0.004994,-0.000204,0.001219,0.224842,0.037073,327.594247,23.565373,0.998850,0.978862,0.005511,0.411692,-0.000021,-0.000003,-0.000007,-0.000001,-0.000023,-70.458509,0.000027,
2506,3253,5.27025078735415,13.2388364874924,0.0191496544252914,0.004903,-0.000134,0.004030,0.210020,0.041090,311.223286,26.571844,0.999713,0.992538,0.003522,0.446714,0.000052,0.000059,0.000033,0.000088,0.000022,48.068145,0.000117,
2206,3283,-1.2485754972988,13.8611477306268,0.0109117933845937,0.005189,-0.000063,0.001310,0.235363,0.033823,310.679585,25.029721,0.999449,0.992113,0.003443,0.410352,0.000019,0.000041,0.000013,0.000047,0.000013,64.701859,0.000063,
2476,3073,4.65474004354462,9.32844452979236,0.0192785761456093,0.005103,-0.000335,0.005381,0.214084,0.030470,314.103517,25.751699,0.999613,0.989590,0.004024,0.430646,0.000032,0.000033,0.000011,0.000043,0.000021,46.407942,0.000066,
2236,2128,-0.39508172081495,-11.2951199221936,0.0239133671382774,0.004622,-0.000260,0.004278,0.197875,0.063900,329.433181,23.600641,0.998963,0.979678,0.005458,0.376990,0.000004,0.000015,0.000004,0.000016,0.000003,71.197623,0.000020,
2041,3238,-4.81478248924145,12.8692385975045,0.0456005990944846,0.004830,-0.000523,0.005560,0.207487,0.019148,312.417430,24.101630,0.999557,0.994376,0.003069,0.422397,-0.000003,0.000046,-0.000047,0.000075,-0.000031,-58.958121,0.000075,
2236,2248,-0.417018703413081,-8.66637329901669,0.0119489883732626,0.004652,-0.000814,0.008596,0.185283,0.077234,327.388534,23.678738,0.998793,0.980844,0.005463,0.503300,-0.000002,-0.000001,0.000012,0.000010,-0.000014,46.085336,0.000014,
2071,2008,-3.97450695127349,-13.9223617616657,0.0209593849144198,0.004977,-0.000184,0.002778,0.220234,0.050757,331.955026,24.590315,0.999037,0.981499,0.005304,0.314451,0.000065,-0.000065,0.000011,0.000066,-0.000066,4.806792,0.000076,
2416,2803,3.39946265359484,3.45575495986555,-0.0230608291241765,0.004655,-0.000051,0.000743,0.211254,0.051870,318.048661,24.667636,0.999373,0.987341,0.004514,0.473381,0.000008,0.000011,-0.000018,0.000027,-0.000008,-48.009417,0.000028,
2356,2593,2.13412723040698,-1.12392387433052,-0.0126644299336363,0.004876,-0.000670,0.004892,0.206482,0.036932,321.505604,24.099937,0.999287,0.986455,0.004537,0.423390,0.000008,0.000015,0.000009,0.000021,0.000002,54.824717,0.000025,
2041,3028,-4.78411260701227,8.32015599402605,0.012130740515488,0.004574,-0.000428,0.005984,0.194292,0.023885,315.551237,24.220564,0.999512,0.991924,0.003764,0.429936,0.000005,0.000032,0.000005,0.000033,0.000004,78.922501,0.000040,
2461,3013,4.33997690049147,8.02481337249534,0.00930234048911416,0.005165,-0.000145,0.002970,0.226318,0.049176,314.980471,25.519954,0.999414,0.989449,0.003964,0.413832,0.000033,0.000029,0.000001,0.000033,0.000029,17.526156,0.000063,
2101,3253,-3.51768561055578,13.2003793198428,0.0419142920775926,0.004847,-0.000050,0.005223,0.208652,0.051279,311.813235,24.458406,0.999727,0.995210,0.002907,0.408653,0.000007,0.000033,-0.000019,0.000043,-0.000003,-62.686337,0.000048,
2071,2833,-4.1038166260062,4.08988373381879,-0.00621272222554126,0.004820,-0.000721,0.007592,0.200277,0.024411,318.404078,24.416378,0.999422,0.991299,0.003768,0.376639,0.000004,0.000014,-0.000006,0.000017,0.000002,-65.670186,0.000021,
2266,2383,0.212276579505417,-5.71164243434971,-0.00786190260396324,0.005093,-0.000707,0.007335,0.209272,0.033699,325.013451,23.816014,0.998503,0.979034,0.005606,0.434602,-0.000020,-0.000006,-0.000002,-0.000005,-0.000021,-81.077283,0.000027,
2071,3088,-4.14267672882543,9.62257755028476,0.019324239016612,0.004686,-0.000605,0.005403,0.200766,0.037287,314.468065,24.242405,0.999297,0.990413,0.003850,0.499103,-0.000001,0.000037,-0.000008,0.000038,-0.000002,-78.702019,0.000043,
2431,2833,3.72043185765207,4.11014446433625,-0.0163806925875178,0.004898,-0.000539,0.006065,0.202565,0.053016,317.627443,24.875729,0.999331,0.988740,0.004145,0.379239,0.000011,0.000017,-0.000020,0.000034,-0.000006,-49.812146,0.000036,
2086,2728,-3.76233665393474,1.80783420492632,-0.0209158027059289,0.004833,-0.000534,0.005191,0.207515,0.054017,319.913824,24.350634,0.999268,0.989371,0.004108,0.497256,0.000003,0.000003,-0.000004,0.000006,-0.000001,-46.750451,0.000007,
2506,3268,5.26678987084042,13.56497055498,0.0145766301712342,0.005149,-0.000513,0.006719,0.210819,0.037249,310.938645,26.678833,0.999847,0.995453,0.002865,0.395279,0.000068,0.000056,0.000050,0.000112,0.000012,41.662450,0.000136,
2446,2908,4.0315888772883,5.74202604517576,-0.0172882090498661,0.004618,-0.000718,0.006868,0.186459,0.045360,316.405072,25.058422,0.999408,0.990428,0.003953,0.466195,0.000008,0.000023,-0.000010,0.000028,0.000003,-64.372341,0.000034,
2011,2653,-5.3801658730332,0.17368089579449,-0.0337311411634005,0.004784,-0.000444,0.003787,0.210020,0.025474,321.459298,24.390664,0.998960,0.985444,0.004701,0.472685,-0.000034,-0.000009,-0.000014,-0.000003,-0.000040,-65.688957,0.000048,
2026,2698,-5.06191091742575,1.15420531743941,-0.04014210718816,0.004510,-0.000357,0.003738,0.197455,0.035235,320.569077,24.354722,0.999793,0.995273,0.003084,0.482510,0.000003,-0.000039,-0.000005,0.000004,-0.000039,-6.552137,0.000043,
2296,2518,0.840110112353113,-2.76141901122165,-0.0221831822755689,0.004765,-0.000838,0.008049,0.191358,0.031979,322.652693,23.987486,0.999655,0.990698,0.003888,0.447089,-0.000005,-0.000002,-0.000002,-0.000001,-0.000006,-62.920476,0.000008,
2131,2023,-2.66838723649683,-13.5948972968159,0.0252476809213817,0.004935,-0.000699,0.009153,0.198657,0.060330,331.451408,24.217549,0.999086,0.983324,0.005326,0.293939,-0.000002,0.000003,0.000003,0.000004,-0.000003,64.623793,0.000005,
2206,2353,-1.08936948785854,-6.36929030546525,0.00561820570300142,0.004544,-0.000562,0.007335,0.185231,0.068037,325.713501,23.934958,0.999630,0.989163,0.004283,0.506083,-0.000002,-0.000018,-0.000003,-0.000001,-0.000018,-9.443527,0.000022,
2401,2668,3.09981721683474,0.513394052925989,-0.0156539444130885,0.004986,-0.000607,0.004923,0.210927,0.035972,320.292300,24.273434,0.999328,0.987879,0.004441,0.426518,0.000000,0.000011,-0.000012,0.000019,-0.000008,-57.515649,0.000019,
2176,3043,-1.85778265171074,8.65532160905225,0.0217727057191155,0.004858,-0.000587,0.007708,0.199937,0.034779,314.755802,24.741362,0.999684,0.995014,0.003245,0.353438,0.000008,0.000013,-0.000005,0.000016,0.000005,-57.881328,0.000022,
2071,2023,-3.97719771681395,-13.5935185913185,0.0174529943543575,0.004756,-0.000159,0.002646,0.210501,0.044011,331.676255,24.542338,0.998983,0.982858,0.005238,0.356269,0.000055,-0.000076,0.000008,0.000056,-0.000077,3.288957,0.000079,
2251,2563,-0.146905044560373,-1.78211745749886,-0.0133107533409884,0.004904,-0.000954,0.007301,0.201140,0.029036,322.072086,24.098751,0.999603,0.990645,0.003868,0.491212,0.000004,0.000022,0.000001,0.000022,0.000004,88.386117,0.000028,
2131,3178,-2.85562617596851,11.5773979877998,0.0371683017872897,0.004546,-0.000539,0.004093,0.197490,0.034594,312.851648,24.522449,0.999272,0.987208,0.004128,0.466354,0.000004,0.000036,-0.000019,0.000044,-0.000004,-64.973156,0.000049,
2176,2218,-1.72021134928632,-9.32224815603826,0.0128776151376542,0.004314,-0.000794,0.008572,0.171146,0.048219,328.024832,24.005550,0.998550,0.978625,0.005700,0.390727,0.000010,0.000021,0.000010,0.000028,0.000004,59.701038,0.000034,
2221,2188,-0.732293633897573,-9.97964200849967,0.013204427093001,0.005407,0.000313,-0.000205,0.248664,0.056042,328.462100,23.725372,0.998919,0.981275,0.005344,0.417652,0.000000,0.000002,0.000008,0.000010,-0.000007,49.460354,0.000010,
2041,3043,-4.78597555516685,8.64539664235028,0.0170778737962678,0.004696,-0.000182,0.005065,0.202621,0.043132,315.356335,24.214087,0.999730,0.994944,0.002997,0.447187,0.000004,0.000029,0.000000,0.000029,0.000004,-89.377523,0.000036,
2146,2848,-2.4782752110116,4.41972010672519,-0.0148945780931626,0.004944,-0.000572,0.003879,0.215873,0.030308,317.752530,24.439438,0.999614,0.992503,0.003503,0.458637,0.000011,0.000028,0.000005,0.000029,0.000010,73.803500,0.000041,
2131,3148,-2.85085626894417,10.9275629230927,0.0370315709050715,0.004570,-0.000216,0.007881,0.187289,0.054933,313.330412,24.532752,0.999580,0.992961,0.003389,0.467495,0.000003,0.000028,-0.000015,0.000035,-0.000004,-64.775099,0.000038,
2101,3268,-3.51984402759578,13.5250351511301,0.0377577003538363,0.005276,-0.000145,0.002946,0.235023,0.032534,311.559383,24.437871,0.999771,0.996094,0.002785,0.410235,0.000009,0.000029,-0.000014,0.000036,0.000002,-63.079450,0.000043,
2131,2233,-2.70230127534191,-8.9936637956881,0.016631398385357,0.004941,-0.000517,0.006926,0.205932,0.058483,328.014207,24.263393,0.998730,0.979977,0.005435,0.367971,-0.000007,0.000027,0.000012,0.000031,-0.000010,72.725912,0.000031,
2176,2068,-1.69368662733164,-12.6110582704692,0.0327574444383458,0.004663,-0.000835,0.008613,0.186808,0.049245,330.618028,23.856817,0.999467,0.983829,0.004969,0.387573,0.000024,-0.000004,0.000016,0.000031,-0.000011,24.065334,0.000031,
2506,3283,5.26304515932989,13.8899007424531,0.00746148313936601,0.004832,-0.000480,0.003642,0.208147,0.018196,310.629789,26.680383,0.999839,0.995673,0.002764,0.434140,0.000083,0.000023,0.000052,0.000112,-0.000007,29.878805,0.000126,
2026,2893,-5.08959794967699,5.39125431771815,-0.00955637033729317,0.004722,-0.000446,0.004934,0.204113,0.020438,317.667812,24.318313,0.999300,0.992249,0.003639,0.375421,0.000011,0.000021,-0.000002,0.000022,0.000011,-78.963564,0.000033,
2056,3088,-4.46800344474628,9.62172150542631,0.0209491914326918,0.004451,-0.000820,0.006329,0.187423,0.017071,314.552224,24.239239,0.999462,0.991944,0.003606,0.426101,0.000003,0.000038,-0.000010,0.000041,0.000001,-74.497216,0.000047,
2071,2848,-4.10733286998524,4.41702017148916,-0.0162972900816953,0.004281,-0.000492,0.007315,0.176381,0.044400,318.051951,24.423279,0.999632,0.993278,0.003403,0.386361,0.000002,0.000019,0.000001,0.000019,0.000002,86.567359,0.000023,
2086,2683,-3.75519273754357,0.827863770670312,-0.0185589075742882,0.004876,-0.000857,0.007868,0.201603,0.040938,320.657420,24.325093,0.999549,0.991420,0.003613,0.511788,-0.000002,-0.000014,-0.000005,0.000000,-0.000016,-20.806352,0.000018,
2476,3088,4.65142821517919,9.65484115723629,0.0169722604134108,0.004972,-0.000195,0.004687,0.210812,0.040912,313.834701,25.832403,0.999435,0.990905,0.003843,0.416156,0.000035,0.000035,0.000005,0.000040,0.000029,46.202464,0.000070,
2386,2623,2.78136997231647,-0.469203470526821,-0.016588356992429,0.004743,-0.000839,0.006226,0.195166,0.035694,320.987834,24.066169,0.999064,0.986802,0.004525,0.508810,0.000005,0.000017,0.000003,0.000018,0.000005,77.387115,0.000024,
2311,2473,1.1765335440953,-3.74558893377513,-0.00133813607442335,0.004468,-0.000701,0.005804,0.185074,0.040880,323.537510,23.853098,0.999266,0.985576,0.004673,0.460969,0.000002,-0.000007,0.000008,0.000007,-0.000012,30.000102,0.000012,
2026,2713,-5.06379583646743,1.48067058626954,-0.0363678833329004,0.004670,-0.000375,0.003759,0.204786,0.037086,320.364718,24.385169,0.999660,0.993709,0.003521,0.444259,0.000014,-0.000023,-0.000008,0.000016,-0.000024,-12.444920,0.000025,
2131,2038,-2.67117870527045,-13.2670320966117,0.0216251054657164,0.004791,-0.000972,0.009715,0.190297,0.055747,331.173241,24.083652,0.999212,0.983624,0.005323,0.432775,-0.000002,0.000009,0.000013,0.000018,-0.000011,55.903054,0.000018,
2371,2563,2.46644213688136,-1.77839466359191,-0.00638962327502668,0.004539,-0.000647,0.009226,0.175405,0.056313,322.018648,24.002290,0.999474,0.987699,0.004411,0.438951,0.000000,0.000013,0.000006,0.000015,-0.000002,68.329333,0.000017,
2011,2668,-5.38155956132744,0.49949973041884,-0.0272193656002742,0.005250,-0.000568,0.003955,0.231025,0.035725,321.291860,24.362476,0.998914,0.986613,0.004522,0.499577,-0.000036,-0.000013,-0.000007,-0.000011,-0.000038,-73.452731,0.000051,
2266,2398,0.209359477846537,-5.38320820872671,-0.00592626621073578,0.004660,-0.000340,0.006660,0.191774,0.070466,324.769070,23.882292,0.999018,0.984561,0.004961,0.432237,-0.000018,-0.000004,-0.000002,-0.000003,-0.000018,-80.655498,0.000023,
2071,2038,-3.97887423515482,-13.2649880326419,0.0203233933968932,0.005030,0.000222,0.000544,0.229171,0.062741,331.478418,24.517814,0.999080,0.983911,0.005007,0.399760,0.000045,-0.000061,0.000013,0.000047,-0.000062,6.865228,0.000065,
2506,3298,5.2604382868415,14.2149292015044,0.0132798144222761,0.004967,-0.000460,0.005384,0.207612,0.022543,310.431386,26.741659,0.999747,0.993390,0.003249,0.436708,0.000083,-0.000002,0.000033,0.000094,-0.000014,18.901409,0.000102,
2251,2428,-0.121754501181812,-4.73063694848042,0.00236800847113727,0.005170,-0.000547,0.008384,0.209775,0.054882,324.397716,23.826597,0.998969,0.985375,0.004627,0.568025,-0.000007,-0.000014,-0.000012,0.000002,-0.000024,-36.830870,0.000026,
2266,2248,0.23702041885435,-8.66607000269979,0.00984427967335932,0.004675,-0.000888,0.008940,0.184518,0.059223,327.316350,23.576254,0.998982,0.981384,0.005328,0.451215,-0.000019,-0.000005,-0.000005,-0.000004,-0.000021,-72.083136,0.000026,
2086,2743,-3.76464162400968,2.13389687931715,-0.015476215834326,0.004645,-0.000500,0.006542,0.194970,0.038726,319.703566,24.383016,0.999329,0.989615,0.004098,0.448734,-0.000004,0.000012,-0.000002,0.000012,-0.000004,-84.126863,0.000012,
2401,2683,3.09659654202544,0.84129815283454,-0.0202866218416489,0.004971,-0.000021,0.003853,0.214355,0.061888,320.012392,24.338998,0.999351,0.987725,0.004399,0.433023,0.000000,0.000019,-0.000014,0.000026,-0.000007,-62.759374,0.000027,
2041,3058,-4.78757551151759,8.96979042272926,0.0264263849848021,0.004929,-0.000474,0.006022,0.210613,0.029095,315.198340,24.194717,0.999702,0.994338,0.003144,0.444134,0.000003,0.000034,-0.000009,0.000037,0.000000,-74.485760,0.000042,
2041,3253,-4.81720329068598,13.1939939909647,0.0467891766022035,0.004764,-0.000208,0.006454,0.202024,0.027728,312.176590,24.087275,0.999626,0.994066,0.003048,0.436298,0.000001,0.000039,-0.000045,0.000069,-0.000029,-56.309545,0.000069,
2116,2158,-3.01778951414055,-10.6356306429612,0.0131697343682049,0.004798,-0.001082,0.009905,0.190557,0.035653,329.239924,24.265036,0.998974,0.982930,0.005262,0.383264,-0.000005,-0.000003,0.000016,0.000011,-0.000020,47.042904,0.000020,
2026,2908,-5.09124107397561,5.71602360200819,0.00172584363457418,0.004712,-0.000553,0.005166,0.203034,0.031886,317.517371,24.288886,0.999348,0.992203,0.003603,0.406137,0.000012,0.000029,0.000000,0.000029,0.000012,-89.143498,0.000042,
2341,2893,1.75138018520778,5.40900460680321,-0.0118662171453821,0.004906,-0.000314,0.001839,0.219207,0.035463,316.642212,24.830784,0.999364,0.990166,0.003986,0.444813,-0.000005,0.000026,-0.000003,0.000026,-0.000005,-85.446595,0.000028,
2011,2698,-5.38565820705216,1.15172167302552,-0.0181776709491146,0.005007,-0.000100,0.002505,0.223896,0.040193,320.874610,24.354261,0.999780,0.995346,0.003063,0.488927,-0.000015,-0.000041,-0.000008,-0.000013,-0.000043,-14.813750,0.000058,
2146,2968,-2.49717409460522,7.02571392958583,0.00239496194296862,0.004955,-0.000561,0.005027,0.213035,0.031744,315.940988,24.525406,0.999682,0.992936,0.003358,0.433259,0.000010,0.000024,0.000007,0.000027,0.000007,68.285506,0.000036,
2131,3193,-2.85810860681425,11.9027097712806,0.0365821318043231,0.004645,-0.000374,0.004687,0.200245,0.026535,312.604128,24.553424,0.999555,0.991478,0.003556,0.431794,0.000006,0.000036,-0.000019,0.000045,-0.000003,-63.817569,0.000050,
2206,3298,-1.25206352140806,14.1856253704097,0.00697423286368348,0.004862,-0.000423,0.005047,0.208232,0.018232,310.373868,25.003259,0.999449,0.992618,0.003327,0.436273,0.000021,0.000046,0.000005,0.000047,0.000020,79.449030,0.000069,
2491,3178,4.96116875415385,11.608998538512,0.035319355443562,0.005146,-0.000158,0.003153,0.224612,0.036237,312.564383,26.219941,0.999605,0.990361,0.003801,0.425882,0.000045,0.000051,0.000006,0.000055,0.000041,56.677615,0.000097,
2101,3283,-3.52354272800478,13.8497040386298,0.0305734381599905,0.004707,-0.000394,0.006128,0.199345,0.020368,311.218325,24.399975,0.999691,0.996212,0.002807,0.435608,0.000011,0.000037,-0.000003,0.000037,0.000010,-84.020270,0.000050,
2236,2143,-0.397325218032631,-10.9668134503135,0.0231989041042198,0.005040,-0.000256,0.004513,0.216305,0.052799,329.204577,23.585997,0.998868,0.979964,0.005376,0.404611,0.000000,0.000011,0.000010,0.000017,-0.000006,60.344990,0.000017,
2431,2848,3.71761752963503,4.43566717111636,-0.0144401308797342,0.004788,-0.000370,0.004750,0.202409,0.050292,317.399215,24.853380,0.999306,0.986740,0.004282,0.448681,0.000003,0.000025,-0.000021,0.000038,-0.000010,-58.528109,0.000040,
2146,2083,-2.35135447809218,-12.2795206832007,0.0210232932250278,0.004630,-0.000994,0.008553,0.186132,0.050556,330.382807,24.112247,0.998940,0.980492,0.005419,0.333953,0.000006,0.000003,0.000011,0.000016,-0.000007,41.157498,0.000016,
2071,2863,-4.10884921098136,4.74171174617238,-0.0111415193013613,0.004685,-0.000532,0.005369,0.200541,0.036996,317.875867,24.351183,0.999388,0.990673,0.003939,0.447819,0.000008,0.000021,0.000005,0.000023,0.000006,71.125583,0.000031,
2071,3103,-4.14413483026205,9.94761140226608,0.0310947967208222,0.004938,-0.000289,0.006147,0.210401,0.050803,314.331182,24.280190,0.999537,0.992418,0.003448,0.470463,-0.000003,0.000037,-0.000012,0.000040,-0.000006,-74.888045,0.000043,
2416,2818,3.39720608241626,3.7814759273254,-0.01628310479947,0.005030,-0.000345,0.003609,0.217886,0.046205,317.867756,24.695074,0.999293,0.988257,0.004357,0.487806,0.000006,0.000012,-0.000016,0.000026,-0.000007,-50.266572,0.000026,
2281,2458,0.525861128835551,-4.07289353152468,-0.00297663493705613,0.004932,-0.000407,0.007476,0.201345,0.075647,323.811727,23.917827,0.999694,0.989987,0.004159,0.472486,-0.000008,-0.000013,-0.000003,-0.000006,-0.000014,-28.627555,0.000021,
2131,2248,-2.70544454240686,-8.6658986775923,0.012167572243925,0.004704,-0.001153,0.010163,0.185207,0.034034,327.715516,24.210353,0.998982,0.981092,0.005317,0.404869,-0.000007,0.000022,0.000007,0.000023,-0.000009,76.347264,0.000024,
2221,2203,-0.735299570502068,-9.65135896588158,0.0123905443980448,0.005213,0.000127,0.002419,0.231365,0.057570,328.196647,23.717037,0.999095,0.982837,0.005124,0.449187,-0.000001,0.000001,0.000008,0.000008,-0.000008,47.611135,0.000009,
2011,2923,-5.41883230872024,6.04089051562261,0.00162384645057045,0.004714,-0.000437,0.005398,0.202802,0.049546,317.368667,24.231771,0.999233,0.992296,0.003530,0.439013,0.000013,0.000031,0.000002,0.000031,0.000012,84.617891,0.000045,
2041,3268,-4.81995017194368,13.5197868017003,0.0395422962600946,0.004745,-0.000199,0.004993,0.205355,0.041269,311.873403,24.120652,0.999578,0.993989,0.003099,0.407345,0.000001,0.000021,-0.000035,0.000048,-0.000026,-53.175518,0.000048,
2206,2368,-1.09197053787717,-6.04065542961816,-0.00027693562941522,0.004819,-0.000598,0.005990,0.202097,0.057156,325.438832,23.979353,0.999469,0.987525,0.004507,0.469364,-0.000008,-0.000006,-0.000008,0.000001,-0.000015,-48.647871,0.000017,
2221,1993,-0.697620283673757,-14.2586553671699,0.0455637405928542,0.004929,-0.000467,0.006734,0.204013,0.072093,331.821786,23.512562,0.999620,0.988267,0.004580,0.357589,0.000002,0.000034,-0.000014,0.000039,-0.000003,-69.472812,0.000044,
2176,3013,-1.85337761851122,8.00430845834492,0.0108469582126531,0.004791,-0.000397,0.006314,0.201172,0.038535,315.155220,24.654535,0.999405,0.989315,0.004020,0.421297,0.000010,0.000018,0.000002,0.000019,0.000009,77.026098,0.000028,
2461,3028,4.33698645950509,8.35045116306986,0.0150023563799664,0.004888,-0.000480,0.004934,0.206075,0.036825,314.762568,25.590329,0.999670,0.991302,0.003773,0.384465,0.000031,0.000031,0.000000,0.000032,0.000031,77.305209,0.000062,
2176,3058,-1.85987820180805,8.97922158233942,0.0284951660798356,0.004911,-0.000596,0.008410,0.200256,0.045659,314.568153,24.637270,0.999690,0.994964,0.003234,0.480083,0.000010,0.000013,-0.000008,0.000020,0.000004,-50.740421,0.000025,
2251,2578,-0.149378520847453,-1.45481796262228,-0.0100593729300726,0.004885,-0.000708,0.007798,0.198770,0.042793,321.853479,24.152485,0.999492,0.988399,0.004173,0.475149,0.000004,0.000026,0.000001,0.000026,0.000004,87.108368,0.000032,
2026,2923,-5.09352879085175,6.04161537849399,8.91646232616949E-05,0.004806,-0.000484,0.004905,0.208128,0.037159,317.264981,24.251893,0.999359,0.992401,0.003613,0.438093,0.000006,0.000033,0.000005,0.000033,0.000005,80.374367,0.000042,
2326,2383,1.52034148677989,-5.71075558517345,-0.00261524902799692,0.004848,-0.000416,0.006107,0.201230,0.054826,324.991378,23.681112,0.999497,0.986253,0.004737,0.396398,0.000002,-0.000009,0.000000,0.000002,-0.000009,0.847520,0.000009,
2041,3073,-4.7896118999911,9.29480991309409,0.0243308368508224,0.005190,-0.000421,0.003137,0.230747,0.024819,314.956504,24.152431,0.999506,0.991789,0.003707,0.473726,0.000003,0.000043,-0.000004,0.000043,0.000002,-84.786439,0.000051,
2116,2173,-3.01972471985518,-10.307774655719,0.0210110030991473,0.004697,-0.001181,0.009497,0.187114,0.041264,329.060713,24.292727,0.998852,0.983631,0.005241,0.367057,-0.000005,-0.000003,0.000020,0.000016,-0.000024,45.922303,0.000024,
2176,2233,-1.72250767595464,-8.9939682274027,0.0101342062033609,0.004603,-0.000708,0.007276,0.188456,0.074677,327.777740,23.961895,0.998864,0.981552,0.005224,0.475558,0.000002,0.000019,0.000006,0.000021,0.000000,71.988837,0.000024,
2176,2083,-1.69644750314577,-12.2805305664189,0.0254448034826851,0.004730,-0.000397,0.006378,0.196958,0.056659,330.325819,23.930214,0.999524,0.984426,0.005059,0.337268,0.000025,0.000006,0.000011,0.000030,0.000001,23.713804,0.000035,
2266,2263,0.235488339871598,-8.33736925804127,0.0178792366110088,0.004860,0.000045,0.003898,0.210026,0.076241,327.166289,23.702579,0.999636,0.988870,0.004432,0.369375,-0.000020,0.000000,-0.000008,0.000003,-0.000023,-71.117382,0.000025,
2101,3298,-3.52668800261909,14.1748114687514,0.0224469356974168,0.004457,-0.000197,0.004648,0.192283,0.036647,310.897379,24.373715,0.999529,0.994164,0.003251,0.477866,0.000013,0.000056,-0.000006,0.000057,0.000012,-81.816321,0.000073,
2131,3208,-2.85990496378615,12.2278344653036,0.0419718555548343,0.004846,-0.000041,0.002315,0.216875,0.049373,312.420201,24.574805,0.999717,0.993956,0.003151,0.437546,0.000008,0.000037,-0.000019,0.000046,-0.000001,-63.987090,0.000053,
2011,3163,-5.45327724500885,11.2428289464999,0.0438065607049225,0.004498,-0.000323,0.005644,0.192392,0.033784,313.802272,24.037434,0.999506,0.993340,0.003473,0.411842,-0.000005,0.000057,-0.000029,0.000069,-0.000017,-68.483667,0.000072,
2476,3103,4.64928614130669,9.98028658123502,0.0195443811634277,0.005395,-0.000162,0.001514,0.242368,0.027184,313.642206,25.884362,0.999324,0.990203,0.003987,0.406198,0.000035,0.000039,0.000007,0.000045,0.000029,53.603563,0.000075,
2041,3283,-4.82266391093612,13.8442619167782,0.0349282839205216,0.004649,-0.000194,0.004339,0.202796,0.043439,311.586951,24.062967,0.999567,0.994023,0.003094,0.458182,0.000002,0.000018,-0.000025,0.000037,-0.000016,-53.942193,0.000037,
2236,2263,-0.419360041652229,-8.33798718486041,0.0153051161498752,0.004663,-0.000926,0.008329,0.186635,0.049379,327.175957,23.772934,0.998969,0.982254,0.005410,0.404608,-0.000003,0.000004,0.000008,0.000010,-0.000009,56.519482,0.000011,
2056,3103,-4.46950180717488,9.94642354532297,0.0301672455314019,0.004764,-0.000600,0.006401,0.201714,0.028139,314.398858,24.232441,0.999419,0.992016,0.003587,0.437615,0.000003,0.000038,-0.000013,0.000042,-0.000002,-71.898090,0.000048,
2311,2488,1.1744247886133,-3.41831070989265,0.00472017598275443,0.004774,-0.000531,0.007312,0.194067,0.062226,323.353960,23.895513,0.999373,0.986695,0.004405,0.473076,0.000002,-0.000008,0.000003,0.000003,-0.000008,16.246512,0.000009,
2206,2398,-1.09690498048397,-5.38523055194509,0.0030842866830767,0.004994,-0.001050,0.009242,0.199789,0.072708,324.979929,24.024645,0.999392,0.987858,0.004439,0.476370,-0.000002,-0.000003,-0.000010,0.000008,-0.000013,-42.590194,0.000013,
2491,3193,4.95848021388671,11.9339445146914,0.0420037875260277,0.005057,-0.000204,0.004291,0.216134,0.035220,312.365935,26.258534,0.999529,0.990617,0.003794,0.444011,0.000045,0.000047,0.000008,0.000054,0.000038,49.765328,0.000093,
2356,2608,2.13167534775981,-0.797003857571013,-0.00990501084879725,0.005046,-0.000250,0.004856,0.214615,0.073051,321.293074,24.102763,0.999168,0.986375,0.004583,0.496265,0.000008,0.000007,0.000010,0.000017,-0.000002,44.621640,0.000019,
2086,2938,-3.79385612416307,6.37058281793672,0.00210164701570648,0.005079,-0.000231,0.001735,0.229194,0.042520,316.716532,24.361911,0.999276,0.990717,0.003927,0.458150,0.000004,0.000022,0.000008,0.000026,0.000001,68.623092,0.000030,
2206,2623,-1.13651427372203,-0.474396523912823,-0.0140956706470661,0.004826,-0.000279,0.005594,0.204149,0.049353,321.199340,24.292513,0.999301,0.984435,0.004823,0.452605,0.000016,0.000007,0.000000,0.000016,0.000007,-0.047832,0.000024,
2116,1993,-2.99201720931221,-14.2503470620645,0.0125906044692101,0.004370,-0.000328,0.005107,0.185117,0.048072,331.875657,24.391295,0.999635,0.989538,0.004343,0.195189,-0.000011,-0.000065,-0.000051,0.000020,-0.000096,-31.166784,0.000102,
2221,2008,-0.701843162613709,-13.9277701983396,0.0349750431489042,0.004259,-0.001037,0.010138,0.162296,0.051002,331.451001,23.579773,0.999613,0.987181,0.004750,0.292802,-0.000005,0.000032,0.000001,0.000032,-0.000005,87.878685,0.000035,
2266,2413,0.207391197841801,-5.05755196718997,0.00706895789903683,0.004615,-0.000923,0.009434,0.180330,0.046791,324.624345,23.864271,0.999203,0.986148,0.004650,0.453385,-0.000015,-0.000004,-0.000006,-0.000002,-0.000018,-65.699612,0.000021,
2071,2053,-3.98079299771461,-12.9369605583796,0.0265497433139785,0.005242,-0.000343,0.004616,0.227171,0.058554,331.288041,24.512846,0.998501,0.976216,0.005939,0.400670,0.000037,-0.000046,0.000007,0.000037,-0.000047,4.870269,0.000050,
2041,3298,-4.8251632658497,14.1695477650353,0.032131575730773,0.004652,-0.000012,0.003546,0.205146,0.038408,311.320140,24.101196,0.999554,0.994670,0.003128,0.405736,-0.000002,0.000047,-0.000028,0.000060,-0.000015,-65.491861,0.000063,
2251,2443,-0.124868121270364,-4.4008119252171,-8.23314056219715E-05,0.004938,-0.000901,0.009017,0.196960,0.033568,324.120873,24.050656,0.999454,0.989183,0.004252,0.347294,-0.000011,-0.000011,-0.000010,-0.000001,-0.000022,-44.416165,0.000025,
2026,2728,-5.06531172472539,1.80556438102117,-0.021978842482099,0.004733,-0.000499,0.006667,0.199661,0.041516,320.236986,24.358100,0.999593,0.991758,0.003698,0.465944,0.000010,0.000000,0.000003,0.000010,-0.000001,14.167352,0.000011,
2071,3118,-4.14576935092463,10.271991444181,0.0432908802378051,0.005002,-0.000589,0.007077,0.210537,0.031131,314.188846,24.295795,0.999742,0.993885,0.003075,0.430982,-0.000006,0.000039,-0.000015,0.000044,-0.000010,-72.818259,0.000046,
2146,2863,-2.48174341091966,4.74643957988373,-0.0203170200638283,0.004473,-0.000568,0.006058,0.187592,0.039080,317.434787,24.460938,0.999512,0.991609,0.003649,0.453394,0.000015,0.000026,0.000004,0.000028,0.000014,70.780509,0.000042,
2461,3043,4.33420897145648,8.67552569253677,0.0173208917289003,0.005044,-0.000516,0.006238,0.208405,0.052077,314.539042,25.562210,0.999571,0.989752,0.003944,0.481677,0.000029,0.000033,0.000005,0.000036,0.000026,58.167946,0.000063,
2011,2938,-5.42122334764448,6.36669801407245,-0.000825698161349919,0.004807,-0.000414,0.006445,0.204306,0.057464,317.105763,24.210220,0.999440,0.993240,0.003463,0.456027,0.000011,0.000026,0.000012,0.000033,0.000005,61.707683,0.000041,
2386,2638,2.77858709417014,-0.141983509194382,-0.0140670502865987,0.004702,-0.000934,0.006779,0.191271,0.033855,320.761073,24.142090,0.999115,0.986454,0.004547,0.474807,0.000001,0.000017,-0.000003,0.000017,0.000000,-80.989394,0.000020,
2296,2533,0.836803027026452,-2.43470003740845,-0.0310823168071579,0.004615,-0.000596,0.005026,0.194775,0.021872,322.339249,23.890957,0.999728,0.993059,0.003510,0.564745,-0.000003,0.000004,-0.000005,0.000007,-0.000006,-61.824206,0.000007,
2026,2938,-5.09633258701336,6.3672804229499,0.00434176029455102,0.004421,-0.000738,0.011109,0.173305,0.050161,317.021832,24.259975,0.999161,0.990847,0.003939,0.432647,0.000004,0.000027,0.000012,0.000032,-0.000001,67.272415,0.000036,
2131,2263,-2.70730191606795,-8.33871520879753,0.0176336184379693,0.004800,-0.001176,0.008776,0.193766,0.020493,327.528473,24.200015,0.998779,0.981987,0.005372,0.409446,-0.000004,0.000016,0.000007,0.000018,-0.000007,72.291681,0.000018,
2011,2713,-5.38878386410273,1.47893338363903,-0.0247819441260617,0.004678,-0.000336,0.005204,0.201391,0.036624,320.553998,24.372794,0.999656,0.993695,0.003526,0.455121,-0.000003,-0.000026,-0.000013,0.000003,-0.000032,-24.556848,0.000036,
2086,2758,-3.76724466334732,2.46096098535536,-0.0255097828286353,0.005009,-0.000338,0.005820,0.213913,0.049691,319.395086,24.362797,0.999434,0.990447,0.003949,0.479127,-0.000007,0.000009,-0.000005,0.000010,-0.000009,-73.732120,0.000011,
2176,3073,-1.86249593123823,9.30411071757965,0.0261208664350079,0.004759,-0.000052,0.004651,0.205050,0.048917,314.308453,24.576497,0.999666,0.994868,0.003190,0.555395,0.000009,0.000021,-0.000003,0.000021,0.000008,-77.840876,0.000030,
2491,3208,4.95500405887131,12.2600592170825,0.0384809530937105,0.005131,-0.000245,0.006506,0.211052,0.041943,312.084572,26.341089,0.999425,0.991525,0.003746,0.425529,0.000047,0.000044,0.000002,0.000048,0.000043,28.977566,0.000091,
2071,2878,-4.11132488813128,5.06771540605236,-0.0158703177709185,0.004712,-0.000540,0.002795,0.209152,0.030112,317.601213,24.330306,0.999178,0.988490,0.004399,0.458309,0.000014,0.000030,0.000000,0.000030,0.000014,-88.300660,0.000045,
2176,2248,-1.72462782503235,-8.66559892706506,0.00808120213969232,0.004833,-0.000285,0.003180,0.211840,0.069282,327.542422,23.970793,0.998842,0.980752,0.005345,0.475856,0.000002,0.000011,0.000002,0.000012,0.000002,75.996630,0.000015,
2011,3178,-5.45538014213456,11.5673505727162,0.0441854813734039,0.004513,-0.000356,0.002706,0.201035,0.014212,313.569460,24.005684,0.999720,0.995181,0.002838,0.411004,-0.000007,0.000055,-0.000033,0.000069,-0.000021,-66.503213,0.000071,
2401,2698,3.09283494304007,1.16828001991647,-0.0279101700496085,0.004885,-0.000462,0.005733,0.203467,0.053438,319.693744,24.335061,0.999406,0.989640,0.004098,0.474504,0.000001,0.000023,-0.000012,0.000028,-0.000004,-66.834216,0.000030,
2056,1993,-4.29921308033041,-14.2534508720311,0.0332679569530683,0.004650,-0.000574,0.007776,0.191185,0.058292,332.349284,24.608391,0.998912,0.979115,0.005581,0.407828,0.000059,-0.000157,-0.000035,0.000064,-0.000163,-8.962348,0.000164,
2146,2098,-2.35348454109146,-11.9511045209736,0.0205221789729535,0.004807,-0.000625,0.006437,0.200770,0.039127,330.152667,24.092699,0.999240,0.982479,0.005184,0.353167,0.000005,0.000011,0.000014,0.000022,-0.000006,51.629034,0.000023,
2026,2743,-5.06779685086993,2.13130959409514,-0.0184206677883481,0.004476,-0.001000,0.009478,0.179993,0.034959,320.004252,24.336463,0.999388,0.989938,0.004058,0.471171,-0.000002,0.000026,0.000006,0.000027,-0.000003,79.141303,0.000030,
2131,2053,-2.67327425383084,-12.9379106316932,0.0247080438134617,0.004798,-0.001039,0.008407,0.194511,0.034742,330.962357,24.161111,0.998791,0.979707,0.005547,0.343189,-0.000002,0.000007,0.000016,0.000019,-0.000014,53.550696,0.000020,
2341,2908,1.74870334143028,5.7354556490146,-0.011546793528737,0.005031,-0.000223,0.001889,0.224865,0.039457,316.405615,24.890695,0.999194,0.989463,0.004132,0.425153,-0.000005,0.000021,-0.000005,0.000022,-0.000006,-79.894827,0.000023,
2056,3118,-4.47166841485737,10.2716959536268,0.0332918719679469,0.004854,-0.000537,0.007584,0.202582,0.031336,314.180982,24.250841,0.999494,0.993174,0.003294,0.415961,0.000001,0.000043,-0.000016,0.000048,-0.000004,-71.570255,0.000053,
2131,3223,-2.86254799481394,12.5522835497793,0.0440519920084625,0.004733,-0.000276,0.004741,0.204286,0.044174,312.179926,24.546061,0.999670,0.994015,0.003115,0.465287,0.000011,0.000041,-0.000020,0.000051,0.000001,-63.599127,0.000059,
2086,2953,-3.79679189504357,6.69639057847352,0.00238528674378813,0.004752,-0.000465,0.005281,0.203826,0.040394,316.449462,24.375593,0.999249,0.992060,0.003769,0.440771,0.000008,0.000019,0.000007,0.000022,0.000004,62.171632,0.000029,
2011,2953,-5.42315660828167,6.69221035481012,0.00218062098360861,0.004755,-0.000164,0.002734,0.212062,0.052624,316.894661,24.216795,0.999664,0.994168,0.003108,0.432182,0.000022,0.000015,0.000013,0.000032,0.000005,38.103465,0.000040,
2041,3088,-4.79265564571672,9.62138959642302,0.0181629882260381,0.004871,-0.000412,0.003114,0.216082,0.021040,314.645252,24.231728,0.999668,0.993728,0.003203,0.381881,-0.000001,0.000039,-0.000007,0.000040,-0.000002,-80.940537,0.000045,
2116,2008,-2.99393042812185,-13.9249749348115,0.0199602978198641,0.004470,-0.001189,0.007605,0.182102,0.014632,331.695409,24.173054,0.999631,0.991450,0.004289,0.386853,-0.000007,-0.000019,-0.000017,0.000005,-0.000031,-35.487773,0.000033,
2236,2158,-0.400930566389203,-10.6364137594997,0.0100347734152706,0.004768,-0.000073,0.001604,0.213337,0.041847,328.850182,23.634970,0.998800,0.981675,0.005309,0.369367,0.000002,0.000002,0.000009,0.000011,-0.000007,44.299184,0.000011,
2011,2728,-5.3908175641753,1.8049326164104,-0.0223191774967972,0.004828,-0.000240,0.006651,0.204440,0.051850,320.334604,24.339518,0.999596,0.991633,0.003777,0.491776,-0.000008,-0.000006,-0.000002,-0.000005,-0.000009,-61.197598,0.000013,
2206,2638,-1.13901125583225,-0.147209057922353,-0.0176444468507384,0.005002,0.000093,0.003453,0.219171,0.063539,320.941288,24.295268,0.999287,0.985976,0.004648,0.481589,0.000013,0.000009,-0.000001,0.000013,0.000009,-15.766300,0.000022,
2431,2863,3.7151006643205,4.7620088180021,-0.0118347324056458,0.004995,-0.000312,0.004283,0.213675,0.044928,317.187496,24.917959,0.999488,0.989640,0.003881,0.428579,-0.000002,0.000035,-0.000019,0.000043,-0.000010,-66.718177,0.000045,
2116,2188,-3.02260525731543,-9.97860899124723,0.0142434124296074,0.004563,-0.000834,0.008559,0.183877,0.050984,328.759905,24.286331,0.998779,0.981635,0.005347,0.389769,-0.000003,0.000015,0.000026,0.000033,-0.000021,54.657691,0.000034,
2071,3133,-4.14858548512471,10.5972853090491,0.0372011633617149,0.004869,-0.000535,0.005497,0.208921,0.021573,313.891530,24.275476,0.999589,0.993781,0.003113,0.437368,0.000000,0.000037,-0.000017,0.000044,-0.000007,-68.621089,0.000047,
2056,2008,-4.30092042319887,-13.9248468799235,0.0393337699861718,0.004934,-0.000814,0.009946,0.198087,0.053254,332.166444,24.638465,0.998839,0.980913,0.005540,0.370844,0.000068,-0.000071,0.000002,0.000068,-0.000071,0.709408,0.000080,
2146,2983,-2.49977923312372,7.35110967216752,0.00237864067821647,0.004890,-0.000556,0.005575,0.208394,0.025301,315.691947,24.512916,0.999708,0.994438,0.003124,0.446438,0.000007,0.000021,0.000006,0.000023,0.000005,68.554266,0.000030,
2491,3223,4.95169073859157,12.5861114784103,0.0324660445109544,0.005124,-0.000159,0.003334,0.223008,0.041307,311.799370,26.415246,0.999482,0.991083,0.003778,0.408347,0.000046,0.000034,0.000005,0.000048,0.000032,19.893308,0.000081,
2416,2833,3.39405915433167,4.10825350331196,-0.0161110238816491,0.005046,-0.000807,0.006422,0.208110,0.023579,317.614680,24.790325,0.998835,0.986656,0.004498,0.417513,0.000003,0.000021,-0.000013,0.000028,-0.000004,-62.177048,0.000030,
2071,2068,-3.98259492778137,-12.6087467763797,0.0410558117387154,0.004945,-0.000299,0.006866,0.207194,0.083836,331.147939,24.591753,0.998147,0.965896,0.007075,0.346729,0.000030,-0.000049,0.000004,0.000030,-0.000049,3.221215,0.000049,
2071,2893,-4.11381496668102,5.39372472041348,-0.0111041795205438,0.004585,-0.000775,0.007434,0.190035,0.039181,317.377929,24.367965,0.999400,0.991455,0.003881,0.426160,0.000003,0.000020,-0.000003,0.000021,0.000003,-79.685741,0.000026,
2311,2503,1.17169269454604,-3.09106962564066,9.45344506817491E-05,0.005119,-0.000768,0.006992,0.210898,0.037687,323.089467,23.887382,0.999453,0.987944,0.004235,0.490097,-0.000005,0.000000,0.000000,0.000000,-0.000005,86.671863,0.000005,
2326,2398,1.51837798157619,-5.38478715793605,0.00947212359005789,0.004643,0.000028,0.004814,0.196445,0.079400,324.845330,23.631357,0.999454,0.986538,0.004759,0.506220,0.000004,-0.000005,0.000000,0.000004,-0.000005,-3.270966,0.000005,
2356,2623,2.12806484244575,-0.469769618987783,-0.0110859302897097,0.004525,-0.000638,0.006873,0.183468,0.059250,321.008402,24.155167,0.999028,0.986702,0.004600,0.469600,0.000006,0.000014,0.000002,0.000014,0.000006,76.504299,0.000021,
2011,2968,-5.42516810746367,7.01735157217148,0.00470414946994424,0.004923,-0.000267,0.003537,0.217571,0.042628,316.677431,24.194813,0.999667,0.994267,0.003047,0.431512,0.000015,-0.000001,0.000009,0.000019,-0.000005,23.714226,0.000020,
2206,2413,-1.09805501977639,-5.05823609037915,0.0229078536684142,0.005253,-0.000936,0.012458,0.201537,0.068861,324.904421,24.172373,0.999634,0.990889,0.004002,0.342308,0.000003,-0.000009,-0.000016,0.000014,-0.000020,-34.689289,0.000020,
2176,2098,-1.6996636832415,-11.9520465813498,0.0120776486225509,0.004886,-0.000672,0.006331,0.204195,0.040309,329.981661,23.781324,0.999380,0.982873,0.005243,0.485951,0.000023,0.000017,0.000014,0.000034,0.000006,39.514226,0.000043,
2176,3148,-1.8750976198655,10.9313145610694,0.0338016197312641,0.004786,-0.000734,0.009270,0.191846,0.032009,313.133805,24.742753,0.999421,0.992887,0.003634,0.428193,-0.000004,0.000025,-0.000005,0.000025,-0.000004,-80.417884,0.000027,
2476,3118,4.64602941964299,10.3054526519149,0.023757550327673,0.005122,-0.000356,0.005013,0.216456,0.035074,313.405809,25.902947,0.999428,0.990615,0.003785,0.450939,0.000034,0.000055,0.000004,0.000056,0.000033,80.219848,0.000090,
2236,2278,-0.422135136761039,-8.00936269641306,0.00670281549184892,0.005035,-0.001037,0.007345,0.206854,0.027709,326.882713,23.766487,0.999065,0.983399,0.005099,0.412831,-0.000005,0.000003,0.000003,0.000004,-0.000006,74.173659,0.000006,
2281,2473,0.52256414795017,-3.74541469321256,-0.00464554625978053,0.004577,-0.000375,0.009133,0.179557,0.080528,323.533258,23.919237,0.999461,0.988194,0.004419,0.505044,-0.000004,-0.000011,0.000001,-0.000004,-0.000011,11.566311,0.000016,
2176,3088,-1.86522528390435,9.63120544581609,0.0198019977006538,0.005080,-0.000371,0.005439,0.217316,0.037956,314.022138,24.712220,0.999532,0.992697,0.003515,0.420021,0.000004,0.000018,-0.000004,0.000019,0.000003,-76.686000,0.000024,
2446,2923,4.02922260454891,6.06851212907746,-0.0106712640639444,0.004737,-0.000661,0.007179,0.190736,0.035880,316.219504,25.185823,0.999634,0.992858,0.003675,0.380778,0.000013,0.000018,-0.000011,0.000027,0.000004,-51.255541,0.000033,
2371,2578,2.46390818924145,-1.45144639335287,-0.00905948398633427,0.004872,-0.000712,0.006571,0.200071,0.046769,321.777748,23.996552,0.999451,0.987250,0.004502,0.476983,0.000005,0.000028,0.000009,0.000031,0.000002,71.443342,0.000037,
2056,3133,-4.47403041682249,10.596911312313,0.0271185734250139,0.004915,-0.000238,0.002127,0.220853,0.023718,313.902798,24.221152,0.999184,0.992315,0.003424,0.431678,0.000005,0.000042,-0.000017,0.000048,-0.000001,-69.019780,0.000055,
2011,3193,-5.45767424951022,11.8926887870093,0.0430136428194601,0.004638,0.000005,0.003237,0.205527,0.042135,313.318816,23.996547,0.999704,0.995140,0.002808,0.434739,-0.000004,0.000067,-0.000034,0.000081,-0.000018,-68.278702,0.000085,
2026,2953,-5.09762387257509,6.69249088002534,0.00592274866465914,0.004853,-0.000451,0.003030,0.215525,0.030265,316.833306,24.243746,0.999453,0.991554,0.003638,0.418700,0.000011,0.000014,0.000010,0.000023,0.000002,48.657778,0.000028,
2491,3238,4.94761805611742,12.9121885388398,0.0211154974396663,0.004963,-0.000044,0.002044,0.220595,0.038076,311.454900,26.468864,0.999600,0.991844,0.003664,0.408851,0.000046,0.000045,0.000007,0.000053,0.000038,44.073131,0.000091,
2146,2878,-2.48299404936503,5.07130823856589,-0.00706730234384167,0.004802,-0.000396,0.005559,0.204385,0.051368,317.318473,24.450558,0.999474,0.991009,0.003797,0.483606,0.000020,0.000034,0.000002,0.000034,0.000020,80.731373,0.000055,
2266,2278,0.232450000759698,-8.00896475475447,0.00567001769081799,0.005209,-0.000002,0.001726,0.233201,0.058087,326.846053,23.636339,0.999485,0.986081,0.004762,0.445415,-0.000021,0.000002,-0.000009,0.000005,-0.000024,-70.505658,0.000025,
2221,2023,-0.70434891014018,-13.5989646173176,0.0319147642447319,0.004348,-0.000965,0.007618,0.174473,0.021425,331.197347,23.557765,0.999094,0.981012,0.005431,0.307792,-0.000007,0.000050,0.000009,0.000051,-0.000008,81.087786,0.000055,
2116,2023,-2.99557268452559,-13.5953756171968,0.0248606402009273,0.005018,-0.000878,0.009947,0.200430,0.052124,331.513331,24.245402,0.999296,0.984334,0.005440,0.358768,-0.000010,-0.000012,-0.000011,0.000000,-0.000023,-42.211538,0.000026,
2056,2023,-4.30396602856766,-13.5943383099301,0.0311005762077343,0.004616,-0.000751,0.009627,0.184423,0.062227,331.843815,24.671519,0.998762,0.983029,0.005331,0.345498,0.000058,-0.000090,-0.000002,0.000058,-0.000090,-0.844921,0.000092,
2401,2713,3.08959224490299,1.49523193684848,-0.0327252218538661,0.004680,-0.000185,0.002411,0.206245,0.056746,319.412077,24.344955,0.999558,0.990192,0.003950,0.513888,-0.000003,0.000021,-0.000014,0.000028,-0.000010,-64.650994,0.000028,
2011,2983,-5.42793851044119,7.34301565802117,0.00235608309753843,0.004848,-0.000589,0.008130,0.201546,0.033360,316.397861,24.190719,0.999298,0.991738,0.003539,0.413568,0.000005,-0.000011,0.000011,0.000011,-0.000017,28.200925,0.000017,
2221,2218,-0.737913003426197,-9.3225337613342,0.0112376046386657,0.005125,-0.000335,0.000462,0.233426,0.021369,327.947479,23.797590,0.999098,0.981544,0.005157,0.353792,0.000000,0.000011,0.000005,0.000013,-0.000002,67.554950,0.000014,
2131,2068,-2.67496540604552,-12.6087676450023,0.027546255440086,0.004962,0.000028,0.003170,0.218039,0.056093,330.768410,24.200563,0.998226,0.975361,0.006049,0.333745,-0.000001,-0.000009,0.000015,0.000011,-0.000020,37.378259,0.000020,
2206,2653,-1.1420026179524,0.179329673324347,-0.0204308703535503,0.005073,-0.000715,0.007664,0.208851,0.037637,320.664752,24.290112,0.999431,0.985630,0.004661,0.478032,0.000013,0.000018,0.000003,0.000019,0.000012,65.023066,0.000032,
2176,2263,-1.72718743843928,-8.33683870391194,0.0113853925764147,0.004586,-0.000251,0.003763,0.198724,0.062640,327.314859,24.076775,0.998887,0.979924,0.005586,0.377698,0.000003,0.000009,0.000000,0.000009,0.000003,88.267773,0.000013,
2296,2548,0.83505818010995,-2.10712558616888,-0.0148963299177467,0.004683,-0.000601,0.008707,0.185507,0.060360,322.221238,24.052754,0.999361,0.988241,0.004345,0.471960,-0.000002,0.000017,-0.000002,0.000017,-0.000003,-82.937326,0.000019,
2086,2968,-3.79921806195123,7.02158005854497,0.0089593179038161,0.004448,-0.000570,0.007394,0.183709,0.044777,316.240263,24.373498,0.999337,0.991305,0.003770,0.445351,0.000010,0.000016,0.000006,0.000019,0.000006,60.343953,0.000027,
2131,2278,-2.70970054897395,-8.00997897797652,0.0103575081733425,0.005205,-0.001185,0.007528,0.216123,0.023320,327.248539,24.190738,0.998665,0.982170,0.005452,0.429433,-0.000003,0.000002,0.000000,0.000002,-0.000003,84.939736,0.000003,
2011,3208,-5.4596705742479,12.2175557296086,0.044272422398592,0.004902,-0.000037,0.003498,0.217068,0.044636,313.095757,23.987319,0.999574,0.993302,0.003269,0.433419,0.000001,0.000066,-0.000036,0.000081,-0.000015,-66.107825,0.000087,
2356,2638,2.1257417787776,-0.142778151852568,-0.00775786690667246,0.004644,-0.000454,0.005023,0.195502,0.049742,320.804536,24.223762,0.999183,0.986691,0.004567,0.430811,0.000002,0.000015,-0.000005,0.000017,0.000000,-70.054645,0.000020,
2416,2848,3.3912193022459,4.4343592271797,-0.0124399522324552,0.004865,-0.000593,0.006522,0.199549,0.038701,317.392144,24.816545,0.999239,0.987964,0.004240,0.453699,-0.000002,0.000028,-0.000015,0.000034,-0.000009,-67.201163,0.000035,
2491,3253,4.94331573724264,13.2378328193065,0.0120526601986626,0.004643,-0.000116,0.003902,0.198730,0.039304,311.110211,26.496251,0.999708,0.992926,0.003449,0.440186,0.000051,0.000053,0.000016,0.000068,0.000036,46.096621,0.000105,
2251,2458,-0.127524177503222,-4.07397219459313,-0.00055034466026882,0.004931,-0.001130,0.008655,0.197763,0.027713,323.875518,24.009641,0.999713,0.990650,0.004129,0.407282,-0.000009,-0.000006,-0.000006,0.000000,-0.000014,-51.720618,0.000016,
2011,2743,-5.39394846294426,2.13291152700261,-0.034467865302986,0.004624,-0.000499,0.005859,0.197112,0.037222,319.982423,24.405538,0.999587,0.992120,0.003574,0.399651,-0.000019,0.000025,0.000001,0.000025,-0.000019,88.252397,0.000027,
2146,2113,-2.35485096560896,-11.6245932510956,0.0349838593530762,0.004894,-0.000799,0.006437,0.204720,0.032248,330.036673,24.063043,0.999350,0.983403,0.005122,0.386251,0.000003,0.000003,0.000012,0.000016,-0.000009,44.601614,0.000016,
2251,2593,-0.152312321209866,-1.12701847685777,-0.0195015112287251,0.004932,-0.000271,0.002926,0.217031,0.043398,321.549492,24.159554,0.999334,0.986431,0.004526,0.492905,0.000001,0.000017,-0.000005,0.000018,0.000000,-72.926275,0.000021,
2266,2428,0.204882295707424,-4.72886849814078,0.000666614379042585,0.005125,-0.000638,0.007803,0.209303,0.063849,324.356836,23.902960,0.999305,0.987261,0.004485,0.458866,-0.000012,-0.000015,-0.000010,-0.000003,-0.000024,-40.215731,0.000030,
2071,3148,-4.15109466746876,10.9226463800139,0.0398147533435349,0.004661,-0.000106,0.006465,0.196743,0.044370,313.656063,24.286691,0.999716,0.995697,0.002810,0.444728,0.000002,0.000035,-0.000021,0.000045,-0.000009,-63.969463,0.000048,
2236,2293,-0.425364599782988,-7.68064109287388,0.000315637611493003,0.004684,-0.000324,0.004825,0.199179,0.044920,326.579686,23.758841,0.999145,0.984993,0.004748,0.461316,-0.000004,0.000002,0.000012,0.000012,-0.000014,52.393414,0.000015,
2026,2758,-5.06968420517325,2.45734084787792,-0.0192845532353658,0.004737,-0.000783,0.006511,0.200219,0.027469,319.774149,24.310977,0.999102,0.989086,0.004314,0.479671,-0.000004,0.000010,-0.000003,0.000011,-0.000004,-77.918101,0.000011,
2086,2773,-3.76896459529714,2.78713533248768,-0.0196264514896711,0.005332,-0.000504,0.006338,0.227293,0.055370,319.213984,24.396417,0.999533,0.991081,0.003934,0.450332,-0.000006,0.000004,-0.000004,0.000006,-0.000007,-69.464778,0.000008,
2461,3058,4.3308600527412,9.00169944271564,0.017909672909127,0.004656,-0.000330,0.006081,0.191233,0.061278,314.280871,25.634034,0.999562,0.988573,0.004192,0.472452,0.000027,0.000035,0.000011,0.000043,0.000020,54.301826,0.000064,
2041,3103,-4.79473736940146,9.94585466857852,0.0246166886267929,0.004761,-0.000235,0.003359,0.210426,0.035218,314.449099,24.182600,0.999685,0.994327,0.003086,0.436723,-0.000004,0.000041,-0.000010,0.000043,-0.000006,-77.902070,0.000047,
2056,2038,-4.30624909592391,-13.2648091462988,0.0218494771565361,0.004838,-0.000209,0.004792,0.208332,0.067411,331.550569,24.614310,0.998616,0.980156,0.005559,0.406554,0.000047,-0.000074,0.000003,0.000047,-0.000074,1.608711,0.000075,
2446,2938,4.02594197539743,6.39440240762537,-0.0139321874673897,0.004635,-0.000627,0.006165,0.189841,0.027631,315.946337,25.190821,0.999610,0.991680,0.003814,0.419387,0.000019,0.000023,-0.000013,0.000034,0.000008,-49.927932,0.000045,
2026,2968,-5.09973817759748,7.01755937948868,0.00775611825997657,0.004933,-0.000394,0.003017,0.219226,0.020188,316.608536,24.210497,0.999443,0.991428,0.003608,0.431502,0.000005,0.000000,0.000007,0.000010,-0.000005,35.711979,0.000010,
2071,2083,-3.98763107477103,-12.2769862390735,0.0129511603980745,0.004274,-0.000807,0.012204,0.161086,0.102934,330.627489,24.534833,0.998636,0.967581,0.006768,0.424397,0.000022,-0.000026,0.000000,0.000022,-0.000026,0.227392,0.000028,
2011,2998,-5.42981618354511,7.66789513746514,0.0108701607094872,0.004719,-0.000550,0.007572,0.197094,0.027983,316.220606,24.188508,0.999252,0.992103,0.003589,0.397641,-0.000004,0.000008,0.000007,0.000011,-0.000007,64.074339,0.000011,
2221,2038,-0.706999451718573,-13.2693453427724,0.0261311004981621,0.004561,-0.000630,0.006161,0.189027,0.045891,330.922749,23.531349,0.998826,0.976558,0.005829,0.381372,-0.000003,0.000048,0.000009,0.000050,-0.000004,79.896269,0.000055,
2236,2173,-0.403089597735988,-10.3083336296663,0.0153039199632872,0.004880,-0.000095,0.002261,0.216384,0.041099,328.655722,23.664521,0.998877,0.982415,0.005212,0.362798,0.000000,-0.000005,0.000010,0.000008,-0.000013,37.927860,0.000013,
2431,2878,3.7118079689358,5.08834490767316,-0.0114936395858649,0.004765,-0.000647,0.005718,0.197701,0.039671,316.929484,24.969386,0.999493,0.990594,0.003707,0.421233,0.000000,0.000038,-0.000014,0.000043,-0.000005,-71.677197,0.000047,
2176,3163,-1.87716143725682,11.2564403938166,0.0379002735897984,0.004767,-0.000566,0.005595,0.202438,0.029185,312.933392,24.772848,0.999815,0.996258,0.002898,0.406339,-0.000005,0.000032,-0.000007,0.000033,-0.000006,-79.088340,0.000035,
2491,3268,4.93978341935361,13.5638603025654,0.00978262292682075,0.004664,-0.000429,0.007415,0.186090,0.031507,310.831529,26.610427,0.999827,0.994842,0.002982,0.375401,0.000064,0.000046,0.000027,0.000083,0.000026,35.798898,0.000114,
2371,2593,2.46092489704455,-1.12423882885415,-0.012459367445615,0.004893,-0.000628,0.004964,0.206818,0.033207,321.512626,24.017466,0.999320,0.986979,0.004511,0.484423,0.000008,0.000020,0.000009,0.000024,0.000004,61.642963,0.000031,
2116,2203,-3.0251547574862,-9.65012203898535,0.011384283879238,0.004433,-0.000593,0.006468,0.184180,0.041821,328.495338,24.283882,0.998315,0.977042,0.005685,0.389199,-0.000002,0.000019,0.000025,0.000036,-0.000018,56.691240,0.000036,
2326,2413,1.51458322762506,-5.05744378088841,0.000375369267260339,0.004386,-0.000371,0.005796,0.181122,0.041090,324.512029,23.572525,0.999430,0.986573,0.004756,0.563194,0.000002,0.000001,-0.000001,0.000003,0.000001,-26.661512,0.000004,
2281,2488,0.51914483803926,-3.41909386456582,-0.00929983379785426,0.004380,-0.000876,0.011694,0.161776,0.059665,323.234595,23.818067,0.999631,0.990152,0.004147,0.614674,-0.000002,-0.000006,-0.000004,0.000000,-0.000009,-32.649956,0.000010,
2056,2053,-4.30826888910041,-12.9353606031585,0.0182062205648208,0.005126,0.000201,0.002296,0.228724,0.061703,331.300153,24.629829,0.998048,0.975203,0.006132,0.383413,0.000039,-0.000058,-0.000003,0.000039,-0.000058,-1.869259,0.000059,
2176,2278,-1.72975681052707,-8.01082709914289,0.0215814899596012,0.004469,-0.001473,0.013465,0.162981,0.059911,327.123276,24.002279,0.998713,0.979841,0.005608,0.463782,0.000002,-0.000002,-0.000008,0.000008,-0.000008,-37.841897,0.000009,
2146,2128,-2.35710911060681,-11.2952754715556,0.0352086970470395,0.005142,-0.000706,0.007871,0.211795,0.044302,329.804253,24.119981,0.999279,0.980919,0.005336,0.352298,-0.000001,-0.000002,0.000014,0.000012,-0.000015,44.437091,0.000016,
2146,3118,-2.52092301320734,10.2791433426844,0.0275710151139492,0.004627,-0.000159,0.004632,0.199520,0.058944,313.690926,24.600718,0.999659,0.994550,0.003177,0.454539,-0.000003,0.000022,-0.000012,0.000026,-0.000008,-67.918374,0.000027,
2071,2908,-4.11624575973633,5.71911724485455,-0.00630508552507081,0.004437,-0.000755,0.010818,0.173542,0.045405,317.157773,24.355613,0.999546,0.991878,0.003662,0.441094,0.000001,0.000020,-0.000002,0.000020,0.000001,-85.239912,0.000024,
2491,3283,4.9365335711312,13.8883521581225,0.00436897978045181,0.004645,-0.000450,0.004017,0.198257,0.016327,310.552071,26.576996,0.999848,0.995328,0.002924,0.451075,0.000078,0.000023,0.000030,0.000092,0.000009,23.894795,0.000112,
2146,2998,-2.50151917617015,7.67609962576921,0.0129198702961162,0.004764,-0.000172,0.002656,0.211601,0.043763,315.538825,24.513810,0.999589,0.992808,0.003519,0.471017,0.000004,0.000019,0.000004,0.000020,0.000003,75.910788,0.000024,
2386,2653,2.77561878142203,0.184612335152508,-0.0105022905827354,0.004704,-0.001303,0.011315,0.174946,0.035280,320.530809,24.170548,0.999110,0.985697,0.004684,0.491444,-0.000001,0.000021,-0.000004,0.000021,-0.000002,-80.486190,0.000024,
2311,2518,1.16817770265801,-2.7625200640474,-0.00786329869907831,0.004739,-0.000516,0.004035,0.203658,0.030162,322.772310,23.957755,0.999477,0.986141,0.004362,0.445743,-0.000003,-0.000004,0.000000,-0.000003,-0.000004,2.007209,0.000007,
2026,2773,-5.07230176526522,2.78523139688409,-0.0283120724688501,0.004787,-0.000579,0.003902,0.209798,0.029444,319.464450,24.387487,0.999335,0.990551,0.004141,0.395529,-0.000001,0.000001,-0.000002,0.000003,-0.000002,-56.815353,0.000003,
2416,2863,3.3886750975761,4.7610796865017,-0.0101707015605257,0.005020,-0.000326,0.005677,0.209871,0.046757,317.176436,24.899767,0.999404,0.988605,0.004115,0.426246,-0.000006,0.000036,-0.000015,0.000041,-0.000010,-72.539366,0.000042,
2131,2293,-2.71300901095904,-7.68142789140915,0.00529277849193477,0.004650,-0.001064,0.007715,0.190135,0.037681,326.938735,24.181621,0.998737,0.983548,0.005217,0.461238,0.000005,0.000003,0.000006,0.000010,-0.000002,41.856851,0.000011,
2176,2113,-1.70176516050424,-11.623626563045,0.0180799125539011,0.004831,-0.000987,0.005905,0.202905,0.030215,329.789304,23.838094,0.998985,0.978242,0.005768,0.434064,0.000020,0.000011,0.000013,0.000030,0.000001,35.817871,0.000035,
2026,2983,-5.10225767582649,7.34363028252432,0.00568874440142508,0.004916,0.000041,0.004181,0.215383,0.038820,316.343014,24.218054,0.999244,0.991312,0.003797,0.432204,-0.000006,-0.000010,0.000011,0.000003,-0.000019,40.119095,0.000020,
2011,3013,-5.43197018602681,7.992752895394,0.0122322492628086,0.004681,-0.000608,0.006044,0.199592,0.037294,315.990480,24.124688,0.999383,0.993007,0.003567,0.458145,0.000002,0.000026,0.000013,0.000032,-0.000003,66.840234,0.000035,
2116,2038,-2.99793104072465,-13.2662575044027,0.0170988461312049,0.005123,-0.000180,0.003974,0.223080,0.061741,331.231124,24.164654,0.999174,0.982957,0.005375,0.456502,-0.000010,-0.000001,0.000001,-0.000001,-0.000010,83.943083,0.000012,
2176,3103,-1.86773459032687,9.95591565181289,0.0230214304835386,0.004763,-0.000307,0.003177,0.209719,0.026037,313.796818,24.694144,0.999558,0.993368,0.003356,0.437497,-0.000002,0.000019,-0.000004,0.000020,-0.000003,-78.641761,0.000021,
2071,3163,-4.15332123584446,11.248011766661,0.0423575134387306,0.004719,-0.000406,0.007021,0.197670,0.023093,313.433220,24.345227,0.999726,0.994800,0.002991,0.360547,-0.000002,0.000043,-0.000030,0.000058,-0.000017,-63.446141,0.000059,
2476,3133,4.64273455134396,10.6316648372298,0.0271750566195692,0.004825,-0.000504,0.007833,0.192012,0.036875,313.163633,26.022574,0.999453,0.990002,0.003800,0.388719,0.000046,0.000052,-0.000003,0.000053,0.000044,-65.118621,0.000097,
2491,3298,4.93388746355883,14.2140757135656,0.00364612566875167,0.004995,-0.000148,0.002468,0.220495,0.033171,310.321193,26.654909,0.999726,0.992896,0.003446,0.447621,0.000084,0.000006,0.000020,0.000089,0.000001,13.219133,0.000103,
2206,2428,-1.10109626950883,-4.7331675919843,0.0155759757837473,0.005172,-0.001857,0.011086,0.201847,0.031848,324.602950,23.923502,0.999229,0.987291,0.004561,0.572794,0.000007,-0.000015,-0.000016,0.000015,-0.000024,-27.514470,0.000024,
2011,2758,-5.39588797899561,2.45825090359241,-0.0318007669327471,0.004692,-0.000425,0.004494,0.203986,0.030640,319.768793,24.344348,0.999436,0.991450,0.003786,0.442357,-0.000017,0.000006,-0.000008,0.000008,-0.000020,-73.390066,0.000020,
2131,3238,-2.86558664124781,12.8779650604529,0.0359662931274443,0.004772,-0.000311,0.005344,0.204205,0.025062,311.866514,24.590794,0.999626,0.993935,0.003047,0.405768,0.000014,0.000037,-0.000019,0.000048,0.000003,-60.552896,0.000057,
2056,3148,-4.4758369202085,10.9216955735283,0.0370156743479129,0.004875,0.000046,0.002057,0.219324,0.034555,313.739104,24.235677,0.999515,0.993478,0.003254,0.421260,0.000005,0.000037,-0.000021,0.000048,-0.000006,-64.014704,0.000052,
2221,2053,-0.71013464341733,-12.9393007993017,0.0192033472262096,0.004353,-0.000397,0.004375,0.185333,0.022280,330.620336,23.585275,0.998869,0.976332,0.005795,0.326559,-0.000004,0.000040,0.000010,0.000042,-0.000006,78.145283,0.000046,
2461,3073,4.32753950054215,9.32760938426458,0.0106347140210232,0.004958,-0.000364,0.006118,0.204890,0.034438,313.987965,25.670926,0.999593,0.991086,0.003856,0.462232,0.000029,0.000033,0.000010,0.000041,0.000021,50.826309,0.000063,
2146,2143,-2.36090379485756,-10.9657244671727,0.0192937813310436,0.004766,-0.000557,0.007019,0.197206,0.054962,329.416377,24.031912,0.999464,0.980744,0.005309,0.462439,-0.000004,0.000002,0.000017,0.000016,-0.000018,50.188011,0.000020,
2446,2953,4.02320352285069,6.7209563536232,-0.017936316937778,0.004800,-0.000028,0.001025,0.216894,0.039415,315.694413,25.236299,0.999681,0.992744,0.003642,0.437544,0.000021,0.000024,-0.000009,0.000032,0.000013,-49.243504,0.000047,
2341,2923,1.74575450519047,6.06195504991778,-0.0129168589565438,0.004991,-0.000182,0.001637,0.223960,0.041992,316.148235,24.948729,0.999017,0.988260,0.004299,0.405864,-0.000006,0.000019,-0.000007,0.000021,-0.000008,-75.066043,0.000021,
2056,2068,-4.31067558687005,-12.6066908230694,0.0209629559893187,0.005116,-0.000457,0.007576,0.213253,0.067536,331.067257,24.639893,0.998654,0.978223,0.005594,0.377094,0.000033,-0.000055,-0.000003,0.000033,-0.000055,-2.077271,0.000055,
2251,2473,-0.130026911027006,-3.74758943805283,0.00619161205310093,0.004550,-0.000737,0.008189,0.181949,0.045793,323.673584,23.974305,0.999645,0.990379,0.004062,0.485250,-0.000005,-0.000003,-0.000001,-0.000003,-0.000005,-69.810296,0.000008,
2506,1993,5.53328028767381,-14.2666770911005,0.0410672866341883,0.004935,-0.000495,0.004173,0.209089,0.031326,331.919798,21.509425,0.999156,0.972022,0.006356,0.297599,0.000108,-0.000210,0.000102,0.000137,-0.000240,16.299307,0.000241,
2371,2608,2.45802285403517,-0.796783644996026,-0.0123536143252636,0.004870,-0.000405,0.005211,0.204967,0.041807,321.267802,24.074296,0.999045,0.986586,0.004570,0.478094,0.000006,0.000014,0.000008,0.000019,0.000001,57.464623,0.000022,
2296,2563,0.832996747594937,-1.78048479524931,-0.00542792626850996,0.004699,-0.000939,0.009316,0.184076,0.044297,322.055806,24.126816,0.998989,0.986371,0.004918,0.412291,-0.000003,0.000018,-0.000006,0.000019,-0.000004,-74.898488,0.000020,
2071,2923,-4.11748460342924,6.04449623718324,-0.00257599007881026,0.004995,-0.000338,0.005313,0.215102,0.037848,316.986442,24.351490,0.999422,0.991231,0.003779,0.433966,-0.000002,0.000024,0.000003,0.000024,-0.000002,83.638718,0.000027,
2086,2788,-3.77148215831812,3.11230575909524,-0.0167922962860416,0.004940,-0.000521,0.005164,0.212588,0.033228,318.980123,24.345706,0.999374,0.990206,0.004020,0.477947,-0.000007,0.000017,-0.000001,0.000017,-0.000007,-87.492404,0.000017,
2011,3223,-5.4624054732164,12.5428632550708,0.0413230716750945,0.004755,-0.000373,0.005017,0.206063,0.032962,312.814959,24.012381,0.999374,0.992164,0.003607,0.383048,0.000006,0.000060,-0.000036,0.000078,-0.000012,-63.162874,0.000084,
2401,2728,3.08703367421312,1.82149722083203,-0.0252410633814293,0.004658,-0.000828,0.005026,0.195508,0.032865,319.219969,24.422951,0.999613,0.989781,0.004062,0.457538,-0.000004,0.000011,-0.000010,0.000016,-0.000009,-63.098195,0.000016,
2236,2308,-0.427891285884751,-7.35144130627683,-0.00451420463366503,0.004961,0.000111,0.002693,0.218951,0.073510,326.316568,23.804997,0.998870,0.984157,0.004929,0.466972,-0.000002,-0.000002,0.000016,0.000013,-0.000018,45.242281,0.000019,
2086,2983,-3.80154331067102,7.34667900433151,0.00820846369276751,0.004619,-0.000996,0.008063,0.189452,0.014801,315.995855,24.350364,0.999516,0.992289,0.003552,0.436928,0.000004,0.000012,0.000007,0.000016,0.000000,61.339016,0.000018,
2071,2098,-3.98862762453595,-11.9507353863093,0.0354640987697508,0.004057,-0.001124,0.010843,0.154906,0.057229,330.568535,24.602880,0.998678,0.976695,0.005722,0.309853,0.000014,-0.000007,0.000003,0.000015,-0.000007,9.128466,0.000015,
2026,2788,-5.07432386892505,3.11066592880003,-0.0229771864362078,0.004874,-0.000684,0.006419,0.206903,0.046465,319.262944,24.340619,0.999437,0.991478,0.003816,0.449626,-0.000001,0.000018,0.000003,0.000019,-0.000001,81.304020,0.000021,
2311,2533,1.16558350471451,-2.43531558332195,-0.00997128948984027,0.004962,-0.000575,0.002736,0.218326,0.027088,322.526339,23.958526,0.999475,0.987146,0.004299,0.475315,-0.000002,0.000001,-0.000003,0.000003,-0.000004,-56.965320,0.000004,
2386,2668,2.77278954572018,0.512278859183937,-0.0164537857734217,0.004858,-0.000750,0.006490,0.199549,0.028542,320.261510,24.230366,0.999289,0.987154,0.004479,0.468976,-0.000002,0.000016,-0.000008,0.000019,-0.000006,-68.344164,0.000020,
2176,2293,-1.7321691768443,-7.68099382226572,0.0138710661805135,0.004582,-0.000456,0.006141,0.191173,0.074482,326.844681,24.083335,0.998709,0.981389,0.005452,0.412171,0.000004,-0.000004,-0.000001,0.000004,-0.000004,-8.445058,0.000005,
2176,3178,-1.87927904233607,11.5802311906171,0.049076659571142,0.004646,-0.000605,0.008300,0.188416,0.030681,312.768171,24.720925,0.999756,0.994898,0.003107,0.470749,-0.000004,0.000034,-0.000006,0.000035,-0.000005,-81.556898,0.000038,
2026,2998,-5.10426262092157,7.66878727669516,0.0126332733153731,0.004883,-0.000248,0.005473,0.210225,0.027261,316.151849,24.237017,0.999248,0.991813,0.003712,0.391077,-0.000013,0.000003,0.000008,0.000006,-0.000016,68.441070,0.000016,
2356,2653,2.12266929309279,0.184771746328764,-0.016594634851856,0.004936,-0.000192,0.002986,0.216237,0.057259,320.507469,24.228864,0.999315,0.986082,0.004689,0.472716,0.000000,0.000020,-0.000008,0.000023,-0.000002,-71.623171,0.000025,
2071,3178,-4.1555101454804,11.5728539478786,0.0415674189253536,0.004892,-0.000144,0.005500,0.210240,0.052921,313.193979,24.288430,0.999808,0.996099,0.002746,0.442906,0.000000,0.000042,-0.000028,0.000056,-0.000013,-63.417335,0.000058,
2056,3163,-4.47812943275101,11.2466219448645,0.0396431411509184,0.005015,-0.000212,0.005494,0.216076,0.038839,313.512900,24.228716,0.999594,0.992254,0.003437,0.426133,-0.000001,0.000045,-0.000030,0.000060,-0.000016,-63.724292,0.000062,
2116,2218,-3.02744159404764,-9.32154148233933,0.0119239214458275,0.004462,-0.000455,0.006113,0.186639,0.054929,328.260832,24.308696,0.998490,0.979156,0.005564,0.383431,-0.000005,0.000033,0.000018,0.000040,-0.000012,68.557077,0.000041,
2266,2443,0.202340931580473,-4.40070037559619,9.22222883446011E-05,0.005068,-0.000767,0.004565,0.217336,0.019095,324.117348,24.016568,0.999548,0.989237,0.004254,0.327392,-0.000014,-0.000014,-0.000007,-0.000007,-0.000021,-44.933535,0.000029,
2056,2083,-4.31421726504498,-12.2775253564543,0.015160621315033,0.004445,-0.001340,0.011929,0.169999,0.041990,330.735728,24.637414,0.998757,0.979934,0.005435,0.352543,0.000023,-0.000030,-0.000006,0.000023,-0.000030,-6.202948,0.000032,
2116,2053,-3.00019327744019,-12.9372315920343,0.0200478237462676,0.005166,-0.000409,0.006097,0.218755,0.050160,331.010680,24.222594,0.998765,0.978726,0.005533,0.393716,-0.000010,0.000001,0.000005,0.000003,-0.000012,70.591435,0.000012,
2041,3118,-4.79694897739019,10.2707801444809,0.0270613636013763,0.004925,-0.000249,0.006197,0.210139,0.044544,314.224555,24.158798,0.999629,0.994478,0.003090,0.461073,-0.000006,0.000050,-0.000013,0.000053,-0.000009,-77.285047,0.000056,
2506,2008,5.52996373629563,-13.9369660479075,0.0360255958522089,0.004862,0.000197,0.000551,0.220039,0.046514,331.647003,21.499748,0.999271,0.974903,0.006140,0.387487,0.000086,-0.000184,0.000088,0.000112,-0.000211,16.541245,0.000211,
2011,3028,-5.43343546399567,8.31761098494767,0.0199740356108578,0.005014,-0.000941,0.005454,0.216479,0.026601,315.827875,24.126881,0.999387,0.992975,0.003654,0.432382,0.000013,0.000036,0.000020,0.000048,0.000001,59.522082,0.000056,
2326,2428,1.51120662200738,-4.72648416486181,-0.013209952360171,0.005014,-0.000441,0.008170,0.201814,0.073360,324.175025,23.738131,0.999551,0.989219,0.004309,0.466081,0.000006,-0.000006,0.000002,0.000007,-0.000006,10.330006,0.000008,
2071,2113,-3.99049376164396,-11.6212110474673,0.0286948411609842,0.004717,-0.000623,0.008123,0.193125,0.070848,330.309444,24.594143,0.998835,0.981072,0.005418,0.332183,0.000011,-0.000011,0.000004,0.000012,-0.000012,10.001771,0.000014,
2476,3148,4.63940166027357,10.9573726200914,0.0269296350832633,0.004421,-0.000351,0.006216,0.179707,0.040289,312.903097,26.075237,0.999461,0.989358,0.003863,0.394722,0.000045,0.000043,-0.000002,0.000047,0.000041,-31.748658,0.000088,
2236,2413,-0.448399107639535,-5.05298602762318,-0.0242683856176313,0.004509,-0.000569,0.007677,0.182028,0.066690,324.417903,24.086419,0.999650,0.990095,0.003936,0.339906,-0.000007,-0.000009,-0.000012,0.000004,-0.000020,-42.380460,0.000021,
2416,2878,3.38544178698226,5.08762437379193,-0.01242599211281,0.004930,-0.000313,0.005861,0.205134,0.060782,316.907805,24.931760,0.999441,0.990055,0.003891,0.455508,-0.000004,0.000037,-0.000011,0.000040,-0.000006,-75.820789,0.000043,
2146,3133,-2.52317884902271,10.6036903718917,0.0290259462348672,0.004792,-0.000313,0.004596,0.207126,0.039192,313.466036,24.570802,0.999528,0.993327,0.003496,0.471657,0.000000,0.000024,-0.000012,0.000029,-0.000006,-66.975010,0.000031,
2251,2608,-0.154980438822523,-0.800922167607467,-0.0136044733001768,0.004772,-0.000966,0.006810,0.196740,0.021553,321.335660,24.170679,0.999258,0.984976,0.004728,0.483977,0.000003,0.000008,0.000001,0.000008,0.000003,74.881236,0.000012,
2131,2083,-2.6785313577577,-12.2792651111635,0.0174336846918663,0.004806,-0.000716,0.008624,0.194401,0.044680,330.420167,24.168234,0.998697,0.978488,0.005697,0.364357,0.000001,0.000002,0.000013,0.000015,-0.000012,45.453837,0.000016,
2131,2308,-2.71486292826662,-7.35297964455518,0.00391323184339853,0.005121,-0.000732,0.004999,0.219978,0.030418,326.715148,24.226988,0.998974,0.983961,0.005125,0.416197,0.000006,-0.000004,-0.000004,0.000007,-0.000005,-21.245293,0.000007,
2176,3193,-1.88110890365372,11.9037735594633,0.0605513124912136,0.004454,-0.000331,0.006012,0.186794,0.033953,312.617846,24.648283,0.999815,0.996276,0.002885,0.557817,-0.000003,0.000033,-0.000005,0.000034,-0.000003,-81.440062,0.000037,
2011,3238,-5.4641415926605,12.8665277836316,0.0501799736907742,0.004718,-0.000305,0.003313,0.209010,0.034655,312.647212,23.943593,0.999469,0.992922,0.003521,0.440270,0.000011,0.000050,-0.000048,0.000082,-0.000021,-56.129413,0.000085,
2431,2893,3.7087477487416,5.41457510696782,-0.0108103923452632,0.004761,-0.000728,0.007443,0.191153,0.044000,316.683698,25.008193,0.999489,0.990573,0.003823,0.436541,0.000002,0.000033,-0.000014,0.000038,-0.000004,-69.506513,0.000042,
2086,2998,-3.80336874334325,7.67274038281522,0.00959990652705756,0.004873,-0.000629,0.004221,0.212386,0.017324,315.785680,24.402024,0.999602,0.992536,0.003413,0.386407,0.000001,0.000015,0.000007,0.000018,-0.000001,68.440203,0.000019,
2206,2668,-1.14481795001342,0.506791208936022,-0.0203232269023488,0.004482,-0.000118,0.002638,0.197825,0.051589,320.410850,24.358902,0.999604,0.991166,0.003823,0.440283,0.000015,0.000014,-0.000002,0.000016,0.000013,-37.959065,0.000029,
2506,2023,5.5263927817555,-13.6063389602996,0.0337676118937793,0.004955,-0.000037,0.004471,0.209126,0.063960,331.374781,21.609181,0.999248,0.970986,0.006461,0.360394,0.000081,-0.000170,0.000071,0.000100,-0.000189,14.809334,0.000189,
2146,2158,-2.36323549805758,-10.6348354957073,0.0132760492851389,0.005087,-0.000210,0.004228,0.220486,0.049094,329.147424,24.195197,0.999730,0.965282,0.006462,0.304352,-0.000001,-0.000004,0.000015,0.000012,-0.000018,42.254250,0.000018,
2146,3013,-2.503618559107,8.00227595632158,0.0113130913211421,0.005129,-0.000130,0.000368,0.235373,0.032844,315.304284,24.574333,0.999279,0.990150,0.004082,0.406722,0.000006,0.000020,0.000000,0.000020,0.000006,-88.522504,0.000027,
2206,2443,-1.10606883436064,-4.40137092151014,-0.0114519984197727,0.004357,-0.000797,0.006894,0.178084,0.049024,324.109859,24.058234,0.998730,0.983509,0.005185,0.474248,0.000002,-0.000010,-0.000017,0.000014,-0.000022,-35.066864,0.000022,
2461,3088,4.32407913543251,9.6540612089195,0.0102335410099386,0.004677,-0.000401,0.007601,0.186378,0.039949,313.719862,25.774251,0.999560,0.993309,0.003659,0.417789,0.000032,0.000034,0.000005,0.000038,0.000028,51.121579,0.000067,
2266,2293,0.22958206940741,-7.68081352532042,0.00360284218254492,0.005164,-0.000308,0.001835,0.230690,0.044179,326.584392,23.651508,0.999331,0.983859,0.005090,0.444242,-0.000021,0.000003,0.000001,0.000003,-0.000021,86.617876,0.000023,
2131,3253,-2.8682714565089,13.2028403544714,0.0331025686393218,0.004730,-0.000397,0.004487,0.204861,0.030729,311.597641,24.570527,0.999686,0.994647,0.002934,0.435887,0.000018,0.000035,-0.000014,0.000043,0.000011,-60.555182,0.000057,
2116,2233,-3.02930237853964,-8.99281961718079,0.0118141807755023,0.004934,-0.000159,0.005332,0.210711,0.062815,328.042321,24.349985,0.998654,0.980442,0.005480,0.355937,-0.000012,0.000035,0.000009,0.000037,-0.000014,79.323895,0.000037,
2356,2668,2.11981831236379,0.511549268616932,-0.0173708225179894,0.005050,-0.000191,0.003830,0.218498,0.049944,320.259529,24.250776,0.999463,0.988493,0.004327,0.483065,-0.000002,0.000017,-0.000011,0.000023,-0.000007,-64.756924,0.000023,
2296,2578,0.830342443275793,-1.45318536890974,-0.00864770555887162,0.004771,-0.000766,0.006024,0.198589,0.037397,321.800165,24.144798,0.999313,0.988707,0.004300,0.418564,0.000005,0.000024,-0.000003,0.000025,0.000004,-81.824114,0.000031,
2236,2323,-0.430804291457594,-7.02398601466384,-0.00333756817542508,0.004957,-0.000517,0.008133,0.201025,0.062375,326.066721,23.796751,0.998678,0.985966,0.004816,0.487210,-0.000003,-0.000002,0.000016,0.000013,-0.000018,46.466258,0.000019,
2476,3163,4.63657583745188,11.2832995258459,0.0239570413676233,0.004695,-0.000223,0.003903,0.201145,0.037213,312.653360,26.142063,0.999515,0.990092,0.003827,0.380292,0.000040,0.000047,0.000002,0.000048,0.000039,78.219951,0.000087,
2011,2773,-5.39794096220117,2.78467061631241,-0.029071321479023,0.004613,-0.000218,0.002521,0.205823,0.041336,319.549960,24.369628,0.999470,0.990882,0.003928,0.415818,-0.000011,-0.000003,-0.000006,0.000001,-0.000015,-62.029718,0.000017,
2026,2803,-5.07665935903694,3.4362223995959,-0.0222620343888025,0.004854,-0.000801,0.007721,0.202372,0.040288,319.021341,24.296248,0.999512,0.991997,0.003626,0.477937,0.000004,0.000014,0.000000,0.000014,0.000004,-89.021390,0.000019,
2371,2623,2.45467255342036,-0.469703736370519,-0.0150506174969109,0.004809,-0.000780,0.007925,0.192395,0.037072,320.989057,24.090860,0.999060,0.986848,0.004541,0.498690,0.000004,0.000017,-0.000001,0.000017,0.000004,-84.851528,0.000023,
2056,2098,-4.31605103479818,-11.950081272157,0.0203899315554281,0.004495,-0.001377,0.011453,0.173678,0.029987,330.542876,24.591208,0.998871,0.979798,0.005460,0.384536,0.000014,-0.000010,-0.000001,0.000014,-0.000010,-2.171163,0.000015,
2011,3043,-5.43586734004986,8.64293452332927,0.0195233239096524,0.004739,-0.000293,0.002721,0.211431,0.044404,315.574697,24.092854,0.999401,0.993307,0.003636,0.471477,0.000014,0.000034,0.000015,0.000042,0.000006,61.755147,0.000052,
2071,2938,-4.11953144137005,6.36998530823908,0.000142595827583136,0.005006,-0.000289,0.002935,0.222470,0.039261,316.772494,24.345232,0.999376,0.990349,0.003864,0.437847,0.000000,0.000023,0.000008,0.000026,-0.000003,72.729057,0.000028,
2011,3253,-5.46648953476015,13.1918853674565,0.046931408908506,0.004754,-0.000016,0.001011,0.217042,0.042697,312.382507,23.959407,0.999829,0.995578,0.002807,0.419092,0.000019,0.000040,-0.000046,0.000076,-0.000018,-51.470612,0.000080,
2041,3133,-4.79877363933256,10.5958916386737,0.0312246437470662,0.004967,-0.000142,0.002316,0.222930,0.036655,314.027288,24.183320,0.999342,0.992720,0.003491,0.420185,-0.000001,0.000051,-0.000014,0.000054,-0.000005,-75.797133,0.000060,
2071,2128,-3.99298737402957,-11.2918585552038,0.0202172180393063,0.005037,-0.000580,0.008265,0.207463,0.069551,330.012505,24.572610,0.998992,0.983632,0.005175,0.352616,0.000002,-0.000016,0.000007,0.000004,-0.000019,17.868219,0.000019,
2341,2938,1.74351176019022,6.3867732982138,-0.00297748031556466,0.005159,-0.000457,0.006211,0.215617,0.045720,315.978722,24.935022,0.998906,0.987396,0.004395,0.459271,-0.000003,0.000023,-0.000007,0.000025,-0.000005,-75.634042,0.000027,
2176,2353,-1.74329788086957,-6.36757926053844,-0.00774270250843756,0.004713,-0.000104,0.003282,0.206266,0.056308,325.711948,24.095509,0.998636,0.981040,0.005434,0.439356,-0.000002,-0.000024,-0.000013,0.000004,-0.000030,-24.714724,0.000033,
2221,2233,-0.740736750411426,-8.99483616853785,0.0132772135345363,0.004856,-0.000223,0.002297,0.215285,0.026977,327.704966,23.771906,0.999026,0.982161,0.005224,0.406629,-0.000004,0.000009,0.000007,0.000012,-0.000006,67.352048,0.000012,
2176,3208,-1.88472789362994,12.2313974851381,0.0407559199247771,0.004663,-0.000383,0.004643,0.200663,0.023048,312.219493,24.787144,0.999640,0.994539,0.003212,0.418918,0.000000,0.000032,-0.000005,0.000033,0.000000,-81.043052,0.000038,
2446,2968,4.02087185999565,7.04705490085814,-0.00953937719890519,0.004836,-0.000085,0.001702,0.216067,0.044197,315.518529,25.337392,0.999650,0.992056,0.003686,0.392807,0.000025,0.000025,-0.000005,0.000030,0.000019,-45.072743,0.000050,
2026,3013,-5.10665323181805,7.99503936378612,0.0102547665439943,0.004847,-0.000093,0.003748,0.213415,0.043734,315.890474,24.269456,0.999468,0.993099,0.003557,0.364499,-0.000009,0.000023,0.000010,0.000026,-0.000012,73.914593,0.000026,
2266,2458,0.198522436243412,-4.07142371806719,-0.0149061821990699,0.005087,-0.000793,0.005560,0.214919,0.033143,323.746501,24.044237,0.999669,0.990263,0.004138,0.341136,-0.000013,-0.000006,-0.000002,-0.000006,-0.000014,-72.983681,0.000020,
2131,2323,-2.71740127981852,-7.02498208151778,0.00592685662587655,0.004762,-0.000334,0.003482,0.208204,0.049166,326.478292,24.244322,0.999176,0.984828,0.004931,0.425252,0.000009,-0.000001,-0.000005,0.000011,-0.000003,-22.818281,0.000011,
2131,3268,-2.87135588210907,13.5283566522912,0.0248262848226091,0.004735,-0.000315,0.005038,0.203483,0.028060,311.281127,24.591980,0.999721,0.994994,0.002866,0.415796,0.000022,0.000037,-0.000008,0.000040,0.000019,-65.575951,0.000060,
2071,3193,-4.15813586565406,11.898137695468,0.0409443544044734,0.004730,-0.000172,0.005715,0.202091,0.042576,312.935471,24.317261,0.999600,0.994161,0.003115,0.398939,0.000003,0.000043,-0.000028,0.000057,-0.000011,-62.904414,0.000060,
2401,2743,3.08391469845946,2.14819119304016,-0.0277440288698472,0.004709,-0.000828,0.005666,0.195498,0.024408,318.954835,24.448861,0.999561,0.989613,0.004030,0.469098,-0.000003,0.000012,-0.000010,0.000017,-0.000008,-63.923280,0.000017,
2386,2683,2.76914961821172,0.841641452489675,-0.0286328353898284,0.004922,-0.000194,0.004499,0.209932,0.056360,319.924860,24.365642,0.999334,0.987276,0.004302,0.405409,-0.000003,0.000024,-0.000010,0.000028,-0.000006,-71.550250,0.000029,
2056,3178,-4.48023989735822,11.5710005164456,0.0463225184502676,0.004895,-0.000285,0.005755,0.209823,0.049149,313.317689,24.192807,0.999655,0.993943,0.003180,0.465733,-0.000002,0.000045,-0.000029,0.000059,-0.000016,-64.299365,0.000061,
2311,2548,1.16249541146489,-2.10766433881647,-0.010513981157203,0.005086,-0.000715,0.008253,0.205208,0.057023,322.265156,23.986377,0.999275,0.983919,0.004846,0.510640,-0.000002,0.000013,-0.000001,0.000013,-0.000002,-85.756326,0.000013,
2011,2788,-5.39939311552548,3.1102889267522,-0.0214864157490524,0.005031,-0.000067,0.003639,0.222162,0.072740,319.386151,24.342362,0.999456,0.990832,0.003925,0.462331,-0.000006,0.000017,-0.000001,0.000017,-0.000006,-87.907318,0.000018,
2116,2293,-3.03987735203756,-7.68055543792308,0.00543641057186051,0.004422,-0.000918,0.007464,0.180772,0.045088,326.994055,24.317796,0.998806,0.985360,0.004968,0.393516,0.000002,0.000008,0.000005,0.000011,-0.000001,59.833342,0.000012,
2146,3148,-2.52631343364,10.9294129612051,0.0265595066339301,0.004535,-0.000128,0.007502,0.186566,0.054455,313.179461,24.594255,0.999518,0.992237,0.003626,0.470197,0.000001,0.000026,-0.000012,0.000031,-0.000004,-67.690784,0.000033,
2086,2803,-3.7740631593917,3.43862727098912,-0.0138484970477748,0.004583,-0.000688,0.005532,0.195017,0.030063,318.743561,24.386602,0.999242,0.990280,0.003993,0.432649,-0.000003,0.000015,-0.000003,0.000016,-0.000004,-80.508154,0.000016,
2056,2113,-4.31801000555199,-11.6218688414493,0.0192152875322904,0.004731,-0.001281,0.009534,0.189932,0.029884,330.309011,24.538195,0.998898,0.981581,0.005447,0.434900,0.000012,-0.000015,0.000000,0.000012,-0.000015,0.326693,0.000016,
2026,2818,-5.07919502392897,3.76167402885466,-0.0172954512679553,0.004457,-0.000965,0.010295,0.176988,0.037741,318.794355,24.275298,0.999381,0.991590,0.003684,0.486408,0.000005,0.000016,-0.000009,0.000021,0.000000,-61.109894,0.000024,
2116,2248,-3.0322390436447,-8.66612293365962,0.0153449779244283,0.004524,-0.001229,0.011260,0.174071,0.028186,327.794711,24.291563,0.998800,0.982342,0.005283,0.385610,-0.000014,0.000031,0.000004,0.000032,-0.000014,85.043212,0.000032,
2296,2593,0.828814891676327,-1.12704123019665,-0.00116345935998652,0.005073,-0.000102,0.001391,0.228385,0.052301,321.649364,24.132828,0.999603,0.991728,0.003652,0.475975,0.000005,0.000016,-0.000007,0.000019,0.000001,-64.544817,0.000023,
2176,3118,-1.86989790975476,10.2807136856108,0.0297871592173351,0.004740,-0.000380,0.003664,0.207148,0.023885,313.605968,24.699896,0.999506,0.992929,0.003510,0.440753,-0.000005,0.000020,-0.000007,0.000022,-0.000006,-75.622036,0.000022,
2221,2068,-0.712375911238382,-12.6096245234654,0.019623840227041,0.004616,0.000096,0.003904,0.199040,0.060800,330.395971,23.631424,0.999031,0.976964,0.005702,0.340934,-0.000003,0.000017,0.000007,0.000019,-0.000005,73.028509,0.000020,
2476,3178,4.63375171585617,11.6084170944041,0.027458127330874,0.004791,-0.000277,0.005943,0.197855,0.050539,312.433354,26.160560,0.999640,0.991564,0.003626,0.430637,0.000038,0.000049,0.000001,0.000049,0.000038,85.425990,0.000087,
2506,2038,5.52322326214759,-13.279203218613,0.0443559950977601,0.004552,-0.001302,0.010875,0.165519,0.033315,331.178405,21.598486,0.999191,0.968828,0.006611,0.404621,0.000071,-0.000137,0.000056,0.000085,-0.000151,14.133342,0.000151,
2251,2488,-0.132775726054472,-3.41993591606233,-0.00258850706916292,0.004914,-0.000874,0.005918,0.206065,0.028405,323.381813,23.952627,0.999628,0.989196,0.004023,0.514349,-0.000004,-0.000002,-0.000002,-0.000001,-0.000005,-57.233277,0.000006,
2416,2893,3.38288595544066,5.41386357892708,-0.010727236995649,0.005118,-0.000392,0.005011,0.216867,0.053496,316.688905,24.990199,0.999452,0.990107,0.003936,0.437514,-0.000002,0.000032,-0.000010,0.000035,-0.000005,-74.408789,0.000038,
2236,2428,-0.449633149720885,-4.7285358458401,-0.00908545226388924,0.004914,-0.000888,0.009295,0.195287,0.054916,324.316568,23.971519,0.999475,0.989142,0.004160,0.465138,-0.000002,-0.000017,-0.000014,0.000006,-0.000026,-31.203201,0.000027,
2131,3283,-2.87429270981253,13.8534746662855,0.0180761882493812,0.004724,-0.000161,0.004573,0.204495,0.046816,310.979714,24.568525,0.999711,0.995084,0.002943,0.462311,0.000025,0.000045,0.000001,0.000045,0.000025,88.096302,0.000071,
2041,3148,-4.80089025685458,10.9202324304432,0.0388938627168045,0.004805,-0.000126,0.003377,0.212489,0.033881,313.836453,24.156448,0.999567,0.993648,0.003343,0.435389,-0.000002,0.000044,-0.000019,0.000051,-0.000009,-70.713320,0.000054,
2206,2458,-1.10742428903885,-4.07455240544481,-0.0037404936477401,0.004825,-0.000395,0.004000,0.208901,0.047072,323.962539,24.087197,0.999010,0.984132,0.005101,0.460991,0.000005,-0.000005,-0.000017,0.000017,-0.000017,-36.621481,0.000020,
2461,3103,4.32201330923023,9.97890946789607,0.0193148553580045,0.004717,-0.000339,0.005617,0.195713,0.033296,313.559922,25.805335,0.999499,0.991654,0.003804,0.433377,0.000034,0.000039,0.000007,0.000044,0.000029,55.118450,0.000073,
2131,2098,-2.68068423471243,-11.9496598037409,0.0146738132651762,0.005242,-0.000899,0.008809,0.213803,0.039678,330.175450,24.225899,0.999112,0.982576,0.005099,0.310619,0.000001,0.000012,0.000017,0.000024,-0.000011,53.532286,0.000024,
2086,3013,-3.80620312918813,7.99755362470445,0.00981088964874743,0.004487,-0.000505,0.005083,0.192172,0.023979,315.523232,24.330936,0.999692,0.993330,0.003172,0.462258,0.000003,0.000025,0.000002,0.000025,0.000003,86.047275,0.000031,
2281,2503,0.517024499503865,-3.08903014013752,-0.0117220639124866,0.004920,-0.000635,0.008479,0.197445,0.061137,323.005705,24.063022,0.999672,0.991287,0.003962,0.400032,-0.000006,0.000002,-0.000006,0.000006,-0.000009,-61.381774,0.000009,
2506,2053,5.51912634277373,-12.9482558297986,0.0390554333041564,0.004294,-0.001685,0.013763,0.142435,0.036671,330.868427,21.728129,0.999258,0.980491,0.005571,0.343305,0.000068,-0.000121,0.000045,0.000078,-0.000132,12.738191,0.000132,
2146,3028,-2.50602062406893,8.32735404933887,0.0137549854440522,0.005274,-0.000310,0.003407,0.232834,0.034294,315.077723,24.552719,0.999369,0.990462,0.003968,0.436849,0.000009,0.000019,-0.000001,0.000019,0.000009,-83.451914,0.000029,
2011,3058,-5.43754230321466,8.96751666211566,0.029749889202435,0.004728,-0.000230,0.002292,0.212053,0.031861,315.416644,24.094137,0.999320,0.992281,0.003578,0.444818,0.000012,0.000042,0.000002,0.000042,0.000012,86.545012,0.000057,
2371,2638,2.45187626675712,-0.141596921684283,-0.0181150305452888,0.004973,-0.000531,0.005996,0.206940,0.049250,320.733666,24.186630,0.999104,0.987302,0.004471,0.456679,0.000000,0.000017,-0.000007,0.000019,-0.000002,-69.349860,0.000021,
2431,2908,3.70548080128184,5.74053738271767,-0.0145231579002143,0.004699,-0.000629,0.006629,0.191312,0.037720,316.407972,25.005487,0.999620,0.990562,0.003756,0.482625,0.000000,0.000021,-0.000010,0.000025,-0.000004,-67.907461,0.000027,
2116,2308,-3.04160121474743,-7.35366025822474,0.0063774864989341,0.004938,-0.001085,0.006291,0.207889,0.016759,326.787957,24.265145,0.998958,0.984705,0.005065,0.423353,0.000003,-0.000001,-0.000007,0.000008,-0.000006,-37.655390,0.000008,
2401,2758,3.0813948112975,2.47485550553461,-0.0245701638293667,0.004773,-0.000337,0.004615,0.202437,0.034535,318.743901,24.503096,0.999470,0.987925,0.004263,0.470609,0.000000,0.000020,-0.000009,0.000024,-0.000003,-68.875101,0.000026,
2176,2308,-1.73461542088349,-7.3526731878847,0.00962673464732688,0.004575,0.000329,0.001118,0.206655,0.062398,326.582993,24.093609,0.998723,0.981723,0.005355,0.404162,0.000003,-0.000013,-0.000008,0.000006,-0.000016,-22.099042,0.000016,
2266,2308,0.226676362808487,-7.35337012563443,0.0140591846994766,0.004498,-0.000470,0.006442,0.184914,0.075657,326.383624,23.687171,0.999001,0.981211,0.005435,0.467522,-0.000017,0.000000,0.000010,0.000005,-0.000021,66.473656,0.000023,
2221,2083,-0.714796452901812,-12.2813115567801,0.0191359698947622,0.004754,-0.000423,0.003332,0.206999,0.048583,330.159206,23.599355,0.999136,0.978678,0.005571,0.382965,0.000002,0.000021,0.000005,0.000022,0.000001,76.873171,0.000026,
2056,3193,-4.48317178834847,11.8964876631012,0.0441096307297357,0.004585,-0.000295,0.007348,0.191074,0.056459,313.035199,24.212819,0.999542,0.993634,0.003254,0.446405,-0.000001,0.000048,-0.000029,0.000061,-0.000015,-64.908438,0.000064,
2071,3208,-4.15994430545349,12.222403622699,0.0424169686257869,0.004948,-0.000046,0.001017,0.225634,0.028861,312.726409,24.271624,0.999571,0.993295,0.003275,0.426717,0.000006,0.000042,-0.000028,0.000057,-0.000009,-61.702587,0.000062,
2131,2338,-2.71978654660214,-6.6972226844204,0.00596942062549033,0.004943,-0.000554,0.005857,0.209352,0.050813,326.238069,24.242316,0.999328,0.985988,0.004701,0.436619,0.000005,-0.000005,-0.000009,0.000010,-0.000010,-30.127340,0.000012,
2341,2953,1.74070934454275,6.71289758667697,-0.00131563441078697,0.004868,-0.000302,0.003778,0.210804,0.044847,315.742829,24.991134,0.999301,0.990328,0.003910,0.438419,0.000000,0.000018,-0.000008,0.000021,-0.000003,-69.706578,0.000023,
2026,2833,-5.08135108390494,4.08834922323702,-0.018714157246734,0.004481,-0.000646,0.007065,0.186989,0.021759,318.548752,24.335479,0.999704,0.993917,0.003407,0.400054,0.000002,0.000016,-0.000010,0.000021,-0.000003,-62.316422,0.000023,
2146,2173,-2.36336194851756,-10.3115790848082,0.0467211791315663,0.005312,-0.000506,0.006714,0.223237,0.054607,329.188871,24.075089,0.999849,0.944489,0.008049,0.439183,-0.000002,-0.000003,0.000016,0.000013,-0.000018,44.171370,0.000019,
2236,2338,-0.433031903997993,-6.6957199881552,0.000519350469005531,0.004852,-0.000168,0.005072,0.206231,0.061915,325.861652,23.883145,0.999090,0.985804,0.004775,0.423343,-0.000005,0.000003,0.000012,0.000012,-0.000014,54.265825,0.000015,
2176,3223,-1.88664873091743,12.5568073132023,0.0445480877540376,0.004973,-0.000222,0.003308,0.219218,0.036068,312.023904,24.839489,0.999710,0.994743,0.003106,0.390711,0.000002,0.000039,-0.000005,0.000039,0.000002,-81.723131,0.000046,
2071,2143,-3.99525174555068,-10.9635212412565,0.0211704433886553,0.004951,-0.000397,0.007666,0.205283,0.090237,329.777516,24.544379,0.998984,0.983392,0.005231,0.401334,-0.000001,0.000001,0.000002,0.000003,-0.000003,55.311659,0.000003,
2506,2068,5.51834651151646,-12.6200948571039,0.055569394668737,0.005070,-0.001188,0.011807,0.185669,0.067710,330.807410,21.823739,0.999341,0.983323,0.005224,0.342450,0.000060,-0.000098,0.000030,0.000066,-0.000104,10.409793,0.000105,
2026,3028,-5.10831664897151,8.31878657958369,0.0200040315977503,0.005059,-0.000485,0.006214,0.216326,0.035360,315.731223,24.181057,0.999388,0.991770,0.003864,0.433841,0.000000,0.000031,0.000014,0.000037,-0.000006,68.515446,0.000039,
2251,2623,-0.157217713808844,-0.474071196621971,-0.00822237584623053,0.004971,-0.000856,0.009149,0.198294,0.045523,321.138653,24.204687,0.999108,0.985982,0.004621,0.497782,0.000002,0.000013,-0.000003,0.000014,0.000002,-76.409421,0.000017,
2326,2443,1.50892442357853,-4.39990475941188,-0.00699930513047775,0.004922,-0.000456,0.006610,0.202966,0.060856,323.985630,23.739422,0.999436,0.987608,0.004502,0.487978,0.000010,-0.000013,0.000005,0.000011,-0.000014,12.195879,0.000015,
2071,2953,-4.12249980852264,6.69585579539064,-0.00253088704738502,0.004687,-0.000369,0.004606,0.202978,0.041144,316.486599,24.339850,0.999203,0.991030,0.003875,0.441216,0.000006,0.000018,0.000006,0.000021,0.000003,67.476267,0.000026,
2086,2818,-3.77614797970194,3.76521559426494,-0.017307237752334,0.004850,-0.000203,0.001533,0.219043,0.037131,318.494781,24.396971,0.999419,0.991934,0.003719,0.428337,0.000002,0.000022,-0.000007,0.000024,0.000000,-72.296496,0.000028,
2011,3268,-5.46875078497789,13.5158671446655,0.0502711531012778,0.004765,-0.000126,0.003391,0.211009,0.033788,312.159519,23.905816,0.999821,0.995636,0.002807,0.450498,0.000021,0.000017,-0.000033,0.000052,-0.000014,-43.360803,0.000054,
2176,2368,-1.74547593505367,-6.03997990318044,-0.00496143429182894,0.005041,-0.000426,0.006132,0.212396,0.044157,325.499253,24.131040,0.999092,0.986172,0.004724,0.405601,-0.000003,-0.000009,-0.000017,0.000011,-0.000023,-40.608202,0.000023,
2011,2803,-5.40219506961962,3.43587647674151,-0.0254666351103765,0.004821,-0.000398,0.005353,0.207723,0.046609,319.095754,24.284265,0.999428,0.991560,0.003791,0.482210,-0.000001,0.000011,-0.000004,0.000012,-0.000002,-72.076915,0.000013,
2131,3298,-2.87650623820797,14.1780564195841,0.020107298412313,0.004891,-0.000083,0.004538,0.212336,0.046182,310.758841,24.566634,0.999629,0.993633,0.003256,0.467898,0.000031,0.000062,-0.000001,0.000062,0.000031,-87.314381,0.000095,
2461,3118,4.31935787857271,10.304209800937,0.0189440046127061,0.005104,-0.000434,0.005534,0.213785,0.023287,313.329252,25.825431,0.999467,0.990092,0.003956,0.456698,0.000033,0.000052,0.000006,0.000054,0.000032,74.152898,0.000086,
2356,2683,2.11638012743952,0.839234441908928,-0.0199767913013034,0.004859,-0.000554,0.006404,0.200539,0.044605,319.975531,24.343774,0.999491,0.989331,0.004093,0.423903,-0.000004,0.000027,-0.000013,0.000031,-0.000009,-69.927449,0.000032,
2116,2263,-3.03509076470999,-8.33787929593706,0.00969384157798459,0.004412,-0.001466,0.011209,0.169015,0.018395,327.501419,24.260736,0.998752,0.983156,0.005267,0.412759,-0.000010,0.000022,0.000006,0.000023,-0.000011,79.816798,0.000023,
2206,2683,-1.14691049106719,0.83352387246741,-0.0228781716824074,0.005075,-0.000001,0.001631,0.228348,0.054487,320.176547,24.354364,0.999682,0.992654,0.003616,0.465072,0.000012,0.000023,-0.000005,0.000025,0.000010,-69.201066,0.000036,
2206,2473,-1.11060790882575,-3.74668654013547,-0.00932251231802184,0.004621,-0.000132,0.004430,0.198267,0.058428,323.662676,24.080356,0.999304,0.982468,0.005277,0.497348,0.000009,-0.000005,-0.000011,0.000016,-0.000011,-28.974748,0.000016,
2311,2563,1.15992727457149,-1.78068550991819,-0.00769813374841988,0.005047,-0.000902,0.007993,0.204235,0.035299,322.044594,24.038485,0.999172,0.985874,0.004675,0.469751,-0.000003,0.000014,-0.000004,0.000015,-0.000004,-77.465259,0.000016,
2041,3163,-4.80348793630452,11.2451856171109,0.0369965302708124,0.004799,-0.000342,0.005298,0.206784,0.025568,313.570123,24.136886,0.999635,0.993314,0.003376,0.437842,-0.000008,0.000051,-0.000030,0.000064,-0.000021,-67.285455,0.000065,
2416,2908,3.37990671735198,5.73994288881578,-0.0147033328775024,0.005247,-0.000265,0.003072,0.229973,0.048749,316.423912,24.994618,0.999571,0.990680,0.003817,0.475482,-0.000001,0.000021,-0.000009,0.000025,-0.000005,-71.014382,0.000026,
2431,2923,3.70266363039056,6.06715682560586,-0.00814715954192025,0.004540,-0.000818,0.009078,0.174906,0.034437,316.199602,25.136964,0.999644,0.991573,0.003730,0.397207,0.000006,0.000016,-0.000012,0.000023,-0.000002,-57.056014,0.000026,
2221,2248,-0.74417393232974,-8.66687585804683,0.0085989374964015,0.004563,-0.000637,0.005775,0.190620,0.039055,327.399956,23.699864,0.998889,0.981763,0.005312,0.512211,-0.000001,0.000003,0.000009,0.000011,-0.000008,52.107123,0.000011,
2026,2848,-5.08441242036994,4.41338797391616,-0.0384194625904115,0.004399,0.000027,-0.001008,0.205622,0.018733,318.160093,24.100618,0.999685,0.995090,0.003247,0.622527,-0.000001,0.000028,-0.000001,0.000028,-0.000001,-87.487434,0.000032,
2056,2128,-4.32054922897484,-11.2916147305932,0.0127566772659975,0.004886,-0.001248,0.010205,0.195197,0.033759,330.019286,24.615814,0.998826,0.981264,0.005556,0.359311,0.000001,-0.000020,0.000004,0.000002,-0.000020,10.779802,0.000022,
2221,2098,-0.716918107336564,-11.952881219445,0.0237968056174509,0.004954,-0.000364,0.004546,0.212344,0.065581,329.962207,23.610642,0.999108,0.978314,0.005643,0.410578,0.000002,0.000027,0.000005,0.000028,0.000001,78.989053,0.000033,
2116,2323,-3.04417509508407,-7.02433251957112,0.000425044742712544,0.004907,-0.000388,0.002737,0.217208,0.042050,326.505341,24.318091,0.999181,0.986116,0.004750,0.401439,0.000005,0.000002,-0.000008,0.000012,-0.000005,-40.322907,0.000012,
2296,2608,0.825042850457184,-0.798433575184433,-0.0117562144552608,0.004972,-0.000238,0.003374,0.217018,0.062361,321.305501,24.200275,0.999461,0.989602,0.003990,0.449382,0.000003,0.000009,-0.000003,0.000010,0.000002,-67.864272,0.000013,
2086,3028,-3.80807031309871,8.32314110906795,0.0116693763783928,0.004903,-0.000297,0.004896,0.211990,0.034767,315.313869,24.341767,0.999517,0.992312,0.003471,0.460480,0.000007,0.000026,0.000000,0.000026,0.000007,89.129910,0.000035,
2506,2083,5.51468734472961,-12.2916353868064,0.0435719790113467,0.005025,-0.000711,0.005744,0.207165,0.057859,330.487758,21.676445,0.999447,0.984499,0.004881,0.544527,0.000053,-0.000082,0.000029,0.000059,-0.000088,11.523318,0.000090,
2011,3283,-5.47149184354717,13.8407581189926,0.0469811767844703,0.004648,-0.000238,0.005034,0.201183,0.038546,311.876786,23.889572,0.999788,0.995890,0.002792,0.457954,0.000019,0.000029,-0.000025,0.000049,-0.000002,-50.583313,0.000056,
2176,3133,-1.87170756042202,10.6063794793449,0.0339762520767977,0.005081,-0.000126,0.001684,0.229243,0.049495,313.417507,24.744984,0.999410,0.992605,0.003697,0.432361,-0.000005,0.000023,-0.000007,0.000024,-0.000006,-77.082079,0.000025,
2011,3073,-5.4399755415135,9.2928007550895,0.0281695619899551,0.004885,-0.000439,0.005630,0.210218,0.042289,315.157132,24.063967,0.999330,0.992952,0.003569,0.472627,0.000010,0.000051,0.000007,0.000052,0.000009,79.939859,0.000066,
2176,2323,-1.73738183625396,-7.02488278807584,0.00331885592561321,0.004904,-0.000253,0.003663,0.213719,0.049049,326.295975,24.042002,0.998714,0.982327,0.005231,0.456775,0.000005,-0.000012,-0.000007,0.000007,-0.000015,-19.312378,0.000015,
2266,2473,0.196177307893183,-3.74612227359408,-0.00417917144176272,0.004702,-0.000683,0.006619,0.193818,0.048124,323.572971,23.950946,0.999722,0.991176,0.004010,0.476164,-0.000009,-0.000003,0.000003,-0.000002,-0.000010,66.379171,0.000013,
2011,2818,-5.40489158879075,3.76088423936099,-0.0215170924113295,0.004503,-0.001036,0.011348,0.176567,0.025230,318.854927,24.233484,0.999203,0.990545,0.003880,0.499498,0.000003,0.000007,-0.000014,0.000019,-0.000009,-50.004932,0.000019,
2251,2728,-0.176757924536656,1.8146621035757,-0.0208893461722255,0.004648,-0.000485,0.004989,0.197381,0.048606,319.326462,24.382759,0.999310,0.990058,0.003918,0.489487,0.000002,0.000006,-0.000016,0.000021,-0.000012,-48.604734,0.000021,
2446,2983,4.01753319695963,7.37264028476667,-0.0079046856855598,0.004750,-0.000625,0.006463,0.194112,0.034864,315.265144,25.362132,0.999633,0.990651,0.003878,0.409918,0.000027,0.000025,-0.000004,0.000030,0.000022,-35.443387,0.000053,
2026,2863,-5.08530446391545,4.74082515422812,-0.0222250534678778,0.005125,-0.000119,0.003863,0.225777,0.050799,318.070437,24.323457,0.999313,0.991801,0.003943,0.421223,0.000003,0.000029,0.000007,0.000031,0.000002,75.827730,0.000037,
2386,2698,2.76669060783896,1.16702342309461,-0.0205774085195003,0.004804,-0.000571,0.005577,0.200506,0.041245,319.739437,24.349897,0.999405,0.989392,0.004017,0.449648,-0.000002,0.000027,-0.000009,0.000030,-0.000005,-73.956815,0.000032,
2071,3223,-4.16224796010455,12.5471095388751,0.0468278469029997,0.005001,-0.000248,0.004479,0.218141,0.037033,312.510604,24.265162,0.999556,0.992976,0.003341,0.436730,0.000007,0.000043,-0.000030,0.000059,-0.000010,-60.533679,0.000064,
2146,3043,-2.50909876166919,8.65285535206293,0.0143796798582798,0.004832,-0.000556,0.005908,0.204815,0.036696,314.810315,24.560976,0.999463,0.992268,0.003483,0.437960,0.000009,0.000015,-0.000006,0.000019,0.000006,-59.168470,0.000026,
2041,3178,-4.80570703452732,11.5699506768128,0.0373444367348839,0.004846,-0.000058,0.004083,0.212433,0.032007,313.333738,24.102700,0.999675,0.993785,0.003284,0.469753,-0.000009,0.000052,-0.000031,0.000065,-0.000022,-67.324501,0.000066,
2011,3298,-5.47410224422791,14.165690376072,0.0425166254626106,0.004582,-0.000146,0.004106,0.200633,0.029554,311.593429,23.888608,0.999363,0.992663,0.003579,0.436212,0.000009,0.000052,-0.000021,0.000060,0.000000,-67.706634,0.000070,
2056,3208,-4.48523353969755,12.221118091026,0.0448296064141118,0.004630,-0.000147,0.003477,0.204072,0.041471,312.809226,24.197120,0.999563,0.993328,0.003256,0.440331,0.000000,0.000048,-0.000030,0.000062,-0.000015,-64.089941,0.000065,
2146,1993,-2.33583179070905,-14.2555444126092,0.0325299704546751,0.004673,-0.000507,0.005195,0.198243,0.039552,331.934829,24.018071,0.999306,0.981710,0.005085,0.348215,0.000013,-0.000029,-0.000032,0.000030,-0.000046,-28.438509,0.000047,
2026,3043,-5.1104485525593,8.64356068799059,0.0194142769695418,0.005070,-0.000213,0.002737,0.226546,0.049001,315.492313,24.100054,0.999420,0.992078,0.003786,0.518119,-0.000001,0.000029,0.000009,0.000031,-0.000003,75.308233,0.000034,
2251,2638,-0.159787786022367,-0.145897840277833,-0.0144619586585009,0.005526,-0.000867,0.009391,0.223068,0.059702,320.867296,24.275459,0.998648,0.986058,0.004640,0.465272,0.000001,0.000014,-0.000006,0.000016,-0.000002,-68.306609,0.000018,
2236,2443,-0.451818978422743,-4.40041796327699,-0.00105302482779734,0.004833,-0.000898,0.010022,0.189228,0.037920,324.134545,24.133534,0.999584,0.991470,0.003996,0.308573,-0.000007,-0.000012,-0.000013,0.000004,-0.000022,-39.376209,0.000024,
2071,2158,-3.99777985364722,-10.635667258384,0.0172585814377157,0.004828,-0.000589,0.005840,0.204788,0.056390,329.504339,24.479768,0.999068,0.983548,0.005181,0.431871,-0.000003,-0.000004,0.000000,-0.000003,-0.000004,-13.618073,0.000007,
2356,2698,2.11366539196787,1.16481427233646,-0.0166443098272566,0.004723,-0.000632,0.006400,0.194293,0.042797,319.753785,24.293330,0.999457,0.990567,0.003923,0.511748,-0.000004,0.000028,-0.000011,0.000031,-0.000007,-72.883255,0.000033,
2086,2833,-3.77867182731421,4.0909617418676,-0.0110789927553583,0.004559,-0.000477,0.005312,0.194665,0.037595,318.278913,24.414583,0.999745,0.994664,0.003099,0.410029,0.000001,0.000015,-0.000006,0.000018,-0.000001,-69.426474,0.000020,
2371,2653,2.44855755950009,0.185905717595062,-0.0217402926937211,0.004922,-0.000462,0.007491,0.199333,0.060084,320.451666,24.228775,0.999229,0.986711,0.004583,0.467204,-0.000001,0.000021,-0.000009,0.000024,-0.000004,-71.368073,0.000026,
2011,2833,-5.40607791834649,4.08749220103113,-0.0110822871393452,0.004651,-0.000588,0.006082,0.197814,0.029980,318.719135,24.356019,0.999702,0.994181,0.003412,0.369388,0.000001,0.000010,-0.000011,0.000017,-0.000006,-57.191071,0.000017,
2146,3163,-2.52787640168912,11.2540526266633,0.0360010705556419,0.004723,-0.000271,0.005261,0.201959,0.036080,313.028856,24.626979,0.999573,0.991036,0.003744,0.425547,0.000001,0.000035,-0.000015,0.000041,-0.000005,-69.144608,0.000045,
2131,2353,-2.7224754041821,-6.36877581058324,0.00230844786938178,0.004895,-0.000404,0.005630,0.207930,0.055017,325.964089,24.269515,0.999271,0.985338,0.004737,0.421243,0.000003,-0.000016,-0.000015,0.000012,-0.000024,-28.553333,0.000025,
2176,3238,-1.88978714970029,12.8815601795556,0.042492322255157,0.004714,-0.000222,0.005705,0.199833,0.042413,311.741865,24.808274,0.999721,0.994375,0.003145,0.438921,0.000005,0.000036,-0.000003,0.000036,0.000005,-83.812182,0.000045,
2176,3268,-1.89656890315085,13.5324143992846,0.0173353529521592,0.004734,-0.000538,0.004769,0.203561,0.016341,311.043354,24.804882,0.999642,0.993605,0.003291,0.437998,0.000014,0.000042,0.000008,0.000044,0.000012,75.200915,0.000059,
2026,1993,-4.95289496089794,-14.2525132197956,0.0365993851852977,0.004755,-0.000277,0.005854,0.201943,0.057826,332.560345,24.869668,0.998793,0.981694,0.005468,0.355723,0.000058,-0.000174,-0.000025,0.000060,-0.000177,-5.995856,0.000180,
2281,2518,0.514605302893358,-2.76367998297836,-0.00715515828818525,0.004887,-0.000931,0.008857,0.194537,0.039359,322.798965,23.967591,0.999753,0.991641,0.003857,0.502423,-0.000002,-0.000001,-0.000006,0.000005,-0.000008,-47.951167,0.000008,
2431,2938,3.6998890352802,6.39284450853584,-0.00477446906558043,0.004515,-0.000754,0.009722,0.171420,0.043376,315.979394,25.152563,0.999664,0.991193,0.003805,0.439718,0.000011,0.000021,-0.000013,0.000030,0.000002,-55.863092,0.000036,
2206,2698,-1.15068405079096,1.16006051884118,-0.0309867214061796,0.004703,-0.000389,0.005393,0.199195,0.046922,319.836523,24.302089,0.999479,0.991584,0.003712,0.526871,0.000008,0.000020,-0.000005,0.000022,0.000007,-70.397314,0.000029,
2071,3238,-4.1645924511787,12.8720696232638,0.0462572814027453,0.005000,-0.000137,0.002740,0.223178,0.041386,312.265458,24.260900,0.999562,0.992908,0.003347,0.440863,0.000008,0.000037,-0.000032,0.000057,-0.000012,-57.419370,0.000061,
2176,2338,-1.74075082611701,-6.69588027483134,-0.00151066005327039,0.004640,-0.000783,0.007683,0.189030,0.042779,325.988800,24.114736,0.999062,0.985040,0.004870,0.392252,0.000003,-0.000013,-0.000007,0.000006,-0.000016,-21.165873,0.000016,
2116,2338,-3.04671810581751,-6.6965815023384,-0.00555050301613846,0.005232,-0.000485,0.004265,0.227595,0.040631,326.224448,24.259303,0.999307,0.985875,0.004712,0.464460,0.000001,-0.000002,-0.000012,0.000011,-0.000013,-41.557932,0.000014,
2476,3193,4.63071540484085,11.9336904199026,0.027398207506792,0.004768,-0.000179,0.005535,0.198401,0.055736,312.187219,26.184040,0.999505,0.991292,0.003659,0.467782,0.000036,0.000046,0.000001,0.000046,0.000036,84.335665,0.000082,
2401,2773,3.07905240056146,2.80077202755329,-0.0160066476768179,0.004689,-0.000358,0.004860,0.197742,0.041674,318.566663,24.537802,0.999483,0.988018,0.004240,0.488242,0.000000,0.000015,-0.000012,0.000021,-0.000006,-60.955174,0.000022,
2461,3133,4.31636416372247,10.6302565342276,0.0215888251327101,0.004969,-0.000412,0.006196,0.205097,0.024349,313.096513,25.925911,0.999473,0.989156,0.003980,0.410537,0.000043,0.000049,-0.000001,0.000049,0.000043,-77.861986,0.000092,
2086,3043,-3.80965277146846,8.64761271112984,0.0240750047265692,0.004985,-0.000385,0.005445,0.214195,0.034619,315.175527,24.333821,0.999601,0.991918,0.003543,0.466425,0.000008,0.000024,-0.000005,0.000026,0.000007,-74.033832,0.000034,
2146,2008,-2.3375518594018,-13.9284117065596,0.0421589435561032,0.004882,-0.000729,0.007730,0.200132,0.039058,331.777002,23.951959,0.999037,0.982456,0.005171,0.424925,0.000013,0.000002,-0.000002,0.000013,0.000002,-10.314783,0.000017,
2221,2113,-0.719844960528825,-11.6246322849812,0.0241662958218853,0.004622,-0.000535,0.005360,0.194494,0.043951,329.706693,23.602129,0.999076,0.979969,0.005420,0.419689,0.000003,0.000017,0.000004,0.000018,0.000002,76.362805,0.000022,
2341,2968,1.73778948048518,7.03955869747662,-0.00225400065994563,0.004910,-0.000396,0.004614,0.209806,0.037775,315.488690,25.088836,0.999903,0.997633,0.002572,0.369468,-0.000001,0.000019,-0.000007,0.000021,-0.000003,-72.118311,0.000022,
2116,2278,-3.03617630543998,-8.00900744679081,0.0107189467290141,0.005282,-0.000511,0.005659,0.225661,0.047850,327.324293,24.321303,0.998698,0.983444,0.005226,0.386910,-0.000008,0.000006,0.000000,0.000006,-0.000008,88.621837,0.000008,
2026,3238,-5.13897791174454,12.8674900074676,0.0591672815956485,0.004626,-0.000202,0.004922,0.200256,0.045468,312.616486,24.031809,0.999600,0.994523,0.003064,0.440535,0.000005,0.000054,-0.000048,0.000083,-0.000025,-58.569580,0.000085,
2251,2743,-0.178948161681983,2.14112257549982,-0.0169409745182065,0.004930,-0.000625,0.006274,0.206069,0.045362,319.124310,24.430868,0.999219,0.988222,0.004237,0.461441,0.000000,0.000005,-0.000018,0.000021,-0.000015,-48.582261,0.000021,
2131,2113,-2.68314432699617,-11.6220226344609,0.0186620156710546,0.004904,-0.001136,0.008764,0.198376,0.034587,329.952867,24.183536,0.999142,0.982358,0.005194,0.356317,0.000001,0.000004,0.000016,0.000019,-0.000014,48.215628,0.000020,
2056,2143,-4.32234402433939,-10.9635663162873,0.0119165324445589,0.004994,-0.000223,0.003898,0.218198,0.056686,329.794688,24.539893,0.998887,0.982876,0.005423,0.455676,-0.000004,0.000002,-0.000001,0.000002,-0.000004,-78.917834,0.000004,
2416,2923,3.37711386212641,6.0661770232596,-0.00753115957064665,0.005071,-0.000601,0.006086,0.210689,0.030735,316.219626,25.110854,0.999657,0.991678,0.003685,0.388428,0.000004,0.000016,-0.000011,0.000022,-0.000002,-59.209792,0.000025,
2056,3223,-4.48734575201409,12.5459953990706,0.044237116289537,0.004908,0.000023,0.002868,0.218705,0.046609,312.573590,24.180294,0.999551,0.993265,0.003220,0.455824,0.000000,0.000046,-0.000033,0.000063,-0.000017,-62.228598,0.000065,
2146,2188,-2.36653664783924,-9.98293112327075,0.0400448820622614,0.005039,-0.000611,0.007220,0.209178,0.059492,328.878260,24.026028,0.999315,0.953971,0.007150,0.504022,-0.000001,0.000008,0.000021,0.000025,-0.000018,51.230188,0.000026,
2326,2458,1.50575225553651,-4.07205696559129,-0.00993045773356016,0.004831,-0.000769,0.007602,0.195272,0.050285,323.710556,23.774176,0.999465,0.987356,0.004443,0.478439,0.000007,-0.000005,0.000007,0.000010,-0.000008,25.317949,0.000011,
2236,2353,-0.435813865496176,-6.36897759742028,0.00754674481282791,0.004547,-0.001105,0.010219,0.175268,0.034042,325.647679,23.893201,0.998873,0.984592,0.004974,0.408334,-0.000010,-0.000012,0.000006,-0.000004,-0.000017,40.166188,0.000022,
2176,3283,-1.89949466633701,13.85782133843,0.0134196248537251,0.004527,-0.000278,0.002855,0.200082,0.025653,310.760977,24.834359,0.999707,0.994509,0.003087,0.428580,0.000019,0.000047,0.000015,0.000054,0.000012,66.978603,0.000070,
2221,2263,-0.746778717931679,-8.33703208920566,0.00539549748157242,0.004742,-0.000686,0.005361,0.200181,0.039052,327.140271,23.832608,0.998859,0.981909,0.005347,0.400753,-0.000001,0.000006,0.000007,0.000011,-0.000006,58.513025,0.000011,
2011,2848,-5.40866525327045,4.41235177452249,-0.0138345910905855,0.004477,-0.000561,0.005937,0.190247,0.035178,318.445714,24.222231,0.999716,0.994952,0.003309,0.496381,0.000000,0.000029,-0.000001,0.000029,0.000000,-88.949609,0.000033,
2446,2998,4.01568441275947,7.69773266298369,0.00425270782682219,0.005033,-0.000605,0.008058,0.201174,0.040576,315.129012,25.401452,0.999353,0.987673,0.004214,0.427699,0.000030,0.000022,-0.000004,0.000032,0.000020,-22.396588,0.000053,
2506,2098,5.51019615289134,-11.9581058726663,0.0334702400748483,0.004798,-0.000770,0.008614,0.185770,0.046229,330.137986,22.021862,0.999562,0.985093,0.004920,0.252218,0.000047,-0.000053,0.000020,0.000051,-0.000057,10.997222,0.000062,
2026,3058,-5.11268774938546,8.96913332642662,0.0222517989815856,0.004973,-0.000340,0.002595,0.222364,0.025067,315.267421,24.156243,0.999293,0.990205,0.003925,0.427359,-0.000003,0.000035,-0.000005,0.000035,-0.000004,-83.344802,0.000039,
2236,2458,-0.45459663022362,-4.07383043265477,0.000668894377383822,0.004429,-0.000914,0.008382,0.176025,0.049362,323.893512,24.072389,0.999463,0.989221,0.004319,0.403654,-0.000003,-0.000007,-0.000010,0.000005,-0.000016,-39.630119,0.000016,
2071,2968,-4.12483180190486,7.02124760765661,-0.00273960404632589,0.004896,-0.000710,0.006990,0.205729,0.030436,316.243595,24.324494,0.999024,0.990132,0.004047,0.442418,0.000006,0.000015,0.000003,0.000017,0.000005,71.566098,0.000023,
2296,2623,0.821856927626989,-0.471864465874972,-0.0150982132564081,0.004841,-0.000491,0.004403,0.207409,0.035906,321.024943,24.185090,0.999421,0.988444,0.004088,0.468818,0.000001,0.000017,-0.000009,0.000021,-0.000003,-66.158816,0.000022,
2176,2593,-1.7838486001002,-1.12939501106531,-0.0165108076894285,0.004959,-0.000673,0.004027,0.215345,0.017097,321.768092,24.281318,0.999119,0.987643,0.004360,0.431279,0.000008,0.000014,-0.000004,0.000017,0.000006,-62.234552,0.000023,
2266,2323,0.224449442615878,-7.02455199296815,0.0164595248249952,0.005112,-0.000758,0.011165,0.197399,0.064278,326.173508,23.814906,0.998739,0.978296,0.005859,0.355822,-0.000014,-0.000001,0.000012,0.000006,-0.000021,59.003561,0.000022,
2146,2023,-2.34070364729562,-13.5973918229607,0.0341805609995731,0.004896,-0.001035,0.010948,0.190977,0.061797,331.460253,24.022239,0.998655,0.981132,0.005358,0.389415,0.000008,0.000013,0.000005,0.000016,0.000005,57.599882,0.000021,
2206,2713,-1.15310715164706,1.4858555992618,-0.0225683037210729,0.004406,-0.000791,0.007246,0.179511,0.032951,319.643968,24.327553,0.998917,0.985904,0.004638,0.504243,0.000009,0.000013,-0.000003,0.000015,0.000007,-59.076097,0.000023,
2146,3178,-2.53011905431218,11.5787063897493,0.0417494526654423,0.004776,-0.000348,0.007534,0.197475,0.041031,312.827368,24.618462,0.999498,0.990369,0.003745,0.445828,0.000004,0.000035,-0.000015,0.000041,-0.000002,-67.524984,0.000046,
2131,2368,-2.72489980072954,-6.04111208207095,-0.00136547078005833,0.004955,-0.000215,0.003030,0.218534,0.058437,325.702296,24.231302,0.999172,0.985739,0.004653,0.470363,0.000003,-0.000001,-0.000018,0.000019,-0.000017,-42.472136,0.000021,
2221,2128,-0.722369577378632,-11.2957110302955,0.026108169676661,0.004481,-0.000277,0.004662,0.190374,0.054342,329.477316,23.645224,0.998904,0.979263,0.005458,0.408844,0.000003,0.000012,0.000005,0.000014,0.000000,65.950040,0.000016,
2026,2008,-4.9561783884567,-13.9217020654209,0.0220506871443718,0.004652,-0.000567,0.008000,0.191251,0.079014,332.188523,24.839922,0.998439,0.982786,0.005551,0.401420,0.000074,-0.000064,0.000021,0.000077,-0.000067,8.601679,0.000084,
2371,2668,2.44592057297467,0.512697659754771,-0.0224327019400334,0.004958,-0.000359,0.004304,0.212338,0.044003,320.215165,24.261980,0.999386,0.987765,0.004489,0.459610,-0.000003,0.000017,-0.000013,0.000023,-0.000009,-64.464393,0.000024,
2146,3058,-2.51149565423346,8.97786239125332,0.0195886861295094,0.004559,-0.000438,0.005263,0.194192,0.028849,314.598735,24.567581,0.999559,0.993780,0.003380,0.430295,0.000011,0.000016,-0.000010,0.000024,0.000004,-53.133681,0.000030,
2266,2488,0.19293660385981,-3.41860466745472,-0.0149781535445186,0.004820,-0.000888,0.005296,0.203539,0.026456,323.250063,23.903665,0.999656,0.990482,0.004051,0.528839,-0.000006,0.000000,0.000000,0.000000,-0.000007,-87.417687,0.000007,
2011,3088,-5.44201942464416,9.6178214021195,0.0341336730950275,0.004776,-0.000435,0.005421,0.205714,0.027423,314.958087,24.086799,0.999575,0.994558,0.003153,0.421651,0.000004,0.000047,0.000002,0.000047,0.000004,87.200817,0.000057,
2086,2143,-3.66887781936794,-10.9645999635093,0.0133187264888193,0.004825,-0.000530,0.005372,0.205780,0.049857,329.637362,24.336672,0.998991,0.983512,0.005145,0.485807,-0.000002,0.000000,0.000014,0.000013,-0.000015,46.625368,0.000017,
2251,2653,-0.162885686079118,0.180677882413562,-0.0148567521543441,0.004861,-0.000824,0.005891,0.203943,0.034914,320.601739,24.293187,0.999191,0.988851,0.004278,0.446768,0.000004,0.000020,-0.000004,0.000021,0.000003,-78.385294,0.000026,
2071,3253,-4.1674702215528,13.1976230356145,0.0413323290530911,0.004886,-0.000025,0.003342,0.216234,0.042483,311.971658,24.294123,0.999706,0.994537,0.003067,0.403959,0.000013,0.000034,-0.000028,0.000054,-0.000007,-55.465013,0.000059,
2086,2848,-3.78067477181067,4.41566055846978,-0.00435790825900995,0.004606,-0.000454,0.006724,0.192821,0.055229,318.089927,24.325992,0.999640,0.993200,0.003415,0.515012,0.000000,0.000019,0.000001,0.000020,0.000000,88.335111,0.000023,
2311,2578,1.15589690536843,-1.45137959517424,-0.0203089274914419,0.004620,-0.000599,0.006565,0.189623,0.036728,321.680481,24.150706,0.999547,0.990546,0.003885,0.392316,0.000004,0.000022,-0.000001,0.000022,0.000004,-87.299643,0.000027,
2251,2758,-0.182743917206292,2.4691488346288,-0.0294121883733283,0.004725,-0.000438,0.006712,0.195294,0.048022,318.764887,24.491416,0.999196,0.988222,0.004293,0.427409,-0.000001,0.000016,-0.000016,0.000025,-0.000010,-59.463254,0.000025,
2026,3073,-5.11507259206012,9.29380308476915,0.0253427088505873,0.004854,-0.000571,0.004762,0.210863,0.020480,315.037611,24.115395,0.999296,0.991344,0.003802,0.452891,-0.000002,0.000043,0.000002,0.000043,-0.000002,88.073479,0.000048,
2116,2353,-3.04981019511369,-6.3673039605221,-0.0106228419332979,0.004902,-0.000344,0.004887,0.210670,0.055180,325.922872,24.338915,0.999370,0.983728,0.004902,0.404974,0.000000,-0.000012,-0.000019,0.000013,-0.000026,-36.094098,0.000026,
2071,2173,-3.99979239627638,-10.3073574195267,0.0183755118150088,0.005089,-0.000846,0.006816,0.213922,0.051241,329.281896,24.487141,0.998997,0.984538,0.005061,0.419094,-0.000007,-0.000005,0.000003,-0.000003,-0.000009,51.920971,0.000012,
2146,2038,-2.34340493470039,-13.2677960546221,0.0295100452168526,0.004877,-0.001103,0.010289,0.192088,0.047997,331.181906,24.042952,0.999005,0.982232,0.005256,0.366373,0.000007,0.000015,0.000013,0.000025,-0.000003,53.468934,0.000027,
2386,2713,2.76460073416023,1.49295590728273,-0.0155378517928284,0.005054,-0.000635,0.003597,0.219060,0.023611,319.556498,24.366110,0.999547,0.991049,0.003732,0.459067,-0.000004,0.000024,-0.000013,0.000029,-0.000009,-69.273334,0.000030,
2026,2023,-4.95760420649009,-13.5928103424958,0.0225425000234623,0.005103,0.000484,0.003654,0.224159,0.102361,331.985194,24.810241,0.998258,0.982376,0.005724,0.448168,0.000058,-0.000112,0.000010,0.000059,-0.000113,3.337051,0.000113,
2356,2713,2.11067696518286,1.49283562880167,-0.0194589261016631,0.004734,-0.000425,0.005554,0.197891,0.044139,319.489224,24.418240,0.999377,0.991090,0.003834,0.427315,-0.000002,0.000025,-0.000014,0.000030,-0.000007,-66.890689,0.000032,
2506,2113,5.50675215601838,-11.6301141528463,0.0312589441119826,0.004457,-0.000480,0.006301,0.179230,0.055452,329.871435,21.933508,0.999625,0.985418,0.004895,0.414140,0.000039,-0.000061,0.000010,0.000041,-0.000062,5.785188,0.000063,
2431,2953,3.69659238071368,6.71959924389948,-0.0137002520298779,0.004658,-0.000555,0.006556,0.189775,0.037347,315.677609,25.199192,0.999736,0.992640,0.003587,0.436793,0.000013,0.000022,-0.000009,0.000028,0.000007,-57.351656,0.000037,
2026,3088,-5.11718341341198,9.62006607882785,0.028886308210474,0.004822,-0.000235,0.004178,0.211124,0.035854,314.822305,24.207619,0.999593,0.993929,0.003294,0.365174,-0.000006,0.000040,-0.000002,0.000040,-0.000006,-87.146244,0.000043,
2086,3058,-3.81187719945379,8.97258576939026,0.024107192059887,0.005050,-0.000447,0.003480,0.222846,0.020300,314.940099,24.308142,0.999526,0.992190,0.003492,0.475878,0.000010,0.000027,-0.000011,0.000032,0.000004,-64.084398,0.000040,
2476,3208,4.62821482677736,12.258878116892,0.0328239693649266,0.004861,-0.000033,0.005579,0.202533,0.046055,311.990723,26.250042,0.999412,0.991158,0.003708,0.447243,0.000036,0.000044,-0.000004,0.000045,0.000034,-67.190162,0.000080,
2056,2158,-4.32508602836871,-10.6340924091135,0.0112127926997232,0.004705,-0.000508,0.006359,0.197962,0.054108,329.527465,24.626378,0.999134,0.985180,0.004987,0.364136,-0.000009,-0.000003,-0.000006,0.000000,-0.000013,-58.713691,0.000015,
2281,2533,0.512330183742609,-2.43734203560221,-0.004879298707408,0.004857,-0.000674,0.004951,0.206273,0.018111,322.587179,23.945759,0.999666,0.992336,0.003686,0.531686,0.000000,0.000008,-0.000009,0.000013,-0.000005,-56.207046,0.000013,
2071,2983,-4.12629784574012,7.3455785361289,0.00529446189847249,0.005270,-0.000936,0.006355,0.224612,-0.002380,316.085942,24.294062,0.999315,0.990765,0.003783,0.435918,-0.000001,0.000011,0.000003,0.000012,-0.000002,75.213304,0.000012,
2011,3103,-5.4438580735004,9.94281847563852,0.0349082373573424,0.005078,-0.000556,0.003444,0.225055,0.030454,314.739266,24.060151,0.999556,0.994421,0.003149,0.438507,0.000000,0.000049,-0.000004,0.000049,0.000000,-85.894256,0.000057,
2206,2728,-1.1550018313246,1.81331999510225,-0.0232848484905617,0.004963,-0.000190,0.004617,0.213723,0.054400,319.427924,24.400766,0.999275,0.988523,0.004153,0.469431,0.000010,0.000009,-0.000006,0.000015,0.000004,-43.336585,0.000020,
2056,3238,-4.4895236959107,12.8705320224738,0.0504147036485847,0.004827,-0.000293,0.004210,0.211052,0.032043,312.372553,24.193802,0.999605,0.993894,0.003162,0.420627,0.000000,0.000039,-0.000038,0.000062,-0.000023,-58.702740,0.000063,
2011,2863,-5.41045946141497,4.738544872326,-0.0117265485786788,0.005023,-0.000884,0.009273,0.206316,0.037745,318.235508,24.254006,0.999322,0.991053,0.004079,0.454752,0.000007,0.000028,0.000009,0.000032,0.000004,69.484015,0.000039,
2401,2788,3.07557577948215,3.12876782520361,-0.0206365223714897,0.004600,-0.000306,0.006017,0.189536,0.063746,318.274480,24.649762,0.999524,0.987760,0.004315,0.444234,-0.000002,0.000017,-0.000016,0.000026,-0.000011,-59.769935,0.000026,
2026,2038,-4.95932526160589,-13.2654111757098,0.0275620791825304,0.005220,0.000305,0.003181,0.230814,0.074739,331.794108,24.751734,0.998566,0.978542,0.005753,0.472412,0.000040,-0.000093,0.000010,0.000041,-0.000094,4.268239,0.000094,
2176,2608,-1.78695824381518,-0.801706077655439,-0.0197216520623442,0.004711,-0.000620,0.005821,0.198486,0.047182,321.480998,24.306995,0.999126,0.987618,0.004423,0.448989,0.000012,0.000006,0.000001,0.000012,0.000006,7.068222,0.000018,
2176,3298,-1.90248077504813,14.1832217595113,0.00523979543555697,0.004662,-0.000133,0.002593,0.207144,0.026180,310.453377,24.853317,0.999829,0.996216,0.002599,0.420850,0.000026,0.000056,0.000010,0.000059,0.000023,72.586713,0.000085,
2026,3253,-5.1419801719878,13.193242048078,0.0451942348177568,0.004721,0.000114,0.003390,0.208924,0.047495,312.262655,24.029914,0.999828,0.995974,0.002698,0.433470,0.000012,0.000044,-0.000048,0.000078,-0.000022,-54.344433,0.000081,
2221,2278,-0.748493181519827,-8.00912399181858,0.00907900466097544,0.005300,-0.000801,0.004663,0.227949,0.037724,326.956852,23.865038,0.998824,0.982514,0.005235,0.387900,-0.000002,0.000002,0.000001,0.000003,-0.000002,72.173632,0.000003,
2146,3193,-2.53250013190019,11.9039681512681,0.0377123368893422,0.004906,-0.000420,0.003256,0.216471,0.024558,312.567222,24.632958,0.999581,0.992480,0.003383,0.421322,0.000007,0.000034,-0.000016,0.000042,0.000000,-65.354676,0.000048,
2146,2443,-2.41163857415792,-4.40304767188982,-0.0055047755618034,0.004506,-0.000961,0.008021,0.182500,0.018472,324.361678,24.230035,0.999230,0.986724,0.004740,0.429009,0.000004,-0.000002,-0.000021,0.000023,-0.000020,-40.643905,0.000025,
2266,2503,0.190654026767714,-3.08972790349763,-0.0136393165075788,0.004990,-0.000260,0.003478,0.217636,0.055225,323.031461,24.047010,0.999642,0.991404,0.004025,0.440823,-0.000008,0.000007,-0.000002,0.000007,-0.000009,-84.283340,0.000009,
2326,2473,1.50366930834622,-3.74528064643078,-0.00206929658617128,0.004777,-0.000335,0.005540,0.200045,0.058607,323.538161,23.796599,0.999456,0.987068,0.004351,0.499846,0.000009,-0.000008,0.000011,0.000014,-0.000013,25.990185,0.000016,
2176,3253,-1.89299397226574,13.2065596157189,0.0367571961296562,0.004710,-0.000677,0.009175,0.188741,0.026599,311.437231,24.805358,0.999732,0.994399,0.003160,0.436951,0.000009,0.000038,0.000003,0.000038,0.000009,83.841507,0.000050,
2176,2383,-1.74799828475663,-5.71330077182665,-0.00250793923947867,0.005142,-0.000830,0.010464,0.203520,0.049516,325.269202,24.066504,0.999140,0.987977,0.004532,0.489436,0.000001,-0.000002,-0.000018,0.000017,-0.000019,-42.466477,0.000021,
2071,3268,-4.17063207393528,13.52264172867,0.0309307804217269,0.004788,-0.000014,0.003253,0.211934,0.036755,311.634909,24.259129,0.999808,0.995665,0.002827,0.428680,0.000014,0.000026,-0.000022,0.000043,-0.000003,-52.765260,0.000047,
2506,2128,5.50312043165961,-11.3009972502982,0.0284927671915511,0.004417,-0.000914,0.009011,0.166775,0.068651,329.593632,21.943643,0.999624,0.984430,0.005013,0.481605,0.000044,-0.000070,0.000010,0.000045,-0.000071,4.875195,0.000072,
2086,2158,-3.67156319769599,-10.6350219441383,0.0114282950523261,0.004701,-0.000941,0.007336,0.194318,0.037487,329.368920,24.430249,0.998963,0.982761,0.005245,0.381912,0.000000,-0.000005,0.000013,0.000011,-0.000016,40.088616,0.000016,
2146,2203,-2.37146583868802,-9.65047274840116,0.0093352193349574,0.004645,-0.001298,0.007989,0.188580,0.020077,328.360018,24.123877,0.998496,0.976682,0.005837,0.378599,0.000002,0.000012,0.000021,0.000029,-0.000015,51.665351,0.000029,
2416,2938,3.37415972333509,6.39163566835772,-0.00177940719134995,0.004885,-0.000632,0.009635,0.189172,0.049426,316.001364,25.112249,0.999650,0.991324,0.003785,0.452875,0.000010,0.000021,-0.000013,0.000029,0.000002,-56.340449,0.000035,
2071,2188,-4.00224421397366,-9.97847774749554,0.0118846801671566,0.005342,-0.000356,0.007149,0.224795,0.062788,328.997729,24.454983,0.998752,0.983842,0.005346,0.462616,-0.000006,0.000024,0.000011,0.000027,-0.000010,72.059261,0.000028,
2251,2668,-0.165540355536773,0.507198335281309,-0.0125549402990828,0.004866,-0.000912,0.008249,0.196461,0.045438,320.370042,24.297637,0.999417,0.990771,0.003952,0.476452,0.000004,0.000018,-0.000011,0.000024,-0.000001,-61.598088,0.000027,
2311,2593,1.15400155169543,-1.12536925344991,-0.0129721700761252,0.004861,-0.000287,0.005656,0.203944,0.052497,321.513023,24.125429,0.999607,0.991101,0.003754,0.466290,0.000004,0.000013,-0.000004,0.000015,0.000002,-71.455259,0.000018,
2446,3013,4.01260521229272,8.02404940418914,0.000481888241438355,0.004806,-0.000141,0.002522,0.211641,0.046553,314.862250,25.449003,0.999125,0.985614,0.004358,0.437814,0.000030,0.000027,-0.000007,0.000035,0.000021,-37.088429,0.000058,
2011,2878,-5.41240781698213,5.06514279494483,-0.0148703947244826,0.005310,-0.000241,0.005577,0.229800,0.048941,317.988598,24.279904,0.998983,0.990065,0.004184,0.427815,0.000024,0.000033,0.000003,0.000034,0.000023,74.935510,0.000058,
2236,2368,-0.438554847705763,-6.04017554947912,0.000971013874902837,0.004755,-0.001114,0.008336,0.190942,0.030504,325.365958,23.939338,0.999326,0.986790,0.004693,0.381844,-0.000017,-0.000003,0.000000,-0.000003,-0.000017,89.044836,0.000021,
2386,2728,2.76156017464207,1.8197847976355,-0.0153751434182823,0.005059,-0.000859,0.005654,0.211843,0.030471,319.306397,24.404977,0.999568,0.990609,0.003869,0.470714,-0.000004,0.000013,-0.000009,0.000017,-0.000008,-67.025769,0.000017,
2131,2383,-2.72727859715596,-5.71353245637782,7.63077950409752E-05,0.004993,-0.000391,0.004451,0.216001,0.059150,325.469841,24.242885,0.998937,0.984644,0.004841,0.466947,0.000005,0.000003,-0.000018,0.000022,-0.000014,-43.931903,0.000023,
2266,2563,0.179858108679962,-1.78262408534697,-0.0101934486890514,0.004674,-0.000804,0.003914,0.201555,0.025973,322.073061,24.024329,0.999537,0.989577,0.004117,0.540444,0.000003,0.000023,0.000000,0.000023,0.000003,-89.508543,0.000029,
2461,3148,4.3136898740707,10.9557485299105,0.0229989790719287,0.004939,-0.000239,0.003059,0.215666,0.026452,312.872924,25.970168,0.999410,0.988652,0.003972,0.421595,0.000041,0.000040,-0.000001,0.000041,0.000040,-34.583762,0.000081,
2146,3073,-2.514473386326,9.30371878660338,0.0129803905915082,0.004625,-0.000587,0.006646,0.193046,0.032289,314.297336,24.568552,0.999743,0.996013,0.002926,0.439787,0.000007,0.000023,-0.000005,0.000025,0.000005,-72.865268,0.000032,
2476,3223,4.62504269446002,12.5851859635256,0.0282308952245671,0.004795,0.000260,0.001716,0.214330,0.049403,311.717165,26.352183,0.999383,0.991201,0.003732,0.404013,0.000033,0.000036,0.000000,0.000036,0.000033,-82.669002,0.000069,
2071,3283,-4.17369089628503,13.8473523857036,0.0254178165357075,0.004687,-0.000320,0.006324,0.198441,0.035108,311.329896,24.223417,0.999785,0.995964,0.002765,0.457991,0.000017,0.000028,-0.000011,0.000035,0.000010,-58.011904,0.000047,
2206,2488,-1.11368999934598,-3.41804708282891,-0.0146082919005153,0.004529,-0.000277,0.005176,0.191655,0.065903,323.368796,24.156571,0.999329,0.984877,0.004841,0.446741,0.000012,-0.000001,-0.000005,0.000014,-0.000003,-19.302535,0.000015,
2356,2728,2.1084325555368,1.81900410639507,-0.0119267098648379,0.004859,-0.000496,0.006957,0.198669,0.044750,319.309071,24.461717,0.999403,0.990366,0.003905,0.423558,0.000000,0.000015,-0.000010,0.000020,-0.000005,-62.645996,0.000021,
2251,2773,-0.184565127264925,2.7939384238015,-0.0171092842917915,0.004638,-0.000498,0.006130,0.193164,0.026704,318.622399,24.478438,0.999257,0.987911,0.004248,0.442005,-0.000001,0.000016,-0.000013,0.000023,-0.000008,-61.539828,0.000023,
2026,3268,-5.14521964197019,13.5183245468357,0.0328352239475294,0.004604,0.000052,0.003863,0.202209,0.044855,311.907246,23.985588,0.999803,0.996565,0.002626,0.463954,0.000014,0.000020,-0.000036,0.000053,-0.000019,-47.237370,0.000054,
2371,2683,2.44204080877347,0.840882538346776,-0.0319661811243463,0.004926,-0.000492,0.007291,0.200247,0.051115,319.878862,24.331901,0.999386,0.988494,0.004205,0.438475,-0.000005,0.000026,-0.000015,0.000032,-0.000011,-68.117980,0.000033,
2131,2128,-2.68571038876788,-11.2936025293841,0.0146327921495413,0.004798,-0.001009,0.005820,0.202362,0.009595,329.682817,24.150547,0.998977,0.979383,0.005465,0.373337,-0.000003,-0.000001,0.000019,0.000016,-0.000021,46.347641,0.000022,
2086,2863,-3.7830077393677,4.74279796506754,-0.00807885079802872,0.004789,-0.000195,0.004931,0.206560,0.062671,317.828188,24.397625,0.999395,0.990764,0.003983,0.449596,0.000007,0.000021,0.000004,0.000023,0.000006,75.602799,0.000030,
2146,2053,-2.34566631590082,-12.9396891728463,0.0344736563541801,0.004723,-0.001101,0.010682,0.183843,0.059692,330.974550,24.016144,0.998960,0.981119,0.005283,0.416171,0.000005,0.000011,0.000015,0.000024,-0.000007,51.044412,0.000024,
2056,3253,-4.4920334026972,13.1959119342092,0.0503291367769521,0.004787,-0.000257,0.005307,0.206108,0.032257,312.121313,24.238230,0.999749,0.995026,0.003012,0.369764,0.000003,0.000034,-0.000035,0.000057,-0.000020,-56.944221,0.000058,
2236,2473,-0.45708502041693,-3.74745096572456,0.00197258291797198,0.004340,-0.000347,0.006732,0.177459,0.062820,323.663629,23.990905,0.999517,0.990496,0.004085,0.520876,0.000001,-0.000005,-0.000004,0.000004,-0.000007,-26.960226,0.000007,
2341,2983,1.73563545690373,7.3643529015711,0.00285350846849042,0.005103,-0.000475,0.003512,0.222486,0.024502,315.299679,25.066446,0.999787,0.994899,0.003058,0.414524,0.000001,0.000019,-0.000008,0.000022,-0.000002,-69.937190,0.000024,
2011,2893,-5.4149055493193,5.39030540704204,-0.0110315910872032,0.004851,-0.000472,0.005508,0.208662,0.020204,317.756356,24.269241,0.999180,0.992027,0.003718,0.397185,0.000021,0.000016,-0.000003,0.000022,0.000015,-26.973525,0.000037,
2431,2968,3.6936920795457,7.045186835526,-0.0147097538454091,0.004569,-0.000468,0.003592,0.196661,0.019038,315.431146,25.210792,0.999848,0.994901,0.003140,0.456197,0.000015,0.000022,-0.000006,0.000026,0.000011,-60.212745,0.000038,
2071,3298,-4.17601472370938,14.1723508906042,0.0219437094987711,0.004863,-0.000251,0.004039,0.213164,0.036980,311.069737,24.226025,0.999589,0.994426,0.003067,0.452699,0.000019,0.000052,-0.000018,0.000060,0.000011,-65.845070,0.000076,
2026,2053,-4.96215157468977,-12.9355245563322,0.0336194285625311,0.004566,-0.000962,0.008851,0.184939,0.050116,331.557937,24.933172,0.999741,0.992373,0.003638,0.260333,0.000029,-0.000078,-0.000007,0.000029,-0.000079,-3.460950,0.000080,
2221,2143,-0.724581772426951,-10.9666683792979,0.0238486919831757,0.005061,-0.000260,0.005573,0.214081,0.068794,329.240710,23.655241,0.999010,0.981865,0.005237,0.434985,-0.000001,0.000010,0.000011,0.000017,-0.000008,57.351664,0.000017,
2116,2368,-3.05135612638776,-6.04155331511064,0.00103169643767842,0.004959,-0.000613,0.004516,0.214339,0.036289,325.782517,24.297230,0.999165,0.984060,0.004919,0.432432,-0.000002,0.000004,-0.000022,0.000023,-0.000021,-48.783606,0.000026,
2071,2203,-4.00458513595118,-9.65042149553431,0.014105261260454,0.005091,-0.000407,0.006247,0.215839,0.060541,328.766364,24.458719,0.998612,0.981484,0.005395,0.455924,-0.000004,0.000032,0.000011,0.000035,-0.000007,74.586901,0.000037,
2026,3103,-5.11940033968756,9.94464646307324,0.0287893865084357,0.004872,-0.000214,0.003096,0.216484,0.047509,314.582434,24.129374,0.999567,0.993677,0.003355,0.444198,-0.000008,0.000044,-0.000006,0.000045,-0.000009,-83.486821,0.000048,
2506,2143,5.50051182936607,-10.9710319079896,0.0280476825574851,0.004902,-0.000805,0.008095,0.192584,0.046805,329.373107,22.096887,0.999110,0.975291,0.005994,0.370235,0.000043,-0.000059,0.000012,0.000044,-0.000060,6.833134,0.000062,
2056,2173,-4.32749634400983,-10.3053671644906,0.00552569204472775,0.004805,-0.000284,0.004884,0.206775,0.054049,329.248179,24.594678,0.999192,0.987836,0.004598,0.393362,-0.000014,-0.000006,-0.000004,-0.000004,-0.000015,-69.963805,0.000021,
2146,3208,-2.53485415986317,12.2290571869475,0.0411600300715804,0.004892,0.000021,0.003848,0.214165,0.045901,312.348204,24.641602,0.999621,0.993602,0.003210,0.440688,0.000011,0.000035,-0.000016,0.000043,0.000003,-64.299921,0.000051,
2086,2173,-3.67298016819216,-10.3068424760264,0.0144598805188707,0.005285,-0.000530,0.005512,0.226501,0.064520,329.185146,24.414565,0.998978,0.982929,0.005119,0.426294,-0.000002,-0.000005,0.000017,0.000013,-0.000021,42.426981,0.000021,
2206,2743,-1.15746262847199,2.14001511370105,-0.0216107679532342,0.005114,-0.000326,0.006679,0.214087,0.043632,319.198524,24.459253,0.999563,0.989589,0.003992,0.417058,0.000006,0.000010,-0.000008,0.000016,-0.000001,-52.063123,0.000018,
2086,3298,-3.85144717392723,14.1735974475701,0.0222055404664729,0.004449,-0.000228,0.002215,0.199140,0.032250,310.977940,24.306216,0.999606,0.994091,0.003105,0.454413,0.000014,0.000052,-0.000020,0.000060,0.000005,-66.910095,0.000072,
2221,2293,-0.751153556598791,-7.68145930336445,0.0114021389210279,0.004960,-0.000106,0.003405,0.216653,0.066739,326.723081,23.836102,0.999003,0.984504,0.004889,0.466921,0.000001,0.000001,0.000011,0.000012,-0.000010,45.514427,0.000013,
2191,1993,-1.35329747405034,-14.2575295383221,0.0365103900997497,0.004897,-0.000802,0.007104,0.201831,0.040778,331.822479,23.678058,0.999497,0.984452,0.004990,0.372649,-0.000003,-0.000004,-0.000022,0.000018,-0.000025,-44.454563,0.000026,
2011,3118,-5.44650704997443,10.2684747101548,0.0321945684089542,0.005083,-0.000374,0.006616,0.216737,0.041280,314.463417,24.068658,0.999605,0.994758,0.003093,0.427793,0.000002,0.000061,-0.000005,0.000062,0.000002,-84.895411,0.000072,
2401,2803,3.07281984077867,3.45480122526494,-0.0220517585050288,0.004666,-0.000298,0.003389,0.202144,0.056948,318.031059,24.639844,0.999554,0.989758,0.004125,0.492843,0.000000,0.000013,-0.000015,0.000024,-0.000010,-56.503468,0.000024,
2176,2398,-1.75001805161977,-5.38518552444159,-0.00176953528472268,0.005304,-0.000311,0.006452,0.223576,0.064663,325.052855,24.111684,0.999021,0.985333,0.004855,0.473315,0.000004,-0.000002,-0.000020,0.000021,-0.000020,-40.900485,0.000024,
2146,2458,-2.41398659588381,-4.07409888167794,-0.0127473898417634,0.005017,-0.000635,0.006841,0.209734,0.048530,324.085385,24.281853,0.999271,0.987208,0.004671,0.416580,0.000007,0.000001,-0.000026,0.000031,-0.000023,-41.709618,0.000032,
2461,3163,4.31119546590508,11.2810845137238,0.0282439012960936,0.004976,-0.000302,0.002370,0.219971,0.029297,312.675198,26.026004,0.999512,0.990142,0.003884,0.421980,0.000038,0.000046,0.000002,0.000047,0.000038,74.217367,0.000084,
2476,3238,4.62125040275462,12.9109248268618,0.013547533844303,0.005109,-0.000170,-0.000192,0.235984,0.040131,311.369107,26.361855,0.999655,0.993546,0.003306,0.440475,0.000031,0.000046,0.000002,0.000046,0.000030,84.256446,0.000077,
2446,3028,4.01029701002237,8.3498008547743,0.00728250600820957,0.004907,-0.000291,0.002120,0.217732,0.031953,314.679925,25.539758,0.999398,0.987735,0.004160,0.383695,0.000029,0.000027,-0.000008,0.000036,0.000021,-41.137022,0.000057,
2266,2578,0.176741158128504,-1.45387898354014,-0.0172458365473176,0.004771,-0.000541,0.004168,0.205290,0.035823,321.773979,24.124605,0.999350,0.987558,0.004409,0.476709,0.000006,0.000027,0.000000,0.000027,0.000006,88.906267,0.000035,
2206,2503,-1.11563582543733,-3.09175279923703,-0.00955329541551464,0.004821,-0.000218,0.005586,0.203799,0.049822,323.180862,24.140824,0.999434,0.988030,0.004395,0.464197,0.000015,0.000012,-0.000005,0.000019,0.000008,-35.471448,0.000028,
2026,3283,-5.14701615658737,13.8428261404719,0.042013300247902,0.004713,-0.000127,0.005541,0.202614,0.047212,311.739001,24.005189,0.999754,0.996175,0.002726,0.435288,0.000016,0.000021,-0.000027,0.000046,-0.000009,-47.791463,0.000048,
2266,2518,0.18869036035144,-2.76438849092617,-0.00443761888192284,0.005060,-0.000601,0.003922,0.219242,0.040778,322.867804,23.984887,0.999577,0.991137,0.003941,0.514948,-0.000005,0.000004,-0.000001,0.000004,-0.000005,-86.712504,0.000005,
2281,2548,0.508845650978941,-2.10732406124284,-0.0157151824816424,0.004944,-0.000547,0.005786,0.207606,0.050644,322.253568,24.095857,0.999451,0.989616,0.004108,0.443278,0.000003,0.000020,-0.000004,0.000021,0.000002,-76.704193,0.000025,
2056,2188,-4.329149409442,-9.97807060686355,0.0115734000239627,0.005156,-0.000426,0.006952,0.217054,0.055306,329.068149,24.560843,0.998917,0.984558,0.005073,0.425601,-0.000014,0.000025,0.000006,0.000026,-0.000015,81.716539,0.000026,
2011,2908,-5.41685728873225,5.71532282121876,-0.00169114605409959,0.004683,-0.000761,0.006608,0.197956,0.034810,317.580057,24.245295,0.999118,0.992144,0.003687,0.423276,0.000021,0.000029,-0.000003,0.000029,0.000020,-74.064864,0.000050,
2086,1993,-3.64428535264913,-14.2537494701477,0.0346148771658363,0.005014,-0.000453,0.004136,0.217736,0.064190,332.230842,24.453469,0.999210,0.982639,0.005123,0.358293,0.000027,-0.000122,-0.000029,0.000033,-0.000127,-10.582007,0.000132,
2236,2383,-0.440687815735565,-5.71326519776343,0.00142160087972343,0.004817,-0.000638,0.002996,0.211226,0.029601,325.148104,23.883378,0.999366,0.986935,0.004691,0.459425,-0.000016,-0.000003,-0.000003,-0.000003,-0.000016,-78.479026,0.000020,
2326,2488,1.5010129755031,-3.41781185542333,0.000343917001657701,0.004823,-0.000507,0.006875,0.197555,0.059816,323.312751,23.843558,0.999390,0.986961,0.004357,0.489689,0.000010,-0.000007,0.000007,0.000012,-0.000009,19.943686,0.000013,
2251,2683,-0.167946133182056,0.833814346036789,-0.0127697155232909,0.004946,-0.000582,0.005672,0.208730,0.043451,320.137016,24.306810,0.999403,0.990604,0.003902,0.489146,0.000002,0.000023,-0.000016,0.000031,-0.000006,-61.381603,0.000033,
2071,2218,-4.00694081202982,-9.32126254663087,0.0126517797626775,0.004964,-0.000088,0.003788,0.217118,0.055623,328.514087,24.532469,0.998345,0.980608,0.005387,0.376795,-0.000005,0.000054,0.000013,0.000057,-0.000007,78.450965,0.000062,
2146,2218,-2.37388194826375,-9.32213779315536,0.0175844110693788,0.004151,-0.000450,0.008612,0.164339,0.065789,328.162709,24.174632,0.998629,0.978491,0.005587,0.383799,-0.000001,0.000022,0.000015,0.000030,-0.000008,63.778967,0.000031,
2086,3073,-3.81474195519219,9.29880483929807,0.0206625266596348,0.004739,-0.000330,0.002155,0.212389,0.021569,314.655859,24.363340,0.999491,0.991051,0.003591,0.420031,0.000007,0.000036,-0.000006,0.000037,0.000006,-78.215888,0.000047,
2071,2998,-4.12781494161361,7.67078572274232,0.0194898819414675,0.005074,-0.000407,0.003512,0.223940,0.023673,315.959395,24.330298,0.999573,0.991853,0.003489,0.421709,-0.000003,0.000015,0.000004,0.000016,-0.000004,78.723704,0.000017,
2296,2638,0.81955663387555,-0.145139782355102,-0.0137974728084487,0.005014,-0.000219,0.002207,0.222915,0.035049,320.807869,24.202866,0.999368,0.987268,0.004211,0.480820,-0.000002,0.000016,-0.000011,0.000021,-0.000007,-64.647939,0.000022,
2386,2743,2.75889246361035,2.14570869084793,-0.0107046525155852,0.004965,-0.001120,0.006267,0.205254,0.021995,319.095023,24.416379,0.999622,0.991201,0.003820,0.494191,-0.000003,0.000015,-0.000008,0.000018,-0.000007,-68.801482,0.000018,
2191,2188,-1.38738267737581,-9.97969944459168,0.018868829583937,0.004684,-0.000704,0.007932,0.189804,0.060106,328.529918,23.904513,0.998425,0.976591,0.005907,0.396693,0.000007,0.000010,0.000010,0.000019,-0.000002,49.989387,0.000021,
2131,2143,-2.68802698809896,-10.9646690408355,0.0132612493296733,0.004979,-0.000639,0.006052,0.210123,0.029399,329.437964,24.154111,0.999166,0.981790,0.005261,0.398319,-0.000004,0.000003,0.000021,0.000021,-0.000022,50.227572,0.000025,
2026,3118,-5.12178248400692,10.27014482446,0.0296460236128837,0.004929,-0.000274,0.005778,0.211746,0.052081,314.340003,24.152524,0.999589,0.994053,0.003299,0.414685,-0.000007,0.000057,-0.000007,0.000058,-0.000007,-83.908333,0.000063,
2236,2488,-0.460119375944863,-3.41850999608938,-0.00909543758831433,0.004781,-0.000770,0.007630,0.194717,0.048891,323.345330,24.062854,0.999498,0.988526,0.004213,0.457624,0.000003,-0.000004,-0.000003,0.000004,-0.000005,-21.345826,0.000006,
2101,1993,-3.316379047771,-14.2549331989716,0.0440005353319748,0.005193,-0.000701,0.005109,0.222877,0.041660,332.242684,24.406889,0.999641,0.989815,0.004394,0.276700,0.000007,-0.000096,-0.000045,0.000024,-0.000113,-20.719105,0.000119,
2416,2953,3.37092806989086,6.71881542134498,-0.00874882538920474,0.004963,-0.000500,0.007134,0.201988,0.047734,315.710205,25.206968,0.999750,0.991721,0.003759,0.403871,0.000013,0.000021,-0.000010,0.000028,0.000006,-55.566661,0.000037,
2431,2983,3.69177691906292,7.36999256971411,0.00137354551941371,0.004584,-0.000537,0.006832,0.185345,0.027424,315.309682,25.244983,0.999661,0.991112,0.003726,0.479425,0.000017,0.000023,-0.000004,0.000025,0.000016,-64.067449,0.000041,
2116,2383,-3.05392893628836,-5.71438530981549,-0.00199800108356385,0.004966,-0.000689,0.004470,0.214751,0.032515,325.516169,24.232170,0.999199,0.983986,0.004894,0.498836,0.000000,0.000008,-0.000022,0.000026,-0.000019,-50.057611,0.000027,
2026,3298,-5.14972639041788,14.1675520224291,0.0370958032106046,0.004607,-0.000086,0.004746,0.199936,0.043968,311.449762,23.977804,0.999379,0.994075,0.003265,0.448107,0.000007,0.000048,-0.000026,0.000060,-0.000005,-63.830073,0.000067,
2086,2878,-3.78528266652443,5.06771489172692,-0.00588951901931978,0.004747,-0.000393,0.004613,0.205448,0.046521,317.602075,24.336967,0.999415,0.991127,0.003937,0.492875,0.000013,0.000031,0.000001,0.000031,0.000013,87.328585,0.000045,
2191,2008,-1.35623760783722,-13.9290286151425,0.0344751545612212,0.004803,-0.001381,0.010171,0.187754,0.031853,331.551407,23.613116,0.999382,0.983998,0.005046,0.447143,-0.000005,0.000010,0.000000,0.000010,-0.000005,-89.525225,0.000010,
2071,2233,-4.00911499964338,-8.99271175240165,0.0094463959592872,0.005333,-0.000384,0.004633,0.231608,0.048841,328.260679,24.539931,0.998922,0.983939,0.004920,0.361845,-0.000010,0.000062,0.000005,0.000062,-0.000011,86.351904,0.000067,
2476,3253,4.61758932373784,13.2363670351029,0.0119370529368439,0.004932,-0.000183,0.003509,0.213717,0.042177,311.086679,26.411686,0.999643,0.992872,0.003376,0.447822,0.000033,0.000054,0.000009,0.000057,0.000029,70.008991,0.000088,
2101,2218,-3.35443694180444,-9.32127859053216,0.00897681721966137,0.004531,-0.000692,0.007743,0.185181,0.066337,328.302809,24.354592,0.998568,0.980650,0.005491,0.421414,-0.000001,0.000041,0.000018,0.000047,-0.000007,69.486254,0.000051,
2251,2788,-0.18701206353856,3.12050457607062,-0.0175357118248485,0.004704,-0.000407,0.003571,0.204609,0.026952,318.386195,24.511186,0.999424,0.988570,0.004150,0.432993,-0.000003,0.000022,-0.000005,0.000023,-0.000004,-78.403152,0.000025,
2506,2158,5.4974327535358,-10.6425176364078,0.0322765789953792,0.004710,-0.000892,0.009541,0.178199,0.038826,329.151741,22.159212,0.999219,0.976971,0.005674,0.363590,0.000034,-0.000044,-0.000001,0.000034,-0.000044,-0.847244,0.000046,
2101,2008,-3.31878453661476,-13.9285552728202,0.0488087852911576,0.005031,-0.001133,0.009017,0.203987,0.037507,332.024873,24.219526,0.999657,0.990880,0.004373,0.464880,0.000009,-0.000040,-0.000012,0.000012,-0.000043,-12.956448,0.000044,
2056,2203,-4.33164317258693,-9.64905877426209,0.00792806545871372,0.005128,-0.000513,0.006650,0.216617,0.066324,328.796167,24.576926,0.998557,0.980796,0.005530,0.417832,-0.000012,0.000035,0.000006,0.000036,-0.000013,82.882085,0.000037,
2221,2308,-0.754274580164999,-7.35360242417671,0.0107099054786772,0.004624,-0.000516,0.005643,0.193986,0.056606,326.452922,23.838554,0.998979,0.986007,0.004616,0.475529,0.000003,-0.000004,0.000012,0.000012,-0.000013,37.057905,0.000015,
2026,3133,-5.12403824302167,10.594978007385,0.0325731043191126,0.004759,-0.000152,0.004620,0.207114,0.047520,314.115244,24.140050,0.999515,0.993430,0.003409,0.411874,-0.000001,0.000060,-0.000007,0.000061,-0.000001,-83.418485,0.000069,
2161,2038,-2.01638720930537,-13.2671957641585,0.0221747015895062,0.004870,-0.000831,0.006282,0.203701,0.030429,331.078071,23.965740,0.999194,0.983052,0.005061,0.327597,0.000018,0.000018,0.000002,0.000020,0.000016,44.914368,0.000036,
2146,3088,-2.51648749364201,9.62953464548201,0.0139402191023805,0.004935,-0.000601,0.004688,0.213337,0.035558,314.080431,24.618844,0.999716,0.994645,0.003135,0.399461,0.000002,0.000020,-0.000007,0.000022,0.000000,-72.267228,0.000025,
2221,2338,-0.761774107318786,-6.69438981151925,-0.0111390902519588,0.004212,-0.000735,0.011047,0.157767,0.052698,325.749548,23.961353,0.999668,0.989712,0.004171,0.391541,0.000004,0.000001,0.000012,0.000015,-0.000009,41.377805,0.000015,
2356,2743,2.10564053237625,2.14503856164389,-0.00988012789019876,0.004722,-0.000679,0.006586,0.193596,0.030195,319.077354,24.467842,0.999554,0.991307,0.003671,0.441880,0.000001,0.000018,-0.000010,0.000023,-0.000003,-65.277633,0.000024,
2341,2998,1.73264358697345,7.6900306311767,0.00589860345598936,0.004869,-0.000637,0.005682,0.204146,0.032036,315.061771,25.094197,0.999884,0.997043,0.002819,0.430202,0.000002,0.000017,-0.000009,0.000021,-0.000002,-65.860757,0.000024,
2311,2608,1.15109407712043,-0.798446552017282,-0.0125016926249373,0.004819,-0.000581,0.007519,0.195555,0.058887,321.265151,24.138005,0.999650,0.990968,0.003712,0.493014,0.000003,0.000008,-0.000001,0.000008,0.000003,-79.161896,0.000012,
2281,2563,0.505754994394369,-1.78098791618297,-0.0152189416670581,0.004580,-0.000742,0.006644,0.187956,0.039725,321.995392,24.057874,0.999272,0.987936,0.004472,0.499117,0.000003,0.000020,-0.000007,0.000022,0.000001,-69.234722,0.000026,
2041,1993,-4.62659411800216,-14.2523390618031,0.0290762215069549,0.004501,-0.000272,0.006237,0.188993,0.085472,332.396296,24.703387,0.998816,0.981355,0.005482,0.445226,0.000078,-0.000161,-0.000015,0.000079,-0.000162,-3.662421,0.000162,
2266,2593,0.173707748501901,-1.126746503132,-0.0187298451817242,0.004657,-0.000639,0.005991,0.193996,0.048238,321.506997,24.128454,0.999256,0.986075,0.004600,0.511713,0.000003,0.000018,-0.000006,0.000020,0.000001,-71.281498,0.000024,
2086,2008,-3.64650047785783,-13.9254099901012,0.0371855676892778,0.005025,-0.000747,0.005734,0.213579,0.053847,332.008196,24.425704,0.999375,0.985918,0.004845,0.378439,0.000029,-0.000057,0.000004,0.000029,-0.000057,2.746296,0.000057,
2146,3223,-2.53732499731789,12.5534748210102,0.0460265590087374,0.004757,-0.000219,0.005788,0.202066,0.050258,312.131640,24.616731,0.999616,0.993943,0.003112,0.476268,0.000013,0.000041,-0.000017,0.000049,0.000006,-64.738238,0.000060,
2401,2818,3.07065208142278,3.7809637831586,-0.0163942373023929,0.005020,-0.000512,0.003999,0.216089,0.041624,317.847961,24.708739,0.999470,0.989034,0.004305,0.453760,-0.000001,0.000015,-0.000014,0.000023,-0.000009,-60.073169,0.000023,
2191,2023,-1.35859081671837,-13.5984318778018,0.0312665359318771,0.004897,-0.000513,0.006096,0.205127,0.051320,331.300627,23.703136,0.999120,0.983289,0.005114,0.394635,-0.000003,0.000028,0.000010,0.000031,-0.000006,74.051424,0.000033,
2116,2398,-3.05643421619652,-5.38624507612462,-0.00314065974163213,0.004824,-0.000341,0.002873,0.213092,0.049028,325.262717,24.259216,0.998968,0.984315,0.004920,0.493599,0.000000,0.000001,-0.000023,0.000024,-0.000023,-45.559916,0.000027,
2101,2023,-3.32239066881829,-13.59639371364,0.0369804760692887,0.004683,-0.000954,0.011579,0.180668,0.059119,331.661776,24.350176,0.999357,0.985838,0.005082,0.361364,0.000005,-0.000039,-0.000009,0.000006,-0.000040,-11.089822,0.000044,
2416,2968,3.36867339058913,7.04423432217268,-0.00255985827777749,0.004914,-0.000363,0.004091,0.210973,0.050066,315.526091,25.231626,0.999815,0.993894,0.003370,0.428519,0.000014,0.000022,-0.000008,0.000027,0.000009,-57.800321,0.000037,
2476,3268,4.61414260379567,13.562163875048,0.00966409721996797,0.004946,-0.000455,0.006246,0.203849,0.035396,310.810902,26.503365,0.999804,0.995058,0.002945,0.404233,0.000037,0.000046,0.000018,0.000060,0.000024,51.690048,0.000086,
2071,2248,-4.01186576622615,-8.66525389953838,0.0089663339439312,0.004878,-0.000451,0.004304,0.211615,0.048110,327.996001,24.475338,0.998993,0.983601,0.004867,0.425173,-0.000012,0.000060,-0.000003,0.000060,-0.000012,-87.295509,0.000064,
2431,2998,3.68947694956031,7.69665450327277,0.00581661806540978,0.004923,-0.000471,0.007114,0.200013,0.045386,315.115756,25.363579,0.999336,0.984821,0.004551,0.428156,0.000020,0.000022,-0.000004,0.000025,0.000017,-50.381479,0.000042,
2236,2503,-0.463086416729194,-3.09068093518842,-0.0124417025584194,0.004679,-0.000288,0.007757,0.189811,0.066964,323.069470,24.077598,0.999423,0.987636,0.004335,0.483392,0.000003,0.000006,-0.000004,0.000009,0.000001,-56.028565,0.000011,
2146,2473,-2.41614450338779,-3.7476095507572,-0.00809013614008336,0.004717,-0.000021,0.002592,0.209016,0.060545,323.881395,24.242144,0.999318,0.985993,0.004933,0.477214,0.000010,0.000002,-0.000022,0.000028,-0.000016,-40.064722,0.000028,
2506,2173,5.49435062068251,-10.3132760423796,0.0291732854356042,0.004615,-0.000025,0.004880,0.192228,0.065304,328.897306,22.180372,0.998945,0.975163,0.005899,0.433157,0.000023,-0.000010,-0.000014,0.000028,-0.000015,-20.108840,0.000028,
2041,2008,-4.62965615243407,-13.9216218328665,0.0256277362236688,0.004130,-0.000351,0.010680,0.159649,0.106801,332.097597,24.791739,0.997773,0.979812,0.006001,0.374803,0.000083,-0.000063,0.000021,0.000086,-0.000066,8.068542,0.000091,
2266,2533,0.18560450112918,-2.43695599148386,-0.0130202724099036,0.005119,-0.000558,0.001843,0.228872,0.016600,322.563013,23.968884,0.999734,0.995027,0.003270,0.533636,-0.000003,0.000014,-0.000001,0.000014,-0.000003,-87.599679,0.000014,
2131,2398,-2.72903328218364,-5.38688852103467,0.00946352107229131,0.004930,-0.000222,0.002776,0.218164,0.037787,325.308531,24.271559,0.998478,0.983271,0.005154,0.423677,0.000007,-0.000003,-0.000019,0.000022,-0.000018,-38.296753,0.000023,
2206,2758,-1.1599877951018,2.46597494939202,-0.0167859012516374,0.004796,-0.000270,0.006080,0.201443,0.060086,318.982570,24.452238,0.999473,0.989717,0.003997,0.457138,0.000001,0.000015,-0.000007,0.000018,-0.000001,-68.454103,0.000020,
2146,2068,-2.34848618577227,-12.609633084246,0.0313956800986261,0.004377,-0.000539,0.008412,0.175042,0.076785,330.698931,24.077254,0.998904,0.980134,0.005426,0.383675,0.000005,-0.000006,0.000014,0.000015,-0.000016,33.475912,0.000017,
2386,2758,2.75516841125388,2.47357450381695,-0.0204063779992225,0.004951,-0.000836,0.006894,0.202460,0.024118,318.766301,24.486087,0.999429,0.988406,0.004125,0.470323,-0.000001,0.000022,-0.000008,0.000025,-0.000004,-73.668214,0.000027,
2011,3133,-5.44902520986053,10.594107630609,0.0261578970718688,0.005000,-0.000040,0.002724,0.223604,0.044465,314.174887,24.066499,0.999637,0.993926,0.003188,0.420119,0.000006,0.000064,-0.000006,0.000064,0.000006,-84.160459,0.000078,
2296,2653,0.815896364334758,0.182678971641586,-0.0207042978589698,0.004753,-0.000314,0.004229,0.204092,0.040864,320.487404,24.250229,0.999364,0.987263,0.004196,0.469900,-0.000001,0.000020,-0.000008,0.000023,-0.000004,-70.437009,0.000024,
2371,2698,2.43963117032301,1.16654806189872,-0.025804581300747,0.004815,-0.000462,0.006201,0.199047,0.052690,319.685665,24.310077,0.999334,0.989602,0.003935,0.502960,-0.000005,0.000027,-0.000014,0.000032,-0.000011,-69.329979,0.000033,
2026,3148,-5.12616126083377,10.9189698634358,0.0397160010243738,0.004591,-0.000294,0.005478,0.196946,0.035967,313.920533,24.086154,0.999625,0.994182,0.003230,0.443190,0.000000,0.000052,-0.000011,0.000054,-0.000003,-78.260774,0.000061,
2161,2278,-2.05686252542958,-8.00939486090549,0.017070996836253,0.004759,-0.001475,0.017479,0.164541,0.082602,327.137456,24.127619,0.998394,0.977703,0.005923,0.424963,-0.000002,-0.000005,-0.000009,0.000006,-0.000012,-40.234809,0.000012,
2236,2398,-0.444136891151008,-5.38339813819464,-0.00888394588145047,0.004625,0.000216,0.001692,0.206970,0.062751,324.814566,23.966197,0.999497,0.988981,0.004261,0.432939,-0.000011,-0.000005,-0.000005,-0.000003,-0.000014,-61.918841,0.000017,
2176,2623,-1.78930235447555,-0.475252012838283,-0.0192664636082895,0.004857,-0.000758,0.005837,0.205106,0.032481,321.248585,24.300363,0.999381,0.987909,0.004315,0.453827,0.000013,0.000003,-0.000004,0.000015,0.000001,-20.208344,0.000018,
2326,2503,1.49735903614576,-3.08911991418404,-0.00721278968887873,0.004685,-0.000915,0.008902,0.184099,0.055182,322.992673,23.922550,0.999302,0.986988,0.004351,0.442004,0.000002,0.000000,0.000003,0.000005,-0.000003,34.417602,0.000005,
2086,2023,-3.6503534945059,-13.5944536708278,0.0237961576769408,0.004407,-0.000718,0.007174,0.181194,0.047196,331.624000,24.457803,0.999053,0.982993,0.005311,0.343154,0.000020,-0.000061,0.000004,0.000020,-0.000061,2.495059,0.000062,
2191,2203,-1.39014110586584,-9.6514358105937,0.0143128880844188,0.004696,-0.000913,0.007111,0.192833,0.051556,328.253872,23.864365,0.998482,0.977765,0.005849,0.445425,0.000009,0.000013,0.000009,0.000021,0.000002,51.760426,0.000025,
2461,3178,4.30808500078101,11.6067008426208,0.0315463566032577,0.004861,-0.000432,0.005372,0.203374,0.037095,312.439999,26.094456,0.999579,0.991314,0.003757,0.414304,0.000037,0.000048,0.000002,0.000048,0.000037,81.926641,0.000085,
2341,3013,1.72999088446097,8.01538708603212,0.00877749085958612,0.004685,-0.000586,0.003903,0.201880,0.021000,314.838728,25.113414,0.999664,0.992573,0.003494,0.435820,0.000002,0.000014,-0.000011,0.000020,-0.000004,-59.276870,0.000021,
2446,3043,4.00751166540478,8.67499255912929,0.0119077907812084,0.004943,-0.000577,0.004614,0.210007,0.037357,314.465655,25.547836,0.999332,0.986962,0.004235,0.432382,0.000028,0.000030,-0.000003,0.000032,0.000026,-56.426946,0.000058,
2356,2758,2.10122127478968,2.47327189522305,-0.0260519642739609,0.004232,-0.000350,0.004457,0.178751,0.044159,318.682421,24.508061,0.999471,0.989368,0.003923,0.455083,0.000004,0.000026,-0.000009,0.000029,0.000000,-70.317344,0.000034,
2131,2158,-2.68886889297586,-10.637326575263,0.0298912690859083,0.005032,-0.000044,-0.000209,0.231430,0.024152,329.356557,24.234851,0.999770,0.990990,0.004124,0.320033,0.000000,-0.000004,0.000020,0.000019,-0.000022,42.032748,0.000024,
2476,3283,4.61221193382061,13.8866415526789,0.0197902444637066,0.004951,-0.000297,0.003093,0.216043,0.015906,310.661948,26.557230,0.999814,0.995549,0.002945,0.385845,0.000045,0.000028,0.000022,0.000060,0.000013,34.284033,0.000077,
2266,2608,0.171260534240918,-0.799017357961915,-0.0206400860318467,0.005007,-0.000569,0.005660,0.211243,0.046083,321.264629,24.202706,0.999268,0.986526,0.004547,0.461643,0.000002,0.000008,0.000000,0.000008,0.000002,86.082167,0.000010,
2251,2698,-0.170556151035559,1.16058765522349,-0.0145310020840839,0.005141,-0.000519,0.005952,0.216797,0.047656,319.886708,24.316236,0.999438,0.991051,0.003691,0.507589,-0.000002,0.000021,-0.000016,0.000029,-0.000010,-62.597965,0.000029,
2071,2263,-4.0140031863476,-8.33713775628384,0.00897979686737926,0.005162,-0.000621,0.006389,0.218704,0.048022,327.761905,24.480317,0.999206,0.986121,0.004714,0.419095,-0.000010,0.000044,-0.000002,0.000045,-0.000010,-88.222534,0.000047,
2146,2233,-2.37615293329637,-8.99384707922476,0.0132607382594756,0.004460,-0.000497,0.006531,0.184780,0.062238,327.905857,24.144707,0.998861,0.979883,0.005342,0.420413,-0.000006,0.000019,0.000008,0.000021,-0.000009,73.359733,0.000022,
2086,2188,-3.67541470923645,-9.97831393634653,0.0131158441632238,0.005195,-0.000328,0.004702,0.224801,0.062465,328.931277,24.418690,0.998826,0.982501,0.005288,0.421868,-0.000001,0.000021,0.000023,0.000035,-0.000016,57.451660,0.000036,
2236,2518,-0.466107674318533,-2.76248882950518,-0.0165143614061094,0.004468,-0.000127,0.006288,0.184931,0.080393,322.787328,24.129007,0.999356,0.987692,0.004343,0.467887,0.000007,0.000010,-0.000001,0.000010,0.000007,-76.047311,0.000017,
2086,3088,-3.8170724339534,9.62406485464355,0.0227712961044517,0.004794,-0.000147,0.003722,0.210478,0.036505,314.426775,24.356374,0.999467,0.990418,0.003762,0.440128,0.000001,0.000035,-0.000006,0.000036,-0.000001,-80.225095,0.000042,
2176,2413,-1.75289366773199,-5.05756451835459,-0.000179820585344714,0.004753,-0.000163,0.005394,0.201607,0.076690,324.801879,24.127895,0.998762,0.983442,0.005088,0.483068,0.000008,-0.000007,-0.000025,0.000027,-0.000025,-36.629270,0.000030,
2206,2518,-1.11841566872493,-2.76490614655759,-0.0127136950412137,0.004816,-0.000588,0.005441,0.203913,0.042508,322.912192,24.097153,0.999305,0.987333,0.004508,0.518408,0.000019,0.000014,0.000000,0.000019,0.000014,-0.023878,0.000034,
2011,3148,-5.45131285635891,10.9181868442175,0.0319726321607732,0.004752,-0.000108,0.003985,0.208683,0.040136,313.964307,24.005502,0.999634,0.993280,0.003400,0.463481,0.000004,0.000051,-0.000013,0.000054,0.000001,-75.516599,0.000063,
2221,2323,-0.757605273163591,-7.0248302700524,0.00317799706618871,0.004805,-0.000944,0.011339,0.183944,0.054513,326.137956,23.854076,0.999072,0.986585,0.004587,0.479055,0.000004,-0.000003,0.000013,0.000015,-0.000013,37.597962,0.000016,
2041,2023,-4.63135760636456,-13.5941763772357,0.0319930871136762,0.004332,-0.000844,0.012211,0.164543,0.086672,331.915873,24.740145,0.997895,0.979638,0.005981,0.401914,0.000068,-0.000095,0.000012,0.000069,-0.000096,4.204487,0.000099,
2206,2773,-1.1626923585031,2.79263026952233,-0.0178736457373248,0.004493,-0.000311,0.002298,0.199439,0.033267,318.727727,24.509767,0.999413,0.989694,0.004109,0.389640,0.000002,0.000012,-0.000004,0.000013,0.000000,-69.483703,0.000015,
2461,3193,4.3052929910886,11.9316627379875,0.0335030873164897,0.004929,-0.000376,0.005415,0.206387,0.042778,312.213438,26.100059,0.999555,0.990637,0.003789,0.467638,0.000035,0.000044,0.000002,0.000045,0.000035,78.351584,0.000080,
2506,2188,5.49083790837556,-9.98368046735582,0.0247994449479734,0.004773,-0.000687,0.006834,0.191644,0.046730,328.617563,22.271380,0.998922,0.973372,0.006160,0.387552,0.000031,-0.000013,-0.000013,0.000034,-0.000016,-15.153510,0.000034,
2146,3103,-2.51890384850295,9.95376258728967,0.0186648385816852,0.004728,-0.000262,0.004810,0.203481,0.037822,313.865649,24.551507,0.999823,0.996368,0.002729,0.475935,-0.000002,0.000019,-0.000009,0.000022,-0.000005,-70.533097,0.000023,
2116,2413,-3.05886168940735,-5.05792453458019,-0.000559011257962538,0.004802,-0.000571,0.005556,0.204125,0.049220,325.032798,24.359494,0.999138,0.985994,0.004849,0.398410,0.000003,-0.000006,-0.000026,0.000026,-0.000028,-40.156090,0.000031,
2476,3298,4.60834875466716,14.2127784428863,0.0043562781298192,0.005179,-0.000015,0.000267,0.237490,0.029987,310.306651,26.595945,0.999610,0.992955,0.003540,0.416423,0.000051,0.000013,0.000015,0.000056,0.000008,19.030578,0.000070,
2221,2353,-0.763694956635437,-6.36859913684281,-0.00515092082520141,0.004474,-0.001416,0.011447,0.168294,0.033833,325.568833,23.865669,0.999432,0.987942,0.004466,0.488765,0.000001,-0.000013,0.000005,0.000003,-0.000014,18.036670,0.000015,
2131,2413,-2.73259655380838,-5.05759737703107,-0.00455700930564262,0.005022,-0.000823,0.007490,0.208148,0.047607,324.939137,24.293030,0.998866,0.985399,0.004951,0.419780,0.000011,-0.000007,-0.000023,0.000027,-0.000023,-34.212902,0.000029,
2296,2668,0.813576852079489,0.509606973264951,-0.0144120573571627,0.004734,-0.000566,0.004582,0.201949,0.035502,320.294052,24.342170,0.999608,0.989911,0.003943,0.403031,-0.000001,0.000021,-0.000013,0.000027,-0.000007,-65.374490,0.000029,
2086,2038,-3.65202841047413,-13.2663730577924,0.0258293621500911,0.004737,-0.000597,0.004706,0.203460,0.034885,331.423155,24.413700,0.999071,0.982976,0.005265,0.377398,0.000015,-0.000046,0.000012,0.000017,-0.000048,10.681738,0.000048,
2431,3013,3.68657060765021,8.02270731835559,0.00617962096714564,0.004813,-0.000445,0.005295,0.201737,0.044189,314.875051,25.421424,0.999340,0.985932,0.004373,0.418300,0.000020,0.000024,-0.000006,0.000029,0.000015,-54.643491,0.000045,
2311,2623,1.14889974812591,-0.472246458345069,-0.00759760290065969,0.004961,-0.000858,0.006774,0.204522,0.031397,321.072030,24.160408,0.999515,0.988963,0.003990,0.475839,0.000001,0.000016,-0.000007,0.000018,-0.000002,-67.787021,0.000020,
2191,2218,-1.39221737354769,-9.32300287563748,0.0132706845261623,0.005035,-0.000630,0.004617,0.216326,0.028601,328.027238,23.896308,0.998528,0.979691,0.005802,0.407583,0.000008,0.000022,0.000005,0.000024,0.000006,71.489644,0.000032,
2161,2053,-2.01817435437735,-12.9395281210906,0.0315490100818465,0.005008,-0.000892,0.008005,0.204761,0.048319,330.916647,23.942625,0.999251,0.982839,0.005023,0.381564,0.000017,0.000016,0.000009,0.000025,0.000008,43.787163,0.000034,
2491,1993,5.20433114202338,-14.2668808212294,0.0401101030257678,0.004531,-0.000871,0.005591,0.185234,0.023632,331.842091,21.553098,0.998956,0.966223,0.007021,0.353486,0.000002,-0.000142,0.000081,0.000039,-0.000179,24.117863,0.000188,
2446,3058,4.00428271933277,9.00127174237034,0.0106973873782863,0.004780,-0.000433,0.004231,0.203992,0.040901,314.203604,25.623540,0.999521,0.989684,0.003995,0.411387,0.000026,0.000032,0.000003,0.000034,0.000025,65.855175,0.000058,
2086,2893,-3.7872582527848,5.39346184622351,-0.00363950796406698,0.005071,-0.000585,0.005340,0.218240,0.043633,317.389732,24.343700,0.999409,0.993049,0.003729,0.481875,0.000005,0.000021,0.000000,0.000021,0.000005,88.699578,0.000028,
2101,2233,-3.35580348195062,-8.99288680054465,0.00622909435747943,0.005302,0.000068,0.001795,0.238207,0.071684,328.091480,24.340882,0.998780,0.982511,0.005204,0.444030,-0.000007,0.000047,0.000009,0.000049,-0.000008,80.305814,0.000052,
2236,2653,-0.488520703479349,0.180390553996098,-0.00636944836446673,0.004937,-0.000410,0.005836,0.208013,0.053884,320.706827,24.375807,0.999231,0.988990,0.004391,0.391376,0.000013,0.000027,0.000002,0.000027,0.000012,80.858070,0.000040,
2041,2038,-4.63339607691783,-13.2658748858024,0.0307868090671377,0.004336,-0.000446,0.008450,0.175331,0.068614,331.676885,24.684138,0.998573,0.978482,0.005767,0.435797,0.000050,-0.000080,0.000013,0.000051,-0.000081,5.736032,0.000082,
2506,2203,5.48799583960042,-9.65537757270855,0.0276813327749892,0.004809,-0.000439,0.006891,0.193181,0.059296,328.400741,22.294955,0.999035,0.972205,0.006239,0.440128,0.000048,-0.000011,-0.000021,0.000054,-0.000018,-17.545709,0.000055,
2086,3103,-3.81920818102214,9.94925308006954,0.0254494332316995,0.004960,-0.000104,0.004501,0.215957,0.046119,314.209780,24.355316,0.999691,0.993357,0.003282,0.448709,-0.000002,0.000035,-0.000009,0.000037,-0.000004,-77.042095,0.000041,
2026,3163,-5.12854558985286,11.243834684388,0.0427322823848044,0.004390,-0.000527,0.005927,0.186322,0.024969,313.690430,24.090169,0.999602,0.993633,0.003347,0.417022,-0.000007,0.000059,-0.000025,0.000067,-0.000016,-71.197738,0.000071,
2431,3028,3.6838983552127,8.34834864082737,0.00833988493292281,0.004787,-0.000549,0.003420,0.207403,0.027557,314.653550,25.472725,0.999463,0.987063,0.004273,0.399466,0.000020,0.000024,-0.000007,0.000030,0.000014,-52.848745,0.000045,
2266,2548,0.182971186263433,-2.10805296803542,-0.0133264541625522,0.005270,-0.000548,0.002872,0.232458,0.041272,322.319974,24.118278,0.999613,0.991852,0.003748,0.435359,0.000001,0.000025,0.000003,0.000026,0.000001,82.419397,0.000030,
2146,3238,-2.54065294261301,12.8797205910071,0.036190674106706,0.004631,-0.000265,0.006045,0.195440,0.041164,311.796702,24.693818,0.999653,0.993879,0.003115,0.396377,0.000017,0.000039,-0.000016,0.000047,0.000009,-62.289282,0.000060,
2161,2068,-2.02092245000962,-12.6110558723696,0.0328082224955892,0.004695,-0.001114,0.009142,0.186903,0.050529,330.668761,23.922818,0.999491,0.983564,0.004953,0.417191,0.000017,-0.000001,0.000009,0.000021,-0.000005,22.314730,0.000022,
2296,2683,0.810406652212105,0.835643320283182,-0.012618057109421,0.004470,-0.000772,0.008722,0.175790,0.050298,320.039496,24.298919,0.999660,0.989299,0.003984,0.491455,0.000002,0.000030,-0.000015,0.000037,-0.000005,-66.846225,0.000040,
2401,2833,3.06754153967237,4.10811188418448,-0.0223989616491735,0.005222,-0.000427,0.002887,0.229424,0.033284,317.566178,24.776966,0.999320,0.988143,0.004308,0.422800,-0.000004,0.000024,-0.000011,0.000028,-0.000007,-71.143604,0.000029,
2206,2788,-1.16520725447134,3.11813612822472,-0.0180145162313465,0.004725,-0.000700,0.004511,0.202981,0.015539,318.486758,24.464580,0.999142,0.988013,0.004387,0.433880,-0.000002,0.000018,0.000002,0.000018,-0.000002,83.106245,0.000020,
2086,2203,-3.67874449936087,-9.65007684147303,0.0147922962768803,0.004384,-0.000784,0.009612,0.173309,0.072216,328.652886,24.421694,0.998795,0.980689,0.005319,0.430446,0.000000,0.000028,0.000022,0.000040,-0.000012,61.040004,0.000041,
2221,2818,-0.844034207912419,3.77127725949772,-0.00801997944921595,0.004701,-0.000821,0.008371,0.189311,0.029086,318.028848,24.558785,0.999524,0.990281,0.003973,0.402137,0.000000,0.000026,0.000009,0.000029,-0.000002,73.086472,0.000032,
2116,2428,-3.06138141505833,-4.73099775194294,-0.000514409128356874,0.004648,-0.000520,0.005221,0.198085,0.041672,324.785411,24.320742,0.999228,0.986824,0.004671,0.434718,0.000002,-0.000007,-0.000019,0.000017,-0.000021,-38.615748,0.000022,
2161,2518,-2.09866939501206,-2.7637862867568,-0.0272149619165702,0.004722,-0.000411,0.005442,0.200347,0.048550,322.929310,24.238803,0.998856,0.984702,0.005027,0.468087,0.000020,0.000026,-0.000007,0.000030,0.000016,-56.016114,0.000047,
2086,2053,-3.65330293454291,-12.9379934405009,0.0361918726372892,0.005286,-0.001058,0.007535,0.220389,0.039033,331.285555,24.478367,0.998730,0.979853,0.005539,0.318885,0.000013,-0.000034,0.000010,0.000015,-0.000037,12.032996,0.000037,
2086,3118,-3.82175367731145,10.2742639022063,0.0279792419117939,0.004743,-0.000317,0.005503,0.202949,0.037274,313.973267,24.359009,0.999717,0.993731,0.003132,0.434107,-0.000004,0.000036,-0.000013,0.000040,-0.000008,-73.614387,0.000042,
2071,2278,-4.01680560974199,-8.00769373431826,0.00494945477504416,0.004731,-0.000165,0.003506,0.207278,0.060522,327.475030,24.558369,0.999861,0.994257,0.003703,0.352662,-0.000008,0.000022,-0.000007,0.000024,-0.000009,-77.054612,0.000024,
2281,2578,0.504249722442594,-1.45514344239557,-0.0012809074204938,0.004819,-0.000964,0.007488,0.196043,0.034322,321.877007,24.091110,0.999112,0.986181,0.004745,0.488420,0.000009,0.000026,-0.000003,0.000027,0.000008,-79.169894,0.000037,
2176,2638,-1.7917072721285,-0.148527536947569,-0.0193736756152134,0.004989,-0.000634,0.005966,0.210858,0.035731,321.010311,24.300471,0.999553,0.989641,0.004074,0.469865,0.000012,0.000004,-0.000006,0.000015,0.000001,-27.733973,0.000018,
2431,3043,3.68070426533226,8.67419516637312,0.00830289833254483,0.004831,-0.000633,0.006666,0.197386,0.033818,314.397640,25.509483,0.999490,0.988578,0.004112,0.418130,0.000020,0.000027,-0.000004,0.000029,0.000018,-68.088054,0.000047,
2191,2038,-1.36148800976626,-13.2668096495388,0.0208342035582518,0.005115,-0.000028,0.004402,0.220555,0.073612,330.987450,23.808776,0.999219,0.985148,0.004838,0.329819,0.000003,0.000028,0.000015,0.000035,-0.000004,65.281053,0.000039,
2461,3208,4.30225188067217,12.2574636441955,0.0331909703507449,0.004891,-0.000105,0.004900,0.206667,0.044221,311.964627,26.177766,0.999477,0.988699,0.004091,0.444524,0.000035,0.000041,-0.000002,0.000042,0.000034,-74.087941,0.000076,
2326,2518,1.49404863473683,-2.76149110740829,-0.01049637316396,0.004315,-0.000748,0.007687,0.171340,0.040925,322.709378,23.958107,0.999314,0.985419,0.004502,0.427837,0.000002,-0.000004,0.000003,0.000003,-0.000005,22.530453,0.000005,
2101,2038,-3.32523068261314,-13.267135263512,0.0212045130873548,0.004885,-0.000651,0.007144,0.202923,0.067384,331.312910,24.192619,0.999421,0.985145,0.005204,0.532581,0.000002,-0.000024,0.000002,0.000002,-0.000024,4.594404,0.000027,
2146,3253,-2.54339826342551,13.2049035360491,0.0254445990490808,0.004884,-0.000099,0.002322,0.218468,0.035758,311.484068,24.669246,0.999664,0.993533,0.003166,0.422147,0.000022,0.000039,-0.000010,0.000043,0.000017,-66.006705,0.000062,
2266,2623,0.168488496195874,-0.472608347541787,-0.0144480448051354,0.004844,-0.000945,0.010869,0.186387,0.043980,321.048319,24.229934,0.999388,0.987782,0.004352,0.458216,0.000000,0.000013,-0.000004,0.000014,-0.000001,-74.587395,0.000016,
2251,2803,-0.189967459372518,3.44718817428692,-0.0221493081118638,0.004891,-0.000598,0.005612,0.206527,0.034659,318.105364,24.519669,0.999394,0.988841,0.004286,0.455544,-0.000003,0.000018,-0.000004,0.000019,-0.000004,-79.999849,0.000020,
2041,2053,-4.6377143826167,-12.9309577626467,-0.0126278675890603,0.004524,0.000151,0.002461,0.200734,0.065746,331.099782,24.750919,0.999688,0.991593,0.003822,0.364182,0.000035,-0.000065,0.000000,0.000035,-0.000065,0.119926,0.000065,
2161,2293,-2.05867711388408,-7.68082194175093,0.00774952608622925,0.005214,-0.000120,0.005305,0.223094,0.074424,326.876562,24.099992,0.998603,0.980816,0.005509,0.456744,0.000003,-0.000006,-0.000002,0.000003,-0.000006,-11.145759,0.000006,
2236,2533,-0.467905727920282,-2.4363711577861,-0.00362898410031676,0.004476,-0.000360,0.007695,0.180674,0.061835,322.648063,24.179089,0.999685,0.990896,0.003801,0.420975,0.000009,0.000021,0.000001,0.000021,0.000009,85.712216,0.000032,
2086,2068,-3.65662854613247,-12.6076996214905,0.0202765819992692,0.005087,-0.000567,0.004743,0.219474,0.047068,330.911749,24.426789,0.998751,0.961042,0.007454,0.381790,0.000012,-0.000040,0.000010,0.000014,-0.000042,10.764309,0.000043,
2491,2008,5.20153420111716,-13.9371505281923,0.0416996531891982,0.004819,-0.000660,0.006997,0.193132,0.045169,331.621276,21.614174,0.999211,0.972058,0.006336,0.376493,0.000004,-0.000122,0.000065,0.000032,-0.000149,23.090443,0.000157,
2221,2833,-0.846480421840994,4.09709847211138,-0.00986594500722049,0.004826,-0.000703,0.005918,0.202995,0.030002,317.783230,24.523865,0.999392,0.990131,0.003943,0.456582,0.000002,0.000027,0.000013,0.000033,-0.000003,67.598397,0.000036,
2356,2773,2.09914239992156,2.80007648771213,-0.0223380623867797,0.004503,-0.000125,0.001738,0.200899,0.055533,318.491143,24.581680,0.999545,0.989910,0.003792,0.431609,0.000004,0.000020,-0.000009,0.000024,0.000000,-66.199449,0.000028,
2146,2488,-2.41937510793288,-3.42051780121368,-0.0116966358890522,0.004431,-0.000825,0.006357,0.184255,0.048602,323.584499,24.210258,0.999228,0.985550,0.004844,0.506444,0.000009,0.000009,-0.000021,0.000030,-0.000012,-45.259674,0.000030,
2206,2803,-1.16788351488352,3.44463739361118,-0.0186369085884621,0.004914,-0.000755,0.007881,0.201019,0.030329,318.235524,24.479150,0.998778,0.985028,0.004805,0.450755,-0.000002,0.000016,0.000003,0.000017,-0.000003,81.132627,0.000018,
2101,2248,-3.35863312386847,-8.66506361852264,0.00612349788070787,0.004976,-0.000221,0.004157,0.216273,0.065317,327.827696,24.319911,0.998811,0.984679,0.005068,0.462363,-0.000008,0.000044,0.000003,0.000044,-0.000008,86.492703,0.000047,
2191,2668,-1.47090796687737,0.505974128100249,-0.0146332197999754,0.004516,-0.000629,0.007735,0.183384,0.048931,320.487634,24.389930,0.999769,0.994123,0.003251,0.412913,0.000010,0.000011,-0.000005,0.000015,0.000006,-48.842724,0.000022,
2026,3178,-5.13039336753514,11.5683212008903,0.0461190511005611,0.004588,-0.000526,0.004454,0.199570,0.022477,313.487187,24.056442,0.999623,0.993502,0.003291,0.437408,-0.000009,0.000058,-0.000028,0.000069,-0.000019,-69.848212,0.000071,
2086,2218,-3.68096162040386,-9.32175107420872,0.0149831424618583,0.004385,-0.000650,0.008266,0.177298,0.075470,328.417288,24.428619,0.998699,0.981555,0.005243,0.428522,-0.000001,0.000048,0.000019,0.000054,-0.000007,71.058720,0.000059,
2041,2068,-4.63933712045816,-12.6042119342401,-0.00541151741691692,0.004809,-0.000153,0.004909,0.206970,0.053637,330.926476,24.654784,0.999663,0.991860,0.003732,0.443576,0.000026,-0.000057,0.000000,0.000026,-0.000057,-0.044629,0.000057,
2191,2428,-1.42815602389102,-4.7308639116101,-0.000509224454958712,0.005365,-0.000692,0.004202,0.233055,0.018069,324.541921,24.056669,0.998859,0.985137,0.004977,0.467650,0.000005,-0.000016,-0.000019,0.000016,-0.000027,-30.354237,0.000028,
2341,3028,1.7276628111891,8.34156277017713,0.0157261166756371,0.004717,-0.000352,0.004717,0.200606,0.035829,314.650088,25.212920,0.999725,0.993792,0.003367,0.387041,0.000005,0.000012,-0.000012,0.000021,-0.000004,-52.304949,0.000023,
2311,2638,1.14607293652373,-0.145186023174645,-0.00758097643728206,0.004964,-0.000956,0.007700,0.201489,0.027241,320.825543,24.201195,0.999428,0.988034,0.004063,0.463677,-0.000002,0.000014,-0.000011,0.000020,-0.000007,-63.619649,0.000020,
2086,2083,-3.66189659429806,-12.2744534830438,-0.0128670184149655,0.004569,-0.000775,0.010157,0.180093,0.075793,330.355315,24.441893,0.998961,0.947799,0.008841,0.399355,0.000010,-0.000021,0.000008,0.000012,-0.000023,13.829551,0.000023,
2131,2173,-2.69274729660259,-10.3082556467429,0.0128336879187145,0.004976,-0.000421,0.004575,0.214513,0.044666,328.956952,24.094071,0.999410,0.975609,0.005628,0.490526,0.000000,-0.000003,0.000022,0.000020,-0.000024,43.113216,0.000026,
2506,2218,5.48479278582493,-9.32599490532266,0.0200986670031966,0.005139,-0.000333,0.004124,0.219027,0.045738,328.120731,22.339308,0.999031,0.973856,0.006081,0.445965,0.000050,0.000010,-0.000010,0.000052,0.000007,-13.320413,0.000065,
2206,2533,-1.12031890819992,-2.43685492000948,-0.00815810159843977,0.004966,0.000104,0.002529,0.220321,0.074572,322.723044,24.198632,0.999440,0.988154,0.004324,0.466696,0.000021,0.000023,0.000002,0.000024,0.000020,62.460446,0.000044,
2251,2713,-0.173912204624376,1.48771555728428,-0.0199637003174757,0.004789,-0.000684,0.005302,0.202688,0.023442,319.583529,24.361727,0.999443,0.990985,0.003750,0.461703,-0.000001,0.000013,-0.000015,0.000023,-0.000010,-57.028815,0.000023,
2266,2803,0.136390486220659,3.44848673862818,-0.0213886114505613,0.005063,-0.000384,0.005045,0.216197,0.047656,318.094326,24.577149,0.999088,0.987586,0.004692,0.424849,0.000002,0.000016,0.000000,0.000016,0.000002,-89.241350,0.000020,
2401,2848,3.06504013528067,4.43305710707927,-0.012279176149093,0.005115,-0.000874,0.006424,0.211548,0.024265,317.388964,24.769025,0.999412,0.989856,0.004064,0.466900,-0.000008,0.000030,-0.000012,0.000033,-0.000011,-73.621527,0.000034,
2236,2893,-0.530252232563146,5.40206198695297,0.00221555901106285,0.004724,-0.000272,0.004762,0.202061,0.047089,316.870671,24.659753,0.999663,0.991310,0.003737,0.439267,-0.000004,0.000026,0.000011,0.000030,-0.000008,71.559300,0.000031,
2386,2773,2.75217215787049,2.8002376434945,-0.0165490179526273,0.004739,-0.000657,0.009347,0.184041,0.046875,318.535594,24.536594,0.999423,0.988214,0.004158,0.485853,-0.000001,0.000018,-0.000010,0.000022,-0.000005,-67.129605,0.000023,
2191,2233,-1.39475083230952,-8.99422664516601,0.0112300017698885,0.004998,-0.000518,0.002221,0.222156,0.037679,327.774294,23.922808,0.998778,0.981707,0.005427,0.407048,0.000000,0.000019,0.000002,0.000019,0.000000,84.220487,0.000022,
2086,3133,-3.82394953098026,10.5991568667755,0.0326648164230505,0.004694,-0.000329,0.005771,0.199932,0.037728,313.764617,24.359347,0.999713,0.993225,0.003143,0.432012,0.000000,0.000034,-0.000015,0.000040,-0.000006,-68.940181,0.000044,
2146,2248,-2.37812571693815,-8.6653609632581,0.0109833193178588,0.005084,-0.000375,0.006725,0.212887,0.073084,327.673336,24.145005,0.998881,0.980329,0.005343,0.441366,-0.000007,0.000013,0.000005,0.000014,-0.000008,77.567952,0.000014,
2431,3058,3.67766813331742,9.0007878528866,0.00590940322302913,0.004670,-0.000323,0.003055,0.203566,0.044211,314.137734,25.599604,0.999552,0.990331,0.004003,0.387692,0.000020,0.000029,0.000002,0.000030,0.000019,78.064959,0.000049,
2461,3223,4.2986422176455,12.5833514991981,0.0271913773367487,0.004621,-0.000077,0.002773,0.202274,0.033596,311.663373,26.246926,0.999545,0.991027,0.003748,0.417735,0.000032,0.000035,0.000002,0.000036,0.000031,59.737451,0.000067,
2236,2668,-0.491031853888536,0.506778657670644,-0.00577480729617719,0.004814,-0.000146,0.003054,0.211486,0.053741,320.472005,24.363702,0.999378,0.990199,0.004071,0.424944,0.000015,0.000022,-0.000004,0.000023,0.000013,-66.045535,0.000037,
2326,2533,1.4917118089281,-2.4340310304358,-0.0149746959987169,0.004839,-0.000407,0.004252,0.207404,0.046786,322.464836,23.952529,0.999421,0.985467,0.004478,0.474650,0.000002,0.000001,0.000000,0.000002,0.000001,-13.888169,0.000003,
2086,2098,-3.66313261942906,-11.9465843144694,0.000469755671645089,0.004667,-0.000987,0.008117,0.190399,0.042173,330.235895,24.547121,0.998921,0.965991,0.006997,0.262076,0.000007,-0.000004,0.000013,0.000016,-0.000012,33.592008,0.000017,
2161,2533,-2.100554107173,-2.43719065418437,-0.0194537848561254,0.004841,-0.000498,0.005993,0.204079,0.044858,322.755200,24.271486,0.999053,0.985737,0.004668,0.442602,0.000019,0.000030,-0.000004,0.000031,0.000018,-72.429268,0.000050,
2161,2308,-2.06122530549733,-7.35192072296604,0.00976032549493766,0.005079,-0.000184,0.006407,0.213534,0.071230,326.641510,24.217047,0.998808,0.981472,0.005339,0.348482,0.000003,-0.000013,-0.000011,0.000008,-0.000018,-26.885371,0.000018,
2131,2428,-2.73612968423405,-4.72907455618219,-0.0110381315716381,0.004588,-0.000916,0.011300,0.176822,0.065789,324.611370,24.313881,0.999233,0.986976,0.004631,0.424813,0.000009,-0.000009,-0.000017,0.000019,-0.000020,-31.629587,0.000023,
2176,2428,-1.75518682529805,-4.72940359792746,-0.00459381455567609,0.005273,-0.000389,0.005481,0.225188,0.051576,324.546229,24.178568,0.999017,0.984982,0.004886,0.421059,0.000007,-0.000012,-0.000023,0.000022,-0.000027,-33.515924,0.000029,
2146,3268,-2.54607587758793,13.5299551475392,0.0229702644631971,0.004830,-0.000074,0.001179,0.219482,0.034157,311.218634,24.679594,0.999662,0.994037,0.003138,0.416504,0.000025,0.000042,-0.000004,0.000043,0.000024,-75.931164,0.000068,
2026,3193,-5.13249233204656,11.8937879911617,0.0464810915502198,0.004715,-0.000001,0.002895,0.209993,0.057970,313.255106,24.060807,0.999595,0.992830,0.003358,0.457614,-0.000007,0.000067,-0.000030,0.000078,-0.000018,-70.389244,0.000081,
2266,2818,0.134216296758716,3.77411011491354,-0.0162073483560334,0.005088,-0.000251,0.003460,0.222590,0.032619,317.900225,24.590636,0.999280,0.989062,0.004263,0.421456,0.000002,0.000024,0.000005,0.000025,0.000001,79.020092,0.000029,
2206,2818,-1.17030326163477,3.77031630305881,-0.015030407323593,0.004761,-0.000656,0.006859,0.197237,0.026633,318.018173,24.473264,0.999037,0.987273,0.004434,0.469241,0.000000,0.000025,0.000007,0.000027,-0.000002,75.723581,0.000031,
2491,2023,5.19897819247887,-13.6076544584069,0.047799387233681,0.004652,-0.000243,0.004628,0.194759,0.064367,331.431656,21.712555,0.999270,0.970840,0.006315,0.359439,0.000011,-0.000120,0.000056,0.000032,-0.000140,20.287556,0.000147,
2221,2578,-0.801926643935087,-1.45501452191238,-0.017278624293283,0.005323,-0.000297,0.002358,0.237028,0.036605,321.896167,24.193493,0.999211,0.988053,0.004235,0.467182,0.000020,0.000025,0.000002,0.000026,0.000019,67.310142,0.000045,
2191,2053,-1.36455201879555,-12.938835798841,0.020056965604681,0.004812,-0.000626,0.007476,0.196910,0.063141,330.717234,23.729464,0.999234,0.982001,0.005131,0.416900,0.000004,0.000024,0.000019,0.000035,-0.000007,59.000299,0.000037,
2086,2908,-3.78990360466005,5.71934600028401,-0.000774879569519271,0.004837,-0.000790,0.008417,0.198492,0.039033,317.149997,24.373209,0.999397,0.991773,0.003822,0.446237,0.000003,0.000020,0.000002,0.000020,0.000003,83.418898,0.000025,
2041,2083,-4.64000697022395,-12.2783282733407,0.0231838433622897,0.004554,-0.000319,0.004059,0.197605,0.043214,330.914800,24.717964,0.999294,0.986380,0.004587,0.364451,0.000011,-0.000030,-0.000002,0.000011,-0.000030,-2.368032,0.000030,
2401,2863,3.06216786330038,4.76034239639904,-0.0153185848184876,0.005248,-0.000445,0.004399,0.225185,0.037270,317.131916,24.859774,0.999414,0.989430,0.004029,0.434481,-0.000011,0.000036,-0.000012,0.000039,-0.000014,-76.454752,0.000040,
2356,2788,2.09682696785189,3.12600476197655,-0.0175613404292676,0.004750,-0.000181,0.002892,0.208210,0.062451,318.294300,24.591433,0.999718,0.992948,0.003475,0.467692,0.000003,0.000023,-0.000009,0.000026,0.000000,-69.610141,0.000030,
2461,3238,4.29626128759949,12.9090471408497,0.0268671334888495,0.005209,-0.000138,0.001817,0.232949,0.034576,311.444804,26.323290,0.999724,0.993597,0.003299,0.395391,0.000030,0.000042,0.000004,0.000043,0.000029,74.134608,0.000073,
2146,2503,-2.4220491095936,-3.09240871418082,-0.0197848022103244,0.004593,-0.000558,0.003954,0.199026,0.039589,323.289089,24.233147,0.999025,0.984364,0.004960,0.483870,0.000018,0.000023,-0.000018,0.000039,0.000002,-49.594960,0.000046,
2446,3073,4.00098859282754,9.32658771429056,0.00643113520328598,0.004879,-0.000647,0.004846,0.206101,0.016030,313.924654,25.623404,0.999639,0.992872,0.003550,0.437856,0.000027,0.000032,0.000003,0.000033,0.000026,65.826631,0.000059,
2086,3148,-3.82593245976465,10.9243799486857,0.0382828798274772,0.004664,0.000235,0.003875,0.204282,0.061616,313.570709,24.375611,0.999766,0.995124,0.002916,0.437666,0.000002,0.000034,-0.000019,0.000043,-0.000007,-64.973043,0.000046,
2386,2788,2.74908832219067,3.12785929537978,-0.0226246413158151,0.004802,-0.000564,0.006396,0.197551,0.041283,318.253445,24.630351,0.999661,0.991300,0.003792,0.429931,-0.000002,0.000019,-0.000012,0.000025,-0.000008,-65.009320,0.000025,
2101,2053,-3.32694047362537,-12.9379444664477,0.0335491584593797,0.004903,-0.001133,0.009941,0.195465,0.050489,331.167034,24.374913,0.999020,0.973586,0.006159,0.337696,0.000001,-0.000016,0.000004,0.000002,-0.000017,13.067903,0.000019,
2176,2443,-1.75827575474079,-4.40232271962311,-0.00628502026262368,0.004817,-0.000685,0.005681,0.203541,0.045428,324.268505,24.142693,0.999209,0.985651,0.004791,0.464670,0.000003,-0.000005,-0.000023,0.000022,-0.000024,-40.488923,0.000027,
2236,2548,-0.471616627836497,-2.10828565917217,-0.0169569601281978,0.004361,-0.000618,0.008058,0.174156,0.054005,322.287246,24.169515,0.999688,0.991636,0.003676,0.444989,0.000013,0.000031,0.000004,0.000031,0.000012,78.356705,0.000045,
2176,2653,-1.79538638517144,0.179824375712911,-0.0312530279290968,0.004545,-0.000314,0.004506,0.195075,0.051713,320.651569,24.343318,0.999574,0.989645,0.004101,0.455954,0.000011,0.000013,-0.000003,0.000015,0.000009,-53.110456,0.000024,
2086,2233,-3.68285337737215,-8.99225224495548,0.00424029761819611,0.005329,-0.000348,0.005689,0.228189,0.073705,328.137082,24.439878,0.999086,0.984272,0.004777,0.417151,-0.000007,0.000056,0.000010,0.000058,-0.000008,81.200701,0.000062,
2101,2263,-3.36111612574145,-8.33802911318454,0.00948188475155121,0.004918,-0.001089,0.008746,0.199993,0.044288,327.598641,24.281949,0.998742,0.983542,0.005153,0.482715,-0.000006,0.000032,0.000006,0.000033,-0.000007,80.908637,0.000035,
2191,2248,-1.39712528957876,-8.66634923514832,0.011297877339473,0.005083,-0.000429,0.001476,0.228448,0.038382,327.539723,23.902694,0.998652,0.982720,0.005312,0.444849,0.000000,0.000010,-0.000001,0.000010,0.000000,-82.688824,0.000012,
2506,2233,5.48186914407115,-8.99595511062223,0.0224442369503208,0.004991,0.000059,0.002255,0.219671,0.060853,327.897441,22.524079,0.998912,0.978966,0.005636,0.339820,0.000054,0.000019,-0.000002,0.000054,0.000018,-3.591515,0.000075,
2311,2653,1.14314922881492,0.182216219101662,-0.0108845403899522,0.004924,-0.000690,0.006018,0.205532,0.038991,320.558108,24.234285,0.999508,0.989149,0.003984,0.475103,-0.000001,0.000017,-0.000009,0.000020,-0.000005,-66.827829,0.000021,
2206,2548,-1.12352772058792,-2.10894867376115,-0.0146052155773759,0.004777,0.000062,0.002552,0.211571,0.058180,322.417498,24.241947,0.999539,0.989882,0.004022,0.424658,0.000022,0.000030,0.000005,0.000032,0.000020,64.554168,0.000053,
2491,2038,5.19575171647923,-13.2790948957433,0.0479385189593131,0.004513,-0.000210,0.004732,0.188045,0.048348,331.184772,21.698511,0.999257,0.971230,0.006396,0.419862,0.000010,-0.000107,0.000044,0.000025,-0.000122,18.442229,0.000129,
2206,2833,-1.17180695571665,4.09623275276631,-0.00457991863169127,0.005054,-0.000635,0.005850,0.213981,0.029017,317.878145,24.538499,0.999219,0.989614,0.004089,0.422952,0.000002,0.000027,0.000012,0.000032,-0.000003,67.988743,0.000035,
2236,2908,-0.533119874185772,5.72832887460103,0.000117194527717857,0.004681,-0.000700,0.005142,0.198703,0.025555,316.605376,24.708178,0.999635,0.991910,0.003709,0.389992,-0.000001,0.000021,0.000009,0.000024,-0.000004,71.376737,0.000025,
2026,3208,-5.13445425501231,12.2183845765664,0.04886511398621,0.004955,-0.000028,0.002931,0.220922,0.044583,313.041036,24.049133,0.999553,0.992673,0.003379,0.445017,-0.000004,0.000066,-0.000034,0.000080,-0.000018,-67.896107,0.000084,
2041,2098,-4.64151296641717,-11.9506279824319,0.0282077515635706,0.004978,-0.000697,0.004456,0.215834,0.031632,330.734625,24.691482,0.999150,0.980981,0.005238,0.374622,0.000000,-0.000010,0.000002,0.000000,-0.000010,12.972363,0.000012,
2146,3283,-2.54947872242061,13.8553306663327,0.0174601156680296,0.004600,-0.000134,0.005267,0.196454,0.042144,310.903553,24.697869,0.999602,0.993751,0.003245,0.412765,0.000027,0.000051,0.000004,0.000051,0.000026,81.473055,0.000079,
2161,2323,-2.06365821957112,-7.0248574112688,0.00347415856742828,0.005149,0.000111,0.000776,0.234093,0.059421,326.368547,24.097364,0.999002,0.983645,0.005046,0.468870,0.000006,-0.000011,-0.000010,0.000011,-0.000015,-25.179039,0.000016,
2251,2818,-0.191730668603238,3.77284167864953,-0.0136600397549387,0.004969,-0.000123,0.002636,0.220037,0.036842,317.945891,24.543686,0.999584,0.990317,0.004113,0.456667,-0.000003,0.000028,0.000001,0.000028,-0.000003,88.459351,0.000031,
2086,2113,-3.66393123098432,-11.6207714596998,0.0162438917512304,0.004995,-0.000739,0.005497,0.213109,0.018740,330.149978,24.484775,0.998773,0.982380,0.005331,0.302201,0.000006,-0.000008,0.000014,0.000015,-0.000017,31.980923,0.000019,
2191,2068,-1.3678144925933,-12.6103121962001,0.0143175437812033,0.004513,-0.000962,0.008504,0.179941,0.037298,330.412264,23.666135,0.999496,0.983702,0.005070,0.472341,0.000005,0.000004,0.000016,0.000021,-0.000011,43.995543,0.000021,
2221,2848,-0.849347625160622,4.42439162053702,-0.0172779847835045,0.004972,-0.000258,0.004136,0.215679,0.057783,317.489197,24.560481,0.999310,0.990238,0.003868,0.466639,0.000004,0.000027,0.000017,0.000036,-0.000004,62.367646,0.000039,
2506,2248,5.47822714936862,-8.66935930519382,0.025870542394955,0.004788,-0.001074,0.009552,0.181770,0.030070,327.646437,22.455967,0.998947,0.979774,0.005641,0.440643,0.000052,0.000038,0.000007,0.000055,0.000035,22.463295,0.000091,
2116,2443,-3.06422728029189,-4.40532019000186,-2.81157771269136E-05,0.004391,-0.001082,0.008815,0.175484,0.042074,324.525739,24.168902,0.999254,0.987772,0.004625,0.591777,0.000000,0.000001,-0.000019,0.000019,-0.000019,-45.872356,0.000022,
2191,2683,-1.47235816206251,0.831385097723128,-0.00811109503092666,0.005096,-0.000579,0.006699,0.213297,0.043304,320.329088,24.346700,0.999651,0.992995,0.003485,0.464928,0.000008,0.000018,-0.000008,0.000023,0.000003,-60.994982,0.000028,
2026,3223,-5.1370456326988,12.543657045521,0.0488895408766439,0.004829,-0.000202,0.004934,0.209575,0.048626,312.784617,24.072372,0.999514,0.993235,0.003272,0.414419,0.000000,0.000062,-0.000038,0.000080,-0.000018,-64.580983,0.000084,
2086,2923,-3.79233843551581,6.0454729940095,-0.00291413961321041,0.004920,-0.000667,0.008161,0.203090,0.031990,316.892578,24.395626,0.999296,0.990423,0.003955,0.415371,0.000003,0.000023,0.000005,0.000024,0.000001,76.187803,0.000029,
2266,2638,0.166171600461201,-0.145632270049063,-0.0166835603125151,0.005153,-0.000777,0.007865,0.210578,0.037762,320.810416,24.245726,0.999190,0.987189,0.004406,0.462512,-0.000002,0.000013,-0.000007,0.000015,-0.000005,-69.144467,0.000016,
2326,2548,1.48883069686351,-2.10671149865585,-0.0142048745014449,0.004973,-0.000587,0.008069,0.200403,0.072810,322.220843,23.966053,0.999167,0.983570,0.004837,0.522771,0.000001,0.000012,0.000001,0.000012,0.000001,86.136618,0.000014,
2041,2113,-4.64366064547789,-11.6228132678359,0.0280913442023802,0.005110,-0.001383,0.005440,0.218999,0.013778,330.496843,24.630598,0.998871,0.980147,0.005588,0.413290,-0.000005,-0.000017,0.000001,-0.000005,-0.000017,5.557800,0.000023,
2371,2713,2.43680296883887,1.49368046739019,-0.0254528411446131,0.004788,-0.000610,0.005650,0.199728,0.037856,319.445104,24.395999,0.999437,0.990536,0.003840,0.443520,-0.000006,0.000022,-0.000017,0.000030,-0.000015,-64.715869,0.000030,
2401,2878,3.058572643494,5.08733093542487,-0.0191785726577791,0.004962,-0.000425,0.005385,0.208523,0.050188,316.837743,24.922180,0.999413,0.990916,0.003804,0.430300,-0.000011,0.000036,-0.000010,0.000038,-0.000013,-78.255167,0.000039,
2131,2443,-2.73816480027379,-4.4038922423692,-0.00479940089081765,0.004496,-0.001028,0.010363,0.175325,0.033814,324.420839,24.203683,0.999257,0.987510,0.004626,0.509870,0.000005,-0.000001,-0.000018,0.000020,-0.000016,-40.454819,0.000021,
2161,2083,-2.02296907673609,-12.2805448015434,0.0308462984706921,0.004940,-0.000288,0.004735,0.211881,0.061954,330.435669,24.049227,0.999378,0.982982,0.005131,0.315631,0.000018,0.000008,0.000007,0.000021,0.000004,26.275907,0.000028,
2236,2683,-0.494188333087319,0.833531462385082,-0.0109982046748769,0.004832,-0.000373,0.005508,0.204323,0.049787,320.177837,24.345504,0.999331,0.988778,0.004176,0.460736,0.000012,0.000024,-0.000009,0.000029,0.000007,-62.643579,0.000038,
2416,2983,3.36563057077921,7.36948629611501,-0.00152435993089739,0.004791,-0.000198,0.004837,0.202610,0.043692,315.281543,25.217710,0.999826,0.994076,0.003337,0.483135,0.000017,0.000023,-0.000006,0.000026,0.000013,-58.832023,0.000040,
2086,2248,-3.68573000964549,-8.6651817811048,0.00594994339786581,0.004820,-0.000805,0.008255,0.197309,0.066813,327.879891,24.369205,0.998931,0.983948,0.004943,0.482426,-0.000008,0.000054,0.000003,0.000054,-0.000008,87.599616,0.000058,
2236,2563,-0.472686297879328,-1.78369561300547,-0.00501471522591146,0.005014,-0.000687,0.007453,0.206114,0.048691,322.176860,24.065718,0.999653,0.991417,0.003686,0.565406,0.000014,0.000027,0.000001,0.000027,0.000014,83.855462,0.000042,
2341,3043,1.72450384003971,8.66632087857607,0.0114861916894142,0.004760,-0.000678,0.005454,0.199915,0.023671,314.369223,25.138516,0.999675,0.992732,0.003471,0.485077,0.000006,0.000011,-0.000011,0.000020,-0.000003,-51.915158,0.000021,
2311,2668,1.13998788287024,0.510408304135957,-0.0148913309784007,0.004732,-0.000446,0.004705,0.201328,0.051624,320.276062,24.338281,0.999797,0.992078,0.003609,0.416707,0.000000,0.000016,-0.000013,0.000023,-0.000008,-61.282847,0.000024,
2221,2593,-0.805280877569391,-1.12758010111938,-0.020086290908921,0.004819,-0.000252,0.003126,0.211491,0.052010,321.603920,24.209915,0.999149,0.985972,0.004560,0.486034,0.000017,0.000017,-0.000002,0.000019,0.000014,-47.076004,0.000034,
2386,2803,2.74565839905415,3.45411093513248,-0.0269747584334254,0.004649,-0.000701,0.006927,0.188593,0.033972,317.963847,24.618509,0.999851,0.994898,0.003367,0.477628,-0.000001,0.000015,-0.000012,0.000021,-0.000007,-62.232608,0.000021,
2431,3073,3.67479944542857,9.32544033037836,0.0066435546028174,0.004777,-0.000466,0.003883,0.205347,0.035265,313.900622,25.554661,0.999584,0.991720,0.003766,0.472547,0.000022,0.000031,0.000000,0.000031,0.000022,86.683257,0.000053,
2251,2968,-0.217621869364624,7.03379644560884,-0.00158865707913947,0.004798,0.000336,0.000835,0.218487,0.067640,315.600381,24.850439,0.999535,0.992974,0.003523,0.410375,-0.000011,0.000021,0.000002,0.000021,-0.000011,87.050989,0.000021,
2161,2548,-2.10316378968161,-2.11110862687996,-0.0153517678209028,0.004621,-0.000935,0.008677,0.185642,0.042699,322.528756,24.226962,0.999190,0.985685,0.004524,0.495869,0.000022,0.000034,0.000000,0.000034,0.000022,-88.885492,0.000056,
2266,2653,0.163241887437078,0.182306362501272,-0.020515559854914,0.005130,-0.000819,0.007052,0.212213,0.029928,320.536108,24.343118,0.999467,0.989586,0.004131,0.383268,-0.000001,0.000017,-0.000004,0.000018,-0.000002,-76.256662,0.000019,
2191,2083,-1.36930768982786,-12.28005051537,0.0169259650035087,0.005079,-0.000444,0.004423,0.218797,0.043399,330.230901,23.827194,0.999383,0.982845,0.005210,0.334782,0.000009,0.000011,0.000011,0.000021,-0.000001,47.303760,0.000024,
2221,2863,-0.852143478513941,4.75055765017212,-0.0177111267856844,0.004805,-0.000364,0.003841,0.208888,0.047363,317.234644,24.588674,0.999374,0.991178,0.003668,0.446814,0.000006,0.000024,0.000010,0.000028,0.000001,66.346880,0.000033,
2356,2803,2.09449901877163,3.4515649533903,-0.0083095778809934,0.004759,-0.000403,0.005594,0.199049,0.057607,318.118526,24.617268,0.999844,0.994543,0.003279,0.475624,0.000002,0.000019,-0.000007,0.000021,-0.000001,-69.661403,0.000024,
2146,2518,-2.42508534071913,-2.76455959408293,-0.0235626962311244,0.004494,-0.000783,0.007377,0.184119,0.049905,322.999883,24.257839,0.999072,0.985412,0.004773,0.478552,0.000021,0.000023,-0.000011,0.000033,0.000011,-47.486620,0.000045,
2146,3298,-2.5520184568418,14.1794944292925,0.0185147765744773,0.004570,-0.000258,0.005901,0.193072,0.027438,310.663589,24.666614,0.999650,0.994600,0.002976,0.435497,0.000032,0.000064,0.000001,0.000064,0.000032,88.551744,0.000097,
2281,2893,0.446379342762992,5.40629007612345,-0.0169808022513394,0.004861,-0.000227,0.004416,0.208987,0.056303,316.635573,24.740295,0.999604,0.991705,0.003663,0.448968,0.000004,0.000024,0.000010,0.000028,0.000000,67.492651,0.000033,
2266,3043,0.0956868420807631,8.66129755710682,0.0152630993817979,0.004828,-0.000492,0.004497,0.207381,0.022119,314.479621,24.961819,0.999541,0.991169,0.003728,0.415046,0.000001,0.000006,-0.000008,0.000012,-0.000005,-54.301430,0.000012,
2146,2263,-2.38101555875731,-8.33643439743997,0.00513763710790727,0.005050,-0.000658,0.007181,0.209916,0.059430,327.380044,24.179279,0.998717,0.981529,0.005453,0.403640,-0.000005,0.000009,0.000003,0.000010,-0.000006,80.142392,0.000010,
2041,2128,-4.64660893443103,-11.2934703154091,0.024187998649893,0.004807,-0.001339,0.008535,0.196518,0.028827,330.201183,24.640808,0.998525,0.976965,0.006180,0.413851,-0.000016,-0.000021,0.000005,-0.000013,-0.000024,31.738541,0.000037,
2446,3088,3.9993437377915,9.65248180715744,0.0178408209337704,0.005275,-0.000516,0.004531,0.225644,0.039681,313.793840,25.732145,0.999615,0.992951,0.003610,0.404100,0.000029,0.000033,-0.000002,0.000034,0.000028,-62.806493,0.000062,
2431,3088,3.67349896437828,9.65020537966917,0.0272060978505237,0.004901,-0.000472,0.005318,0.205742,0.043702,313.827959,25.632493,0.999618,0.992612,0.003620,0.451865,0.000024,0.000031,-0.000005,0.000034,0.000022,-62.218368,0.000056,
2191,2443,-1.43184163200198,-4.40252303361367,-0.00278909091468904,0.004544,-0.000942,0.006668,0.187595,0.048759,324.234682,24.093921,0.998941,0.985146,0.004957,0.477336,0.000000,-0.000011,-0.000020,0.000015,-0.000026,-37.872680,0.000026,
2176,2458,-1.76005802896665,-4.07528714054005,-0.00292254796642055,0.005323,-0.000502,0.005842,0.226337,0.046477,324.076974,24.147329,0.999165,0.985750,0.004836,0.474464,0.000006,0.000002,-0.000025,0.000028,-0.000021,-42.752341,0.000029,
2341,3058,1.72155702466545,8.99190074087066,0.00757351645671633,0.004833,-0.000696,0.004086,0.208084,0.022400,314.099388,25.135665,0.999658,0.993668,0.003257,0.522515,0.000006,0.000012,-0.000008,0.000018,0.000001,-56.626985,0.000021,
2221,2368,-0.765466537788104,-6.04040871206113,0.00178104302955262,0.004673,-0.001392,0.009546,0.183537,0.027132,325.399258,23.990596,0.999558,0.988300,0.004434,0.377411,-0.000005,-0.000003,-0.000001,-0.000003,-0.000006,-68.823560,0.000009,
2221,2608,-0.807828272346395,-0.800717029218006,-0.0208037444522802,0.005069,-0.000401,0.005233,0.216196,0.047673,321.359544,24.216568,0.998938,0.982648,0.004968,0.494709,0.000020,0.000011,0.000005,0.000022,0.000009,23.008164,0.000032,
2221,2878,-0.85432082494798,5.07560229808832,-0.00964461254102389,0.004706,-0.000224,0.004250,0.203070,0.044026,317.052443,24.573363,0.999448,0.992512,0.003436,0.477223,0.000003,0.000026,0.000008,0.000028,0.000000,72.410117,0.000033,
2086,3163,-3.82910365780375,11.2496919819977,0.0307291997851848,0.004526,-0.000449,0.005861,0.191889,0.025229,313.250363,24.384262,0.999787,0.995149,0.002972,0.390336,-0.000003,0.000042,-0.000027,0.000055,-0.000016,-64.690523,0.000056,
2101,2068,-3.32924041421276,-12.6096689842899,0.0313619043500353,0.004915,-0.000874,0.007634,0.202866,0.054242,330.916095,24.296152,0.999164,0.950620,0.008362,0.424845,0.000002,-0.000025,0.000005,0.000003,-0.000026,10.514724,0.000029,
2506,2263,5.47495303036422,-8.33954148990607,0.018854445258853,0.005344,-0.001479,0.010761,0.202368,0.015013,327.365364,22.564861,0.998672,0.976179,0.005882,0.380216,0.000046,0.000031,-0.000003,0.000046,0.000031,-12.447492,0.000078,
2266,2833,0.130850838447355,4.10064495218357,-0.0189373945202078,0.004818,-0.000556,0.006282,0.200770,0.033121,317.611307,24.616513,0.999262,0.989381,0.004119,0.421650,0.000002,0.000031,0.000008,0.000033,0.000000,75.868514,0.000038,
2206,2848,-1.17536143873079,4.42274234631957,-0.00790618493584816,0.004634,-0.000874,0.010324,0.180410,0.047699,317.572564,24.542209,0.999288,0.990360,0.003871,0.454366,0.000003,0.000026,0.000017,0.000035,-0.000006,62.524385,0.000037,
2191,2263,-1.40061874230787,-8.3372543607617,0.0037704076389673,0.004672,-0.000639,0.002086,0.207635,0.024157,327.214442,23.936648,0.998789,0.981025,0.005450,0.413595,-0.000002,0.000010,-0.000002,0.000010,-0.000002,-80.466019,0.000011,
2146,2533,-2.42658603215303,-2.43844244483877,-0.0142388748047892,0.004794,-0.000738,0.006794,0.199677,0.045055,322.850832,24.261215,0.999243,0.986631,0.004456,0.478825,0.000019,0.000027,-0.000006,0.000030,0.000016,-62.706218,0.000047,
2236,2578,-0.476104047015877,-1.45468005862347,-0.0157212854036288,0.004863,-0.000379,0.005695,0.204962,0.043145,321.842516,24.173428,0.999421,0.988535,0.004174,0.474135,0.000011,0.000029,0.000001,0.000029,0.000011,87.548058,0.000042,
2491,2053,5.19077268583235,-12.9460020861263,0.0239936839167854,0.004620,-0.000456,0.004122,0.195202,0.025775,330.749349,21.841257,0.999131,0.976745,0.005905,0.317813,0.000014,-0.000091,0.000037,0.000025,-0.000102,17.546338,0.000107,
2191,2098,-1.37282436901028,-11.9518400885618,0.00304147131538457,0.005019,-0.000592,0.004564,0.215568,0.036375,329.872058,23.639296,0.999453,0.985379,0.005050,0.534113,0.000008,0.000020,0.000012,0.000028,0.000000,57.569870,0.000032,
2281,2653,0.490077200992928,0.182136773518451,-0.0164051961731957,0.005057,-0.000246,0.004209,0.218292,0.040556,320.554905,24.294138,0.999425,0.988296,0.004202,0.434145,0.000000,0.000020,-0.000006,0.000022,-0.000001,-74.640211,0.000025,
2386,2818,2.74288193686255,3.78067760244791,-0.0236001378829656,0.004567,-0.000651,0.007730,0.181981,0.036264,317.740829,24.689835,0.999683,0.991414,0.003863,0.451896,-0.000003,0.000017,-0.000010,0.000021,-0.000007,-67.446718,0.000021,
2101,2278,-3.36295076421422,-8.00930531422853,0.00296604091755626,0.005349,-0.000261,0.000909,0.242919,0.035307,327.345626,24.290885,0.998571,0.983090,0.005219,0.468459,-0.000003,0.000013,0.000000,0.000013,-0.000003,88.282647,0.000013,
2206,2563,-1.125902391521,-1.78289391675915,-0.00912328020308451,0.004855,-0.000414,0.006372,0.202873,0.052956,322.212077,24.215001,0.999561,0.990820,0.003872,0.463787,0.000024,0.000023,0.000001,0.000025,0.000022,26.145666,0.000047,
2416,2998,3.36306372063475,7.69542226141871,0.0027373142265219,0.005001,-0.000559,0.006946,0.204428,0.033994,315.073771,25.295909,0.999541,0.988663,0.004064,0.442333,0.000019,0.000021,-0.000006,0.000026,0.000015,-50.231458,0.000041,
2311,2683,1.1374656824895,0.836219095009696,-0.012206655765965,0.004832,-0.000432,0.005582,0.202947,0.055653,320.056817,24.292553,0.999722,0.991090,0.003812,0.499092,0.000001,0.000027,-0.000014,0.000033,-0.000005,-65.925970,0.000035,
2176,2668,-1.79674765810534,0.505015659941932,-0.0152460756479513,0.004643,-0.000332,0.004844,0.198573,0.065646,320.545779,24.336059,0.999631,0.992018,0.003638,0.489475,0.000010,0.000008,-0.000006,0.000015,0.000004,-39.477059,0.000020,
2161,2338,-2.06683513393237,-6.69589759867558,-0.00276934514545246,0.004962,-0.000049,0.002213,0.221081,0.072455,326.061264,24.132723,0.999261,0.987533,0.004467,0.458626,0.000005,-0.000011,-0.000011,0.000010,-0.000017,-27.648270,0.000017,
2236,2923,-0.536209155379833,6.05381472311248,-0.0081535918981217,0.004961,-0.000657,0.007115,0.205216,0.028139,316.298569,24.621304,0.999639,0.992275,0.003646,0.500284,-0.000002,0.000021,0.000005,0.000022,-0.000002,78.848699,0.000024,
2191,2698,-1.47528218263737,1.15699194809415,-0.011832340736305,0.004880,-0.000615,0.005313,0.207702,0.028204,320.049692,24.251036,0.999710,0.994082,0.003262,0.560596,0.000005,0.000016,-0.000008,0.000020,0.000001,-62.701748,0.000024,
2086,2128,-3.66706386906887,-11.2913169805715,0.009583351428887,0.004686,-0.000837,0.007005,0.194559,0.039920,329.835127,24.471068,0.998960,0.983927,0.005163,0.339579,0.000000,-0.000014,0.000017,0.000011,-0.000025,33.795429,0.000025,
2161,2563,-2.10501073734114,-1.78420674329857,-0.00747955810123813,0.004700,-0.000606,0.008145,0.191043,0.060349,322.356819,24.275010,0.999067,0.985768,0.004574,0.476169,0.000023,0.000029,-0.000002,0.000030,0.000022,-69.517534,0.000052,
2086,2263,-3.68757429374141,-8.33803961806814,0.00810920724205744,0.005055,-0.000823,0.006664,0.212666,0.046533,327.672366,24.327704,0.998833,0.983241,0.005059,0.504707,-0.000005,0.000040,0.000005,0.000040,-0.000006,84.308769,0.000043,
2161,1993,-2.00837206668742,-14.2538114187993,0.0300238822642882,0.004816,0.000320,0.002990,0.211621,0.069327,331.872067,24.049512,0.999138,0.982089,0.005248,0.241069,0.000024,-0.000022,-0.000048,0.000055,-0.000052,-32.404446,0.000062,
2161,2098,-2.02548482488944,-11.9522941497263,0.0292554828662901,0.004972,-0.000195,0.004722,0.213447,0.054274,330.183520,23.998583,0.999557,0.983444,0.005095,0.371855,0.000016,0.000018,0.000011,0.000029,0.000006,47.493715,0.000037,
2326,2563,1.48630753316591,-1.77933256538866,-0.0119718789865715,0.004979,-0.000719,0.006869,0.204765,0.051663,322.000505,24.049605,0.998878,0.982658,0.005050,0.453228,0.000001,0.000013,-0.000002,0.000014,0.000000,-79.260910,0.000016,
2191,2113,-1.37387531576338,-11.623770476682,0.023784655884981,0.005130,-0.000605,0.005589,0.217462,0.049969,329.805017,23.801561,0.999022,0.981224,0.005400,0.402223,0.000007,0.000013,0.000010,0.000021,-0.000001,54.092739,0.000024,
2461,3253,4.29224197577811,13.2345814636876,0.0212118989625765,0.004888,-0.000134,0.004413,0.208463,0.046562,311.126178,26.348050,0.999696,0.993509,0.003265,0.435562,0.000032,0.000049,0.000010,0.000054,0.000027,65.511025,0.000083,
2266,2668,0.160466812969986,0.508750629856728,-0.0229127345098732,0.005103,-0.000660,0.005600,0.215880,0.039704,320.276378,24.302905,0.999480,0.990794,0.003964,0.459456,0.000000,0.000016,-0.000011,0.000021,-0.000006,-62.709476,0.000022,
2401,2893,3.05641212798871,5.41282529120774,-0.01181809260828,0.005006,-0.000278,0.003749,0.216574,0.049694,316.662868,24.946703,0.999472,0.990705,0.003864,0.450146,-0.000009,0.000031,-0.000009,0.000033,-0.000011,-77.227001,0.000034,
2281,2908,0.443742139576411,5.7319169852207,-0.0154443856252442,0.004882,-0.000567,0.005095,0.207560,0.035745,316.402746,24.757123,0.999633,0.992378,0.003468,0.438669,0.000004,0.000019,0.000006,0.000021,0.000003,71.164101,0.000025,
2431,3103,3.66989725169271,9.97645091368805,0.0203293679026046,0.004841,-0.000601,0.005462,0.202388,0.027378,313.521034,25.700407,0.999724,0.993822,0.003390,0.416489,0.000030,0.000038,-0.000003,0.000039,0.000029,-72.390107,0.000068,
2101,2293,-3.3662978269182,-7.68072666072587,0.00451968676691195,0.004597,-0.000500,0.006202,0.192913,0.059179,327.066840,24.341249,0.998949,0.985865,0.004925,0.445586,0.000006,0.000016,0.000005,0.000018,0.000004,66.258453,0.000023,
2281,3133,0.405199388824723,10.6149545805379,0.0221910735781989,0.004708,-0.000444,0.007889,0.190420,0.035161,313.025929,25.137091,0.999653,0.993796,0.003426,0.462480,0.000002,0.000026,-0.000006,0.000028,0.000001,-76.193693,0.000033,
2266,2848,0.128831761813768,4.42638392588751,-0.0127864129684667,0.005035,-0.000467,0.006144,0.211276,0.039412,317.429080,24.634401,0.999489,0.991941,0.003781,0.435138,0.000004,0.000034,0.000010,0.000037,0.000001,72.397364,0.000043,
2266,3058,0.0929654106000619,8.98691228348581,0.0148392299943225,0.004835,-0.000498,0.004381,0.208106,0.026657,314.231658,24.977619,0.999404,0.991590,0.003762,0.428341,0.000004,0.000008,-0.000007,0.000014,-0.000002,-53.460853,0.000015,
2101,2083,-3.33317570300287,-12.2785882028299,0.00975077335334618,0.004684,-0.000585,0.007479,0.192861,0.055466,330.485530,24.267614,0.998976,0.957758,0.007879,0.460354,0.000004,-0.000010,0.000005,0.000005,-0.000011,17.680895,0.000011,
2131,2458,-2.74022830101903,-4.07378916396124,-0.0113667605424439,0.005187,-0.000694,0.008634,0.212455,0.079932,324.159374,24.350986,0.999309,0.988570,0.004507,0.415788,0.000008,0.000001,-0.000024,0.000029,-0.000020,-40.719910,0.000030,
2356,2818,2.09184557084639,3.77774956566302,-0.0076788957733811,0.004986,-0.000535,0.006698,0.205536,0.046320,317.886045,24.644383,0.999689,0.991922,0.003681,0.475844,0.000000,0.000020,-0.000004,0.000021,-0.000001,-80.229568,0.000024,
2191,2278,-1.40298997727971,-8.00889972431201,0.00800966533108749,0.004813,-0.000685,0.006169,0.201356,0.049272,327.001395,23.988861,0.998861,0.980351,0.005472,0.403234,-0.000004,0.000000,-0.000009,0.000007,-0.000011,-52.164949,0.000011,
2236,2698,-0.4972536569949,1.16077475040002,-0.0170560672547708,0.004867,-0.000367,0.006032,0.204261,0.052634,319.883416,24.364003,0.999425,0.990860,0.003753,0.466812,0.000007,0.000020,-0.000009,0.000025,0.000002,-62.480301,0.000030,
2191,2713,-1.47914978027984,1.48629052662198,-0.0266119375636436,0.004603,-0.000584,0.005478,0.194455,0.029232,319.668457,24.393644,0.999311,0.989435,0.004028,0.434202,0.000006,0.000012,-0.000006,0.000015,0.000002,-58.078700,0.000019,
2086,3178,-3.83035341979548,11.5733432240523,0.0409056332854902,0.004927,-0.000103,0.003697,0.216852,0.047730,313.115640,24.291176,0.999718,0.995058,0.002945,0.503803,-0.000001,0.000040,-0.000026,0.000052,-0.000013,-64.479004,0.000054,
2416,3013,3.36007688161686,8.02178235798096,0.00196988019524724,0.004843,-0.000417,0.004669,0.205588,0.038658,314.822883,25.368676,0.999435,0.986230,0.004310,0.420973,0.000019,0.000022,-0.000008,0.000029,0.000012,-50.213789,0.000042,
2176,2683,-1.79926669472902,0.831291364384903,-0.0190225799545374,0.004937,-0.000585,0.005323,0.210537,0.049181,320.283211,24.298011,0.999444,0.991122,0.003810,0.523942,0.000010,0.000013,-0.000009,0.000021,0.000002,-50.493222,0.000025,
2206,2578,-1.12847301070381,-1.45583230545436,-0.0108579067878054,0.004948,-0.000356,0.005983,0.208437,0.060580,321.960158,24.208493,0.999341,0.989042,0.004108,0.495575,0.000017,0.000021,0.000000,0.000021,0.000017,84.948416,0.000038,
2206,2863,-1.17719053178902,4.74873773700893,-0.00721140135880205,0.004842,-0.000012,0.003054,0.213399,0.060201,317.367106,24.539134,0.999391,0.991599,0.003583,0.486399,0.000005,0.000021,0.000010,0.000026,0.000000,65.010795,0.000030,
2296,2698,0.807587252667297,1.16302205327102,-0.018884113215961,0.004751,-0.000729,0.007331,0.193399,0.039919,319.760801,24.342354,0.999732,0.991712,0.003719,0.468221,0.000000,0.000027,-0.000013,0.000033,-0.000005,-67.724437,0.000035,
2221,2383,-0.767843692309771,-5.71294908810211,-0.00442473965728141,0.004930,-0.000757,0.004146,0.212831,0.015579,325.134887,23.931104,0.999443,0.987798,0.004447,0.446360,-0.000003,-0.000001,-0.000003,0.000001,-0.000005,-51.680325,0.000005,
2086,2278,-3.6901531599356,-8.00827204556835,0.00272795824810146,0.004972,-0.000360,0.003912,0.216957,0.060305,327.389693,24.420677,0.999204,0.988054,0.004519,0.427057,-0.000002,0.000018,-0.000001,0.000018,-0.000002,-87.715196,0.000020,
2221,2623,-0.810723075895812,-0.473776331956785,-0.0182666587327276,0.004857,-0.000782,0.008903,0.194608,0.061680,321.115822,24.244630,0.999069,0.984481,0.004850,0.500279,0.000017,0.000014,0.000001,0.000017,0.000013,16.933211,0.000031,
2161,2008,-2.01092036946219,-13.9257728016146,0.0290211816865735,0.004880,-0.000121,0.004663,0.209294,0.061733,331.621589,23.952809,0.999123,0.984299,0.005000,0.344063,0.000020,0.000001,-0.000017,0.000029,-0.000009,-30.285864,0.000030,
2491,2068,5.18683913528563,-12.6159041909064,0.0168858142655495,0.004360,-0.000425,0.003819,0.184504,0.040798,330.437123,21.868831,0.999307,0.978993,0.005721,0.367987,0.000014,-0.000073,0.000027,0.000022,-0.000081,16.029398,0.000083,
2296,2728,0.801881318809812,1.81687740863255,-0.0238669340714068,0.004855,-0.000705,0.006843,0.199882,0.033527,319.237771,24.409080,0.999583,0.990750,0.003857,0.455484,0.000004,0.000009,-0.000013,0.000020,-0.000006,-50.300101,0.000020,
2506,2278,5.47124007385519,-8.01060094665436,0.0156212679536338,0.004824,-0.000972,0.008407,0.187916,0.030667,327.080837,22.607421,0.998873,0.976277,0.005657,0.416720,0.000050,0.000041,-0.000005,0.000052,0.000039,-21.998990,0.000092,
2386,2833,2.73999034669561,4.1079327599649,-0.0255401520374789,0.004521,-0.000226,0.005116,0.189448,0.048915,317.487008,24.777934,0.999563,0.987028,0.004363,0.419612,-0.000005,0.000027,-0.000008,0.000029,-0.000007,-76.968445,0.000030,
2266,3073,0.0911512806509727,9.31200301857258,0.024555327789983,0.004958,-0.000223,0.003495,0.216884,0.041338,314.076644,25.004160,0.999187,0.990484,0.004056,0.441252,0.000006,0.000016,-0.000005,0.000018,0.000004,-66.064606,0.000024,
2086,3193,-3.83286375318345,11.8988483779537,0.0420754161550008,0.004815,-0.000050,0.004289,0.209980,0.045832,312.873186,24.342866,0.999481,0.993614,0.003184,0.448143,0.000001,0.000040,-0.000026,0.000053,-0.000012,-63.579476,0.000056,
2146,2548,-2.42893603106692,-2.11217223459629,-0.0109230332413972,0.004638,-0.000793,0.006124,0.194515,0.035523,322.631058,24.233605,0.998993,0.984975,0.004713,0.505800,0.000022,0.000030,0.000000,0.000030,0.000022,-89.349037,0.000052,
2236,2938,-0.538875338660052,6.3801891975189,-0.00327969266032824,0.004710,-0.000580,0.008655,0.188711,0.041395,316.077953,24.703605,0.999536,0.992258,0.003647,0.451700,-0.000001,0.000026,0.000003,0.000026,-0.000002,82.800871,0.000029,
2146,2278,-2.38342435605373,-8.00952720592745,0.00639124487037179,0.005159,-0.000982,0.009772,0.206983,0.066437,327.146549,24.086279,0.998570,0.981026,0.005537,0.513883,-0.000005,-0.000003,-0.000005,0.000001,-0.000009,-52.249627,0.000010,
2356,2833,2.08876254165537,4.10492097162474,-0.0148727078375828,0.005046,-0.000394,0.003334,0.220184,0.034213,317.595781,24.708332,0.999698,0.989959,0.003999,0.438560,0.000000,0.000031,-0.000001,0.000031,0.000000,-88.203499,0.000035,
2161,2353,-2.06973609475212,-6.36793088330015,-0.00704563090403099,0.004820,-0.000051,0.002258,0.214460,0.048184,325.777269,24.139621,0.999053,0.985749,0.004727,0.439582,0.000000,-0.000021,-0.000017,0.000009,-0.000031,-29.519034,0.000032,
2326,2578,1.48333095436963,-1.45224758633461,-0.0114917171310935,0.004654,-0.000653,0.005570,0.194306,0.033936,321.750806,24.091998,0.999290,0.987291,0.004334,0.428430,0.000009,0.000021,0.000001,0.000021,0.000009,86.124795,0.000030,
2221,2893,-0.856402866833264,5.40142982380234,-0.00371164271194857,0.004724,-0.000045,0.002757,0.208787,0.056640,316.863387,24.601738,0.999602,0.992530,0.003585,0.479905,0.000000,0.000021,0.000014,0.000028,-0.000007,63.738264,0.000029,
2281,2668,0.487735943430305,0.510172199384783,-0.0184776796349411,0.005508,-0.000275,0.003181,0.242537,0.051764,320.317568,24.401073,0.999611,0.991003,0.003984,0.366629,0.000000,0.000022,-0.000011,0.000026,-0.000005,-67.482090,0.000028,
2161,2578,-2.10771768984522,-1.45723730720047,-0.0132710690957083,0.004936,-0.000936,0.009114,0.198833,0.035073,322.073704,24.256540,0.999039,0.986211,0.004505,0.480396,0.000013,0.000021,-0.000002,0.000022,0.000013,-75.525750,0.000035,
2431,3118,3.6663700723071,10.3029753708012,0.0113180457109934,0.005026,-0.000648,0.005570,0.210540,0.029748,313.207409,25.767021,0.999839,0.994863,0.003126,0.401348,0.000032,0.000048,-0.000004,0.000049,0.000031,-76.281257,0.000081,
2266,2683,0.157601311032234,0.835960110287907,-0.0233243150727844,0.005005,-0.000368,0.006334,0.209079,0.055482,320.022230,24.348252,0.999425,0.991817,0.003791,0.455759,0.000000,0.000021,-0.000016,0.000030,-0.000008,-61.543460,0.000031,
2191,2728,-1.48073060679065,1.81278223526388,-0.0253654008716353,0.005120,0.000129,0.000081,0.235480,0.047354,319.476106,24.396647,0.999268,0.988840,0.004112,0.463858,0.000008,0.000011,-0.000007,0.000016,0.000002,-51.213301,0.000020,
2191,2128,-1.37625407404326,-11.2948322983696,0.019664852172582,0.005327,-0.000219,0.002464,0.236410,0.045686,329.548568,23.794817,0.998680,0.979749,0.005571,0.422210,0.000005,0.000007,0.000011,0.000017,-0.000005,47.263163,0.000018,
2161,2113,-2.02825023136559,-11.6234755167424,0.0254904973724592,0.004967,-0.000706,0.005557,0.210507,0.031918,329.908538,23.996343,0.999304,0.981309,0.005358,0.365082,0.000014,0.000010,0.000011,0.000023,0.000000,39.254377,0.000027,
2176,2698,-1.80225669273435,1.15887872990615,-0.0240402873796484,0.004715,-0.000333,0.003814,0.205153,0.060658,319.992103,24.347474,0.999439,0.990292,0.003865,0.498607,0.000007,0.000011,-0.000010,0.000019,-0.000002,-50.732362,0.000021,
2206,2593,-1.13108472324146,-1.12881481888513,-0.00712118500189263,0.004838,-0.000796,0.008659,0.194779,0.053982,321.734611,24.264492,0.999118,0.986914,0.004433,0.450481,0.000013,0.000012,-0.000003,0.000016,0.000010,-41.766085,0.000026,
2491,2083,5.18474270660402,-12.2881791502433,0.024814530142578,0.004738,-0.000457,0.004451,0.199358,0.041988,330.276639,21.865761,0.999442,0.978373,0.005539,0.433866,0.000016,-0.000055,0.000028,0.000026,-0.000065,19.278460,0.000066,
2311,2698,1.13451397337322,1.16262004057322,-0.0129122725571165,0.004701,-0.000653,0.005660,0.196596,0.042112,319.801034,24.295068,0.999725,0.991740,0.003763,0.515509,0.000000,0.000026,-0.000012,0.000031,-0.000004,-68.435211,0.000034,
2101,2098,-3.33374936170079,-11.9487832531211,0.0247320955971304,0.005334,-0.000699,0.004832,0.230359,0.013715,330.405771,24.573849,0.999271,0.957089,0.008093,0.115876,0.000002,0.000004,0.000010,0.000013,-0.000006,47.514015,0.000013,
2266,3088,0.0881115090427294,9.63760579066934,0.0264508571564761,0.004623,-0.000413,0.005334,0.195285,0.036563,313.825687,25.050370,0.999531,0.991632,0.003734,0.414450,0.000005,0.000013,-0.000010,0.000020,-0.000002,-56.438317,0.000022,
2266,2863,0.127178970478422,4.75096440006031,0.00113556602082099,0.005039,-0.000789,0.005787,0.212537,0.023435,317.303125,24.628979,0.999708,0.993909,0.003462,0.449709,0.000003,0.000033,0.000004,0.000033,0.000002,82.226214,0.000040,
2461,3268,4.28748179546067,13.5609005349269,0.000215121319740774,0.004856,-0.000277,0.004127,0.207988,0.035921,310.702522,26.387897,0.999692,0.993876,0.003158,0.437963,0.000035,0.000040,0.000018,0.000056,0.000019,48.721084,0.000078,
2161,2593,-2.11018176219298,-1.12971410790554,-0.0171886288582073,0.005047,-0.000888,0.006386,0.212312,0.034477,321.811340,24.285932,0.999140,0.987850,0.004420,0.461552,0.000010,0.000013,-0.000002,0.000013,0.000009,-67.469403,0.000023,
2506,2293,5.46806668274418,-7.68159476191042,0.0158649775172535,0.004717,-0.000852,0.007968,0.184763,0.019884,326.836575,22.722973,0.999057,0.978105,0.005552,0.353605,0.000050,0.000048,0.000005,0.000053,0.000044,38.920957,0.000097,
2101,2308,-3.36809923123037,-7.35408458557639,0.00893971038823338,0.004943,-0.001308,0.007410,0.204989,0.017372,326.874849,24.313401,0.998872,0.983382,0.005417,0.434579,0.000007,0.000004,-0.000008,0.000013,-0.000002,-40.772541,0.000014,
2356,2848,2.08528073826317,4.43170916931768,-0.0193127495224985,0.005002,-0.000470,0.006573,0.206811,0.054246,317.300432,24.731015,0.999625,0.989885,0.003956,0.474734,-0.000002,0.000035,-0.000001,0.000035,-0.000002,-89.117707,0.000040,
2401,2908,3.05335621788733,5.73959614117032,-0.0124696352096407,0.004962,-0.000413,0.004180,0.212933,0.043687,316.408596,25.039892,0.999555,0.990374,0.003892,0.396012,-0.000008,0.000021,-0.000009,0.000023,-0.000011,-74.101806,0.000023,
2281,2683,0.484726750584692,0.835652045757989,-0.0156431018120884,0.005309,-0.000670,0.007458,0.218965,0.051485,320.074671,24.330421,0.999620,0.991328,0.003825,0.465362,0.000002,0.000028,-0.000014,0.000034,-0.000004,-66.497001,0.000037,
2161,2023,-2.01336039460705,-13.5970794842057,0.0276788985951839,0.005002,-0.000531,0.005142,0.213321,0.051579,331.374197,23.920042,0.998990,0.983157,0.005103,0.380535,0.000017,0.000015,-0.000008,0.000023,0.000008,-41.745565,0.000033,
2086,2293,-3.69332860973245,-7.68047429550656,0.00165772398361241,0.004332,-0.000620,0.006212,0.180885,0.053696,327.103632,24.403447,0.999549,0.991628,0.004095,0.439139,0.000010,0.000023,0.000004,0.000024,0.000009,72.994303,0.000034,
2281,3148,0.403141019138008,10.9398432830789,0.0306757448398116,0.004767,-0.000621,0.007936,0.192990,0.035310,312.854204,25.168128,0.999527,0.992489,0.003810,0.457983,0.000003,0.000024,-0.000006,0.000026,0.000002,-76.172173,0.000031,
2146,2563,-2.43121337690127,-1.7843954364738,-0.00844494984897892,0.004572,0.000027,0.004800,0.195795,0.070379,322.409653,24.296666,0.998888,0.984819,0.004770,0.486217,0.000024,0.000027,-0.000002,0.000028,0.000023,-63.235718,0.000051,
2281,2923,0.441486470403223,6.05752527323892,-0.00726111290731524,0.005008,-0.000624,0.008624,0.201542,0.051244,316.220595,24.787617,0.999590,0.991978,0.003638,0.451070,0.000005,0.000016,0.000002,0.000016,0.000005,78.552665,0.000022,
2206,2608,-1.13406308635065,-0.801288700576308,-0.0150999548241089,0.004848,-0.000519,0.006670,0.201638,0.042830,321.431679,24.275236,0.999016,0.984677,0.004764,0.445999,0.000017,0.000006,0.000004,0.000018,0.000005,18.374230,0.000025,
2236,2593,-0.478419129565406,-1.12795268871966,-0.0137774451582118,0.004848,-0.000175,0.003074,0.212874,0.047270,321.623581,24.177400,0.999328,0.986273,0.004603,0.496217,0.000010,0.000021,-0.000005,0.000023,0.000008,-69.698105,0.000032,
2191,2143,-1.37908494319012,-10.9658464194222,0.0201439842309128,0.005123,-0.000373,0.004592,0.220374,0.056141,329.295152,23.833153,0.998915,0.982089,0.005280,0.412002,0.000003,0.000006,0.000014,0.000019,-0.000010,48.086549,0.000019,
2266,2698,0.155360096456317,1.16187397061039,-0.0143222504294727,0.004991,-0.000655,0.009042,0.199420,0.055724,319.844366,24.371693,0.999587,0.992244,0.003649,0.458409,-0.000002,0.000019,-0.000016,0.000027,-0.000011,-62.093818,0.000027,
2416,3028,3.35659378624547,8.34762607400538,-0.00149007611889829,0.004492,-0.000537,0.003511,0.193655,0.026789,314.536612,25.396796,0.999533,0.988056,0.004139,0.428056,0.000018,0.000021,-0.000009,0.000029,0.000010,-49.339843,0.000041,
2161,2608,-2.11215267366227,-0.802594941897311,-0.0114548949067625,0.005148,-0.000255,0.005842,0.218888,0.065897,321.622361,24.334475,0.999295,0.990209,0.004186,0.454745,0.000013,0.000004,0.000003,0.000014,0.000002,17.954913,0.000018,
2251,2983,-0.219893514920035,7.35874035172067,0.00416060971213028,0.004938,-0.000112,0.002897,0.218011,0.054672,315.403672,24.844528,0.999540,0.991967,0.003698,0.425677,-0.000008,0.000023,-0.000001,0.000023,-0.000008,-88.534974,0.000023,
2086,3208,-3.83461477830938,12.2233847487561,0.045988473513205,0.005091,-0.000146,0.001715,0.230087,0.027658,312.680972,24.340964,0.999569,0.993212,0.003299,0.429427,0.000003,0.000040,-0.000027,0.000054,-0.000011,-62.520536,0.000057,
2251,2833,-0.194760822221486,4.09937723233525,-0.0130503748863475,0.004714,-0.000453,0.004720,0.201416,0.041367,317.688063,24.590340,0.999462,0.990430,0.003956,0.437842,-0.000003,0.000032,0.000004,0.000033,-0.000003,84.020360,0.000036,
2296,2743,0.800073168367081,2.14299322178137,-0.0172339363944047,0.005188,-0.000489,0.005417,0.220102,0.036013,319.069589,24.442061,0.999404,0.989428,0.004096,0.454927,0.000005,0.000010,-0.000014,0.000022,-0.000007,-50.571915,0.000023,
2221,2398,-0.770172699970743,-5.38389779241791,-0.000179946144442056,0.004960,-0.000396,0.005030,0.211524,0.056821,324.925639,24.070391,0.999651,0.990461,0.003963,0.368670,0.000003,-0.000004,-0.000005,0.000005,-0.000006,-28.367262,0.000007,
2326,2593,1.48076305031832,-1.1247935213204,-0.0141166440968163,0.005194,-0.000530,0.007213,0.213543,0.049467,321.504480,24.112718,0.999629,0.991163,0.003768,0.458517,0.000009,0.000012,-0.000001,0.000012,0.000009,-64.794129,0.000021,
2431,3133,3.66384344556026,10.6280656505458,0.016635742150811,0.004991,-0.000256,0.004973,0.211314,0.050908,313.006983,25.775781,0.999732,0.992686,0.003413,0.462744,0.000040,0.000047,-0.000009,0.000053,0.000034,-55.340733,0.000087,
2131,2473,-2.742698680551,-3.74719712455754,-0.0089170483753378,0.004862,-0.000667,0.006836,0.202873,0.046882,323.928415,24.344924,0.999319,0.987383,0.004619,0.395718,0.000011,0.000003,-0.000019,0.000027,-0.000013,-38.576507,0.000027,
2206,2878,-1.18009425709564,5.07532022461631,-0.0112782758704384,0.004881,-0.000327,0.003975,0.212149,0.040933,317.087558,24.591145,0.999577,0.993516,0.003339,0.431531,0.000005,0.000024,0.000008,0.000027,0.000002,70.273462,0.000032,
2236,2953,-0.540698969246165,6.70578945330285,0.00162757048997264,0.004964,-0.000578,0.005490,0.210693,0.030029,315.896466,24.742865,0.999363,0.990921,0.003943,0.421460,-0.000006,0.000024,0.000003,0.000025,-0.000006,83.937171,0.000026,
2191,2293,-1.40570760005937,-7.68080106078,0.0078910594708077,0.004623,-0.000598,0.006140,0.192784,0.065364,326.749993,23.987520,0.998824,0.981987,0.005319,0.437221,-0.000002,-0.000003,-0.000002,0.000000,-0.000005,-43.947894,0.000006,
2266,2878,0.124179991169093,5.07700576227928,-0.00227026177969947,0.004992,-0.000656,0.005949,0.209816,0.010542,317.027711,24.630185,0.999633,0.991755,0.003695,0.460772,0.000001,0.000035,0.000005,0.000035,0.000000,81.525521,0.000041,
2176,2713,-1.80441184834207,1.48539751526348,-0.0207948627181054,0.004828,-0.000448,0.003184,0.212221,0.035924,319.782876,24.407078,0.999349,0.988913,0.004100,0.426656,0.000008,0.000007,-0.000008,0.000015,0.000000,-44.630223,0.000018,
2296,2713,0.803660719024432,1.49069183863219,-0.0306003113467455,0.004480,-0.000590,0.008008,0.178754,0.048621,319.404084,24.354918,0.999760,0.992614,0.003590,0.494594,0.000001,0.000018,-0.000014,0.000026,-0.000007,-60.220481,0.000027,
2281,2593,0.500978734868813,-1.12671765785553,-0.00998713140410246,0.004723,-0.000603,0.005135,0.199673,0.045188,321.564079,24.151642,0.999286,0.987813,0.004376,0.467460,0.000008,0.000018,-0.000008,0.000022,0.000003,-60.561051,0.000028,
2491,2098,5.18361857057545,-11.9610414640219,0.0462856034943684,0.005012,-0.000719,0.005764,0.206781,0.019860,330.221527,21.985063,0.999649,0.983481,0.004998,0.353386,0.000017,-0.000034,0.000020,0.000024,-0.000042,19.349778,0.000042,
2386,2848,2.73805858044404,4.43322578693751,-0.0183794444685077,0.004893,-0.000503,0.004777,0.207735,0.052650,317.321038,24.767054,0.999493,0.988608,0.004152,0.477196,-0.000008,0.000032,-0.000008,0.000034,-0.000009,-78.697229,0.000035,
2191,2743,-1.48270687224763,2.13862489207678,-0.0157792471184734,0.005276,-0.000188,0.003454,0.231957,0.042607,319.309206,24.433696,0.999434,0.989682,0.004039,0.436438,0.000005,0.000012,-0.000009,0.000018,-0.000001,-55.859085,0.000020,
2086,3223,-3.83707453645471,12.547918894642,0.0512570470403375,0.004931,-0.000403,0.004796,0.213757,0.030007,312.463633,24.329492,0.999542,0.992436,0.003521,0.440942,0.000004,0.000041,-0.000029,0.000057,-0.000012,-61.597867,0.000060,
2506,2308,5.46527888527537,-7.3543354748326,0.0208855628512765,0.004657,-0.001188,0.008443,0.180083,0.024572,326.631320,22.715997,0.999027,0.979680,0.005483,0.428235,0.000049,0.000025,0.000002,0.000049,0.000025,3.974161,0.000075,
2296,3208,0.717864693428673,12.2429913338392,0.0306639767434262,0.004647,0.000036,0.004690,0.198395,0.041865,311.857231,25.398872,0.999755,0.993544,0.003213,0.413433,0.000012,0.000023,-0.000005,0.000025,0.000010,-68.861140,0.000036,
2236,2713,-0.500366962797127,1.48759103461096,-0.0224412129521738,0.004722,-0.000632,0.005345,0.199672,0.022892,319.590368,24.386684,0.999326,0.989916,0.003814,0.435754,0.000008,0.000011,-0.000008,0.000018,0.000001,-49.835090,0.000021,
2401,2923,3.05081384503717,6.06445863085398,-0.00462739051857852,0.004902,-0.000536,0.006540,0.201540,0.036550,316.218497,25.023404,0.999526,0.990459,0.003909,0.450500,-0.000003,0.000015,-0.000011,0.000020,-0.000008,-64.672473,0.000020,
2146,2293,-2.38565430678252,-7.68105200990434,0.00661743886109889,0.005044,-0.000526,0.005104,0.215979,0.048055,326.915601,24.156374,0.998502,0.982701,0.005322,0.435402,0.000002,-0.000001,0.000001,0.000002,-0.000002,19.866608,0.000002,
2161,2368,-2.07166390715902,-6.04028956953022,-0.00305653951448903,0.005173,-0.000161,0.003377,0.227231,0.049594,325.581173,24.176821,0.999100,0.988526,0.004318,0.415604,-0.000002,-0.000004,-0.000021,0.000018,-0.000024,-43.077055,0.000025,
2251,2848,-0.197676481486177,4.42561514768448,-0.0122260826112779,0.004629,-0.000516,0.007821,0.187364,0.052531,317.436621,24.608882,0.999488,0.991633,0.003748,0.453627,0.000000,0.000034,0.000006,0.000036,-0.000001,79.702337,0.000041,
2221,2908,-0.858519774422177,5.72710518724101,0.00311373360176503,0.004897,-0.000342,0.004840,0.210009,0.055916,316.677371,24.639284,0.999560,0.991407,0.003950,0.460096,0.000003,0.000016,0.000011,0.000022,-0.000003,59.611088,0.000024,
2416,3043,3.35453223224338,8.67251485686475,0.0101982311255711,0.004544,-0.000734,0.004812,0.191199,0.015108,314.387046,25.440608,0.999613,0.989954,0.003937,0.419194,0.000018,0.000025,-0.000005,0.000028,0.000015,-60.729142,0.000043,
2296,2968,0.760328577430197,7.03600782893488,0.000519241713561769,0.005190,-0.000332,0.003918,0.225654,0.041913,315.557202,24.937022,0.999377,0.990698,0.003763,0.411784,-0.000002,0.000022,-0.000002,0.000022,-0.000002,-84.551395,0.000024,
2236,2608,-0.480839198003377,-0.801225650452473,-0.0153037996059879,0.005120,-0.000378,0.002474,0.227217,0.019836,321.382237,24.187439,0.999166,0.984753,0.004766,0.480633,0.000014,0.000014,0.000003,0.000017,0.000011,46.126864,0.000029,
2086,3238,-3.84045532403647,12.8734136584229,0.0441044639521238,0.004539,-0.000374,0.006344,0.191254,0.037726,312.135780,24.334102,0.999627,0.993490,0.003264,0.441720,0.000005,0.000036,-0.000030,0.000054,-0.000013,-58.818045,0.000056,
2491,2113,5.18054467719235,-11.6329921331335,0.0504086121688943,0.004727,-0.000682,0.006327,0.191613,0.037175,329.998944,21.961820,0.999625,0.983658,0.005002,0.455839,0.000015,-0.000037,0.000014,0.000018,-0.000040,14.124609,0.000040,
2116,2458,-3.06585561208208,-4.07563427891876,-0.00508964413307922,0.005272,-0.000539,0.005316,0.226528,0.065098,324.291002,24.314297,0.999299,0.988170,0.004470,0.474385,0.000003,0.000001,-0.000025,0.000027,-0.000024,-43.822006,0.000030,
2101,2323,-3.36999456505509,-7.02604029932701,0.0107464011509819,0.004992,-0.000570,0.002807,0.220926,0.023686,326.663987,24.344274,0.999107,0.986081,0.004867,0.413178,0.000008,0.000007,-0.000009,0.000017,-0.000002,-43.541133,0.000019,
2506,2323,5.4618281607654,-7.02566577558524,0.0166501799622552,0.004676,-0.000760,0.008385,0.181386,0.059957,326.354046,22.720030,0.998988,0.982900,0.005114,0.523206,0.000037,0.000030,-0.000007,0.000042,0.000026,-31.787643,0.000068,
2296,2758,0.796515105595375,2.46975131382628,-0.0222295809421666,0.004689,-0.000572,0.004734,0.199472,0.030163,318.763220,24.454353,0.999379,0.989593,0.004110,0.467144,0.000005,0.000022,-0.000013,0.000029,-0.000002,-61.155720,0.000032,
2161,2128,-2.03154315472356,-11.2939913206637,0.0161737052271747,0.004784,-0.000638,0.006066,0.200607,0.040820,329.580047,23.969617,0.999325,0.980147,0.005449,0.414188,0.000009,0.000003,0.000012,0.000019,-0.000007,37.286006,0.000019,
2281,2938,0.438901101089215,6.38294711079391,-0.00530580475077613,0.004957,-0.000574,0.008030,0.201196,0.044080,315.992223,24.782727,0.999531,0.991245,0.003768,0.475980,0.000006,0.000020,0.000001,0.000020,0.000006,87.096284,0.000028,
2281,2698,0.482090832379487,1.16207111204581,-0.0104732964838377,0.005040,-0.000804,0.007918,0.204989,0.037022,319.860331,24.383322,0.999785,0.993193,0.003539,0.425926,0.000000,0.000024,-0.000013,0.000030,-0.000005,-67.148223,0.000031,
2086,2308,-3.69584361320632,-7.35270696292705,-0.000170046280175029,0.004368,-0.000851,0.007967,0.177414,0.031216,326.843722,24.396826,0.999312,0.988722,0.004571,0.424587,0.000009,0.000010,-0.000009,0.000019,0.000001,-46.435131,0.000022,
2461,3283,4.28429216618657,13.8864095553096,-0.00292843159456879,0.005035,-0.000160,0.005233,0.212083,0.034483,310.433490,26.447414,0.999494,0.991206,0.003730,0.430057,0.000044,0.000024,0.000021,0.000058,0.000011,32.671775,0.000074,
2266,2713,0.152851057115583,1.48811599158405,-0.00997973062771962,0.004595,-0.000516,0.005488,0.193006,0.041677,319.630726,24.405062,0.999699,0.992917,0.003575,0.436606,0.000000,0.000010,-0.000015,0.000021,-0.000010,-54.264586,0.000021,
2251,2863,-0.200434399304687,4.75120211072445,-0.0120578113312035,0.004527,-0.000938,0.007816,0.182509,0.026474,317.189324,24.604044,0.999537,0.991544,0.003699,0.455355,-0.000001,0.000032,0.000000,0.000032,-0.000001,-89.777928,0.000036,
2191,2158,-1.38062723420006,-10.638926357809,0.0304008090610637,0.005250,-0.000320,0.002683,0.232237,0.029663,329.151756,23.829265,0.999085,0.984970,0.004996,0.406330,0.000008,0.000000,0.000013,0.000017,-0.000010,36.198291,0.000017,
2191,2458,-1.43425654881726,-4.07411418489068,-0.0108995579571456,0.004922,0.000020,0.002346,0.218843,0.066794,323.955391,24.100883,0.998967,0.986286,0.004876,0.504336,0.000003,-0.000004,-0.000020,0.000020,-0.000021,-40.296386,0.000024,
2146,2578,-2.43411419053228,-1.45643568364691,-0.018960244279981,0.004851,-0.000200,0.005040,0.207861,0.064479,322.090945,24.308207,0.999148,0.987424,0.004497,0.477701,0.000015,0.000019,-0.000002,0.000020,0.000015,-69.338207,0.000035,
2371,2728,2.43439761876738,1.82037965949917,-0.0199780902739803,0.004971,-0.000633,0.007510,0.201548,0.049527,319.248454,24.461283,0.999490,0.990404,0.003861,0.431177,-0.000006,0.000011,-0.000015,0.000019,-0.000015,-60.054879,0.000020,
2176,2728,-1.80726543185714,1.81156550600782,-0.0259909087306482,0.004866,-0.000413,0.003359,0.213427,0.030080,319.497481,24.352030,0.999405,0.989183,0.004132,0.488406,0.000009,0.000008,-0.000008,0.000017,0.000000,-43.530674,0.000020,
2281,3163,0.400605435322621,11.2661397217817,0.0307232228745988,0.004949,-0.000211,0.007712,0.202316,0.053851,312.617746,25.262659,0.999545,0.991758,0.003693,0.408695,0.000007,0.000029,-0.000005,0.000030,0.000006,-78.310772,0.000039,
2251,2998,-0.222435156675619,7.68314873647556,0.0116966876823312,0.004905,-0.000643,0.008120,0.199173,0.039329,315.203773,24.807162,0.999549,0.991162,0.003781,0.470127,-0.000009,0.000019,-0.000004,0.000019,-0.000010,-81.164889,0.000019,
2221,2638,-0.813736834252456,-0.146509748325776,-0.0306925384694523,0.004900,-0.000397,0.002992,0.215698,0.062846,320.789872,24.193206,0.998898,0.985727,0.004847,0.572599,0.000013,0.000015,0.000000,0.000015,0.000013,78.456213,0.000028,
2101,2113,-3.3358719775725,-11.6235938262018,0.0346184038622255,0.005066,-0.000732,0.007625,0.209960,0.025876,330.228383,24.354075,0.999064,0.977431,0.005880,0.351808,0.000002,-0.000001,0.000011,0.000012,-0.000011,40.664116,0.000013,
2326,2608,1.47775312662815,-0.797168152303712,-0.0160233666683212,0.005192,-0.000572,0.008196,0.210101,0.068597,321.241270,24.156902,0.999538,0.989074,0.004051,0.468603,0.000008,0.000007,-0.000001,0.000008,0.000006,-35.506142,0.000015,
2206,2893,-1.18369048623283,5.40191151513332,-0.0217934349811912,0.004628,-0.000542,0.004231,0.199654,0.036210,316.742806,24.587588,0.999738,0.994892,0.003218,0.446802,0.000002,0.000020,0.000013,0.000027,-0.000005,62.107586,0.000029,
2386,2863,2.73541218000216,4.75937719475563,-0.012350847284722,0.004684,-0.000414,0.004960,0.197485,0.051581,317.116557,24.834987,0.999430,0.988343,0.004131,0.451219,-0.000011,0.000037,-0.000009,0.000038,-0.000013,-79.436120,0.000039,
2491,2128,5.17798112087762,-11.304540673452,0.0552950869791857,0.004832,-0.000731,0.006159,0.197057,0.060361,329.803057,21.982396,0.999608,0.987005,0.004669,0.520279,0.000024,-0.000042,0.000015,0.000028,-0.000045,11.894357,0.000046,
2446,3103,3.99628473920385,9.97708315985931,0.0234996165220878,0.004809,-0.000388,0.005308,0.201360,0.042827,313.571648,25.708606,0.999644,0.993012,0.003612,0.481974,0.000032,0.000039,0.000000,0.000039,0.000032,-88.433952,0.000071,
2236,2968,-0.543400832660897,7.03188115985412,0.00187226905023863,0.004787,0.000027,0.003966,0.207707,0.052917,315.650614,24.764554,0.999409,0.991201,0.003838,0.443403,-0.000008,0.000025,0.000005,0.000026,-0.000009,82.317275,0.000026,
2266,3103,0.0854479397955039,9.96347294997411,0.0227563275507805,0.004767,-0.000088,0.003002,0.209768,0.044463,313.563717,25.076803,0.999724,0.993331,0.003401,0.420701,0.000007,0.000018,-0.000010,0.000024,0.000001,-59.292802,0.000028,
2101,2338,-3.37245047339997,-6.69797078601381,0.00618398875940329,0.005290,-0.000583,0.004479,0.229800,0.031508,326.393161,24.318239,0.999350,0.987667,0.004497,0.450381,0.000003,0.000001,-0.000013,0.000015,-0.000011,-42.802681,0.000016,
2086,2323,-3.69769326945436,-7.02490565146053,-0.00227729279430378,0.004861,-0.000556,0.006149,0.205428,0.031871,326.612605,24.372717,0.999026,0.987158,0.004804,0.450376,0.000013,0.000011,-0.000010,0.000023,0.000002,-42.363221,0.000027,
2236,2623,-0.483428683747189,-0.4736019080799,-0.0130455675761709,0.005164,-0.000262,0.004766,0.221925,0.053547,321.151965,24.255909,0.999141,0.985113,0.004763,0.467640,0.000013,0.000019,0.000000,0.000019,0.000013,86.614334,0.000032,
2311,2803,1.11513559400355,3.44994924273105,-0.01645771115858,0.004938,-0.000448,0.005448,0.208424,0.057094,318.074159,24.574479,0.999452,0.991417,0.003825,0.477440,0.000004,0.000016,-0.000005,0.000018,0.000003,-70.674188,0.000022,
2176,2473,-1.763644789856,-3.74695075433237,-0.00642801823380523,0.004616,-0.000645,0.007750,0.187971,0.048533,323.766630,24.211464,0.999258,0.983516,0.005175,0.426203,0.000008,0.000005,-0.000018,0.000025,-0.000012,-42.040426,0.000025,
2146,2593,-2.43672677068606,-1.12997875142473,-0.019381071563032,0.004740,-0.000500,0.005179,0.202239,0.050058,321.839298,24.284107,0.999106,0.987336,0.004631,0.496156,0.000011,0.000013,-0.000001,0.000014,0.000011,-61.301479,0.000025,
2221,2923,-0.861173275737841,6.05338365995043,0.000966866444798598,0.005072,-0.000300,0.005618,0.215559,0.048778,316.420427,24.678107,0.999518,0.991492,0.003802,0.432583,0.000004,0.000017,0.000008,0.000021,0.000000,63.221222,0.000024,
2356,2863,2.08256388671399,4.75761564227111,-0.0195321283925409,0.005138,-0.000678,0.006455,0.213370,0.033659,317.060850,24.749285,0.999545,0.989583,0.004009,0.474377,-0.000005,0.000037,-0.000003,0.000037,-0.000005,-86.351302,0.000040,
2236,2728,-0.502613600499291,1.8141582910834,-0.0176603175776222,0.004857,-0.000510,0.006559,0.202069,0.051595,319.388774,24.415062,0.999287,0.989021,0.004039,0.457494,0.000011,0.000004,-0.000010,0.000018,-0.000003,-36.126296,0.000019,
2431,3148,3.6604794898656,10.9541153004355,0.0127880080086129,0.004814,-0.000214,0.003768,0.207614,0.032691,312.724921,25.859946,0.999665,0.992933,0.003370,0.409166,0.000039,0.000038,-0.000009,0.000047,0.000030,-42.831603,0.000077,
2266,2893,0.121056875387289,5.4043728761895,-0.00664902565557668,0.004801,-0.000374,0.004776,0.205107,0.041610,316.741191,24.707170,0.999517,0.990043,0.003897,0.440183,0.000001,0.000026,0.000012,0.000031,-0.000004,67.204024,0.000034,
2506,2338,5.45920419510257,-6.69605121093907,0.0185478460106765,0.004994,-0.000532,0.008076,0.197237,0.048255,326.142042,22.923693,0.999240,0.985260,0.005116,0.370740,0.000042,0.000029,-0.000005,0.000044,0.000027,-17.860547,0.000071,
2341,3073,1.71877451153098,9.318981599563,0.00642243884345817,0.004704,-0.000227,0.000596,0.214512,0.033434,313.850000,25.281145,0.999628,0.993728,0.003237,0.423663,0.000011,0.000017,-0.000006,0.000021,0.000008,-57.462868,0.000030,
2191,2308,-1.40837359194256,-7.35378811543228,0.0103121512641451,0.004379,-0.000965,0.007147,0.178333,0.042797,326.514470,23.956003,0.998661,0.981705,0.005397,0.462945,-0.000003,-0.000010,-0.000006,0.000000,-0.000013,-28.219058,0.000015,
2296,3223,0.715004142326681,12.5671335961258,0.0289485586984597,0.004608,-0.000229,0.003796,0.199593,0.041222,311.598703,25.319415,0.999810,0.994632,0.003022,0.520807,0.000013,0.000029,-0.000004,0.000031,0.000012,-75.841817,0.000044,
2176,2743,-1.80895194020346,2.13726535330474,-0.0104575748329125,0.004949,-0.000796,0.007636,0.203912,0.039339,319.374190,24.409089,0.999468,0.989879,0.004184,0.452895,0.000007,0.000010,-0.000011,0.000020,-0.000002,-49.636411,0.000022,
2161,2383,-2.0746994850612,-5.71235991023366,-0.00752086377940486,0.005031,-0.000377,0.005170,0.215162,0.053520,325.289891,24.161116,0.999059,0.986852,0.004555,0.447056,0.000002,0.000001,-0.000021,0.000023,-0.000019,-44.622543,0.000024,
2101,2128,-3.3394143913718,-11.2950412266945,0.0309020794120443,0.004226,-0.001182,0.009677,0.165309,0.034173,329.912424,24.301882,0.999083,0.986184,0.005003,0.417089,-0.000003,-0.000009,0.000013,0.000008,-0.000019,38.694018,0.000020,
2281,2608,0.497612248762575,-0.798213138155326,-0.0184286191911838,0.004875,-0.000835,0.007692,0.198071,0.043170,321.248047,24.240504,0.999171,0.987270,0.004508,0.405459,0.000006,0.000009,-0.000002,0.000010,0.000005,-61.444716,0.000015,
2296,2983,0.75805635848209,7.36213994321837,0.00600407173129724,0.005170,0.000145,0.002662,0.229217,0.068835,315.361422,24.999431,0.999261,0.987994,0.004141,0.405579,-0.000002,0.000022,-0.000003,0.000022,-0.000002,-82.163361,0.000024,
2491,2143,5.17335883799656,-10.9714630169664,0.0352685269148765,0.005069,-0.000745,0.006780,0.205564,0.063607,329.400761,22.182436,0.999052,0.980034,0.005601,0.385929,0.000026,-0.000034,0.000014,0.000029,-0.000037,12.382604,0.000039,
2281,2953,0.436734703204085,6.70918109095125,-0.00484859104614088,0.005206,-0.000336,0.004257,0.225364,0.033728,315.775340,24.849129,0.999262,0.988999,0.004123,0.426378,0.000006,0.000021,0.000001,0.000021,0.000005,87.324992,0.000028,
2371,2743,2.43142277156719,2.14664920945245,-0.0227239928521499,0.004954,-0.000845,0.005927,0.206301,0.023191,318.986454,24.463359,0.999466,0.989799,0.003903,0.444239,-0.000006,0.000013,-0.000014,0.000021,-0.000013,-61.517963,0.000021,
2386,2878,2.73274801153915,5.08626137653315,-0.0115904581669497,0.004849,-0.000320,0.004830,0.205613,0.055349,316.885962,24.930303,0.999454,0.990730,0.003868,0.402559,-0.000011,0.000035,-0.000008,0.000037,-0.000012,-80.276205,0.000038,
2161,2623,-2.11537408950839,-0.474592493326476,-0.0228605557575179,0.005090,-0.000344,0.004355,0.220757,0.047835,321.285771,24.371356,0.999497,0.990542,0.004034,0.411047,0.000013,-0.000002,-0.000002,0.000013,-0.000002,-9.252157,0.000014,
2191,2173,-1.38421273130307,-10.3088580533774,0.0160820089573122,0.005227,-0.000370,0.003602,0.228311,0.047648,328.786988,23.811917,0.999136,0.967869,0.006180,0.459489,0.000005,-0.000001,0.000012,0.000014,-0.000010,37.200516,0.000014,
2236,2743,-0.505023218842464,2.14079284479683,-0.0205780961246091,0.005181,-0.000689,0.005009,0.221926,0.033431,319.140542,24.438895,0.999160,0.986351,0.004555,0.436620,0.000008,0.000001,-0.000012,0.000017,-0.000008,-36.793246,0.000017,
2311,2713,1.13122339396617,1.49028737260224,-0.0139030506945232,0.004302,-0.000242,0.006332,0.176118,0.062231,319.527845,24.382670,0.999508,0.989724,0.004040,0.480418,0.000002,0.000018,-0.000013,0.000025,-0.000005,-61.271156,0.000026,
2221,2938,-0.864236731046727,6.37921613311067,0.000512059695381595,0.004978,-0.000540,0.010095,0.196844,0.062729,316.153429,24.671423,0.999543,0.992490,0.003578,0.471562,0.000004,0.000022,0.000007,0.000024,0.000002,70.507812,0.000029,
2191,2473,-1.43745401391957,-3.7465005768554,-0.0125659724685079,0.004620,-0.000506,0.005873,0.193759,0.063134,323.673915,24.122271,0.999170,0.983626,0.005152,0.495188,0.000007,-0.000002,-0.000014,0.000017,-0.000012,-35.748295,0.000017,
2146,2308,-2.38766114791525,-7.35359313338941,0.0109574479696448,0.005188,-0.000367,0.005149,0.222531,0.039212,326.716756,24.170234,0.998877,0.982845,0.005233,0.422643,0.000003,-0.000007,-0.000007,0.000006,-0.000011,-27.905005,0.000011,
2206,2908,-1.18515230884119,5.72642854036079,-0.00653716475363808,0.004625,-0.000369,0.003118,0.203078,0.038516,316.629935,24.577199,0.999593,0.992718,0.003614,0.475640,0.000005,0.000017,0.000012,0.000024,-0.000003,58.297284,0.000026,
2161,2143,-2.03433142713846,-10.9654872278218,0.0179254978152699,0.004605,-0.000698,0.010201,0.179811,0.066352,329.332724,23.962382,0.999298,0.971391,0.006187,0.460253,0.000007,0.000003,0.000014,0.000019,-0.000010,40.778383,0.000019,
2086,3253,-3.84258954934365,13.1978507068619,0.0496181172111392,0.004628,-0.000401,0.008393,0.189397,0.035992,311.934795,24.325947,0.999705,0.994550,0.003083,0.445731,0.000008,0.000033,-0.000027,0.000051,-0.000009,-57.454478,0.000054,
2191,2758,-1.48518928710676,2.464628458025,-0.0143457643691818,0.005293,-0.000568,0.004030,0.230878,0.037048,319.076649,24.425176,0.999437,0.990420,0.003869,0.454079,0.000000,0.000015,-0.000009,0.000019,-0.000004,-65.077989,0.000021,
2326,2623,1.47545029251265,-0.471495858979281,-0.00890180287319708,0.004966,-0.000514,0.005991,0.207335,0.054286,321.055082,24.137121,0.999560,0.988407,0.004096,0.508935,0.000004,0.000016,-0.000008,0.000020,0.000000,-63.058393,0.000023,
2221,2653,-0.816223658408436,0.179545031866759,-0.0242489111595887,0.004742,-0.000743,0.005539,0.200118,0.033370,320.585177,24.225698,0.999273,0.988151,0.004416,0.529910,0.000014,0.000023,0.000004,0.000025,0.000012,67.864161,0.000037,
2506,2353,5.45662603193673,-6.36800837809795,0.0146671400818263,0.005305,-0.000166,0.001546,0.236839,0.042466,325.906474,22.925794,0.999260,0.984766,0.005175,0.425505,0.000055,0.000034,-0.000005,0.000056,0.000032,-12.723944,0.000089,
2461,3298,4.28153453659963,14.2114025075397,-0.00126965219732256,0.004969,-0.000076,0.002928,0.217808,0.036584,310.206549,26.485608,0.999581,0.992901,0.003495,0.446763,0.000055,0.000012,0.000015,0.000060,0.000007,17.797452,0.000074,
2416,3058,3.35174786226561,8.99867499136144,0.0102601526151602,0.004770,-0.000464,0.005640,0.198659,0.030181,314.149213,25.501790,0.999586,0.990723,0.003897,0.420064,0.000018,0.000026,0.000000,0.000026,0.000018,-89.677277,0.000045,
2086,2338,-3.69897251982926,-6.69711516059734,0.00361405226203715,0.005153,0.000400,0.000063,0.236704,0.068713,326.450812,24.395513,0.998928,0.985217,0.004902,0.464799,0.000009,0.000001,-0.000015,0.000021,-0.000010,-37.077557,0.000021,
2146,2608,-2.43943135911753,-0.801773139058533,-0.0225098819131517,0.004648,-0.000269,0.004178,0.201164,0.054597,321.568564,24.382874,0.999364,0.989316,0.004303,0.410373,0.000014,0.000005,0.000004,0.000016,0.000004,18.496065,0.000020,
2281,2623,0.494541428534124,-0.471761411541948,-0.0175663553659433,0.004463,-0.000796,0.007927,0.178343,0.039215,320.992402,24.228183,0.999310,0.987207,0.004362,0.442349,0.000004,0.000017,-0.000007,0.000020,0.000001,-66.058095,0.000024,
2296,2773,0.794241799060242,2.79648888654586,-0.0221125471541086,0.004883,-0.000320,0.001140,0.220630,0.029500,318.541145,24.504570,0.999258,0.988333,0.004335,0.446154,0.000008,0.000019,-0.000010,0.000025,0.000002,-59.697536,0.000030,
2446,3118,3.99377113970042,10.3028215112134,0.0216762751582564,0.005235,-0.000443,0.002782,0.230357,0.027371,313.339590,25.765021,0.999628,0.991462,0.003722,0.461311,0.000033,0.000050,-0.000001,0.000050,0.000033,-85.720623,0.000083,
2401,2938,3.04809317022663,6.38997674645027,0.00285166190428754,0.004775,-0.000473,0.009907,0.183574,0.062653,316.018205,25.034646,0.999530,0.990704,0.003891,0.510355,0.000003,0.000020,-0.000012,0.000026,-0.000003,-62.914630,0.000029,
2281,3178,0.398315696362566,11.5906308124277,0.0358224878249871,0.004936,-0.000436,0.006535,0.205549,0.033676,312.418513,25.263205,0.999615,0.992659,0.003394,0.414543,0.000011,0.000030,-0.000005,0.000032,0.000010,-76.107009,0.000043,
2266,3118,0.0834290617133568,10.2883425343567,0.0292264959857675,0.005005,-0.000064,0.003240,0.219953,0.040779,313.382948,25.090456,0.999652,0.993285,0.003440,0.427706,0.000008,0.000019,-0.000009,0.000024,0.000003,-60.577076,0.000030,
2101,2353,-3.37650308646284,-6.3684349913167,-0.00418950063823331,0.004455,-0.000428,0.007453,0.182838,0.063051,326.017569,24.351787,0.999047,0.983780,0.005009,0.452178,0.000001,-0.000009,-0.000020,0.000016,-0.000024,-38.396334,0.000025,
2236,2638,-0.485935387134212,-0.14640615298805,-0.0166141067539343,0.005393,0.000029,0.002711,0.239254,0.072030,320.895948,24.255401,0.998979,0.986472,0.004660,0.508530,0.000011,0.000020,-0.000002,0.000020,0.000011,-80.566172,0.000031,
2221,2413,-0.772820708392938,-5.05672856784764,0.00139513113362,0.004827,-0.000452,0.005625,0.203537,0.062756,324.688616,24.051827,0.999658,0.990268,0.003995,0.413748,0.000008,-0.000008,-0.000012,0.000014,-0.000014,-27.306034,0.000017,
2131,2488,-2.74537289095524,-3.42104297176429,-0.0118625694156549,0.004752,-0.000910,0.006072,0.200060,0.032831,323.659420,24.235056,0.999333,0.986641,0.004675,0.498427,0.000013,0.000008,-0.000018,0.000028,-0.000008,-40.809088,0.000029,
2236,2758,-0.50810831176268,2.46787985495983,-0.0220224734771364,0.004865,-0.000236,0.005433,0.206226,0.061707,318.868557,24.474615,0.999276,0.987873,0.004264,0.450654,0.000005,0.000011,-0.000010,0.000019,-0.000003,-53.561835,0.000020,
2491,2158,5.16963143412409,-10.6429036160338,0.036288003510947,0.004753,-0.001136,0.011589,0.172622,0.051021,329.134157,22.218676,0.999092,0.978608,0.005706,0.399012,0.000021,-0.000030,0.000000,0.000021,-0.000030,-0.061409,0.000031,
2161,2398,-2.07630097375128,-5.3863973563761,0.00198868552962495,0.005177,-0.000363,0.003945,0.225648,0.039405,325.138148,24.122499,0.999097,0.985327,0.004709,0.482779,0.000003,-0.000002,-0.000022,0.000023,-0.000022,-41.395315,0.000026,
2296,2998,0.755077641988851,7.68674196157642,0.00986485935811743,0.004844,-0.000303,0.005235,0.205303,0.042991,315.125598,24.966112,0.999457,0.989923,0.003844,0.442262,-0.000003,0.000021,-0.000005,0.000022,-0.000004,-77.475697,0.000024,
2266,2728,0.149238296188191,1.81547020240903,-0.0184780702176113,0.004436,-0.000603,0.007568,0.178857,0.054760,319.301507,24.414377,0.999476,0.990797,0.003823,0.466331,0.000006,0.000003,-0.000015,0.000020,-0.000011,-42.469507,0.000020,
2101,2143,-3.34199969456044,-10.9648725889175,0.0209780558773787,0.004638,-0.000967,0.010019,0.183301,0.048250,329.606434,24.330265,0.998837,0.981699,0.005457,0.407305,-0.000004,0.000001,0.000012,0.000011,-0.000014,50.326894,0.000015,
2266,2908,0.11888446779146,5.73047170066231,-0.00542988725106852,0.005064,-0.000175,0.002396,0.225177,0.033346,316.526916,24.751804,0.999610,0.991792,0.003670,0.412487,0.000003,0.000021,0.000009,0.000024,-0.000001,67.881830,0.000027,
2086,3268,-3.84536690503159,13.5234982786964,0.0372822832823658,0.004833,-0.000202,0.004579,0.209960,0.032900,311.606262,24.335327,0.999721,0.995291,0.002924,0.430803,0.000010,0.000027,-0.000022,0.000042,-0.000006,-55.464137,0.000046,
2476,1993,4.87791809631295,-14.2655604643017,0.0406415711008776,0.005724,0.000833,-0.002194,0.270141,0.074632,331.889116,21.693695,0.998441,0.969119,0.006590,0.370518,0.000040,-0.000111,0.000102,0.000091,-0.000163,26.812713,0.000163,
2311,3043,1.07324224068443,8.6648770286575,0.0166236999104967,0.004869,-0.000323,0.004575,0.208522,0.038328,314.435879,25.129506,0.999566,0.991074,0.003727,0.410571,-0.000002,0.000009,-0.000005,0.000012,-0.000004,-68.309074,0.000012,
2296,3238,0.712096996476159,12.8931951414814,0.0224173111463983,0.004720,0.000029,0.000707,0.215358,0.045949,311.313322,25.388399,0.999660,0.992426,0.003411,0.485208,0.000014,0.000026,-0.000005,0.000028,0.000012,-70.930576,0.000041,
2176,2488,-1.76625371848287,-3.41929021257025,-0.01104406689592,0.004560,-0.000353,0.003765,0.197847,0.053486,323.495381,24.205890,0.999155,0.983502,0.005123,0.450393,0.000009,0.000011,-0.000013,0.000023,-0.000003,-47.313301,0.000025,
2356,2878,2.08019099524616,5.08334868417386,-0.00977927142031376,0.004934,-0.000709,0.007423,0.200598,0.041174,316.885126,24.801045,0.999524,0.990815,0.003869,0.468495,-0.000007,0.000034,-0.000003,0.000034,-0.000007,-86.080834,0.000036,
2191,2773,-1.48906793377998,2.79235916532292,-0.0318701345466934,0.005149,-0.000702,0.003586,0.225629,0.034842,318.680919,24.428027,0.999293,0.989066,0.004213,0.464026,0.000001,0.000011,-0.000007,0.000014,-0.000002,-61.361929,0.000015,
2311,3283,1.02820684213498,13.8710980268318,0.00806491671750109,0.004881,-0.000031,0.002873,0.215260,0.032322,310.439155,25.605412,0.999532,0.993613,0.003118,0.424583,-0.000006,0.000042,-0.000011,0.000044,-0.000008,-77.907530,0.000047,
2221,2953,-0.866744583988361,6.70477438477588,0.00277396571414101,0.004827,-0.000836,0.008522,0.194833,0.041225,315.926021,24.698023,0.999402,0.991014,0.003857,0.441862,0.000000,0.000022,0.000006,0.000024,-0.000002,76.246195,0.000027,
2506,2368,5.45325622994826,-6.04067514259627,0.0137149496243865,0.005379,-0.000490,0.004526,0.228607,0.042377,325.647575,22.891428,0.998656,0.979025,0.005904,0.522948,0.000055,0.000039,0.000003,0.000056,0.000038,11.413748,0.000095,
2176,2758,-1.81250613076663,2.46424560102815,-0.0176234656307201,0.004535,-0.000911,0.009413,0.179374,0.047870,319.046061,24.407818,0.999348,0.988905,0.004189,0.475363,0.000004,0.000014,-0.000012,0.000022,-0.000004,-56.771720,0.000023,
2491,2173,5.16707014953042,-10.3147976732949,0.0386929117449881,0.004768,-0.000633,0.007923,0.187503,0.069003,328.927055,22.202587,0.998507,0.969760,0.006444,0.494530,0.000016,-0.000006,-0.000009,0.000019,-0.000009,-19.640351,0.000019,
2086,3283,-3.84810330729947,13.8479520425078,0.0394450813986396,0.004608,-0.000712,0.007776,0.190152,0.015483,311.359327,24.333262,0.999598,0.994854,0.003003,0.412807,0.000013,0.000032,-0.000012,0.000038,0.000007,-63.387803,0.000048,
2161,2158,-2.03959230092132,-10.628976781713,-0.0310587812604126,0.004673,-0.000193,0.003557,0.203402,0.053944,328.705040,24.187370,0.999839,0.944904,0.008365,0.237654,0.000010,-0.000004,0.000012,0.000017,-0.000011,30.623811,0.000017,
2386,2893,2.73005692256455,5.41201421381422,-0.0117438235510008,0.004860,0.000049,0.002238,0.215574,0.068735,316.650012,24.909477,0.999467,0.991423,0.003823,0.479979,-0.000009,0.000031,-0.000008,0.000032,-0.000011,-79.713582,0.000033,
2281,2713,0.479261457589974,1.48832193280376,-0.011261748393963,0.004774,-0.000570,0.005152,0.202131,0.037391,319.607352,24.361526,0.999732,0.992670,0.003580,0.476039,0.000001,0.000015,-0.000013,0.000023,-0.000007,-59.354454,0.000023,
2476,2008,4.87321673089437,-13.9356830163209,0.0335968910471252,0.005219,-0.000171,0.004222,0.222411,0.060426,331.540999,21.705890,0.999104,0.975479,0.005856,0.404956,0.000034,-0.000100,0.000089,0.000078,-0.000144,26.473104,0.000144,
2236,2773,-0.510884548766235,2.7938473594714,-0.0215690801571213,0.004588,-0.000124,0.003972,0.198234,0.047771,318.620789,24.469099,0.999270,0.987751,0.004191,0.463402,0.000005,0.000010,-0.000008,0.000016,-0.000001,-54.999154,0.000018,
2146,2323,-2.39070163358718,-7.02552259531893,0.00863034170635046,0.004801,-0.000714,0.006015,0.202056,0.036663,326.435238,24.172324,0.999222,0.983247,0.005148,0.427916,0.000006,-0.000004,-0.000007,0.000010,-0.000008,-27.089862,0.000010,
2311,3298,1.02479958442504,14.1957163692652,0.00374121194823829,0.004663,-0.000171,0.003917,0.201605,0.028494,310.143220,25.580128,0.999619,0.994204,0.003006,0.476640,-0.000013,0.000040,-0.000014,0.000043,-0.000017,-75.876629,0.000044,
2086,2353,-3.70201474315573,-6.36896521011161,0.0036539193422982,0.004772,-0.000002,0.005292,0.204052,0.084777,326.176702,24.419267,0.998551,0.980938,0.005411,0.458466,0.000007,-0.000009,-0.000020,0.000020,-0.000022,-33.799470,0.000025,
2191,2488,-1.44017804007635,-3.41853749795638,-0.0179785110843227,0.004531,-0.000158,0.001878,0.202325,0.049486,323.394615,24.156365,0.999153,0.982234,0.005280,0.463417,0.000008,0.000003,-0.000008,0.000014,-0.000002,-36.091307,0.000015,
2221,2668,-0.818407362515256,0.506486193450634,-0.0173009091291192,0.004904,-0.000745,0.008777,0.197236,0.044456,320.396618,24.306899,0.999534,0.992255,0.003766,0.479067,0.000016,0.000019,-0.000001,0.000019,0.000016,-73.210794,0.000035,
2311,2728,1.12884672855154,1.81660803384475,-0.0151943185248342,0.004736,-0.000550,0.005660,0.198227,0.038869,319.295534,24.392118,0.999480,0.989003,0.004126,0.479982,0.000005,0.000011,-0.000010,0.000018,-0.000002,-53.982457,0.000020,
2266,2743,0.147121040785326,2.14158341798541,-0.0156119718222385,0.004900,-0.000763,0.008978,0.195435,0.046326,319.098384,24.427213,0.999209,0.988256,0.004181,0.470921,0.000005,0.000002,-0.000015,0.000019,-0.000012,-42.469557,0.000019,
2416,3073,3.34936415593736,9.32413290481549,0.013795595461886,0.005011,-0.000284,0.005156,0.211637,0.044378,313.946271,25.525427,0.999528,0.991066,0.003893,0.457486,0.000021,0.000029,-0.000002,0.000029,0.000021,-78.807628,0.000050,
2266,3133,0.0810207102772083,10.6122720331695,0.037408042918571,0.004890,-0.000253,0.005710,0.206379,0.030706,313.193207,25.037444,0.999608,0.994618,0.003268,0.495122,0.000003,0.000024,-0.000007,0.000027,0.000000,-72.860810,0.000031,
2176,2773,-1.81540744844007,2.79103833328037,-0.025065627258698,0.004581,-0.000923,0.008052,0.185739,0.046724,318.746472,24.402182,0.999387,0.989464,0.004220,0.492361,0.000005,0.000012,-0.000010,0.000019,-0.000002,-54.134385,0.000021,
2281,2968,0.434277213897644,7.03549739350164,-0.003240432918858,0.005098,0.000004,0.000712,0.232408,0.042876,315.550745,24.915791,0.999231,0.989459,0.004073,0.396040,0.000001,0.000021,0.000001,0.000021,0.000001,87.627845,0.000025,
2431,3163,3.6582257112677,11.2792849106524,0.0216062889804789,0.004970,-0.000288,0.005622,0.207956,0.050057,312.553223,25.907760,0.999646,0.992077,0.003549,0.427389,0.000038,0.000041,-0.000007,0.000047,0.000032,-52.486170,0.000079,
2206,2923,-1.18726792489231,6.05333318209524,-0.00655471103567606,0.005124,-0.000062,0.003314,0.225576,0.047843,316.407291,24.672685,0.999330,0.989795,0.004033,0.405661,0.000005,0.000018,0.000011,0.000025,-0.000002,60.032008,0.000027,
2281,3193,0.395782089908085,11.9157243362789,0.0359105964453192,0.005003,-0.000348,0.004755,0.214686,0.040012,312.182708,25.266597,0.999661,0.992861,0.003335,0.443931,0.000012,0.000028,-0.000005,0.000030,0.000011,-73.737949,0.000042,
2161,2638,-2.11820997640577,-0.147558802428954,-0.0239110192089242,0.004926,-0.000366,0.005908,0.208435,0.047091,321.021532,24.395888,0.999738,0.992899,0.003617,0.396253,0.000012,-0.000001,-0.000004,0.000013,-0.000002,-14.467656,0.000014,
2311,2818,1.1121641713043,3.77676407432505,-0.0144766275818711,0.004681,-0.000361,0.006697,0.192370,0.043915,317.830208,24.671709,0.999497,0.989967,0.003963,0.398952,0.000001,0.000020,-0.000002,0.000021,0.000001,-85.116094,0.000024,
2146,2623,-2.44208660060537,-0.474918314680643,-0.0234136544486319,0.004690,-0.000378,0.006728,0.195326,0.052314,321.312238,24.388723,0.999576,0.991151,0.004019,0.410932,0.000014,0.000000,-0.000003,0.000015,-0.000001,-10.926838,0.000017,
2401,2953,3.0445114503861,6.71680507643951,-0.00386870753436597,0.004534,-0.000578,0.008421,0.177876,0.048885,315.710884,25.110351,0.999585,0.991424,0.003794,0.465607,0.000007,0.000020,-0.000010,0.000026,0.000002,-62.126049,0.000030,
2311,3058,1.07021981911334,8.98988487318887,0.0186503233986173,0.004541,-0.000456,0.005514,0.190204,0.033277,314.189640,25.115564,0.999659,0.992685,0.003481,0.450717,0.000000,0.000012,-0.000005,0.000014,-0.000002,-70.973117,0.000015,
2326,2638,1.47192870631258,-0.143902233627195,-0.0129624700412023,0.004722,-0.000792,0.008367,0.187833,0.042572,320.757860,24.200318,0.999428,0.988085,0.004184,0.469256,0.000000,0.000016,-0.000013,0.000023,-0.000007,-61.035982,0.000024,
2161,2413,-2.07977426736833,-5.05797967182149,9.49644744991929E-05,0.004630,-0.001037,0.008656,0.185923,0.055763,324.840160,24.173756,0.998928,0.984955,0.004914,0.459974,0.000009,-0.000006,-0.000027,0.000029,-0.000026,-37.568592,0.000032,
2161,2173,-2.04270519867204,-10.3032321747799,-0.0425057471162518,0.004800,-0.000537,0.004214,0.207125,0.061139,328.374096,23.820585,0.999798,0.931211,0.008770,0.624998,0.000006,-0.000005,0.000013,0.000015,-0.000014,33.759196,0.000017,
2296,3253,0.708879448354573,13.2189177103625,0.0190071260817604,0.004773,-0.000275,0.004113,0.206104,0.034106,311.029256,25.464808,0.999620,0.990253,0.003747,0.425286,0.000011,0.000027,-0.000004,0.000027,0.000010,-77.436040,0.000039,
2116,2473,-3.06869849442676,-3.74786561282652,-0.0092830449340795,0.005056,-0.000572,0.004611,0.218653,0.035389,324.005978,24.350678,0.999315,0.988328,0.004362,0.412988,0.000006,0.000002,-0.000021,0.000025,-0.000017,-42.395938,0.000026,
2146,2338,-2.39332709930748,-6.69716300835028,0.00417483355369086,0.004919,-0.000629,0.006100,0.207254,0.051947,326.161302,24.167440,0.999256,0.985666,0.004752,0.457889,0.000002,-0.000006,-0.000010,0.000009,-0.000013,-34.302934,0.000013,
2191,2503,-1.44209236697113,-3.09192303321608,-0.0106685899448848,0.004800,-0.000292,0.004029,0.207899,0.046427,323.218681,24.177397,0.999192,0.985176,0.004900,0.454670,0.000014,0.000015,-0.000007,0.000022,0.000007,-47.741756,0.000030,
2101,2158,-3.34397330346927,-10.6366246036338,0.027937005705553,0.004606,-0.000846,0.010778,0.179663,0.052345,329.419649,24.380196,0.998817,0.981056,0.005536,0.365368,0.000000,-0.000005,0.000012,0.000010,-0.000015,40.094649,0.000015,
2191,2323,-1.41034937438213,-7.02578192275182,0.0111127143385943,0.004925,-0.000739,0.007919,0.201049,0.050608,326.301802,23.973515,0.998994,0.984487,0.004930,0.469595,-0.000001,-0.000012,-0.000004,0.000001,-0.000013,-18.715655,0.000015,
2506,2383,5.44982665092057,-5.71029117367583,0.00774276908947513,0.005368,0.000401,0.001996,0.238287,0.074717,325.362961,23.060782,0.998671,0.979130,0.005599,0.449092,0.000055,0.000040,-0.000015,0.000064,0.000031,-31.824149,0.000096,
2221,2968,-0.869242764642767,7.0308194147141,0.00349528464244031,0.004742,-0.000361,0.006212,0.198486,0.046692,315.690926,24.735711,0.999281,0.989242,0.004116,0.427873,-0.000002,0.000026,0.000006,0.000028,-0.000003,78.112105,0.000030,
2311,2743,1.12664614027526,2.14312970826045,-0.0110824143187074,0.004965,-0.000344,0.005296,0.210115,0.047368,319.097736,24.435953,0.999499,0.989944,0.004033,0.477101,0.000005,0.000013,-0.000012,0.000022,-0.000004,-54.771320,0.000024,
2326,1993,1.59510640814144,-14.2601942633524,0.0328716647217107,0.004738,-0.000570,0.005886,0.196328,0.025908,331.572999,22.804140,0.997912,0.972585,0.006578,0.278333,-0.000006,0.000081,0.000020,0.000086,-0.000010,77.920911,0.000094,
2236,2983,-0.545377496669918,7.35726523829049,0.00859905547991957,0.004918,-0.000146,0.003015,0.216839,0.051457,315.471404,24.793811,0.999459,0.991666,0.003768,0.432883,-0.000007,0.000025,0.000004,0.000026,-0.000007,83.328181,0.000027,
2491,2188,5.16304575137888,-9.98365826995651,0.0263200180254444,0.004931,-0.000945,0.008341,0.193265,0.057216,328.586380,22.342768,0.998479,0.969523,0.006457,0.404518,0.000029,-0.000005,-0.000009,0.000031,-0.000007,-13.840140,0.000032,
2251,2878,-0.202683428743608,5.07771612634048,-0.011006797843379,0.004796,-0.000731,0.006736,0.198483,0.018317,316.969537,24.677257,0.999607,0.990268,0.003800,0.396919,-0.000005,0.000034,0.000000,0.000034,-0.000005,89.448010,0.000037,
2356,2893,2.0777405047856,5.40985645776217,-0.00326787284342345,0.004663,-0.000125,0.005277,0.195979,0.064469,316.689920,24.887692,0.999497,0.990587,0.003865,0.443583,-0.000006,0.000025,-0.000001,0.000025,-0.000007,-87.311786,0.000026,
2281,2638,0.492494058318972,-0.144917456399952,-0.0151807756290623,0.004836,-0.000509,0.006397,0.200709,0.042051,320.791170,24.262304,0.999260,0.985332,0.004499,0.439245,0.000000,0.000017,-0.000009,0.000021,-0.000004,-65.945345,0.000023,
2296,3268,0.705806316600469,13.5439915626973,0.0167897721505597,0.004662,-0.000295,0.004571,0.199428,0.026669,310.757963,25.487737,0.999605,0.992025,0.003465,0.423423,0.000008,0.000030,-0.000006,0.000031,0.000006,-76.371446,0.000040,
2266,2758,0.143607017226078,2.46931834515904,-0.0251389316872519,0.004758,-0.000506,0.008862,0.189461,0.069015,318.768306,24.464380,0.999209,0.988185,0.004235,0.482131,0.000004,0.000015,-0.000013,0.000024,-0.000004,-56.706356,0.000025,
2281,2728,0.476004846633916,1.81561501116882,-0.0179820906424197,0.004815,-0.000767,0.006393,0.199844,0.038447,319.304846,24.391773,0.999686,0.991957,0.003617,0.475096,0.000005,0.000007,-0.000012,0.000018,-0.000006,-46.513927,0.000018,
2266,2923,0.11638768946262,6.05586011920889,-0.00190254501563913,0.005212,-0.000276,0.005224,0.222595,0.036619,316.309521,24.740170,0.999612,0.992097,0.003810,0.452386,0.000003,0.000019,0.000005,0.000021,0.000002,74.766363,0.000025,
2251,3013,-0.225116845438222,8.0093400915956,0.0102886463719756,0.004866,-0.000231,0.006203,0.203853,0.060175,314.951442,24.840875,0.999394,0.989625,0.003951,0.480061,-0.000009,0.000009,-0.000009,0.000013,-0.000013,-66.883284,0.000015,
2161,2653,-2.12131063532545,0.179041145175724,-0.0283636842419241,0.004664,-0.000463,0.006571,0.194338,0.043472,320.727349,24.359828,0.999697,0.991562,0.003726,0.439503,0.000012,0.000008,-0.000001,0.000012,0.000008,-19.130469,0.000020,
2401,2968,3.0431512005914,7.04269780891541,0.00534642552548803,0.004996,-0.000170,0.003764,0.216217,0.064153,315.581188,25.185992,0.999837,0.994878,0.003243,0.450342,0.000009,0.000022,-0.000008,0.000026,0.000005,-64.546659,0.000033,
2326,2008,1.59281946421733,-13.931362045118,0.0412163873140798,0.004808,-0.000523,0.008788,0.189589,0.058396,331.394412,22.848083,0.998138,0.972764,0.006624,0.304641,-0.000001,0.000068,0.000022,0.000074,-0.000007,73.695576,0.000082,
2386,2908,2.72633947740509,5.73896073971741,-0.0200302394536607,0.004858,-0.000267,0.004322,0.207882,0.056812,316.327830,24.969669,0.999422,0.990036,0.004004,0.450704,-0.000009,0.000022,-0.000008,0.000024,-0.000011,-76.731059,0.000024,
2146,2638,-2.44460322064625,-0.14862081463577,-0.0261039005176826,0.004732,-0.000325,0.005426,0.201232,0.051884,321.052929,24.331293,0.999694,0.991631,0.003762,0.476278,0.000015,0.000000,-0.000005,0.000017,-0.000002,-17.234909,0.000018,
2191,2338,-1.41239622345109,-6.69768737647396,0.0229214944297382,0.004781,-0.001035,0.010538,0.186172,0.048667,326.142947,24.122157,0.999636,0.989259,0.004348,0.335125,-0.000001,-0.000011,-0.000003,0.000000,-0.000012,-16.990557,0.000014,
2311,2758,1.1234828912885,2.47012528016021,-0.0162758947315069,0.004805,-0.000157,0.003267,0.209767,0.051499,318.809768,24.458253,0.999560,0.991448,0.003903,0.491263,0.000004,0.000021,-0.000012,0.000028,-0.000002,-62.232433,0.000031,
2176,2788,-1.81783069867761,3.11725882722613,-0.0204618891953601,0.004345,-0.000799,0.007510,0.176574,0.038432,318.532042,24.449955,0.999316,0.988899,0.004305,0.448458,0.000000,0.000020,-0.000002,0.000020,0.000000,-83.106627,0.000024,
2101,2173,-3.34646368268801,-10.3071610512661,0.0175527582612176,0.004900,-0.000715,0.007322,0.203306,0.054111,329.115689,24.363946,0.998856,0.982540,0.005316,0.387747,-0.000001,-0.000005,0.000017,0.000014,-0.000020,41.386360,0.000021,
2191,2788,-1.49165573310085,3.11792967337281,-0.0232497704567436,0.004823,-0.000777,0.007870,0.197156,0.034717,318.480977,24.439910,0.998935,0.986686,0.004654,0.466494,-0.000003,0.000016,0.000000,0.000016,-0.000003,-89.270176,0.000017,
2296,3283,0.702837673800232,13.8693369180191,0.0110781341493862,0.004748,-0.000194,0.002762,0.209629,0.036251,310.473932,25.503712,0.999469,0.992033,0.003453,0.445570,0.000001,0.000045,-0.000009,0.000047,-0.000001,-79.163166,0.000053,
2236,2998,-0.548137795554705,7.68207473008215,0.0106003187797796,0.004926,-0.000623,0.006672,0.205177,0.038061,315.232248,24.753371,0.999449,0.990468,0.003890,0.480410,-0.000008,0.000021,0.000000,0.000021,-0.000008,89.436604,0.000021,
2251,2893,-0.204705416604007,5.40328273298386,-0.00430039700950147,0.005015,-0.000565,0.007472,0.206303,0.048208,316.789024,24.670629,0.999616,0.991067,0.003735,0.456535,-0.000006,0.000026,0.000008,0.000028,-0.000008,76.921966,0.000029,
2221,2683,-0.821089477061577,0.833362804754792,-0.0186540156968249,0.004863,-0.000504,0.007942,0.198146,0.059892,320.142622,24.313113,0.999538,0.991845,0.003722,0.507485,0.000012,0.000025,-0.000005,0.000026,0.000011,-71.490560,0.000038,
2296,2788,0.791418674145955,3.12273173988753,-0.0161861786124859,0.004764,-0.000489,0.006575,0.196825,0.058561,318.322653,24.529284,0.999266,0.989417,0.004145,0.480540,0.000010,0.000024,-0.000005,0.000026,0.000008,-71.649936,0.000036,
2476,2023,4.87005133630577,-13.6055248743535,0.0368927271794064,0.005107,-0.000250,0.007213,0.205950,0.078424,331.309653,21.834711,0.999432,0.981015,0.005272,0.354341,0.000035,-0.000102,0.000082,0.000073,-0.000140,24.944664,0.000140,
2146,2353,-2.39556069347335,-6.36948686163537,0.00347574005166962,0.005037,-0.000366,0.004060,0.218950,0.052154,325.925346,24.157439,0.999214,0.985898,0.004690,0.477784,-0.000001,-0.000018,-0.000017,0.000010,-0.000028,-31.665923,0.000029,
2266,3148,0.0778512116652159,10.9385260878893,0.0301956549412239,0.004878,-0.000364,0.004624,0.209448,0.032578,312.889999,25.096044,0.999240,0.991138,0.003905,0.462732,0.000004,0.000025,-0.000007,0.000027,0.000002,-74.261678,0.000032,
2281,2743,0.473568305327753,2.14231038279979,-0.017456704374581,0.005067,-0.000624,0.006576,0.210835,0.032852,319.076275,24.436835,0.999398,0.989700,0.004000,0.452446,0.000006,0.000007,-0.000013,0.000019,-0.000006,-46.636437,0.000019,
2371,2758,2.42831270972264,2.47416598008972,-0.0264537259558324,0.004877,-0.000516,0.004264,0.208816,0.032325,318.713086,24.541752,0.999199,0.986286,0.004258,0.416159,-0.000003,0.000020,-0.000013,0.000026,-0.000009,-65.772092,0.000027,
2491,2203,5.15974048614254,-9.65412125967796,0.0201582036827403,0.004881,-0.000232,0.004104,0.207485,0.060787,328.306502,22.393192,0.998491,0.971169,0.006308,0.419394,0.000042,-0.000001,-0.000016,0.000047,-0.000006,-18.612239,0.000051,
2326,2653,1.46847011360101,0.184714205628268,-0.0275500473406396,0.004880,-0.000422,0.004690,0.207978,0.055378,320.411751,24.249813,0.999441,0.989221,0.004069,0.467766,-0.000002,0.000020,-0.000013,0.000026,-0.000008,-64.897176,0.000027,
2416,3088,3.34661538455147,9.65011896862823,0.0174860353677673,0.004902,-0.000164,0.004981,0.207326,0.047471,313.727027,25.613398,0.999609,0.992280,0.003648,0.419451,0.000023,0.000028,-0.000007,0.000033,0.000019,-54.586624,0.000052,
2341,2038,1.9136304521656,-13.2726047155514,0.022687312101084,0.004795,-0.001372,0.008580,0.189141,-0.003530,330.755780,22.714172,0.999043,0.978960,0.005652,0.353570,0.000017,0.000029,0.000021,0.000045,0.000001,52.884756,0.000053,
2116,2488,-3.07118853465056,-3.42173229246208,-0.00909416913185623,0.004904,-0.000908,0.003897,0.213663,0.009117,323.760971,24.279446,0.999185,0.986980,0.004544,0.462731,0.000008,0.000006,-0.000018,0.000025,-0.000011,-43.742294,0.000025,
2161,2668,-2.12189092939198,0.503602357413094,-0.00606889879139771,0.004944,-0.000149,0.004521,0.213652,0.050687,320.690042,24.353134,0.999738,0.993180,0.003389,0.463399,0.000011,0.000003,-0.000003,0.000012,0.000002,-19.713396,0.000015,
2356,2908,2.07438927716266,5.73660676401376,-0.0105403039391945,0.004749,-0.000050,0.005652,0.198648,0.065304,316.386719,24.923336,0.999326,0.989817,0.004033,0.447281,-0.000007,0.000019,-0.000003,0.000019,-0.000008,-84.162209,0.000020,
2476,2038,4.86687645150877,-13.27713899811,0.0392429452448937,0.004914,-0.000288,0.008632,0.191813,0.063111,331.073803,21.829642,0.999382,0.979298,0.005596,0.404276,0.000032,-0.000097,0.000068,0.000061,-0.000126,23.247518,0.000126,
2236,3013,-0.550634836903157,8.00837672691403,0.00799048237871602,0.005051,-0.000136,0.003601,0.221074,0.047913,314.981105,24.799959,0.999321,0.988388,0.004157,0.464062,-0.000009,0.000011,-0.000004,0.000012,-0.000009,-79.466617,0.000013,
2206,2938,-1.18995123758262,6.37839767234648,-0.00122684326373701,0.004818,-0.000181,0.005475,0.204601,0.049032,316.186803,24.649114,0.999419,0.991412,0.003785,0.446732,0.000005,0.000023,0.000011,0.000028,0.000000,65.473181,0.000033,
2296,3298,0.698974360742906,14.1951736897398,-0.00224372290813335,0.004923,-0.000460,0.006636,0.204511,0.033483,310.110559,25.541076,0.999674,0.994006,0.003157,0.433990,-0.000005,0.000040,-0.000015,0.000045,-0.000010,-73.447785,0.000047,
2191,2803,-1.49390111081059,3.44467546302594,-0.0210142121810577,0.004861,-0.000361,0.006014,0.204913,0.056053,318.263137,24.492412,0.998939,0.986315,0.004655,0.449432,-0.000005,0.000013,-0.000001,0.000013,-0.000005,-87.941208,0.000013,
2176,2803,-1.8195815944934,3.44358770958111,-0.0169074812250187,0.004496,0.000380,0.001734,0.201845,0.072277,318.342835,24.461283,0.999415,0.989378,0.004291,0.483035,0.000000,0.000016,-0.000004,0.000017,-0.000001,-76.846771,0.000019,
2176,2503,-1.76850798335601,-3.09173842297806,-0.0140868898671442,0.004929,-0.000080,0.002379,0.219189,0.057782,323.248602,24.210732,0.998973,0.983054,0.005232,0.463228,0.000016,0.000023,-0.000012,0.000032,0.000007,-52.925338,0.000041,
2506,2398,5.44488470857006,-5.38155918873636,0.000201997023566491,0.004585,-0.000445,0.006668,0.184059,0.051801,325.002205,23.125229,0.998604,0.981558,0.005323,0.424796,0.000063,0.000034,-0.000011,0.000067,0.000030,-18.623298,0.000100,
2146,2653,-2.44686304815096,0.177124829967767,-0.0221279200004574,0.004687,-0.000731,0.005575,0.198616,0.028779,320.840923,24.306683,0.999735,0.990525,0.003797,0.486064,0.000013,0.000009,-0.000004,0.000016,0.000007,-32.075209,0.000023,
2401,2983,3.03988971682221,7.36847454262243,0.00365841268956046,0.004875,-0.000326,0.004824,0.206691,0.045042,315.312530,25.213767,0.999681,0.991912,0.003714,0.448312,0.000010,0.000023,-0.000007,0.000026,0.000008,-66.841940,0.000035,
2296,2803,0.788233161329671,3.45039198141455,-0.0244227885498276,0.004767,-0.000227,0.004321,0.204741,0.079976,318.016877,24.586628,0.999197,0.988625,0.004224,0.474812,0.000007,0.000018,-0.000004,0.000019,0.000006,-72.606351,0.000026,
2221,2983,-0.871446206472875,7.35663430361109,0.00325236240979621,0.004973,-0.000114,0.003221,0.218826,0.049475,315.464469,24.752312,0.999398,0.990718,0.003865,0.432393,-0.000002,0.000027,0.000006,0.000028,-0.000003,79.260861,0.000031,
2326,2878,1.42781971533736,5.08143524423974,-0.00916795803846071,0.004733,-0.000432,0.004860,0.200850,0.034093,316.896467,24.746707,0.999481,0.990500,0.003941,0.466814,-0.000012,0.000035,-0.000003,0.000035,-0.000012,-86.418842,0.000035,
2476,2053,4.86345551013924,-12.9471304658373,0.0347241739993365,0.004895,-0.000394,0.008044,0.193137,0.058198,330.795433,21.890645,0.999433,0.981929,0.005294,0.398470,0.000034,-0.000083,0.000058,0.000058,-0.000107,22.502343,0.000107,
2146,2368,-2.39808837719156,-6.04160357393815,0.00270630761491475,0.005112,-0.000655,0.005661,0.217499,0.045827,325.675538,24.177390,0.999097,0.986435,0.004581,0.461214,0.000000,-0.000002,-0.000020,0.000019,-0.000021,-43.969771,0.000023,
2311,3073,1.06805990307354,9.3161880237323,0.0227352950038266,0.004747,-0.000145,0.004033,0.204888,0.048048,313.992758,25.217995,0.999669,0.993951,0.003268,0.394458,0.000005,0.000017,-0.000002,0.000017,0.000004,-79.344601,0.000022,
2101,2368,-3.3776559038615,-6.04202495806469,0.00117344576511869,0.004967,-0.000189,0.002025,0.222279,0.043995,325.860304,24.308682,0.998918,0.982786,0.005226,0.478721,0.000001,0.000007,-0.000023,0.000027,-0.000019,-48.604923,0.000028,
2371,2773,2.42585470766093,2.80009871361069,-0.0211007161867087,0.004865,-0.000500,0.004212,0.208495,0.036799,318.513477,24.555259,0.999503,0.989685,0.003884,0.448289,-0.000001,0.000016,-0.000014,0.000023,-0.000009,-61.076900,0.000023,
2161,2188,-2.04189524512668,-9.98174821857179,0.00587970041618746,0.004794,-0.000396,0.004238,0.206821,0.061761,328.537261,23.707908,0.999745,0.911388,0.009617,0.749082,0.000006,0.000006,0.000017,0.000023,-0.000011,44.721799,0.000023,
2281,3208,0.393709705552329,12.2410153614431,0.0453673493973952,0.004916,-0.000138,0.003904,0.213555,0.034504,312.014963,25.358046,0.999822,0.995028,0.002894,0.373411,0.000013,0.000023,-0.000005,0.000025,0.000011,-66.472186,0.000037,
2281,2983,0.431094311947795,7.36058149442852,-0.00163857425826563,0.004765,-0.000049,0.004065,0.205918,0.058917,315.293112,24.866181,0.999384,0.989608,0.003983,0.488766,0.000002,0.000022,-0.000001,0.000022,0.000002,-88.550883,0.000027,
2236,2788,-0.513147814618847,3.12029619243988,-0.0182576802277481,0.004698,0.000087,0.003545,0.204807,0.062513,318.410915,24.505652,0.999405,0.988963,0.004127,0.462706,0.000002,0.000017,-0.000001,0.000017,0.000002,-86.165172,0.000021,
2431,3178,3.65588651826546,11.6037560480728,0.028845574751756,0.004985,-0.000502,0.005244,0.209910,0.026865,312.370410,25.924909,0.999651,0.991686,0.003557,0.435698,0.000040,0.000044,-0.000007,0.000049,0.000035,-52.222868,0.000084,
2386,2923,2.72416661436234,6.06419602982206,-0.00874805013870628,0.004865,-0.000430,0.006509,0.200271,0.041291,316.170155,25.020696,0.999359,0.989081,0.004169,0.426717,-0.000006,0.000017,-0.000010,0.000021,-0.000010,-68.599728,0.000021,
2341,3088,1.71564332739007,9.64437155875841,0.00603153502686382,0.004702,-0.000452,0.004166,0.201875,0.029870,313.588762,25.294463,0.999567,0.994030,0.003201,0.442467,0.000013,0.000013,-0.000012,0.000026,0.000001,-44.947898,0.000030,
2311,2773,1.12149970084083,2.79612164493378,-0.0067202422710011,0.004993,-0.000337,0.004859,0.212915,0.046847,318.648839,24.518009,0.999541,0.992034,0.003771,0.459062,0.000006,0.000017,-0.000010,0.000023,0.000000,-58.309567,0.000027,
2131,2503,-2.74823636816519,-3.09286792879528,-0.0230326133353742,0.004868,-0.000244,0.003317,0.213850,0.033586,323.337389,24.226034,0.999100,0.985303,0.004788,0.515337,0.000023,0.000022,-0.000015,0.000037,0.000008,-43.224372,0.000048,
2446,3133,3.99045504045054,10.6291204395546,0.0217847553499269,0.005124,-0.000432,0.005423,0.215428,0.034121,313.079221,25.867175,0.999562,0.987879,0.004192,0.416840,0.000041,0.000047,-0.000008,0.000053,0.000035,-55.275644,0.000088,
2161,2428,-2.08175214251058,-4.72966266717241,-0.00279196055896591,0.005178,-0.000534,0.006476,0.217965,0.058585,324.605456,24.224899,0.999237,0.985699,0.004689,0.423207,0.000008,-0.000010,-0.000023,0.000023,-0.000026,-34.643474,0.000029,
2251,3028,-0.227847302866468,8.33529999847873,0.00675588406073757,0.004817,-0.000143,0.002693,0.213110,0.039132,314.686177,24.885260,0.999287,0.988625,0.004055,0.437259,-0.000006,0.000004,-0.000011,0.000011,-0.000013,-57.890654,0.000014,
2161,2683,-2.12498049303693,0.83096327353794,-0.0152725394303275,0.005032,-0.000379,0.005390,0.215012,0.053224,320.371118,24.350125,0.999456,0.990315,0.003852,0.479785,0.000012,0.000005,-0.000007,0.000017,0.000001,-33.388614,0.000020,
2356,2923,2.07175034266671,6.0626227256254,-0.0101078843105711,0.004787,-0.000128,0.003865,0.206660,0.054873,316.153602,24.962765,0.999308,0.989952,0.004004,0.435923,-0.000007,0.000017,-0.000005,0.000018,-0.000009,-78.636502,0.000018,
2266,2773,0.141573086825527,2.79558965091502,-0.0206717308889779,0.004923,-0.000467,0.006556,0.204651,0.044071,318.576984,24.529754,0.999139,0.987102,0.004360,0.417419,0.000004,0.000016,-0.000009,0.000021,-0.000001,-61.037597,0.000024,
2266,3163,0.0752860061461256,11.2645166512274,0.0338156451448981,0.004747,-0.000107,0.004379,0.204310,0.036573,312.669258,25.198132,0.999329,0.989554,0.004054,0.389114,0.000008,0.000031,-0.000005,0.000032,0.000007,-77.884705,0.000041,
2326,2023,1.58955655686628,-13.6016702087974,0.0316376224473629,0.004967,-0.000629,0.007854,0.200083,0.045944,331.084178,22.817212,0.998448,0.977526,0.006207,0.361474,-0.000003,0.000072,0.000027,0.000081,-0.000012,72.377674,0.000087,
2296,3013,0.751687349311599,8.01292001195284,0.00461005399478154,0.004578,-0.000396,0.005004,0.193826,0.035790,314.825017,25.001751,0.999248,0.986564,0.004328,0.428701,-0.000003,0.000012,-0.000007,0.000015,-0.000006,-68.919720,0.000015,
2101,2188,-3.34912290972018,-9.97876054511874,0.0134496960063188,0.004856,-0.000725,0.007549,0.200650,0.046266,328.838065,24.333237,0.998778,0.982544,0.005367,0.414590,0.000000,0.000017,0.000024,0.000034,-0.000016,54.939199,0.000034,
2416,3103,3.34376352975535,9.97582030457232,0.0206689181685533,0.004725,-0.000231,0.004741,0.200050,0.041574,313.500682,25.684396,0.999796,0.994799,0.003201,0.388962,0.000030,0.000036,-0.000004,0.000038,0.000027,-63.129349,0.000066,
2281,2998,0.428657003182778,7.68633424077283,0.00509796314997857,0.004752,-0.000414,0.006638,0.196513,0.038209,315.095236,24.953369,0.999427,0.988913,0.003999,0.407677,0.000001,0.000020,-0.000003,0.000020,0.000001,-82.244675,0.000024,
2356,2113,2.22691454198017,-11.6253312131426,0.0222819603471294,0.004478,-0.000553,0.008477,0.175034,0.067259,329.531310,22.907584,0.999456,0.980787,0.005233,0.342213,-0.000001,0.000011,0.000001,0.000012,-0.000001,85.756710,0.000013,
2326,2668,1.4658695385913,0.512456664177279,-0.0241897560084112,0.004819,-0.000257,0.004673,0.205272,0.056657,320.192863,24.386472,0.999651,0.990834,0.003901,0.367106,-0.000004,0.000015,-0.000016,0.000024,-0.000013,-60.029571,0.000024,
2191,2353,-1.41542866532652,-6.37028299842362,0.0124870190648494,0.004681,-0.000385,0.006176,0.195473,0.060674,325.823761,23.980040,0.999348,0.986651,0.004669,0.506112,-0.000004,-0.000023,-0.000009,0.000000,-0.000027,-21.848685,0.000031,
2281,2758,0.470046176987157,2.4691886135923,-0.0205004329000076,0.004697,-0.000934,0.009485,0.183987,0.031222,318.779944,24.471152,0.999293,0.989161,0.004105,0.444456,0.000006,0.000019,-0.000010,0.000025,0.000000,-61.185826,0.000028,
2386,2938,2.72125552542323,6.39008926765462,-0.00545118528651756,0.004702,-0.000526,0.007904,0.187720,0.037674,315.940297,25.066763,0.999348,0.989213,0.004125,0.419799,-0.000001,0.000021,-0.000011,0.000026,-0.000006,-67.272077,0.000027,
2311,1993,1.26738366891716,-14.2601390329799,0.0363851997510665,0.004621,-0.000673,0.006723,0.188327,0.039079,331.600549,22.902926,0.999279,0.978956,0.005992,0.298772,-0.000027,0.000083,-0.000003,0.000083,-0.000027,-88.253577,0.000085,
2341,3193,1.69794462893034,11.9211692114714,0.0338244388760813,0.004913,-0.000609,0.007065,0.201456,0.015476,312.101865,25.581325,0.999589,0.993209,0.003533,0.389330,0.000018,0.000036,0.000000,0.000036,0.000018,88.843382,0.000055,
2326,3118,1.385794325684,10.2934864910336,0.0236327836436772,0.004914,-0.000143,0.003214,0.215261,0.037126,313.264514,25.330937,0.999368,0.992019,0.003685,0.424312,0.000015,0.000027,-0.000008,0.000032,0.000011,-62.689915,0.000044,
2311,3088,1.06564941108291,9.64107159313845,0.0243955477290569,0.004973,-0.000078,0.003812,0.216056,0.042984,313.772821,25.197491,0.999711,0.994919,0.003089,0.441226,0.000005,0.000012,-0.000009,0.000018,-0.000001,-54.930928,0.000020,
2491,2218,5.15611085914701,-9.3241874079403,0.0155096155164642,0.004893,-0.000776,0.005824,0.201271,0.041397,328.018505,22.524839,0.998987,0.979593,0.005657,0.330011,0.000044,0.000010,-0.000007,0.000045,0.000009,-11.573887,0.000058,
2161,2443,-2.08476461513441,-4.4036659705287,0.00222802612933037,0.004551,-0.001306,0.010162,0.177604,0.024854,324.365592,24.179701,0.999225,0.986405,0.004681,0.445916,0.000004,-0.000004,-0.000023,0.000023,-0.000023,-40.288865,0.000026,
2191,2818,-1.49639415092708,3.77000410538999,-0.018907441135525,0.004698,-0.000656,0.004735,0.201267,0.022967,318.033777,24.472143,0.998629,0.984168,0.004869,0.451077,-0.000002,0.000022,0.000003,0.000022,-0.000002,83.897734,0.000025,
2296,2818,0.785875916170674,3.77563624680162,-0.0165912626707723,0.004680,-0.000504,0.005811,0.195560,0.050873,317.829547,24.600213,0.999378,0.990014,0.004002,0.461834,0.000005,0.000020,-0.000001,0.000020,0.000005,-86.608462,0.000027,
2401,2998,3.0368350427757,7.69537885908908,0.000235791683849129,0.004933,-0.000177,0.003754,0.213328,0.043970,315.044778,25.319967,0.999565,0.989524,0.004058,0.385826,0.000013,0.000022,-0.000007,0.000026,0.000010,-62.291811,0.000037,
2266,2788,0.139365100817532,3.12174056515296,-0.0210081219681797,0.005140,-0.000235,0.002587,0.227877,0.043858,318.353470,24.525977,0.999159,0.987488,0.004433,0.446499,0.000004,0.000021,-0.000002,0.000021,0.000004,-83.193118,0.000027,
2281,3223,0.390663117066534,12.5652809411203,0.0456713783735836,0.004590,-0.000299,0.003969,0.198321,0.041684,311.756873,25.292476,0.999801,0.994544,0.003091,0.472454,0.000014,0.000028,-0.000005,0.000030,0.000012,-71.155783,0.000044,
2506,2413,5.44281213032626,-5.05410552555533,0.00234047781719937,0.004985,0.000179,0.001311,0.223342,0.059951,324.816343,23.139083,0.999017,0.982576,0.005238,0.481546,0.000057,0.000019,0.000010,0.000060,0.000017,13.736416,0.000080,
2326,2038,1.58588628250438,-13.2698559478382,0.0192249463561893,0.004513,0.000330,0.001171,0.202601,0.060500,330.741108,22.927929,0.999143,0.982535,0.005260,0.303952,-0.000006,0.000050,0.000016,0.000054,-0.000010,75.004513,0.000057,
2311,2788,1.11892623557323,3.12169091662548,-0.00434125538225771,0.005073,-0.000489,0.005773,0.213420,0.036273,318.425557,24.491940,0.999624,0.994014,0.003491,0.506574,0.000008,0.000022,-0.000006,0.000024,0.000005,-69.663548,0.000031,
2101,2383,-3.38056577381282,-5.71323077953696,-0.00416085033856461,0.004943,-0.000391,0.004800,0.213044,0.040304,325.564420,24.369746,0.998893,0.982694,0.005107,0.417154,0.000003,0.000010,-0.000023,0.000030,-0.000017,-49.450491,0.000030,
2266,3178,0.0725571226787629,11.5887797718312,0.0352149290073385,0.004741,-0.000553,0.005930,0.198736,0.022760,312.430375,25.148953,0.999480,0.991194,0.003659,0.448778,0.000010,0.000031,-0.000006,0.000033,0.000009,-75.712675,0.000044,
2296,3028,0.749955254736147,8.33889204084912,0.00764076825481652,0.005174,0.000129,0.002288,0.230684,0.062297,314.641827,25.044370,0.999358,0.988490,0.004064,0.441803,-0.000001,0.000008,-0.000007,0.000012,-0.000005,-60.348821,0.000013,
2266,2938,0.112777217624274,6.38125377867499,-0.00225997953157275,0.004618,-0.000558,0.009278,0.181740,0.043858,316.021365,24.701539,0.999480,0.990965,0.003849,0.523379,0.000003,0.000023,0.000003,0.000024,0.000003,80.548611,0.000029,
2206,2953,-1.19298257386226,6.70462964436063,-0.011661602218112,0.004854,0.000060,0.001789,0.218119,0.061248,315.868381,24.615288,0.999423,0.991405,0.003791,0.509157,0.000002,0.000023,0.000010,0.000027,-0.000002,68.270036,0.000030,
2356,2128,2.22428810030412,-11.2973103726922,0.0228944943521014,0.004580,-0.000573,0.007836,0.181944,0.055182,329.302111,22.878589,0.999270,0.981773,0.005220,0.400921,0.000001,0.000016,0.000000,0.000016,0.000001,-88.776440,0.000019,
2161,2698,-2.12797301422619,1.15781904090397,-0.0189812669542562,0.004841,-0.000420,0.006135,0.203956,0.072663,320.085649,24.334697,0.999254,0.987050,0.004290,0.525087,0.000010,0.000003,-0.000009,0.000016,-0.000003,-33.659327,0.000017,
2251,3043,-0.230086897799232,8.66094988614648,0.0151210859596063,0.004945,-0.000351,0.006666,0.205964,0.053838,314.503863,24.948085,0.999474,0.990844,0.003763,0.411404,-0.000005,0.000004,-0.000012,0.000012,-0.000013,-55.144035,0.000015,
2491,2233,5.1521695639864,-8.99579346183027,0.0116567124880476,0.004517,-0.000868,0.007644,0.177074,0.051733,327.719682,22.500179,0.998985,0.979946,0.005756,0.426688,0.000048,0.000014,-0.000001,0.000048,0.000014,-2.336062,0.000064,
2326,2683,1.46277554911295,0.838417190833631,-0.0241985940652398,0.004661,-0.000438,0.006681,0.191058,0.052949,319.935243,24.340964,0.999705,0.991241,0.003892,0.443895,-0.000005,0.000024,-0.000016,0.000031,-0.000012,-65.884567,0.000031,
2191,2518,-1.44430431167201,-2.76672171621714,0.000399318828101514,0.004731,-0.001050,0.009409,0.187655,0.028511,323.048993,24.121529,0.999208,0.987386,0.004694,0.508133,0.000019,0.000016,-0.000001,0.000019,0.000016,-13.919078,0.000035,
2326,3133,1.38243324902403,10.6191139149591,0.0185407048420529,0.004569,0.000021,0.000914,0.207378,0.034165,312.968356,25.347190,0.999154,0.990864,0.003845,0.438248,0.000013,0.000035,-0.000007,0.000036,0.000011,-74.335611,0.000050,
2161,2203,-2.04456048392685,-9.65005791929881,0.00794279544174969,0.004654,-0.000958,0.006865,0.192242,0.040511,328.296804,24.062696,0.998762,0.960332,0.006807,0.385832,0.000007,0.000011,0.000017,0.000026,-0.000009,48.256212,0.000027,
2311,3103,1.06267171928698,9.96694300793534,0.0245714666166919,0.004760,-0.000118,0.003763,0.206443,0.042988,313.519095,25.257446,0.999456,0.992550,0.003600,0.412188,0.000008,0.000020,-0.000010,0.000025,0.000003,-60.466041,0.000031,
2221,2428,-0.774086709130327,-4.73228623483546,0.00789115018284292,0.005294,0.000369,0.000253,0.242422,0.050064,324.540700,23.853175,0.999695,0.989627,0.004080,0.619594,0.000013,-0.000016,-0.000013,0.000018,-0.000020,-21.172861,0.000022,
2311,2008,1.26524002464267,-13.9309653524298,0.0362636059726356,0.005208,-0.000559,0.006505,0.215977,0.040132,331.386185,22.912626,0.999237,0.980045,0.005902,0.325925,-0.000020,0.000068,0.000005,0.000068,-0.000020,86.833622,0.000070,
2356,2938,2.06890133103446,6.38842798675164,-0.00604284420990098,0.004834,-0.000543,0.008551,0.192149,0.043943,315.928358,25.013158,0.999213,0.988802,0.004143,0.412925,-0.000004,0.000023,-0.000005,0.000024,-0.000005,-79.344493,0.000025,
2506,2428,5.4402735430569,-4.72668132488666,0.00663309702281367,0.005101,0.000021,0.000193,0.232934,0.049190,324.618671,23.194249,0.998789,0.980676,0.005580,0.478130,0.000056,0.000006,0.000016,0.000060,0.000001,16.591136,0.000070,
2341,2053,1.91215631228672,-12.9444724039227,0.0397824650598295,0.004851,-0.000977,0.009061,0.190173,0.040843,330.657545,22.795681,0.999116,0.980148,0.005421,0.355936,0.000014,0.000025,0.000014,0.000035,0.000004,55.998744,0.000042,
2266,3193,0.0698153253977338,11.9146100705544,0.033780996406108,0.004858,-0.000478,0.006476,0.202401,0.033665,312.176007,25.206605,0.999528,0.991367,0.003579,0.426377,0.000011,0.000030,-0.000005,0.000031,0.000010,-76.141760,0.000043,
2356,3268,2.00705896828157,13.5506983931261,0.00798073259812782,0.004485,-0.000154,0.006207,0.184935,0.062574,310.635222,25.825272,0.999604,0.992344,0.003416,0.450958,0.000011,0.000035,0.000002,0.000035,0.000011,84.497120,0.000048,
2236,3028,-0.553149917799995,8.3337352206104,0.0122545128927527,0.004812,-0.000297,0.002507,0.213519,0.028035,314.764549,24.839440,0.999452,0.990400,0.003812,0.425069,-0.000006,0.000006,-0.000005,0.000008,-0.000008,-69.702093,0.000009,
2116,2503,-3.07354552097786,-3.09363462964967,-0.016357395577927,0.005130,-0.000051,-0.000554,0.237550,0.036395,323.481425,24.271795,0.998881,0.984256,0.004868,0.502383,0.000019,0.000022,-0.000014,0.000035,0.000007,-47.761094,0.000044,
2221,2698,-0.823747033645816,1.15965451358046,-0.017962762722334,0.004757,-0.000725,0.007855,0.193463,0.046677,319.900437,24.315699,0.999605,0.993695,0.003331,0.510945,0.000008,0.000021,-0.000004,0.000022,0.000007,-72.319347,0.000030,
2401,3013,3.0339248058036,8.02100300131297,0.00129203952519674,0.004864,-0.000152,0.003793,0.210048,0.046622,314.805127,25.339178,0.999563,0.988838,0.004053,0.414087,0.000013,0.000021,-0.000009,0.000027,0.000007,-56.143920,0.000036,
2236,2803,-0.515954963157984,3.44615437988058,-0.0191410384989581,0.004861,-0.000577,0.007334,0.199829,0.048999,318.154891,24.487929,0.999481,0.988890,0.004189,0.487976,0.000001,0.000016,-0.000001,0.000016,0.000001,-87.741812,0.000019,
2131,2518,-2.7503064360244,-2.76673726606821,-0.00598092203654232,0.004576,-0.000940,0.010370,0.179125,0.044197,323.202515,24.280472,0.999162,0.985952,0.004648,0.477694,0.000027,0.000021,-0.000008,0.000032,0.000016,-35.473896,0.000049,
2341,3208,1.69567592445993,12.245715778731,0.0349466297722643,0.005077,-0.000166,0.002988,0.223408,0.022352,311.887601,25.544545,0.999563,0.993021,0.003490,0.468521,0.000018,0.000033,-0.000001,0.000033,0.000018,-87.159973,0.000052,
2101,2203,-3.3519416742649,-9.65077760997531,0.0155810123177957,0.004431,-0.001150,0.010483,0.172471,0.036846,328.586807,24.337081,0.998614,0.980231,0.005465,0.405264,0.000001,0.000023,0.000023,0.000037,-0.000013,57.957439,0.000038,
2446,3148,3.98790995341615,10.954617146256,0.0256578217879451,0.005069,0.000009,0.003113,0.221759,0.054488,312.871956,25.908398,0.999545,0.989993,0.003878,0.447011,0.000039,0.000038,-0.000009,0.000047,0.000030,-42.932907,0.000078,
2296,3043,0.747593859504313,8.66387103945869,0.0172150680478467,0.005061,-0.000373,0.005042,0.216039,0.050449,314.462535,25.080542,0.999379,0.988641,0.004073,0.422653,0.000000,0.000010,-0.000007,0.000013,-0.000003,-63.375634,0.000013,
2161,2218,-2.04685606093294,-9.32159318027427,0.00968711928447874,0.004561,-0.000455,0.004789,0.194476,0.028557,328.072095,24.115518,0.998736,0.978907,0.005566,0.333374,0.000005,0.000021,0.000013,0.000029,-0.000003,60.981437,0.000032,
2146,2383,-2.40011065358977,-5.71437251922381,0.00535832482540854,0.005286,-0.000651,0.004578,0.228790,0.037655,325.467087,24.177539,0.998900,0.985578,0.004662,0.462505,0.000003,0.000002,-0.000020,0.000023,-0.000018,-44.180251,0.000024,
2221,2998,-0.874003432054696,7.68198645397355,0.0056677810457586,0.004992,-0.000190,0.004904,0.214310,0.056184,315.235549,24.744656,0.999467,0.990654,0.003855,0.464963,-0.000004,0.000024,0.000002,0.000024,-0.000004,85.735475,0.000026,
2356,3283,2.00348543263425,13.876006258374,-0.0014592263950135,0.004511,-0.000378,0.006401,0.185318,0.040677,310.310158,25.850536,0.999550,0.991983,0.003507,0.441164,0.000009,0.000035,-0.000001,0.000035,0.000009,-88.643006,0.000046,
2176,2518,-1.77122550818815,-2.76532783308848,-0.010540306483108,0.004771,-0.000750,0.006647,0.198521,0.034366,323.015377,24.203399,0.998990,0.985268,0.004904,0.460614,0.000020,0.000022,-0.000005,0.000026,0.000016,-49.364566,0.000043,
2326,2053,1.5833397406103,-12.9433124242343,0.028312678069824,0.004548,-0.000868,0.007914,0.180611,0.051912,330.554586,22.828371,0.999537,0.986699,0.004623,0.432384,-0.000008,0.000042,0.000008,0.000044,-0.000010,80.931723,0.000046,
2161,2713,-2.13081428633105,1.48501707601663,-0.0183309151999538,0.004549,-0.000538,0.007428,0.186542,0.060797,319.830037,24.422241,0.999413,0.989013,0.004123,0.435880,0.000013,0.000002,-0.000009,0.000018,-0.000003,-28.809127,0.000020,
2281,3238,0.387199540797148,12.8915258057547,0.0317444766114363,0.004762,-0.000366,0.002265,0.211988,0.033429,311.407511,25.348146,0.999789,0.993438,0.003303,0.435142,0.000016,0.000024,-0.000006,0.000027,0.000013,-61.906286,0.000040,
2161,2458,-2.08690782203237,-4.07563396038543,-0.00251014508916114,0.005106,-0.000783,0.008689,0.207826,0.060193,324.113509,24.165309,0.999226,0.987547,0.004502,0.507392,0.000007,0.000000,-0.000025,0.000029,-0.000022,-40.976620,0.000031,
2341,2068,1.90861782877259,-12.6160562700916,0.0356163494947737,0.004440,-0.000998,0.009293,0.170567,0.040061,330.362369,22.715712,0.998932,0.975570,0.005881,0.475538,0.000010,0.000010,0.000011,0.000022,-0.000001,44.943238,0.000024,
2386,2953,2.71845337025919,6.7159942873715,-0.00532981047911107,0.004671,-0.000441,0.006432,0.191650,0.034938,315.700285,25.094558,0.999225,0.988392,0.004284,0.431908,0.000003,0.000020,-0.000010,0.000025,-0.000001,-65.739995,0.000028,
2431,3193,3.65341824575205,11.9289355571304,0.0358552048253387,0.004955,-0.000468,0.005658,0.207050,0.029058,312.180283,25.983543,0.999637,0.990820,0.003688,0.428123,0.000040,0.000040,-0.000007,0.000047,0.000033,-44.343273,0.000081,
2266,3208,0.0667480666688611,12.2404258641335,0.0321469879943379,0.004614,-0.000428,0.006314,0.191720,0.033743,311.905626,25.276638,0.999707,0.994045,0.003207,0.380394,0.000012,0.000027,-0.000004,0.000028,0.000011,-76.150045,0.000040,
2191,2368,-1.41847238593866,-6.0410884264103,0.00485335044874091,0.004633,-0.000120,0.005294,0.196159,0.063490,325.518220,24.044419,0.999490,0.987143,0.004610,0.460948,-0.000007,-0.000011,-0.000013,0.000004,-0.000023,-40.774429,0.000024,
2341,3223,1.69222662845385,12.5721987807059,0.0315592488963716,0.004746,-0.000078,0.003312,0.207197,0.042562,311.596280,25.651081,0.999510,0.992022,0.003510,0.417219,0.000016,0.000036,0.000000,0.000036,0.000016,89.789059,0.000054,
2371,2188,2.54083671450796,-9.98168611143113,0.0195711929677032,0.004992,-0.000524,0.005437,0.209126,0.049293,328.339916,22.971186,0.999076,0.981553,0.005282,0.391586,-0.000007,-0.000002,-0.000013,0.000009,-0.000017,-50.461856,0.000017,
2371,2863,2.40895585467934,4.75841241669799,-0.0143473852490956,0.004795,-0.000605,0.005900,0.199327,0.030807,317.093835,24.808159,0.999512,0.989842,0.003977,0.435012,-0.000009,0.000034,-0.000008,0.000036,-0.000011,-79.421091,0.000037,
2311,3118,1.06006684369097,10.2927242516067,0.0221780353142549,0.004855,0.000154,0.000271,0.222852,0.045890,313.269818,25.294104,0.999277,0.990751,0.003965,0.409723,0.000011,0.000026,-0.000007,0.000029,0.000008,-68.444048,0.000038,
2311,2023,1.26228301763962,-13.602181741494,0.0334836938039302,0.005061,-0.000517,0.004730,0.215308,0.034503,331.121638,22.869120,0.999047,0.981349,0.005568,0.399724,-0.000021,0.000069,0.000012,0.000071,-0.000023,82.773202,0.000072,
2311,2833,1.11033185392997,4.10277443536962,-0.00664028415178564,0.004849,-0.000281,0.004246,0.208511,0.042938,317.667586,24.730940,0.999688,0.991954,0.003713,0.370671,0.000000,0.000031,0.000001,0.000031,0.000000,87.757903,0.000036,
2266,2953,0.110851820579853,6.70793453788122,0.00177205244364131,0.004944,-0.000263,0.007092,0.204159,0.051534,315.832306,24.815544,0.999177,0.987173,0.004398,0.441949,0.000000,0.000022,0.000003,0.000023,0.000000,81.286968,0.000026,
2356,3028,2.05315169621556,8.34318833447334,0.00752598125620807,0.004657,-0.000179,0.002384,0.205968,0.038683,314.585384,25.252217,0.999623,0.991409,0.003713,0.397453,0.000005,0.000015,-0.000012,0.000023,-0.000003,-56.537259,0.000025,
2326,2698,1.46037263582151,1.16393248609258,-0.0197651139002346,0.004663,-0.000432,0.006099,0.193164,0.053398,319.731118,24.291203,0.999531,0.990191,0.004042,0.528802,-0.000008,0.000025,-0.000012,0.000029,-0.000012,-71.537899,0.000029,
2326,3148,1.37998945678676,10.9440952973772,0.0228332394539734,0.004588,-0.000301,0.000658,0.209031,0.017726,312.760597,25.378864,0.999492,0.992163,0.003653,0.423396,0.000012,0.000032,-0.000003,0.000032,0.000011,-80.384130,0.000045,
2281,2773,0.467919444100477,2.79562644616514,-0.0161811849244486,0.004710,-0.000556,0.005967,0.196577,0.044567,318.584489,24.512384,0.999169,0.987823,0.004332,0.444478,0.000008,0.000018,-0.000006,0.000021,0.000005,-63.281636,0.000028,
2506,2443,5.43640757525271,-4.39874003180747,0.00407657320130284,0.004675,-0.000479,0.001449,0.208376,0.015922,324.329408,23.259712,0.999034,0.981501,0.005328,0.442185,0.000060,-0.000024,0.000007,0.000060,-0.000024,4.822898,0.000061,
2326,2893,1.4250774104962,5.40801495603174,-0.0114107836895414,0.004789,-0.000365,0.002625,0.211208,0.032928,316.643243,24.800318,0.999216,0.989761,0.004061,0.445959,-0.000011,0.000026,0.000002,0.000026,-0.000011,87.372982,0.000026,
2221,2713,-0.826518733153247,1.4864030651021,-0.0154351559697261,0.004479,-0.000791,0.008745,0.177840,0.046548,319.662256,24.366518,0.999300,0.989818,0.003913,0.479205,0.000009,0.000012,-0.000003,0.000014,0.000007,-58.804217,0.000022,
2296,2833,0.783687857611969,4.10193461336564,-0.012232365075306,0.004780,-0.000333,0.004011,0.206304,0.045235,317.632400,24.664295,0.999633,0.992499,0.003692,0.421749,0.000005,0.000029,0.000003,0.000029,0.000004,83.278416,0.000037,
2281,3013,0.425511916552633,8.01228392103791,0.00158169342796555,0.004539,-0.000368,0.005917,0.189224,0.054337,314.813399,24.956438,0.999331,0.988434,0.004058,0.447998,0.000000,0.000010,-0.000006,0.000013,-0.000002,-65.286547,0.000014,
2356,2953,2.06580465603276,6.71419552981806,-0.00773963317885773,0.004548,-0.000629,0.006370,0.186630,0.032485,315.663877,25.023997,0.999358,0.989183,0.004019,0.428776,0.000000,0.000020,-0.000006,0.000021,-0.000002,-75.532497,0.000023,
2101,2398,-3.38293347415786,-5.38692776478861,0.00261601747831719,0.004621,-0.000690,0.006678,0.192708,0.045888,325.359167,24.315281,0.999059,0.984007,0.004784,0.480065,0.000002,0.000001,-0.000023,0.000025,-0.000022,-44.502556,0.000027,
2356,3298,2.00087599571933,14.2019649192736,-0.00745009011097864,0.005033,-0.000253,0.003941,0.218131,0.040058,310.045899,25.938051,0.999706,0.992390,0.003505,0.390186,0.000004,0.000033,-0.000008,0.000035,0.000002,-74.841974,0.000042,
2491,2248,5.14897389654611,-8.66755377225391,0.0116191094563192,0.004570,-0.000813,0.009525,0.172356,0.049921,327.472174,22.518387,0.999038,0.980652,0.005515,0.467776,0.000047,0.000034,0.000005,0.000048,0.000032,19.665426,0.000081,
2161,2233,-2.04887972167606,-8.9943313519795,0.015068799748633,0.004576,-0.000359,0.003975,0.197728,0.049439,327.878965,24.068302,0.998857,0.979789,0.005348,0.413885,-0.000002,0.000019,0.000007,0.000021,-0.000004,73.599403,0.000022,
2416,3118,3.34092711129297,10.3014132117899,0.0201076957642954,0.004773,-0.000364,0.003379,0.207259,0.037791,313.257444,25.723509,0.999839,0.995016,0.003049,0.392880,0.000032,0.000045,-0.000005,0.000046,0.000031,-71.938920,0.000077,
2311,2038,1.25923483730381,-13.2710558333746,0.0294221569422461,0.004652,0.000524,-0.000810,0.215850,0.064240,330.846171,22.995295,0.999544,0.986954,0.004559,0.339272,-0.000022,0.000054,0.000003,0.000054,-0.000022,88.072517,0.000054,
2506,2458,5.43259925287508,-4.07014306284839,0.000279596892482914,0.004682,-0.000688,0.005869,0.191559,0.042190,324.036858,23.319485,0.999167,0.984725,0.004816,0.471329,0.000066,-0.000027,0.000005,0.000066,-0.000027,3.025684,0.000066,
2371,3103,2.36577662291342,9.97205821359826,0.0222143495664682,0.004751,-0.000282,0.005920,0.197685,0.048831,313.476113,25.500203,0.999432,0.990240,0.003915,0.406857,0.000022,0.000024,-0.000008,0.000030,0.000015,-48.557546,0.000046,
2281,2788,0.465870661743764,3.12185628352557,-0.0139213645629752,0.005168,-0.000669,0.005360,0.219579,0.031293,318.382413,24.548916,0.998985,0.986695,0.004528,0.422403,0.000011,0.000024,0.000000,0.000024,0.000011,-89.803922,0.000035,
2356,3043,2.05019629040384,8.66836123562282,0.00728608490163651,0.004815,-0.000437,0.005581,0.201912,0.042949,314.334276,25.226661,0.999664,0.991321,0.003665,0.465337,0.000006,0.000015,-0.000010,0.000021,0.000000,-57.581281,0.000025,
2146,2398,-2.40286045157773,-5.38605970728297,0.000753238168726966,0.005264,-0.000412,0.004190,0.229037,0.034892,325.186702,24.206568,0.998773,0.984882,0.004924,0.440382,0.000005,-0.000004,-0.000022,0.000022,-0.000022,-39.218268,0.000025,
2326,3163,1.37767762372721,11.2693160625422,0.02969554578425,0.004824,-0.000415,0.004089,0.208038,0.024634,312.571383,25.428002,0.999665,0.993298,0.003464,0.414239,0.000012,0.000036,-0.000003,0.000037,0.000012,-82.265857,0.000050,
2161,2473,-2.08941691015258,-3.74774393500138,-0.000943806037014383,0.004936,-0.000456,0.008110,0.201939,0.071805,323.877922,24.225310,0.999259,0.985565,0.004854,0.470416,0.000010,0.000003,-0.000019,0.000026,-0.000013,-40.093620,0.000026,
2326,2713,1.45720686150442,1.49281290816877,-0.0208387401796699,0.004461,-0.000154,0.007191,0.180275,0.073232,319.464143,24.490504,0.999066,0.985538,0.004682,0.383868,-0.000007,0.000017,-0.000013,0.000022,-0.000013,-66.344596,0.000022,
2236,2818,-0.517908382878691,3.77198154202634,-0.0132317029446654,0.004937,-0.000231,0.004652,0.212129,0.044578,317.972658,24.514403,0.999526,0.989970,0.004030,0.478010,0.000001,0.000026,0.000004,0.000027,0.000000,81.186013,0.000031,
2281,3253,0.383317676699239,13.217776238537,0.0166694694999023,0.004824,-0.000289,0.003606,0.210336,0.034195,311.033062,25.394710,0.999727,0.992555,0.003453,0.415603,0.000014,0.000024,-0.000005,0.000026,0.000013,-69.082913,0.000040,
2371,2878,2.40645612695485,5.08469309223018,-0.0101240187294707,0.004867,-0.000987,0.006231,0.201328,0.019799,316.886470,24.888051,0.999506,0.992237,0.003715,0.384554,-0.000010,0.000033,-0.000008,0.000035,-0.000011,-79.836386,0.000035,
2191,2833,-1.4983465110816,4.09607010635082,-0.0145095934582287,0.005154,-0.000621,0.006850,0.215655,0.029933,317.840839,24.500954,0.999182,0.989376,0.004084,0.443322,0.000001,0.000025,0.000009,0.000028,-0.000002,72.296673,0.000031,
2221,2728,-0.828672388145009,1.81273425943344,-0.0144118780231679,0.004726,-0.000765,0.006812,0.195395,0.033107,319.444835,24.384290,0.999353,0.989759,0.003869,0.467038,0.000011,0.000008,-0.000005,0.000015,0.000004,-34.952514,0.000020,
2356,2143,2.22199391068224,-10.9685689569142,0.0238554841890846,0.005069,-0.000963,0.008123,0.203181,0.060700,329.089584,22.906734,0.998829,0.978850,0.005634,0.419961,-0.000001,0.000015,-0.000005,0.000016,-0.000003,-73.185548,0.000018,
2386,2968,2.71548614100896,7.0425700511481,-0.0101549324327834,0.004836,-0.000684,0.004538,0.205974,0.027170,315.428899,25.159097,0.999524,0.990411,0.003988,0.402529,0.000006,0.000023,-0.000008,0.000026,0.000003,-69.010748,0.000031,
2266,3223,0.0640501273648582,12.5652128065777,0.0304926585084218,0.004742,-0.000376,0.006204,0.198066,0.038347,311.652466,25.251143,0.999783,0.995076,0.003143,0.434709,0.000013,0.000033,-0.000004,0.000033,0.000012,-79.660173,0.000047,
2266,2968,0.108159662890959,7.03411196289949,-0.00208413458750556,0.004978,-0.000147,0.003583,0.217449,0.056464,315.568422,24.835153,0.999390,0.990418,0.003928,0.452287,-0.000003,0.000022,0.000003,0.000023,-0.000003,83.265290,0.000024,
2371,2203,2.53801746161835,-9.65310486550756,0.0178204432520488,0.005209,-0.000599,0.005936,0.217280,0.065252,328.091424,22.967386,0.998825,0.979523,0.005597,0.455035,-0.000007,0.000005,-0.000014,0.000015,-0.000016,-56.229423,0.000018,
2326,2908,1.4223176623427,5.73412587211278,-0.00780175614755763,0.004668,-0.000509,0.004122,0.200460,0.041223,316.417921,24.848100,0.999153,0.989336,0.004145,0.440521,-0.000008,0.000022,-0.000001,0.000022,-0.000008,-88.028405,0.000022,
2281,3028,0.42368591743293,8.33787599474226,0.00509951417842558,0.004870,-0.000026,0.001644,0.218920,0.052431,314.627491,24.995649,0.999231,0.987933,0.004094,0.433967,0.000003,0.000006,-0.000007,0.000011,-0.000003,-51.684578,0.000012,
2326,2068,1.58032073487279,-12.6147542488324,0.0245254822762035,0.004608,-0.001154,0.008258,0.182072,0.033102,330.283656,22.784084,0.999351,0.981453,0.005273,0.495774,-0.000010,0.000025,0.000005,0.000026,-0.000011,81.666865,0.000026,
2101,2413,-3.38544553622149,-5.05906585367905,0.00167723150889287,0.004560,-0.000822,0.007033,0.188805,0.026523,325.105448,24.358999,0.999076,0.985145,0.004774,0.419985,0.000005,-0.000006,-0.000023,0.000023,-0.000025,-38.551798,0.000028,
2341,3103,1.71397653539146,9.96904628469522,0.0230744998432328,0.004735,-0.000468,0.006437,0.195488,0.030720,313.479943,25.350901,0.999544,0.993042,0.003462,0.422275,0.000019,0.000020,-0.000011,0.000030,0.000009,-46.353673,0.000041,
2341,3238,1.6892075996321,12.8979804832601,0.0258637633318699,0.004967,0.000111,0.002942,0.218827,0.063919,311.313709,25.682920,0.999457,0.990754,0.003652,0.442046,0.000014,0.000033,-0.000001,0.000033,0.000014,-85.587880,0.000048,
2431,3208,3.65001621332963,12.2546290239248,0.0297240479760035,0.004898,-0.000266,0.004131,0.210172,0.034772,311.885638,26.012879,0.999584,0.989235,0.004029,0.453040,0.000040,0.000034,-0.000010,0.000047,0.000026,-37.228025,0.000075,
2401,3028,3.03113585004342,8.34618455807615,0.00241075983154815,0.004754,-0.000411,0.001848,0.211931,0.023874,314.571445,25.347319,0.999622,0.988976,0.004037,0.427656,0.000014,0.000019,-0.000011,0.000028,0.000005,-52.362843,0.000036,
2371,2893,2.40387042296195,5.4104362814592,-0.00975912730081063,0.004798,-0.000135,0.002108,0.213166,0.044125,316.656712,24.858869,0.999444,0.990879,0.003884,0.479011,-0.000008,0.000028,-0.000007,0.000030,-0.000009,-79.694526,0.000030,
2146,2413,-2.40614397937516,-5.05734587668532,-0.0122835469185247,0.005227,-0.000715,0.003129,0.230467,0.015725,324.837240,24.214307,0.998617,0.985353,0.005171,0.423268,0.000010,-0.000008,-0.000026,0.000028,-0.000026,-35.606828,0.000031,
2191,2848,-1.500958946716,4.42115579525665,-0.00289027697283473,0.004723,-0.001238,0.012863,0.176796,0.034322,317.655481,24.500092,0.999232,0.989987,0.003943,0.462854,0.000001,0.000027,0.000015,0.000034,-0.000006,65.011363,0.000037,
2356,2968,2.06326823894561,7.04048963552596,-0.0041770364427407,0.004564,-0.000673,0.006063,0.188464,0.030167,315.450327,25.114919,0.999562,0.990992,0.003754,0.373714,0.000001,0.000021,-0.000005,0.000022,0.000000,-77.676813,0.000025,
2386,2983,2.71326049725052,7.36756310023401,-0.000270664329377723,0.004972,-0.000800,0.007638,0.201054,0.024505,315.261998,25.178308,0.999496,0.989169,0.004218,0.423133,0.000008,0.000024,-0.000007,0.000027,0.000005,-69.974665,0.000034,
2296,3058,0.744424551524606,8.98880646223744,0.0154658600322932,0.004713,-0.000424,0.004239,0.202682,0.033948,314.189811,25.046571,0.999514,0.991863,0.003672,0.469263,0.000002,0.000013,-0.000005,0.000015,0.000000,-69.124579,0.000018,
2296,2848,0.780981016672929,4.42712908505565,-0.010602552764567,0.004844,-0.000430,0.006067,0.202227,0.039000,317.398155,24.610911,0.999641,0.992539,0.003688,0.498781,0.000006,0.000033,0.000004,0.000034,0.000005,81.145833,0.000042,
2356,2158,2.21962376743916,-10.6393520333031,0.024989818733502,0.005135,-0.000427,0.004087,0.220587,0.044146,328.874418,23.007417,0.999251,0.981691,0.005304,0.344259,-0.000008,-0.000002,-0.000013,0.000009,-0.000019,-51.820386,0.000019,
2266,2983,0.105423030044527,7.35964206830605,-0.00144330511210455,0.004929,-0.000424,0.004040,0.213571,0.038720,315.325331,24.853318,0.999619,0.992065,0.003718,0.441200,-0.000001,0.000024,0.000001,0.000024,-0.000001,87.946538,0.000027,
2326,2083,1.57730792249784,-12.2822861664256,0.0190230897227934,0.004674,-0.000606,0.006492,0.191398,0.056485,330.003974,23.041298,0.999441,0.982706,0.005361,0.299900,-0.000012,0.000033,0.000006,0.000034,-0.000012,82.177115,0.000035,
2221,3013,-0.876231698811122,8.00738477237543,0.0102979479221972,0.005031,-0.000113,0.004376,0.217843,0.053832,315.033107,24.768853,0.999454,0.990762,0.003792,0.456578,-0.000005,0.000017,-0.000003,0.000017,-0.000005,-82.769371,0.000018,
2476,2068,4.86098807887501,-12.6181578546459,0.0357417691038791,0.005150,-0.000427,0.004905,0.216676,0.037191,330.585828,21.940651,0.999397,0.979573,0.005572,0.387216,0.000035,-0.000071,0.000048,0.000053,-0.000089,20.977579,0.000090,
2311,2053,1.25683266763181,-12.9432627109047,0.0336848634216267,0.005075,-0.000250,0.004649,0.216378,0.040297,330.641606,22.970174,0.999454,0.984213,0.004886,0.375921,-0.000023,0.000046,-0.000002,0.000046,-0.000023,-88.204557,0.000046,
2371,1993,2.57920841554489,-14.2624887874033,0.0410989434243447,0.004685,-0.000491,0.008125,0.185288,0.060548,331.637817,22.455033,0.999050,0.967141,0.006889,0.342652,0.000011,0.000037,0.000043,0.000069,-0.000021,53.414624,0.000070,
2236,3043,-0.555333704629287,8.65977380257008,0.016054042125063,0.005017,-0.000006,0.002528,0.223052,0.041051,314.560566,24.909092,0.999569,0.991399,0.003667,0.388580,-0.000004,0.000006,-0.000006,0.000008,-0.000007,-64.573485,0.000009,
2161,2248,-2.05132918913208,-8.66559312477882,0.00941756850767206,0.005114,-0.000628,0.006140,0.215737,0.050771,327.608275,24.066728,0.998965,0.978812,0.005259,0.429328,-0.000001,0.000010,0.000002,0.000011,-0.000002,78.706627,0.000011,
2101,2428,-3.38816304366175,-4.73129250194345,0.00169388898569878,0.004462,-0.001003,0.010972,0.172760,0.039540,324.847379,24.376490,0.999288,0.986556,0.004580,0.418083,0.000002,-0.000005,-0.000014,0.000013,-0.000016,-38.008468,0.000017,
2191,2383,-1.42135540892147,-5.71391779181587,0.00575751940175451,0.004552,-0.000733,0.010197,0.176910,0.060576,325.264705,24.017776,0.999228,0.986300,0.004734,0.500730,-0.000004,-0.000008,-0.000013,0.000008,-0.000019,-40.410842,0.000019,
2176,2533,-1.77374058224532,-2.43786878079679,-0.0111272649058947,0.004749,-0.000498,0.005738,0.200392,0.043573,322.769458,24.226879,0.998921,0.985931,0.004665,0.459578,0.000020,0.000030,-0.000004,0.000031,0.000019,-68.867812,0.000050,
2161,2728,-2.13325514021087,1.81094763654442,-0.0219515036836242,0.004732,-0.000497,0.005633,0.200433,0.041189,319.570644,24.371266,0.999537,0.989102,0.004133,0.477768,0.000013,0.000005,-0.000009,0.000019,0.000000,-32.544588,0.000022,
2371,2788,2.42326714149565,3.12737475132789,-0.0134087069781117,0.004737,-0.000567,0.006562,0.194294,0.050199,318.318701,24.705202,0.999844,0.994330,0.003328,0.352697,-0.000001,0.000017,-0.000014,0.000024,-0.000008,-61.967648,0.000025,
2326,3178,1.37494469488961,11.5949001720098,0.0243294924749762,0.005158,-0.000287,0.002162,0.230140,0.024103,312.302650,25.448428,0.999667,0.993571,0.003473,0.426832,0.000013,0.000039,-0.000004,0.000040,0.000012,-81.599306,0.000055,
2281,2803,0.462455192681016,3.44928925614182,-0.0211701876992834,0.005001,-0.000580,0.005346,0.212072,0.049810,318.069658,24.595511,0.999114,0.987967,0.004393,0.422149,0.000008,0.000018,0.000001,0.000018,0.000008,81.212776,0.000027,
2371,2008,2.57552250570251,-13.9313736169527,0.0315670836438358,0.004813,-0.001197,0.010644,0.181973,0.055904,331.313293,22.540996,0.998791,0.972833,0.006286,0.297308,0.000010,0.000028,0.000040,0.000060,-0.000022,51.162023,0.000060,
2311,2848,1.10772335391146,4.42746485820418,-0.00361689962136325,0.004753,-0.000179,0.003936,0.205218,0.052747,317.445906,24.625436,0.999790,0.992536,0.003639,0.518271,0.000001,0.000035,0.000002,0.000035,0.000001,87.304570,0.000041,
2266,3238,0.0615802290425087,12.8899246491901,0.0278940928617999,0.004928,-0.000236,0.002773,0.218001,0.023126,311.405030,25.237113,0.999771,0.994370,0.003205,0.457991,0.000014,0.000029,-0.000003,0.000029,0.000013,-80.752086,0.000044,
2311,2068,1.25372772840767,-12.6139194248299,0.0273427800071318,0.005276,-0.000504,0.005854,0.221419,0.036048,330.352644,22.954044,0.999494,0.980836,0.005226,0.423630,-0.000022,0.000029,-0.000002,0.000029,-0.000023,-87.395966,0.000031,
2371,2218,2.53534451536788,-9.32411461332236,0.0184903782883907,0.005132,-0.000188,0.003156,0.223776,0.054691,327.861186,23.058120,0.998579,0.975718,0.006123,0.397266,-0.000002,0.000008,-0.000012,0.000016,-0.000010,-56.081509,0.000017,
2221,2743,-0.831927957405707,2.13993881598088,-0.020761666308772,0.004693,-0.001070,0.009156,0.186243,0.024775,319.138755,24.422960,0.999389,0.988716,0.004109,0.439314,0.000008,0.000007,-0.000007,0.000014,0.000001,-43.915270,0.000017,
2311,3133,1.05690870968355,10.6178861353991,0.0247865478021367,0.004577,-0.000106,0.004204,0.196488,0.037087,313.019947,25.320470,0.999443,0.991824,0.003714,0.405396,0.000008,0.000032,-0.000005,0.000033,0.000007,-78.611949,0.000043,
2341,3253,1.68535273077503,13.2229515967047,0.0160755005509259,0.004872,-0.000538,0.005305,0.205858,0.020479,310.972920,25.686464,0.999499,0.991669,0.003526,0.430353,0.000010,0.000033,0.000000,0.000033,0.000010,89.431674,0.000045,
2296,3073,0.742595029682438,9.31449148847275,0.0272440127789082,0.004798,-0.000426,0.004625,0.205250,0.023448,314.045641,25.166668,0.999629,0.993601,0.003469,0.367382,0.000005,0.000019,-0.000002,0.000020,0.000005,-80.263824,0.000026,
2161,2488,-2.09284700277158,-3.41974317964606,-0.0112044237680493,0.004615,-0.000344,0.007192,0.190063,0.077824,323.537955,24.197676,0.999236,0.985203,0.004806,0.515695,0.000009,0.000011,-0.000017,0.000027,-0.000007,-46.945827,0.000028,
2491,2263,5.14654364231018,-8.33884394461007,0.0131302567706371,0.004844,-0.000858,0.006368,0.196953,0.019775,327.266738,22.628804,0.998833,0.978571,0.005431,0.388012,0.000039,0.000030,-0.000003,0.000040,0.000030,-14.453914,0.000070,
2191,2863,-1.50364575230485,4.74815316770751,-0.0123635296444604,0.004780,-0.000612,0.005957,0.201309,0.029334,317.356370,24.530729,0.999309,0.991200,0.003699,0.441459,0.000006,0.000024,0.000011,0.000029,0.000001,65.703858,0.000034,
2251,3058,-0.23124757061214,8.98459024881241,0.029698591647616,0.005018,-0.000160,0.001100,0.227625,0.035848,314.403342,24.901545,0.999499,0.992184,0.003601,0.462464,-0.000001,0.000006,-0.000012,0.000014,-0.000010,-52.928560,0.000015,
2161,2263,-2.05510755484422,-8.33572952398881,0.00247210067607284,0.004568,-0.000731,0.010558,0.177181,0.063688,327.269731,24.149422,0.998741,0.979492,0.005555,0.372415,0.000000,0.000007,-0.000001,0.000007,0.000000,-84.352017,0.000008,
2356,2983,2.06110652331916,7.36620886993691,-0.0035700910479477,0.004893,-0.000201,0.002050,0.217970,0.047962,315.239843,25.116189,0.999448,0.987944,0.004217,0.428604,0.000002,0.000022,-0.000005,0.000023,0.000001,-75.776642,0.000028,
2386,2023,2.90043410390964,-13.6036105675185,0.0353343438383149,0.004409,-0.001357,0.011217,0.161008,0.031832,331.093969,22.432017,0.998716,0.970226,0.006609,0.324767,-0.000003,0.000004,0.000030,0.000031,-0.000029,48.246965,0.000034,
2401,3043,3.02909754691866,8.6713364436954,0.0141412693139387,0.004877,-0.000463,0.003992,0.209850,0.034890,314.422376,25.392523,0.999645,0.990436,0.003865,0.438292,0.000014,0.000022,-0.000007,0.000027,0.000010,-60.056979,0.000038,
2371,3118,2.3627748370664,10.2972282066662,0.0226064399900565,0.004824,-0.000662,0.008858,0.190445,0.044084,313.226720,25.506566,0.999637,0.991211,0.003741,0.435803,0.000023,0.000033,-0.000005,0.000035,0.000020,-66.963153,0.000056,
2281,3043,0.420748823041404,8.66324923917889,0.0111144230299374,0.004480,-0.000453,0.005165,0.189069,0.049289,314.403033,25.036093,0.999385,0.990067,0.003890,0.417028,0.000003,0.000008,-0.000007,0.000012,-0.000002,-55.020527,0.000014,
2281,3268,0.38018305794245,13.5428357346812,0.011512319917415,0.004911,-0.000149,0.005019,0.209636,0.035856,310.743101,25.390956,0.999762,0.993065,0.003364,0.447394,0.000012,0.000030,-0.000007,0.000032,0.000010,-70.389979,0.000044,
2191,2398,-1.42293972789567,-5.38661793777753,0.0108485522259798,0.004884,-0.000360,0.006356,0.204308,0.062175,325.092297,24.043115,0.999087,0.984585,0.005092,0.493142,0.000000,-0.000007,-0.000016,0.000013,-0.000020,-39.511325,0.000020,
2476,2083,4.85701330926917,-12.2878104304844,0.0263248192443939,0.004990,-0.000277,0.004400,0.211340,0.051757,330.259648,21.970996,0.999496,0.979827,0.005397,0.431893,0.000034,-0.000053,0.000044,0.000053,-0.000071,22.555961,0.000074,
2356,3058,2.0477439018185,8.99382889835418,0.0129169914010276,0.004851,-0.000714,0.006500,0.200249,0.031085,314.134540,25.286519,0.999659,0.992609,0.003442,0.431445,0.000008,0.000016,-0.000005,0.000018,0.000005,-64.352283,0.000025,
2251,2908,-0.206170774906987,5.7290390052862,0.00695711597546733,0.005056,-0.000190,0.002449,0.224768,0.050115,316.657115,24.745346,0.999678,0.992648,0.003504,0.406312,-0.000005,0.000020,0.000006,0.000021,-0.000006,77.714886,0.000022,
2506,2473,5.4290966969036,-3.74124917707639,-0.00509842378369285,0.004709,-0.000601,0.005330,0.194940,0.042067,323.751257,23.423686,0.999370,0.983889,0.004731,0.429577,0.000056,-0.000045,0.000007,0.000056,-0.000046,3.988207,0.000060,
2446,3163,3.98517757429611,11.2802949620516,0.0304314072915304,0.004998,0.000041,0.003779,0.216071,0.061179,312.660101,25.988789,0.999544,0.990511,0.003979,0.424415,0.000039,0.000043,-0.000007,0.000048,0.000034,-53.344648,0.000083,
2386,2998,2.71082021208284,7.69285143209996,0.0110292256791809,0.004818,-0.000793,0.011160,0.181339,0.043917,315.091801,25.215040,0.999559,0.990008,0.003989,0.448238,0.000010,0.000022,-0.000007,0.000025,0.000007,-65.978583,0.000034,
2416,3133,3.33808533756128,10.625888067463,0.0207268668709162,0.004866,-0.000108,0.003899,0.209769,0.052084,313.019780,25.652735,0.999863,0.995071,0.002966,0.524822,0.000038,0.000045,-0.000008,0.000050,0.000033,-57.263581,0.000084,
2221,3028,-0.879214981337402,8.33268238659529,0.00621486359256096,0.004822,-0.000537,0.002346,0.214564,0.018220,314.751224,24.762660,0.999630,0.993187,0.003369,0.445232,-0.000003,0.000013,-0.000006,0.000015,-0.000004,-72.779514,0.000016,
2326,2923,1.41966276369933,6.05913336585839,-0.00314262190136105,0.004562,-0.000540,0.005544,0.190617,0.031019,316.202863,24.824032,0.998659,0.986231,0.004666,0.488016,-0.000007,0.000020,-0.000003,0.000021,-0.000007,-83.161160,0.000021,
2341,3118,1.71217521450837,10.2943854557348,0.0286368781563056,0.005086,-0.000153,0.003130,0.223306,0.035967,313.308809,25.394365,0.999562,0.992903,0.003519,0.419823,0.000020,0.000029,-0.000008,0.000033,0.000015,-59.139125,0.000050,
2221,2758,-0.834402881655198,2.46687729343927,-0.0210120682392017,0.004705,-0.000580,0.007144,0.193504,0.055148,318.899737,24.452030,0.999479,0.989166,0.004019,0.459699,0.000002,0.000015,-0.000005,0.000017,0.000000,-71.724498,0.000020,
2311,2083,1.25058432987177,-12.282903920265,0.026289883886875,0.005157,-0.000726,0.008328,0.207483,0.061477,330.087435,23.125446,0.999381,0.981637,0.005335,0.313088,-0.000021,0.000037,0.000000,0.000037,-0.000021,89.824767,0.000037,
2326,2098,1.5749385584801,-11.9563266100327,0.0230630769224831,0.004779,-0.000665,0.006928,0.194710,0.057640,329.800921,22.837765,0.999395,0.981660,0.005357,0.541918,-0.000015,0.000030,0.000000,0.000030,-0.000015,-89.770196,0.000030,
2326,3193,1.37267611983559,11.9188278411628,0.0348079122329068,0.004947,-0.000569,0.002728,0.218271,-0.005799,312.133544,25.442895,0.999691,0.994268,0.003284,0.435433,0.000012,0.000038,-0.000003,0.000038,0.000012,-82.920344,0.000052,
2341,2083,1.90583988208527,-12.2846702652539,0.0310807624143763,0.004810,-0.001107,0.009024,0.188393,0.044038,330.099837,22.903639,0.999308,0.980406,0.005400,0.331617,0.000008,0.000020,0.000011,0.000027,0.000002,59.865192,0.000032,
2506,2488,5.42624859855895,-3.4142651738063,0.000703796446771321,0.004861,-0.001002,0.009840,0.184347,0.048685,323.545753,23.454022,0.999452,0.984400,0.004728,0.467941,0.000046,-0.000052,0.000007,0.000046,-0.000053,3.826936,0.000058,
2446,3178,3.98185213483184,11.6058170310158,0.0305309354996552,0.004843,-0.000405,0.005992,0.200468,0.041343,312.399282,26.056855,0.999608,0.991189,0.003736,0.387161,0.000039,0.000045,-0.000008,0.000051,0.000033,-54.439018,0.000085,
2191,2878,-1.5058819288418,5.07527625739824,-0.010359666730551,0.004920,-0.000447,0.005080,0.210599,0.041506,317.137580,24.645604,0.999732,0.995062,0.003121,0.352973,0.000009,0.000028,0.000008,0.000031,0.000006,70.878093,0.000040,
2266,3253,0.0587612389401961,13.2157041368053,0.0254428566711908,0.005148,-0.000319,0.004733,0.221671,0.031140,311.141839,25.303364,0.999739,0.993462,0.003398,0.423861,0.000012,0.000031,0.000000,0.000031,0.000012,88.983152,0.000044,
2191,2413,-1.42653542814622,-5.05750066019696,-0.00142368270877569,0.004597,-0.000504,0.005330,0.194341,0.054870,324.737394,24.083343,0.999085,0.986013,0.004790,0.461996,0.000004,-0.000011,-0.000021,0.000019,-0.000026,-35.233841,0.000026,
2236,2833,-0.520758578840105,4.09868095171612,-0.012682143009215,0.004808,-0.000684,0.006261,0.200843,0.040280,317.721653,24.584148,0.999514,0.990391,0.003844,0.424953,0.000001,0.000029,0.000008,0.000031,-0.000001,74.408341,0.000035,
2146,2428,-2.40839363919253,-4.72945402298644,-0.0090707202706426,0.005201,-0.000347,0.002918,0.230083,0.034168,324.621072,24.269121,0.999079,0.986188,0.004808,0.396266,0.000008,-0.000010,-0.000021,0.000022,-0.000024,-33.643529,0.000026,
2506,2503,5.42274466655288,-3.08562003341587,-0.00444659407514791,0.004728,-0.000812,0.007688,0.186664,0.039525,323.260977,23.557044,0.999282,0.985172,0.004924,0.418301,0.000041,-0.000026,0.000005,0.000041,-0.000026,4.196988,0.000042,
2341,3268,1.6813493154546,13.549079648851,0.00621390225410323,0.004644,-0.000296,0.007785,0.186893,0.047883,310.624440,25.730787,0.999510,0.992325,0.003404,0.448396,0.000007,0.000032,0.000003,0.000032,0.000006,83.507112,0.000041,
2491,2278,5.14386138071726,-8.00992762567665,0.0183932959831168,0.004975,-0.000737,0.008273,0.195766,0.051088,327.066196,22.739722,0.999141,0.980975,0.005155,0.369634,0.000040,0.000039,-0.000004,0.000044,0.000035,-43.314694,0.000079,
2431,3223,3.64665731666019,12.5801274827491,0.0321441237318822,0.004390,-0.000429,0.005030,0.183393,0.025356,311.632826,26.092979,0.999508,0.990365,0.003900,0.411739,0.000038,0.000030,-0.000008,0.000042,0.000026,-32.201566,0.000069,
2476,2098,4.85405872979393,-11.9578626196468,0.0268852767048315,0.004995,-0.000128,0.003571,0.214797,0.044791,330.025345,22.102420,0.999433,0.977867,0.005621,0.353340,0.000033,-0.000038,0.000032,0.000045,-0.000050,20.850653,0.000055,
2221,2773,-0.836676574162698,2.79289085528593,-0.0190458784849739,0.004583,-0.000138,0.002594,0.202647,0.052068,318.681638,24.451346,0.999401,0.989313,0.004074,0.476235,0.000002,0.000013,-0.000003,0.000014,0.000001,-77.107033,0.000016,
2281,2818,0.460297562539537,3.77442955822278,-0.0111869271856335,0.004741,-0.000486,0.004186,0.203960,0.028821,317.901399,24.607346,0.999185,0.988963,0.004128,0.416664,0.000007,0.000023,0.000005,0.000024,0.000006,73.677079,0.000032,
2386,2263,2.85149642677583,-8.33588779251408,-0.00546059626617534,0.004495,-0.000214,0.005346,0.186692,0.075855,326.906777,23.095956,0.999063,0.982350,0.005245,0.445720,0.000000,0.000014,-0.000012,0.000021,-0.000007,-60.715818,0.000022,
2266,2998,0.103216177069505,7.68472116244197,0.00742205379549432,0.004975,-0.000575,0.006715,0.206759,0.036489,315.148106,24.874202,0.999504,0.990617,0.003827,0.442928,-0.000002,0.000021,-0.000001,0.000021,-0.000002,-86.514351,0.000023,
2356,2998,2.05828464017146,7.69213265412134,0.00295289994397763,0.004614,-0.000120,0.004593,0.196262,0.065116,315.027439,25.181218,0.999618,0.991633,0.003675,0.418771,0.000004,0.000022,-0.000007,0.000024,0.000002,-71.332747,0.000029,
2356,2173,2.21628268505406,-10.3116468116555,0.0223050563749325,0.004763,-0.000239,0.003332,0.206310,0.032229,328.596558,22.930272,0.999298,0.981575,0.005309,0.451218,-0.000009,-0.000009,-0.000015,0.000006,-0.000024,-44.429382,0.000025,
2131,2533,-2.75273488071595,-2.43925485360579,-0.00883714744873032,0.004603,-0.000731,0.007854,0.187998,0.049548,322.944841,24.288473,0.999022,0.985177,0.004758,0.481966,0.000022,0.000025,-0.000004,0.000028,0.000019,-55.050835,0.000048,
2371,2803,2.42048280296021,3.45215694380566,-0.00967409784470874,0.004706,-0.000844,0.008894,0.184440,0.036196,318.096578,24.626206,0.999847,0.994617,0.003347,0.458552,0.000000,0.000013,-0.000012,0.000020,-0.000007,-58.676473,0.000020,
2236,3058,-0.557262303640087,8.98437924569798,0.0207790282482279,0.005174,0.000044,-0.000782,0.240995,0.020737,314.373529,24.889516,0.999588,0.992427,0.003482,0.408090,0.000000,0.000006,-0.000007,0.000010,-0.000004,-57.809499,0.000010,
2296,2863,0.777911675432343,4.75435545567495,-0.0119354552139725,0.004645,-0.000699,0.006358,0.192042,0.033456,317.131943,24.725861,0.999641,0.992281,0.003625,0.407872,0.000003,0.000032,-0.000001,0.000032,0.000003,-88.551096,0.000039,
2371,2023,2.57320021720625,-13.6037844309475,0.0422742617452059,0.004714,-0.001439,0.013290,0.167993,0.056919,331.147651,22.535375,0.998833,0.973279,0.006342,0.348231,0.000006,0.000026,0.000039,0.000056,-0.000024,52.179827,0.000056,
2281,3058,0.417976012319965,8.98827923598954,0.0139911947383666,0.004388,-0.000560,0.007387,0.177309,0.044404,314.170509,25.029441,0.999388,0.992523,0.003665,0.445602,0.000004,0.000012,-0.000005,0.000014,0.000002,-62.610159,0.000018,
2386,3013,2.7089086319637,8.01854582782384,0.0163671449906815,0.005146,-0.000468,0.008131,0.207476,0.045900,314.917424,25.269001,0.999631,0.990622,0.003807,0.438902,0.000009,0.000018,-0.000010,0.000024,0.000003,-57.097756,0.000030,
2401,2338,3.16537449024138,-6.69597887660667,0.00899568165192477,0.004148,0.000165,0.002796,0.180069,0.082784,325.822587,23.239162,0.999037,0.981294,0.005051,0.480176,0.000000,0.000014,0.000000,0.000014,0.000000,89.633613,0.000016,
2326,3208,1.37021141849534,12.244480676943,0.0385494308465013,0.005051,-0.000046,0.003288,0.221408,0.031726,311.921714,25.492484,0.999622,0.992903,0.003406,0.456598,0.000013,0.000035,-0.000005,0.000036,0.000012,-78.468269,0.000049,
2281,3283,0.377057150369755,13.8679601970564,0.005906637750968,0.004843,-0.000185,0.003727,0.210827,0.025006,310.451217,25.407656,0.999488,0.991675,0.003521,0.445950,0.000006,0.000044,-0.000010,0.000047,0.000004,-75.729027,0.000056,
2311,2863,1.10490431929747,4.7541028896088,-0.0015446411262019,0.004849,-0.000646,0.007894,0.195915,0.036470,317.209334,24.721924,0.999647,0.991551,0.003770,0.437115,-0.000002,0.000035,-0.000004,0.000036,-0.000002,-84.561890,0.000040,
2476,2113,4.85010718844873,-11.6279862769756,0.0199845412815876,0.004840,-0.000245,0.005380,0.200811,0.061199,329.711426,22.128186,0.999281,0.975026,0.006025,0.404100,0.000029,-0.000037,0.000025,0.000037,-0.000045,18.330356,0.000048,
2251,3073,-0.235179027296198,9.31076462051284,0.02212732692999,0.004742,-0.000544,0.007091,0.195226,0.051169,314.062190,24.915153,0.999447,0.991251,0.003750,0.486654,0.000002,0.000014,-0.000009,0.000019,-0.000003,-63.337514,0.000020,
2431,3238,3.64324617978643,12.905870513243,0.0237395361658059,0.004739,-0.000300,0.006363,0.194646,0.045360,311.326976,26.108468,0.999447,0.991704,0.003760,0.465155,0.000036,0.000033,-0.000007,0.000042,0.000027,-38.836605,0.000069,
2161,2503,-2.09540714942744,-3.09148895981857,-0.0242236055722742,0.005211,-0.000393,0.004160,0.226738,0.056460,323.223313,24.201634,0.999023,0.984331,0.005006,0.501902,0.000016,0.000025,-0.000014,0.000036,0.000006,-53.838058,0.000045,
2386,3178,2.67804898141643,11.5997072173359,0.0334740613078566,0.004785,-0.000494,0.007356,0.193816,0.043125,312.345356,25.721400,0.999513,0.991549,0.003619,0.448662,0.000026,0.000040,0.000000,0.000040,0.000026,-88.801531,0.000067,
2371,2233,2.5317055223284,-8.9954140669247,0.0176745416544577,0.004681,-0.000823,0.006464,0.191195,0.038347,327.579601,23.118149,0.998813,0.978991,0.005809,0.364611,0.000000,-0.000001,-0.000010,0.000010,-0.000011,-43.089938,0.000012,
2416,2173,3.52555308085943,-10.3108351476739,0.010195078546019,0.004629,-0.000833,0.005606,0.191070,0.016490,328.530592,22.635075,0.998854,0.979063,0.005381,0.411668,-0.000007,-0.000010,-0.000003,-0.000005,-0.000012,-28.226195,0.000018,
2341,2098,1.90241618444955,-11.9554003520085,0.0264679277865412,0.004672,-0.001113,0.010767,0.176035,0.054573,329.807491,22.897401,0.999503,0.982059,0.005132,0.388503,0.000003,0.000018,0.000002,0.000018,0.000003,80.817728,0.000023,
2386,2038,2.89752234081381,-13.2728367289726,0.024478718659509,0.004666,-0.000203,0.003898,0.199413,0.044233,330.800062,22.467800,0.998889,0.974103,0.006209,0.348487,-0.000006,-0.000011,0.000015,0.000006,-0.000024,40.195267,0.000025,
2401,3253,2.98802242205022,13.2292402518666,0.0111763255765709,0.004910,-0.000084,0.003004,0.215286,0.035772,310.959771,26.020715,0.999506,0.991389,0.003612,0.431842,0.000016,0.000033,-0.000004,0.000034,0.000015,-77.256175,0.000050,
2356,3013,2.05529396783693,8.01757839709417,0.00101319899425789,0.004400,-0.000074,0.001731,0.196472,0.041715,314.766550,25.189147,0.999593,0.990829,0.003790,0.425452,0.000003,0.000017,-0.000010,0.000022,-0.000002,-62.149100,0.000025,
2326,2728,1.45464473300546,1.81867413580687,-0.0216865462300007,0.004672,-0.000397,0.006160,0.193451,0.055812,319.226769,24.456142,0.999322,0.988276,0.004268,0.435601,-0.000005,0.000010,-0.000010,0.000015,-0.000010,-62.195310,0.000015,
2506,2518,5.41913644883571,-2.75818797573731,-0.00915057768025918,0.004561,-0.001056,0.006891,0.182002,0.020112,322.973520,23.568684,0.999335,0.985937,0.004839,0.449557,0.000028,-0.000021,0.000005,0.000029,-0.000022,5.486576,0.000030,
2326,2113,1.57271932304741,-11.6272748265456,0.0286383566702284,0.004962,-0.001066,0.007487,0.201029,0.038143,329.611941,22.958413,0.999368,0.981337,0.005352,0.438870,-0.000015,0.000022,-0.000003,0.000022,-0.000015,-85.466890,0.000023,
2221,2443,-0.777249172214013,-4.40278092232099,0.00391997224863871,0.005450,-0.000950,0.006419,0.229432,0.033307,324.251286,24.028287,0.999262,0.987218,0.004582,0.448162,0.000008,-0.000009,-0.000013,0.000014,-0.000016,-28.281725,0.000018,
2251,2923,-0.209317322663583,6.05484995054196,-0.000826869636000538,0.005268,-0.000443,0.004264,0.228491,0.037562,316.351469,24.706718,0.999632,0.992592,0.003595,0.455492,-0.000005,0.000019,0.000002,0.000019,-0.000005,85.132752,0.000020,
2371,2908,2.40067188788273,5.73709335948961,-0.011495506353981,0.004820,-0.000121,0.004833,0.204539,0.058731,316.388413,24.912678,0.999306,0.989267,0.004131,0.480611,-0.000008,0.000021,-0.000007,0.000023,-0.000009,-76.806590,0.000023,
2371,2818,2.41736440844033,3.77808908686671,-0.0122319406308975,0.004843,-0.001150,0.011308,0.181976,0.014388,317.828657,24.616676,0.999849,0.994697,0.003415,0.487085,-0.000002,0.000016,-0.000009,0.000019,-0.000006,-66.714227,0.000020,
2296,3088,0.739556691340262,9.63934455968329,0.0244024756028125,0.004789,-0.000544,0.005518,0.201779,0.022088,313.773451,25.110585,0.999592,0.992977,0.003545,0.451274,0.000004,0.000015,-0.000009,0.000019,-0.000001,-60.704215,0.000022,
2431,2008,3.88849910695066,-13.9354491006873,0.0425700254380672,0.004502,-0.000776,0.006637,0.181048,0.050040,331.475588,22.036558,0.999238,0.975519,0.006008,0.377742,-0.000003,-0.000034,0.000046,0.000030,-0.000068,35.832443,0.000068,
2311,3148,1.05409031449326,10.9432687683115,0.0238143478441657,0.004564,-0.000202,0.003544,0.198224,0.045014,312.767901,25.332213,0.999627,0.991663,0.003696,0.432651,0.000008,0.000030,-0.000003,0.000030,0.000007,-82.771062,0.000040,
2341,3133,1.70864265896358,10.6201257538234,0.0242748643021855,0.004765,-0.000121,0.003775,0.206334,0.046496,313.009509,25.411940,0.999438,0.991867,0.003711,0.448332,0.000019,0.000035,-0.000006,0.000037,0.000017,-72.263541,0.000055,
2491,2293,5.14049008543951,-7.68185356149441,0.0160201429505946,0.004859,-0.000544,0.007923,0.191876,0.052055,326.799906,22.731617,0.999118,0.982022,0.005101,0.439894,0.000038,0.000044,-0.000001,0.000044,0.000038,-82.212406,0.000082,
2416,3148,3.33595480397266,10.9510774799156,0.0329193467935056,0.004941,-0.000410,0.006798,0.202437,0.039155,312.868919,25.749114,0.999763,0.993964,0.003158,0.461709,0.000037,0.000037,-0.000008,0.000044,0.000029,-44.902814,0.000074,
2326,3223,1.36674511775884,12.5697929028478,0.0352395903866523,0.004629,-0.000280,0.003081,0.202613,0.021717,311.629258,25.521143,0.999521,0.992197,0.003383,0.450791,0.000012,0.000039,-0.000005,0.000040,0.000011,-80.520102,0.000054,
2401,3058,3.02638919620955,8.9974675470943,0.013980840407612,0.005204,-0.000451,0.005221,0.220476,0.044273,314.185932,25.454797,0.999650,0.991539,0.003755,0.430087,0.000015,0.000024,-0.000002,0.000024,0.000015,-80.359905,0.000039,
2446,3193,3.97937315282672,11.9305452283405,0.0359400381776709,0.004904,-0.000546,0.005840,0.203803,0.032055,312.202212,26.075979,0.999657,0.991244,0.003650,0.409781,0.000038,0.000042,-0.000008,0.000048,0.000031,-50.622462,0.000080,
2401,2353,3.16217828651696,-6.36723624594973,0.00359464456971637,0.004464,-0.000456,0.004757,0.187200,0.046619,325.541856,23.320624,0.998818,0.981078,0.005209,0.409950,0.000006,0.000001,0.000002,0.000007,0.000000,21.196326,0.000008,
2416,2413,3.47836058332186,-5.05487079652676,0.00506141733978893,0.005152,-0.000735,0.006946,0.210525,0.061610,324.623889,23.463970,0.999607,0.986910,0.004600,0.426007,0.000011,0.000003,0.000010,0.000018,-0.000004,34.379039,0.000019,
2386,2053,2.89579443711304,-12.9445647312019,0.0365376699039075,0.004755,-0.000131,0.002317,0.209137,0.060543,330.668726,22.534291,0.999151,0.977796,0.005916,0.344455,-0.000006,-0.000009,0.000010,0.000002,-0.000018,41.210346,0.000020,
2431,2023,3.88551818019321,-13.6045844394334,0.0361640164520054,0.005053,-0.000800,0.006909,0.205229,0.045367,331.204341,22.141648,0.999088,0.976082,0.005890,0.321662,-0.000005,-0.000037,0.000046,0.000027,-0.000069,35.400631,0.000070,
2281,3298,0.374081690243258,14.1941320365927,-0.00132397379178428,0.005071,-0.000070,0.002755,0.224699,0.032662,310.157663,25.498267,0.999649,0.993873,0.003157,0.389277,0.000003,0.000039,-0.000019,0.000047,-0.000005,-66.518194,0.000052,
2236,3073,-0.561098105274255,9.31043232787396,0.0132412975860348,0.004806,-0.000228,0.003087,0.211479,0.033826,314.035648,24.894759,0.999560,0.992035,0.003551,0.436141,0.000002,0.000015,-0.000003,0.000016,0.000001,-75.745180,0.000019,
2491,2308,5.13759192304187,-7.35263869422281,0.0148453850799228,0.004919,-0.000472,0.005090,0.205547,0.064685,326.560449,22.833612,0.998726,0.979148,0.005558,0.411492,0.000037,0.000022,-0.000003,0.000038,0.000022,-11.976209,0.000060,
2326,2743,1.4523129616955,2.14484241235833,-0.0173974787909401,0.004844,-0.000371,0.006660,0.199658,0.070585,319.024888,24.463370,0.999550,0.989899,0.004007,0.477809,-0.000005,0.000013,-0.000012,0.000019,-0.000011,-63.333071,0.000019,
2326,2128,1.57019721830541,-11.2981073367629,0.0315822562067751,0.004678,-0.000494,0.003320,0.202579,0.033693,329.396165,23.050804,0.999357,0.984091,0.005050,0.379394,-0.000012,0.000025,-0.000002,0.000025,-0.000012,-86.438095,0.000025,
2236,2848,-0.52401323879176,4.42511063029689,-0.0191327086594697,0.004744,-0.000737,0.007562,0.193710,0.038818,317.416416,24.578285,0.999415,0.990657,0.003811,0.450343,0.000004,0.000031,0.000012,0.000036,-0.000001,69.137948,0.000041,
2371,2923,2.39800359240752,6.06338056086017,-0.00873723626466472,0.004766,-0.000138,0.004253,0.204133,0.058892,316.166092,24.983350,0.999313,0.989244,0.004115,0.450476,-0.000006,0.000018,-0.000010,0.000022,-0.000010,-70.523592,0.000022,
2296,3103,0.737165421252769,9.96540066319104,0.0239042926577326,0.004921,-0.000187,0.001856,0.220407,0.024816,313.542225,25.180266,0.999357,0.990974,0.003934,0.413386,0.000006,0.000019,-0.000010,0.000024,0.000001,-62.422791,0.000028,
2401,2098,3.21369493041783,-11.9556708998221,0.0204804409298731,0.004833,-0.000089,0.002918,0.210548,0.060185,329.826117,22.541016,0.998843,0.973248,0.006406,0.386793,-0.000017,-0.000003,0.000003,-0.000002,-0.000018,77.650269,0.000022,
2416,3163,3.33318244655584,11.2766012836681,0.0319876210626262,0.005042,-0.000378,0.004920,0.214000,0.037878,312.626719,25.788107,0.999723,0.993179,0.003292,0.468227,0.000034,0.000039,-0.000006,0.000043,0.000030,-56.353752,0.000073,
2476,2128,4.84727815252258,-11.3001235332355,0.0288287463457095,0.004651,-0.000886,0.009127,0.177749,0.051742,329.520300,22.172625,0.999054,0.972720,0.006278,0.409474,0.000037,-0.000037,0.000024,0.000044,-0.000044,16.273203,0.000051,
2431,3253,3.63952719152192,13.2323514387712,0.012088331819939,0.004805,-0.000137,0.004735,0.203841,0.049913,310.991444,26.194375,0.999500,0.991955,0.003611,0.432347,0.000035,0.000036,-0.000005,0.000040,0.000030,-47.291772,0.000071,
2266,3013,0.100475207802983,8.00989459943965,0.0107325700012666,0.004661,-0.000495,0.006244,0.193938,0.042461,314.918292,24.861264,0.999419,0.990325,0.003812,0.486568,-0.000003,0.000011,-0.000005,0.000012,-0.000005,-70.410015,0.000013,
2506,2533,5.41638162226407,-2.42933690510063,-0.0113328682077736,0.004935,-0.000448,0.004858,0.207284,0.050789,322.736054,23.688336,0.999529,0.987721,0.004437,0.422654,0.000023,-0.000006,0.000009,0.000026,-0.000009,16.451272,0.000026,
2326,2938,1.41758555948222,6.38538128281262,0.00134912476687532,0.004986,-0.000339,0.006104,0.208295,0.036157,316.013124,24.901079,0.998940,0.987216,0.004484,0.450232,-0.000005,0.000025,-0.000004,0.000025,-0.000006,-82.313093,0.000026,
2251,3088,-0.238202734538103,9.63674967651265,0.0171114456674104,0.004655,-0.000512,0.005592,0.196081,0.032769,313.775775,24.966136,0.999542,0.990299,0.003791,0.439592,-0.000001,0.000012,-0.000012,0.000019,-0.000008,-59.344937,0.000019,
2341,3283,1.67835060368964,13.8742239732438,-0.00227371009231092,0.004998,-0.000483,0.006093,0.209056,0.034764,310.329208,25.737195,0.999589,0.992946,0.003292,0.464314,0.000004,0.000034,0.000002,0.000034,0.000004,86.702770,0.000041,
2416,2188,3.52432220635719,-9.98257320365416,0.0296295121395929,0.004895,-0.000525,0.006888,0.198699,0.052545,328.457609,22.800916,0.999227,0.982833,0.005082,0.331451,-0.000004,-0.000003,-0.000001,-0.000002,-0.000005,-57.227867,0.000008,
2371,2248,2.52814274059807,-8.66526021722713,0.00249603099717888,0.005008,-0.000331,0.004428,0.213588,0.056080,327.232659,23.134798,0.999361,0.982406,0.005381,0.409630,0.000002,0.000001,-0.000008,0.000010,-0.000006,-43.226538,0.000010,
2281,2833,0.457277284594166,4.1007898085986,-0.0153211240428277,0.004743,-0.000537,0.004227,0.203935,0.023151,317.622607,24.612555,0.999395,0.990921,0.003934,0.433359,0.000007,0.000030,0.000009,0.000033,0.000004,70.987712,0.000041,
2371,2833,2.41412709781486,4.10648843339764,-0.0206743805808856,0.004689,-0.000372,0.005520,0.195850,0.042406,317.526303,24.744587,0.999669,0.990222,0.003957,0.428626,-0.000004,0.000027,-0.000007,0.000028,-0.000005,-77.134326,0.000030,
2371,2038,2.57009421443189,-13.2734720502007,0.0281986213177561,0.004966,-0.000421,0.005659,0.206954,0.050380,330.827989,22.511213,0.999040,0.976468,0.005945,0.410691,0.000002,0.000010,0.000023,0.000029,-0.000017,49.722981,0.000029,
2401,3268,2.98333163148621,13.5553322327317,-0.00248138468066372,0.004464,-0.000350,0.005939,0.184020,0.036393,310.567106,26.068805,0.999630,0.991458,0.003670,0.428335,0.000013,0.000028,-0.000001,0.000028,0.000013,-85.401732,0.000042,
2296,1993,0.939446368165154,-14.2600558746636,0.035802714883971,0.004647,-0.000957,0.008838,0.182544,0.049049,331.600744,22.960758,0.999283,0.965027,0.007099,0.357271,-0.000032,0.000073,-0.000025,0.000079,-0.000038,-77.040196,0.000079,
2311,2878,1.10139503859238,5.08131704401332,-0.0111877321330667,0.004673,-0.000550,0.005741,0.195250,0.038998,316.883072,24.770790,0.999461,0.989997,0.004028,0.422747,-0.000002,0.000033,-0.000002,0.000033,-0.000002,-87.316851,0.000037,
2326,3238,1.36340250045192,12.8963364834405,0.0268795272436932,0.004821,-0.000203,0.004290,0.207407,0.040090,311.317211,25.610736,0.999454,0.991508,0.003544,0.412600,0.000011,0.000036,-0.000006,0.000037,0.000009,-76.376687,0.000049,
2371,3133,2.36037273500929,10.6228889055984,0.0259625609338059,0.004957,-0.000516,0.007815,0.200399,0.054646,313.018934,25.564891,0.999613,0.991190,0.003732,0.428184,0.000025,0.000037,-0.000006,0.000040,0.000023,-66.434262,0.000063,
2386,2068,2.89217359217851,-12.6152264472252,0.0289011352334114,0.004965,-0.000394,0.006687,0.203046,0.068414,330.357579,22.491995,0.999235,0.978339,0.005730,0.441684,-0.000007,-0.000016,0.000010,0.000000,-0.000022,32.465227,0.000026,
2131,2548,-2.75503705787867,-2.11241033325084,-0.00928643279638663,0.004652,-0.000732,0.006154,0.195355,0.039678,322.705979,24.279733,0.998652,0.982765,0.005101,0.487397,0.000024,0.000028,0.000001,0.000028,0.000024,75.746436,0.000052,
2296,2878,0.77518117638278,5.07996730605819,-0.0119100460248092,0.004614,-0.000514,0.005815,0.192535,0.035870,316.888437,24.698839,0.999592,0.991669,0.003735,0.467029,0.000002,0.000031,0.000000,0.000031,0.000002,89.921748,0.000036,
2506,2548,5.41467255133182,-2.10276099121852,0.00357633444139083,0.005032,-0.000458,0.004406,0.213466,0.046639,322.623306,23.790874,0.999776,0.989961,0.004026,0.377682,0.000030,-0.000026,0.000006,0.000030,-0.000027,5.938082,0.000033,
2281,3073,0.415448269660434,9.3152427978197,0.00331679785045935,0.004829,0.000061,-0.000060,0.222784,0.040713,313.880758,25.116163,0.999469,0.992256,0.003719,0.382158,0.000006,0.000019,-0.000003,0.000019,0.000005,-78.007147,0.000026,
2401,3073,3.02324235020353,9.32318533656095,0.0159432549223197,0.004976,-0.000345,0.007117,0.203136,0.054266,313.939390,25.496154,0.999572,0.991125,0.003816,0.443221,0.000020,0.000027,-0.000002,0.000027,0.000019,-76.074766,0.000047,
2431,2038,3.88265761242888,-13.2755304854317,0.0380495299763766,0.004980,-0.000452,0.006481,0.203625,0.060048,330.976839,22.161909,0.999076,0.976126,0.005884,0.369423,-0.000008,-0.000042,0.000035,0.000013,-0.000064,31.872155,0.000068,
2356,3073,2.04542454364957,9.31926204908977,0.0176431021263852,0.004991,-0.000612,0.006134,0.208009,0.036509,313.936508,25.323331,0.999609,0.992613,0.003455,0.437930,0.000014,0.000020,-0.000005,0.000023,0.000011,-59.426758,0.000034,
2311,3163,1.05189275505992,11.267980257257,0.0324882102212314,0.004621,-0.000250,0.005157,0.195325,0.046704,312.592256,25.350181,0.999675,0.992555,0.003543,0.447615,0.000009,0.000035,-0.000003,0.000035,0.000009,-82.760565,0.000047,
2341,3298,1.67544014786333,14.1996926858616,-0.00788010681060314,0.005042,-0.000268,0.002039,0.225312,0.031624,310.051906,25.783937,0.999713,0.992514,0.003341,0.449551,-0.000001,0.000033,-0.000002,0.000034,-0.000001,-86.481569,0.000038,
2431,2488,3.78939015333269,-3.41600661636659,-0.00183726610549684,0.004548,-0.001161,0.009592,0.172719,0.022509,323.335184,23.603037,0.999186,0.982490,0.004912,0.460366,0.000016,-0.000036,-0.000002,0.000016,-0.000036,-1.872649,0.000036,
2176,2548,-1.77656881321684,-2.11078288817339,-0.0145355343717597,0.004736,-0.000985,0.006751,0.196536,0.021369,322.494622,24.227394,0.999183,0.986870,0.004465,0.450209,0.000022,0.000037,-0.000001,0.000037,0.000021,-87.793008,0.000059,
2326,2758,1.44880090595602,2.4717206127131,-0.0220597103552223,0.004473,-0.000242,0.006631,0.182780,0.074834,318.724839,24.479695,0.999605,0.991415,0.003809,0.500460,-0.000005,0.000019,-0.000012,0.000024,-0.000010,-67.641556,0.000024,
2401,3283,2.9803985775721,13.8805994935045,-0.0106034409101312,0.005036,-0.000393,0.005115,0.213324,0.026218,310.281857,26.087045,0.999672,0.990986,0.003768,0.443921,0.000012,0.000023,-0.000003,0.000023,0.000011,-75.502260,0.000036,
2191,2533,-1.44769052413617,-2.4374491543922,-0.0111947601699285,0.004602,-0.000583,0.008167,0.185824,0.060372,322.706747,24.189765,0.999259,0.987745,0.004464,0.487442,0.000020,0.000025,0.000000,0.000025,0.000020,-87.817096,0.000045,
2356,2188,2.21325495404693,-9.98176683672379,0.0252240692062173,0.004670,-0.000688,0.007386,0.187675,0.046863,328.359491,23.089902,0.999137,0.982794,0.005196,0.347858,-0.000008,-0.000007,-0.000015,0.000008,-0.000022,-45.701572,0.000023,
2386,3028,2.70543855615682,8.34466728780656,0.0102010579719263,0.004942,-0.000659,0.006615,0.203434,0.024869,314.616412,25.312491,0.999614,0.990142,0.003901,0.416878,0.000010,0.000016,-0.000012,0.000025,0.000001,-52.691930,0.000029,
2221,2788,-0.838597278958556,3.11855155598257,-0.0134038836051786,0.004732,-0.000139,0.000515,0.216129,0.027098,318.498731,24.472695,0.999444,0.990642,0.003978,0.448608,-0.000001,0.000019,0.000004,0.000019,-0.000002,79.707166,0.000021,
2431,2248,3.83870744998217,-8.667471164667,0.0175951353639334,0.004447,-0.000690,0.006977,0.177627,0.056908,327.390150,22.833587,0.999158,0.979564,0.005487,0.435843,0.000006,0.000025,-0.000001,0.000025,0.000006,-86.553977,0.000033,
2371,2053,2.56765418028529,-12.9436466499035,0.0317917405689627,0.005186,-0.000600,0.006553,0.213800,0.048379,330.622840,22.642799,0.999121,0.978486,0.005663,0.321583,0.000001,0.000008,0.000017,0.000021,-0.000013,51.351790,0.000022,
2221,2458,-0.780380265755017,-4.07487143864422,0.000378547161631104,0.004932,-0.000509,0.003214,0.216070,0.034728,323.965741,24.048706,0.999038,0.984266,0.005067,0.449887,0.000011,-0.000005,-0.000013,0.000018,-0.000012,-28.632958,0.000018,
2386,2278,2.8499673411376,-8.00895006526579,0.0120154400385672,0.004602,-0.000741,0.006852,0.186008,0.036267,326.809877,23.220612,0.999608,0.991020,0.003926,0.326064,0.000003,0.000023,-0.000011,0.000028,-0.000001,-66.687094,0.000031,
2386,3193,2.67581286646289,11.9250016188018,0.0386811089639423,0.005014,-0.000225,0.007018,0.205718,0.052298,312.154881,25.772170,0.999486,0.991966,0.003455,0.448897,0.000025,0.000036,0.000001,0.000036,0.000025,86.522090,0.000062,
2431,3268,3.6359834746822,13.5583676483737,0.00334365200575348,0.004830,-0.000179,0.003337,0.210126,0.036481,310.677601,26.276746,0.999617,0.992875,0.003459,0.384842,0.000034,0.000027,0.000000,0.000034,0.000027,1.279377,0.000061,
2251,2938,-0.212414871523102,6.37984800438393,-0.00017836494993162,0.004995,-0.000761,0.007070,0.206651,0.031314,316.091012,24.651847,0.999598,0.993347,0.003419,0.527017,-0.000005,0.000023,0.000001,0.000023,-0.000005,87.235651,0.000024,
2236,2863,-0.52622154023609,4.7513054214719,-0.0142333422090246,0.004712,-0.000385,0.005871,0.197847,0.043438,317.217137,24.633920,0.999346,0.990365,0.003785,0.420060,0.000004,0.000029,0.000006,0.000031,0.000003,78.431272,0.000037,
2371,2848,2.41147137355822,4.4324727210545,-0.0188559280730942,0.004750,-0.000436,0.005384,0.199207,0.051674,317.300401,24.751379,0.999567,0.989206,0.004052,0.471771,-0.000006,0.000032,-0.000007,0.000033,-0.000007,-79.792761,0.000035,
2251,3103,-0.24015927883573,9.9617664446134,0.0247451694838219,0.004720,-0.000457,0.003973,0.204422,0.031729,313.602904,24.994666,0.999580,0.991849,0.003620,0.432171,0.000000,0.000017,-0.000012,0.000023,-0.000006,-63.650583,0.000024,
2431,2053,3.87945829401977,-12.9453824462012,0.0301131015210672,0.005183,-0.000468,0.003707,0.223144,0.055930,330.688406,22.196318,0.998902,0.975613,0.006001,0.384656,-0.000007,-0.000032,0.000030,0.000013,-0.000053,33.927896,0.000055,
2281,2848,0.454175061758757,4.42842432007676,-0.0186914137149188,0.004788,-0.000455,0.006648,0.198002,0.044029,317.343411,24.719088,0.999498,0.992841,0.003795,0.375424,0.000009,0.000033,0.000012,0.000038,0.000004,68.198173,0.000047,
2326,2773,1.44697523765634,2.79887010360373,-0.0150468309866483,0.004922,-0.000194,0.006739,0.203115,0.074929,318.559220,24.621362,0.999722,0.994342,0.003356,0.392985,-0.000004,0.000016,-0.000011,0.000021,-0.000009,-66.653016,0.000021,
2236,3088,-0.563275652441501,9.63619496835517,0.0174557121171688,0.004960,-0.000153,0.002650,0.219977,0.026352,313.834111,24.973278,0.999528,0.991865,0.003563,0.370144,-0.000001,0.000011,-0.000006,0.000014,-0.000003,-68.081329,0.000014,
2491,2323,5.1339812624397,-7.02384932275997,0.0110953701529866,0.005276,-0.001116,0.011722,0.196272,0.069049,326.276719,22.884807,0.998735,0.980737,0.005410,0.425851,0.000027,0.000022,-0.000007,0.000032,0.000017,-35.871266,0.000049,
2401,2368,3.15912734344244,-6.03955245547392,0.00363095589233353,0.004561,-0.000725,0.007699,0.180954,0.052199,325.293255,23.322085,0.998805,0.980362,0.005245,0.461624,0.000002,0.000003,0.000006,0.000008,-0.000003,45.498082,0.000008,
2356,3088,2.04261875475609,9.64502246944779,0.0205393274978292,0.004770,-0.000420,0.005561,0.199899,0.031582,313.707104,25.392417,0.999533,0.992070,0.003593,0.401695,0.000017,0.000016,-0.000011,0.000028,0.000005,-42.994392,0.000036,
2416,2203,3.52088053793623,-9.65493320015336,0.0224068129272723,0.004893,-0.000866,0.005920,0.202053,0.019672,328.159445,22.702451,0.999241,0.982144,0.005282,0.447753,-0.000004,0.000006,-0.000003,0.000008,-0.000005,-72.613025,0.000008,
2371,2068,2.56416512075867,-12.6147769409882,0.0275143648215703,0.004792,-0.000269,0.005396,0.200033,0.062268,330.332150,22.589197,0.999341,0.980317,0.005263,0.433671,-0.000001,-0.000002,0.000015,0.000014,-0.000016,44.287038,0.000018,
2356,1993,2.25110773826476,-14.2615162401139,0.0342317659957416,0.004883,-0.000455,0.005863,0.202622,0.046143,331.591219,22.545877,0.998889,0.967773,0.007016,0.344127,0.000020,0.000056,0.000045,0.000086,-0.000010,56.031636,0.000094,
2371,3148,2.3579147471393,10.9480760794062,0.0291549275232228,0.004953,-0.000431,0.005568,0.208155,0.034813,312.807905,25.612359,0.999599,0.990169,0.003810,0.400519,0.000025,0.000029,-0.000006,0.000034,0.000021,-54.946266,0.000055,
2131,2563,-2.75763148635365,-1.7830347123537,-0.0196252757765478,0.005141,-0.000067,0.005599,0.219750,0.080251,322.400203,24.370435,0.999094,0.986423,0.004643,0.444117,0.000025,0.000027,-0.000001,0.000027,0.000024,-63.602390,0.000051,
2446,2083,4.20067017058092,-12.2867024371839,0.0293102264481035,0.004892,-0.000845,0.009177,0.189258,0.053193,330.192245,22.233392,0.998804,0.975881,0.006199,0.358171,0.000011,-0.000020,0.000027,0.000027,-0.000035,29.955146,0.000037,
2446,3208,3.97627646285175,12.2559563909758,0.0329844914713817,0.004819,-0.000283,0.003086,0.210305,0.037883,311.937683,26.097678,0.999579,0.989947,0.003910,0.444620,0.000038,0.000037,-0.000012,0.000049,0.000025,-44.217612,0.000076,
2251,2953,-0.214806361525071,6.70732687627292,-0.000165435345422793,0.005066,-0.000364,0.004048,0.220011,0.042313,315.858948,24.807547,0.999418,0.991104,0.003821,0.404976,-0.000009,0.000022,0.000001,0.000022,-0.000009,87.378745,0.000022,
2236,2878,-0.527885321909853,5.07607239141225,-0.000476621977213654,0.004781,-0.000350,0.006811,0.197958,0.038718,317.088468,24.636141,0.999516,0.991114,0.003689,0.433558,-0.000001,0.000032,0.000005,0.000033,-0.000002,81.720706,0.000037,
2326,2953,1.4146654029911,6.71241704651555,-0.000519037644664877,0.004913,0.000046,0.004843,0.209517,0.062469,315.753189,24.988770,0.999037,0.987102,0.004652,0.422787,-0.000003,0.000020,-0.000005,0.000021,-0.000004,-79.362049,0.000022,
2296,3118,0.734179641551439,10.2905461284877,0.0266977876212309,0.004761,-0.000638,0.005567,0.200306,0.016013,313.300288,25.202134,0.999527,0.992451,0.003631,0.411489,0.000008,0.000021,-0.000008,0.000025,0.000005,-65.145049,0.000032,
2431,2068,3.87527343464641,-12.6160539113718,0.0326851848688534,0.004305,-0.000963,0.010280,0.158627,0.070549,330.403252,22.260725,0.998639,0.974046,0.006289,0.388611,-0.000007,-0.000030,0.000027,0.000011,-0.000048,33.715545,0.000050,
2416,2428,3.4749136179275,-4.72652134704907,-0.00373239979103346,0.005014,-0.000753,0.002637,0.219954,0.012632,324.316969,23.517706,0.999417,0.985994,0.004753,0.372702,0.000012,-0.000005,0.000013,0.000019,-0.000012,28.493663,0.000019,
2371,2938,2.39517047277144,6.38892883642335,-0.00258980637028117,0.004544,-0.000470,0.007049,0.183841,0.042941,315.952600,25.029906,0.999279,0.988676,0.004154,0.428474,-0.000002,0.000024,-0.000010,0.000028,-0.000006,-70.860685,0.000029,
2401,3298,2.97708566980625,14.2058988413888,-0.0186156142543723,0.005231,-0.000110,0.004451,0.224877,0.036368,309.979532,26.093428,0.999677,0.992235,0.003625,0.491825,0.000009,0.000014,-0.000011,0.000023,0.000000,-51.328799,0.000027,
2416,3178,3.33012187289733,11.602273624602,0.0295015659660862,0.004941,-0.000140,0.002567,0.218080,0.040201,312.363822,25.832026,0.999649,0.992081,0.003473,0.473009,0.000035,0.000042,-0.000006,0.000045,0.000032,-60.922944,0.000078,
2311,2893,1.09834175010866,5.40859739149366,-0.0175400242922592,0.004648,-0.000206,0.002795,0.204322,0.039901,316.593898,24.856889,0.999446,0.990811,0.003869,0.369568,-0.000002,0.000024,0.000003,0.000024,-0.000002,82.418392,0.000027,
2401,3088,3.02072953956906,9.6490555834459,0.0188057565862323,0.004992,-0.000104,0.004993,0.211698,0.057899,313.726189,25.567272,0.999493,0.990643,0.003877,0.420276,0.000021,0.000026,-0.000007,0.000031,0.000016,-54.488733,0.000047,
2296,2893,0.772850202599699,5.40630719578238,-0.0118614124536407,0.004794,-0.000373,0.002677,0.211524,0.035060,316.663164,24.746377,0.999565,0.991599,0.003666,0.448363,0.000002,0.000021,0.000005,0.000022,0.000001,76.231472,0.000027,
2431,3283,3.63291353033224,13.8833044459175,0.00165636857582285,0.004940,-0.000166,0.004227,0.211915,0.039605,310.418814,26.286216,0.999772,0.993494,0.003234,0.427133,0.000036,0.000018,0.000001,0.000036,0.000018,3.936093,0.000055,
2356,2008,2.24832655859202,-13.9312192303741,0.0290058659927013,0.005352,-0.000549,0.006002,0.223563,0.044750,331.327122,22.603143,0.998835,0.975416,0.006246,0.327990,0.000023,0.000044,0.000044,0.000078,-0.000012,51.993196,0.000085,
2476,2143,4.84417932039998,-10.9697266571092,0.0248853048316846,0.004870,-0.000594,0.008092,0.191835,0.064988,329.258644,22.292376,0.998388,0.974364,0.006012,0.362832,0.000039,-0.000029,0.000017,0.000043,-0.000034,13.483886,0.000045,
2281,2863,0.45141027932187,4.75456143255246,-0.017881379335563,0.004798,-0.000686,0.008199,0.193196,0.045811,317.101015,24.742762,0.999637,0.992957,0.003626,0.381103,0.000007,0.000032,0.000005,0.000033,0.000006,79.366044,0.000042,
2326,2143,1.56664419472493,-10.9675025430907,0.0211798607546143,0.004910,-0.000384,0.006208,0.203332,0.075058,329.067810,23.090312,0.999282,0.984550,0.005146,0.419108,-0.000013,0.000020,-0.000006,0.000021,-0.000014,-80.289678,0.000022,
2416,2218,3.51741298908981,-9.32399935659972,0.0146446856690545,0.004872,-0.000244,0.004215,0.207587,0.073794,327.856729,22.818689,0.999373,0.983273,0.005159,0.436256,0.000000,0.000014,-0.000002,0.000014,0.000000,-82.720670,0.000016,
2416,2443,3.47159996567939,-4.39904507858169,-0.00222657424103545,0.004792,-0.000650,0.005983,0.197611,0.041296,324.064007,23.516529,0.999408,0.986536,0.004680,0.451748,0.000019,-0.000028,0.000010,0.000021,-0.000031,11.599385,0.000031,
2311,3178,1.04928560417272,11.5933895289583,0.0321136631441163,0.004779,-0.000205,0.004525,0.204754,0.041592,312.352798,25.388249,0.999697,0.992928,0.003499,0.435249,0.000011,0.000037,-0.000005,0.000038,0.000010,-80.330792,0.000050,
2371,2263,2.52536447144888,-8.33683040683152,0.0068301527511494,0.004746,-0.000216,0.004294,0.202134,0.072131,327.014816,23.201769,0.999366,0.985575,0.004825,0.402115,-0.000001,0.000009,-0.000014,0.000019,-0.000011,-54.497118,0.000019,
2431,3298,3.62915374421386,14.2081181832994,-0.00615013866814706,0.004732,-0.000269,0.003599,0.204556,0.020065,310.099623,26.278086,0.999785,0.993654,0.003142,0.464138,0.000038,0.000009,-0.000005,0.000039,0.000008,-9.767460,0.000050,
2326,3253,1.3595266085122,13.2212683205612,0.0190976691790752,0.004653,-0.000661,0.008400,0.185198,0.016524,310.983954,25.601731,0.999415,0.991702,0.003565,0.430894,0.000006,0.000034,-0.000006,0.000036,0.000005,-78.118607,0.000044,
2506,2563,5.41179041584733,-1.77724369361533,0.00674766166241625,0.005386,-0.000971,0.009214,0.210941,0.051323,322.404348,23.686834,0.999781,0.990457,0.003999,0.548513,0.000029,-0.000001,0.000005,0.000030,-0.000002,9.182137,0.000034,
2401,3103,3.0182318582145,9.97386304110551,0.0240858223277769,0.004872,-0.000157,0.003412,0.211874,0.043635,313.525397,25.577075,0.999571,0.992222,0.003545,0.440623,0.000026,0.000034,-0.000004,0.000036,0.000024,-66.665913,0.000060,
2416,3193,3.32785092764425,11.9279179056004,0.0330178946914543,0.005259,0.000076,0.001589,0.236456,0.050753,312.165426,25.904437,0.999657,0.991116,0.003517,0.457834,0.000034,0.000039,-0.000005,0.000042,0.000030,-57.455785,0.000073,
2296,2008,0.937190584681943,-13.9306902416235,0.0357811979158669,0.005038,-0.000908,0.007956,0.203473,0.032758,331.380501,23.006261,0.999090,0.977700,0.005817,0.328941,-0.000029,0.000059,-0.000014,0.000061,-0.000032,-81.005355,0.000061,
2371,2083,2.56093435250624,-12.2848616952521,0.0240090168645111,0.004721,-0.000335,0.005649,0.195878,0.060578,330.056885,22.661036,0.999273,0.978759,0.005484,0.404643,-0.000002,0.000011,0.000016,0.000022,-0.000013,55.850611,0.000022,
2401,2113,3.21098461968676,-11.6275802983362,0.0304150880152179,0.004616,-0.000726,0.007466,0.183936,0.065546,329.640582,22.597801,0.998871,0.975045,0.006100,0.383656,-0.000016,-0.000007,0.000001,-0.000006,-0.000016,83.306815,0.000023,
2356,2023,2.24562596538282,-13.6034710517875,0.0357313688090812,0.005321,-0.000802,0.010800,0.205274,0.057361,331.124067,22.555498,0.998785,0.973586,0.006526,0.430602,0.000020,0.000046,0.000046,0.000080,-0.000015,52.935361,0.000085,
2416,1993,3.56422300555683,-14.2652859107301,0.0489113832981047,0.004649,-0.000703,0.004036,0.197495,0.019310,331.762422,22.132057,0.998995,0.975086,0.006170,0.304038,-0.000018,-0.000019,0.000039,0.000020,-0.000057,44.965933,0.000058,
2431,2083,3.87155223825345,-12.285162272197,0.0256838133264523,0.004385,-0.001162,0.013270,0.151206,0.082879,330.094918,22.369428,0.998809,0.976776,0.006164,0.345772,-0.000007,-0.000012,0.000029,0.000019,-0.000038,42.357080,0.000038,
2296,2908,0.770765626902801,5.73192258491939,-0.00521345521212879,0.004926,-0.000465,0.002161,0.219331,0.032139,316.482144,24.781124,0.999581,0.992014,0.003590,0.440205,0.000003,0.000017,0.000001,0.000017,0.000003,86.926121,0.000022,
2281,3088,0.413548514839224,9.63923619421612,0.0155028553810439,0.004756,-0.000208,-0.000208,0.219808,0.028652,313.735258,25.088391,0.999671,0.992414,0.003688,0.424621,0.000004,0.000015,-0.000008,0.000019,0.000000,-62.093175,0.000022,
2476,2158,4.8413440534208,-10.6414950609873,0.0271588051559206,0.005009,-0.000708,0.009325,0.193513,0.046005,329.037415,22.318924,0.998432,0.972102,0.006344,0.376477,0.000031,-0.000031,0.000004,0.000031,-0.000031,3.281231,0.000036,
2446,1993,4.21878911056879,-14.2627051523491,0.0237842823864867,0.004683,-0.000052,0.000412,0.212445,0.040132,331.620031,21.927335,0.999363,0.974913,0.005858,0.317228,0.000018,-0.000050,0.000045,0.000041,-0.000072,26.776465,0.000073,
2371,3163,2.35551947174222,11.2730465094295,0.03009337185091,0.005220,-0.000390,0.003764,0.226909,0.027838,312.588961,25.616883,0.999527,0.990856,0.003800,0.428982,0.000024,0.000033,-0.000005,0.000036,0.000021,-66.994314,0.000058,
2356,2203,2.20940047304122,-9.65238352267042,0.0144268617406169,0.004685,-0.000869,0.010030,0.179074,0.054107,328.018775,23.072933,0.998946,0.982406,0.005311,0.413924,-0.000010,0.000000,-0.000018,0.000014,-0.000024,-52.486262,0.000024,
2326,2788,1.44371295706197,3.12354316893605,-0.0196590783991724,0.004802,-0.000742,0.006866,0.196916,0.034935,318.271447,24.488974,0.999619,0.993607,0.003492,0.519908,-0.000004,0.000022,-0.000007,0.000024,-0.000006,-75.470700,0.000025,
2266,3028,0.0980783920490431,8.33599518769616,0.0107192779901197,0.004710,-0.000313,0.002646,0.208141,0.026946,314.687248,24.936616,0.999370,0.989513,0.003922,0.420323,-0.000001,0.000005,-0.000007,0.000010,-0.000005,-56.687285,0.000010,
2386,2293,2.8472618407816,-7.68140023567506,0.0117576234783314,0.004832,-0.000735,0.007246,0.195175,0.054527,326.574755,23.167931,0.999831,0.994274,0.003352,0.442389,0.000003,0.000026,-0.000004,0.000026,0.000002,-81.093340,0.000032,
2356,3103,2.03950722825012,9.97111762235486,0.0194513701386541,0.004631,-0.000280,0.006028,0.191930,0.032690,313.444211,25.464901,0.999570,0.991678,0.003718,0.368144,0.000023,0.000021,-0.000010,0.000032,0.000012,-42.454162,0.000045,
2416,2233,3.51433798620391,-8.99579626300372,0.018370939994611,0.004599,-0.000342,0.006119,0.188090,0.081863,327.625990,22.856482,0.999449,0.984222,0.005025,0.456587,0.000002,0.000012,-0.000001,0.000012,0.000002,-83.077796,0.000015,
2386,3043,2.70247229446976,8.67055189075786,0.00664185049447497,0.005051,-0.000540,0.005303,0.213251,0.030649,314.350968,25.329380,0.999696,0.991274,0.003731,0.448122,0.000010,0.000018,-0.000009,0.000024,0.000005,-57.265948,0.000031,
2341,2113,1.90031682879794,-11.6267823707298,0.0298396599542912,0.004801,-0.000647,0.006660,0.196405,0.059669,329.614381,22.929864,0.999465,0.982764,0.005084,0.400626,0.000002,0.000011,-0.000001,0.000011,0.000002,-82.389665,0.000014,
2371,2953,2.39223190739517,6.71527445479897,-0.00314370387144436,0.004511,-0.000431,0.006905,0.182894,0.045154,315.701848,25.088228,0.999350,0.988865,0.004166,0.412852,0.000001,0.000023,-0.000009,0.000027,-0.000002,-69.653533,0.000030,
2386,3208,2.67230155892272,12.2502604847158,0.0344911343260605,0.004636,-0.000310,0.005772,0.192736,0.037150,311.860842,25.792758,0.999489,0.992071,0.003557,0.455129,0.000023,0.000030,-0.000001,0.000030,0.000023,-79.378649,0.000053,
2326,2968,1.4116215143796,7.03896119644238,0.000734730095359737,0.004744,-0.000159,0.007057,0.194015,0.054011,315.502985,25.092010,0.999691,0.994733,0.003108,0.344758,-0.000008,0.000020,-0.000004,0.000020,-0.000008,-81.937224,0.000020,
2221,2803,-0.842130609484322,3.44536724458349,-0.0190123095800345,0.004689,-0.000814,0.007359,0.191974,0.023307,318.183675,24.496427,0.999307,0.988710,0.004236,0.440160,-0.000002,0.000017,0.000004,0.000018,-0.000002,77.712968,0.000020,
2431,2503,3.78702601435927,-3.08884113303692,-0.000789611050208805,0.004716,-0.000793,0.005211,0.196710,0.013782,323.124776,23.625570,0.999361,0.986156,0.004511,0.480067,0.000013,-0.000023,-0.000002,0.000013,-0.000023,-3.100026,0.000023,
2311,3193,1.04689719890783,11.9183980509175,0.0343310361021167,0.004919,-0.000223,0.003319,0.215329,0.035437,312.136307,25.409469,0.999694,0.992928,0.003430,0.438831,0.000011,0.000035,-0.000004,0.000036,0.000010,-80.044148,0.000048,
2386,2083,2.88889896568528,-12.285588545095,0.0283396754400087,0.004647,-0.000435,0.006900,0.187727,0.068721,330.095657,22.569090,0.999162,0.975947,0.005781,0.411523,-0.000006,-0.000001,0.000012,0.000009,-0.000015,51.008823,0.000016,
2446,2563,4.10150115411269,-1.77587869110248,-0.0101563504160822,0.004890,-0.000479,0.006064,0.201582,0.055927,322.102168,23.900877,0.999643,0.988387,0.004319,0.428922,0.000013,0.000003,0.000000,0.000013,0.000003,0.112220,0.000018,
2326,2158,1.56384061802727,-10.6393722672866,0.0196838335748453,0.005004,-0.000313,0.006452,0.206874,0.082424,328.817513,23.039726,0.999224,0.983311,0.005160,0.514405,-0.000019,0.000002,-0.000015,0.000010,-0.000026,-62.466240,0.000027,
2491,2338,5.13049551770727,-6.69403719964245,0.00441092086435901,0.004679,0.000173,0.002602,0.204357,0.064842,325.985368,23.014889,0.998959,0.984486,0.005338,0.352429,0.000027,0.000021,-0.000007,0.000031,0.000017,-32.563929,0.000049,
2356,2038,2.24294578927487,-13.2732485646639,0.0314680029416081,0.005421,-0.000296,0.005819,0.227512,0.061061,330.869074,22.623379,0.998955,0.977094,0.005913,0.408975,0.000015,0.000025,0.000031,0.000051,-0.000011,49.821923,0.000054,
2506,2578,5.40702546421887,-1.44678121811361,-0.0091029571404988,0.004971,-0.000651,0.007809,0.197526,0.064507,322.012985,23.866461,0.999494,0.986432,0.004749,0.444507,0.000025,0.000025,0.000007,0.000032,0.000017,44.187889,0.000050,
2401,3118,3.01579934095317,10.2993080726997,0.0315698300895519,0.004723,-0.000242,0.002805,0.207211,0.040676,313.337760,25.651275,0.999861,0.995333,0.002902,0.407714,0.000027,0.000042,-0.000003,0.000043,0.000027,-77.509974,0.000070,
2326,3268,1.35618778558609,13.5478213272713,0.00896894569348206,0.004665,-0.000203,0.005399,0.196362,0.034193,310.663249,25.692970,0.999534,0.992690,0.003332,0.390175,0.000000,0.000032,-0.000006,0.000033,-0.000001,-79.838450,0.000038,
2401,2383,3.15616387609164,-5.71077501758961,0.00157612000464269,0.004510,-0.000421,0.005493,0.186706,0.035868,325.038693,23.430394,0.999220,0.983854,0.004928,0.384140,0.000005,-0.000004,-0.000001,0.000005,-0.000004,-4.879658,0.000005,
2281,2878,0.449245612922066,5.07884419694307,-0.0123400029812615,0.004703,-0.000376,0.004976,0.199734,0.043082,316.910341,24.639247,0.999701,0.992798,0.003621,0.509089,0.000004,0.000033,0.000005,0.000034,0.000004,80.267265,0.000041,
2281,3103,0.410719683748493,9.96503772967388,0.0140673589337439,0.004941,-0.000189,0.002195,0.220288,0.033647,313.478204,25.126926,0.999628,0.992695,0.003575,0.417719,0.000006,0.000020,-0.000009,0.000024,0.000002,-64.226128,0.000029,
2431,2098,3.86900466619647,-11.956217978549,0.0292331003582262,0.004536,-0.001087,0.013357,0.157849,0.080647,329.889263,22.436888,0.999448,0.980186,0.005831,0.329066,-0.000009,-0.000007,0.000018,0.000010,-0.000026,46.282137,0.000026,
2461,2638,4.41266019371007,-0.137933416950403,-0.0216187325657415,0.004786,-0.000271,0.002844,0.208868,0.046945,320.824430,24.140894,0.999637,0.988801,0.004046,0.433793,0.000022,0.000001,-0.000013,0.000029,-0.000005,-25.384090,0.000031,
2386,3058,2.70001346860395,8.99632770586075,0.014081190395359,0.004877,-0.000292,0.004909,0.206777,0.046198,314.161196,25.402462,0.999668,0.991725,0.003654,0.433102,0.000012,0.000020,-0.000003,0.000021,0.000011,-72.759084,0.000033,
2506,2593,5.40314717690594,-1.11741874507129,-0.0221047408163031,0.004940,-0.000385,0.003401,0.213267,0.048815,321.675245,24.005582,0.999814,0.993796,0.003641,0.351719,0.000025,0.000016,0.000013,0.000034,0.000007,35.255154,0.000044,
2386,2308,2.84372518789471,-7.3524862849051,0.00187302526342137,0.004955,-0.000531,0.007140,0.201294,0.072257,326.255726,23.149661,0.999782,0.993914,0.003460,0.524268,0.000004,0.000017,0.000003,0.000018,0.000003,77.687189,0.000023,
2356,3118,2.03745038374367,10.2955696416459,0.024255912651995,0.004910,-0.000311,0.004165,0.211323,0.021235,313.258823,25.439061,0.999571,0.991667,0.003712,0.420308,0.000022,0.000029,-0.000008,0.000034,0.000017,-56.455370,0.000052,
2461,2398,4.46274195350297,-5.38273164653805,0.00327883804555995,0.004592,-0.000809,0.006025,0.187435,0.045487,324.910701,23.239671,0.999599,0.985103,0.004884,0.444793,0.000031,0.000015,-0.000014,0.000039,0.000007,-29.406115,0.000049,
2461,2158,4.51339667502237,-10.6399334997421,0.0179144366758806,0.005342,-0.000041,0.004436,0.227714,0.056094,328.957304,22.416796,0.999013,0.974481,0.005943,0.371563,0.000027,-0.000022,0.000000,0.000027,-0.000022,-0.471187,0.000029,
2341,3148,1.70592708481752,10.9455024940197,0.0287726847434442,0.004466,-0.000111,0.002850,0.195814,0.041419,312.791015,25.469828,0.999521,0.992828,0.003609,0.420712,0.000017,0.000031,-0.000003,0.000031,0.000016,-78.786584,0.000048,
2371,2098,2.55751449367776,-11.9552244571272,0.0208889965511503,0.004573,-0.000478,0.007754,0.181607,0.065353,329.774720,22.711263,0.999229,0.977483,0.005665,0.403812,-0.000004,0.000013,0.000008,0.000016,-0.000007,68.603215,0.000016,
2356,2053,2.24066165928683,-12.945182421373,0.0429405168615631,0.005016,-0.000317,0.004972,0.211925,0.054871,330.707826,22.686296,0.998952,0.979363,0.005530,0.381591,0.000012,0.000023,0.000023,0.000041,-0.000006,52.175053,0.000045,
2416,2458,3.46840508621534,-4.07039886104009,-0.00977863206264828,0.005026,-0.000310,0.004412,0.214259,0.051696,323.774026,23.561261,0.999360,0.985636,0.004795,0.466923,0.000018,-0.000028,0.000011,0.000020,-0.000031,12.645641,0.000031,
2431,2518,3.78454721254388,-2.76199510561698,0.00520363821806313,0.004791,-0.000902,0.006042,0.197089,0.013097,322.931987,23.660104,0.999169,0.984176,0.004787,0.495644,0.000009,-0.000022,-0.000001,0.000009,-0.000022,-1.988415,0.000022,
2356,2218,2.20715231234939,-9.32410930485323,0.0181510743768172,0.004713,-0.000487,0.006549,0.192726,0.064158,327.821391,23.109432,0.998624,0.978760,0.005781,0.428824,-0.000006,0.000001,-0.000018,0.000016,-0.000020,-50.340179,0.000021,
2371,2968,2.38954309500997,7.04213842610154,-0.00744032018951657,0.004708,-0.000331,0.002719,0.206902,0.040089,315.444449,25.179871,0.999537,0.989207,0.004206,0.356556,0.000003,0.000025,-0.000007,0.000027,0.000001,-74.005305,0.000032,
2176,2563,-1.77918527277486,-1.78296483033135,-0.0178151561190134,0.004677,-0.000617,0.004039,0.202342,0.029860,322.229860,24.270725,0.999153,0.986357,0.004498,0.428660,0.000022,0.000031,-0.000003,0.000032,0.000021,-70.748692,0.000053,
2311,3208,1.04439692777618,12.244025316756,0.0420220032200405,0.004793,0.000210,0.005508,0.202201,0.052421,311.941450,25.499911,0.999712,0.992124,0.003465,0.396349,0.000011,0.000031,-0.000005,0.000032,0.000010,-75.415737,0.000044,
2386,3223,2.66887440131696,12.5763156904437,0.0279585335230763,0.004429,-0.000215,0.003258,0.192281,0.031167,311.559161,25.868631,0.999560,0.992849,0.003378,0.415181,0.000020,0.000031,0.000001,0.000031,0.000020,84.718151,0.000051,
2296,2923,0.768333006476798,6.05621878916419,0.00444461629348325,0.004980,-0.000699,0.008377,0.200719,0.041708,316.300415,24.706874,0.999585,0.992191,0.003507,0.553480,0.000003,0.000014,-0.000002,0.000014,0.000002,-81.143992,0.000018,
2386,2098,2.88511232853845,-11.9559270652822,0.0217894602482716,0.004390,-0.000722,0.008446,0.170399,0.057469,329.781976,22.599865,0.998961,0.974260,0.006056,0.416276,-0.000008,0.000003,0.000004,0.000005,-0.000009,70.984180,0.000009,
2446,2578,4.09714232219722,-1.44722772862487,-0.022406614178351,0.004793,-0.000815,0.009163,0.185521,0.072889,321.739346,23.942546,0.999668,0.991285,0.003965,0.457690,0.000020,0.000022,0.000004,0.000025,0.000016,52.845596,0.000042,
2416,2248,3.51208397972154,-8.6676581827732,0.0214284065054358,0.005033,-0.000341,0.005947,0.208616,0.085958,327.429744,22.889973,0.999245,0.982101,0.005254,0.477077,0.000005,0.000022,0.000000,0.000022,0.000005,89.614998,0.000029,
2401,3133,3.01237399760701,10.625632958063,0.0212119982869581,0.005016,-0.000033,0.002447,0.222130,0.050383,313.019700,25.687285,0.999806,0.994396,0.003095,0.425907,0.000031,0.000044,-0.000006,0.000046,0.000028,-67.546542,0.000076,
2446,2008,4.2166227172194,-13.9363506426668,0.0388608131971182,0.004673,-0.000845,0.005257,0.193709,0.028706,331.486472,21.867779,0.999374,0.976136,0.005836,0.420620,0.000014,-0.000049,0.000044,0.000037,-0.000071,26.897408,0.000071,
2386,3073,2.69668101109042,9.32219274876472,0.0103138586050591,0.004765,-0.000168,0.005235,0.200513,0.046791,313.877785,25.429766,0.999619,0.991252,0.003741,0.448794,0.000018,0.000022,-0.000002,0.000023,0.000017,-68.398357,0.000041,
2401,2398,3.15360746648664,-5.38327653761844,0.00178872520137929,0.004762,-0.000541,0.004328,0.202462,0.037088,324.813527,23.431023,0.999325,0.984834,0.004853,0.431869,0.000006,-0.000002,0.000000,0.000006,-0.000002,1.888758,0.000006,
2431,2263,3.83506747530786,-8.33658841781008,0.00402793590620831,0.004886,-0.000237,0.006889,0.198263,0.052918,327.054233,22.961958,0.999144,0.978942,0.005582,0.356055,0.000004,0.000027,-0.000010,0.000030,0.000001,-69.894775,0.000035,
2371,2113,2.55467178279637,-11.6261157680993,0.0193086400003608,0.004493,-0.000301,0.004903,0.188121,0.056196,329.526375,22.749695,0.999139,0.977304,0.005666,0.400318,-0.000005,0.000006,0.000004,0.000008,-0.000006,72.646996,0.000008,
2326,3283,1.35303095963728,13.8727957931224,-0.00133819838845284,0.004995,-0.000502,0.004044,0.216166,0.018542,310.350546,25.675926,0.999644,0.993985,0.003062,0.424856,-0.000005,0.000039,-0.000009,0.000041,-0.000007,-79.252646,0.000043,
2386,3238,2.66518171308745,12.9020135582729,0.0178125901762769,0.004577,-0.000352,0.005048,0.192623,0.027808,311.228059,25.893218,0.999615,0.992797,0.003320,0.429284,0.000016,0.000030,0.000000,0.000030,0.000016,88.932961,0.000047,
2461,2413,4.4603121558651,-5.05515778136308,0.00561902759767463,0.004839,-0.000274,0.004144,0.206088,0.061142,324.705827,23.258425,0.999522,0.985793,0.004820,0.497470,0.000024,0.000012,-0.000001,0.000024,0.000012,-4.123310,0.000036,
2311,3223,1.04143966949006,12.5683911433657,0.0394127150595978,0.004656,-0.000204,0.003364,0.203069,0.032526,311.675081,25.454611,0.999617,0.992583,0.003361,0.452508,0.000011,0.000036,-0.000006,0.000037,0.000009,-77.860160,0.000049,
2446,2593,4.09425053882845,-1.12045922161125,-0.0237397049970127,0.004671,-0.000281,0.005080,0.195329,0.062465,321.494530,23.939728,0.999692,0.992295,0.003840,0.503216,0.000023,0.000015,0.000008,0.000028,0.000010,32.819266,0.000039,
2461,2653,4.40982972712046,0.188851041976392,-0.0159372783748495,0.004785,-0.000527,0.006130,0.196354,0.039454,320.615400,24.214683,0.999602,0.988873,0.004045,0.407114,0.000020,0.000011,-0.000018,0.000034,-0.000004,-38.056844,0.000037,
2386,2113,2.88232483073175,-11.6268364621239,0.0240143814747285,0.004389,-0.000767,0.009312,0.167233,0.058535,329.555446,22.667971,0.998608,0.970362,0.006371,0.395496,-0.000007,-0.000001,0.000001,-0.000001,-0.000008,80.474102,0.000009,
2296,2938,0.765442663373822,6.38387172857301,0.00307153850326358,0.004877,-0.000566,0.007441,0.199261,0.055283,316.041854,24.862512,0.999345,0.989922,0.003938,0.440786,0.000003,0.000019,-0.000003,0.000020,0.000003,-79.585444,0.000025,
2326,2983,1.40923696531882,7.36347543633337,0.00407404162513103,0.004862,-0.000428,0.006510,0.201217,0.041176,315.293880,25.030920,0.999914,0.996977,0.002624,0.426548,-0.000005,0.000018,-0.000004,0.000019,-0.000006,-80.368784,0.000020,
2491,2353,5.12801373314906,-6.36749506458068,0.00920167860840593,0.004822,0.000172,0.002017,0.213170,0.065560,325.791916,22.958855,0.998948,0.985138,0.005340,0.469706,0.000034,0.000022,-0.000006,0.000036,0.000019,-20.990408,0.000056,
2236,3103,-0.56600851863589,9.96035173019127,0.017568154211574,0.004958,-0.000648,0.003786,0.215967,-0.001841,313.586629,24.902223,0.999541,0.992633,0.003475,0.433207,-0.000001,0.000016,-0.000006,0.000018,-0.000002,-72.909522,0.000019,
2401,2128,3.20870408542418,-11.299116362521,0.0391571630895555,0.004706,-0.000980,0.009265,0.181495,0.043180,329.469200,22.707368,0.999094,0.979687,0.005566,0.299848,-0.000010,-0.000001,0.000001,-0.000001,-0.000010,81.090648,0.000013,
2446,3238,3.96961896910316,12.9078717257652,0.024089221214922,0.005008,0.000018,0.004631,0.213339,0.046579,311.372803,26.240763,0.999623,0.992401,0.003539,0.412024,0.000033,0.000037,-0.000008,0.000043,0.000027,-50.973914,0.000070,
2296,3133,0.731325886612172,10.6160273599968,0.0263488128273366,0.004805,-0.000556,0.007115,0.197124,0.019890,313.048640,25.226490,0.999715,0.994019,0.003349,0.419940,0.000004,0.000027,-0.000006,0.000028,0.000003,-75.777000,0.000035,
2446,2098,4.19742248575489,-11.9569534533446,0.0240594434382615,0.004771,-0.000433,0.005351,0.198099,0.059960,329.915221,22.268800,0.999314,0.978389,0.005829,0.384871,0.000011,-0.000014,0.000018,0.000020,-0.000023,27.807666,0.000025,
2221,2473,-0.783679099004519,-3.74703532899643,-0.00346177578387596,0.004568,-0.000263,0.004304,0.196007,0.043303,323.670935,24.057947,0.999321,0.986001,0.004710,0.469664,0.000016,-0.000003,-0.000007,0.000018,-0.000006,-18.379520,0.000019,
2431,2113,3.86709847010409,-11.6287813267067,0.032115300122598,0.005058,-0.000900,0.009601,0.195636,0.058297,329.710083,22.384365,0.999334,0.978558,0.005915,0.411782,-0.000010,-0.000009,0.000013,0.000003,-0.000022,45.597882,0.000024,
2461,2173,4.50986753201739,-10.3118629852628,0.0204848399983462,0.005166,-0.001226,0.010825,0.195228,0.040449,328.704319,22.434116,0.999041,0.977128,0.005665,0.395793,0.000025,-0.000014,-0.000003,0.000025,-0.000015,-4.371960,0.000025,
2416,2263,3.50912952169661,-8.33867839829185,0.0191609828045216,0.005162,-0.000292,0.005325,0.216860,0.054478,327.176557,22.986553,0.999168,0.982267,0.005192,0.399170,0.000003,0.000024,-0.000006,0.000026,0.000002,-75.464215,0.000031,
2446,2023,4.21398949153841,-13.6053655456697,0.0345631590032554,0.005281,-0.000518,0.003653,0.227595,0.048173,331.242222,21.983885,0.999238,0.978331,0.005532,0.379874,0.000013,-0.000051,0.000042,0.000033,-0.000071,26.255014,0.000071,
2356,2068,2.23776856618958,-12.6154678668385,0.0401255538328655,0.005065,0.000091,0.003591,0.219181,0.077157,330.449871,22.716507,0.999146,0.979135,0.005475,0.416192,0.000008,0.000011,0.000019,0.000029,-0.000009,47.567719,0.000030,
2446,3253,3.96666805316845,13.2329764612665,0.0276891184117858,0.004704,0.000059,0.003967,0.201914,0.051625,311.145186,26.284367,0.999723,0.993691,0.003225,0.424284,0.000033,0.000041,-0.000004,0.000042,0.000032,-67.985261,0.000075,
2356,2233,2.20375534541315,-8.99541358719676,0.0154893378594352,0.004462,-0.000772,0.007914,0.176354,0.060249,327.540688,23.137315,0.998054,0.975002,0.006249,0.438363,-0.000004,-0.000012,-0.000016,0.000008,-0.000024,-38.462753,0.000025,
2386,3088,2.69398632951127,9.64692220475512,0.0190977631064015,0.004469,-0.000547,0.007655,0.177996,0.024475,313.683799,25.459544,0.999408,0.989992,0.003954,0.438721,0.000020,0.000020,-0.000007,0.000027,0.000013,-45.523520,0.000040,
2401,3148,3.01041502321449,10.9496757484014,0.0353146838423299,0.005121,-0.000335,0.005742,0.214887,0.042656,312.885506,25.684095,0.999801,0.994673,0.003003,0.465894,0.000030,0.000035,-0.000006,0.000039,0.000026,-56.711674,0.000066,
2296,3148,0.728736129780348,10.9415364778941,0.0293013527549988,0.004649,-0.000469,0.005666,0.194967,0.032200,312.825500,25.268988,0.999645,0.992625,0.003592,0.418446,0.000005,0.000025,-0.000005,0.000026,0.000004,-77.027741,0.000032,
2506,2608,5.40032093042122,-0.791508527477028,-0.0174586191994308,0.004921,-0.000341,0.004619,0.207727,0.051464,321.465104,23.967663,0.999820,0.993517,0.003712,0.454298,0.000027,0.000022,0.000009,0.000034,0.000015,38.276834,0.000050,
2401,2413,3.15049918986688,-5.05546525701605,0.00521326603080752,0.004523,-0.000503,0.007116,0.181458,0.065997,324.577921,23.468227,0.999400,0.985289,0.004789,0.470582,0.000001,-0.000001,0.000007,0.000008,-0.000007,42.443288,0.000009,
2416,2473,3.46592365092831,-3.74428178219708,0.000602037143039524,0.004646,-0.000342,0.004326,0.197125,0.047956,323.600911,23.559712,0.999171,0.985359,0.004821,0.513601,0.000015,-0.000032,0.000012,0.000018,-0.000035,13.379965,0.000035,
2416,3208,3.32463127911003,12.2529439243442,0.035108551809401,0.004902,-0.000156,0.002599,0.216209,0.038980,311.916766,25.937317,0.999538,0.990395,0.003804,0.459488,0.000032,0.000032,-0.000009,0.000040,0.000023,-45.156203,0.000064,
2446,2113,4.19556927094539,-11.6288126251605,0.0308537297696034,0.005333,-0.000389,0.004955,0.225338,0.053950,329.757473,22.307331,0.999425,0.977671,0.005817,0.395255,0.000010,-0.000016,0.000014,0.000016,-0.000022,23.300819,0.000022,
2371,2278,2.52355562655889,-8.00979165140119,0.0229155815670765,0.004586,-0.000455,0.004805,0.192923,0.049276,326.897727,23.303863,0.999792,0.993688,0.003593,0.319754,0.000003,0.000018,-0.000014,0.000026,-0.000005,-59.717658,0.000027,
2341,2128,1.89683084183422,-11.297466290259,0.0249905672477553,0.004547,-0.000713,0.007425,0.182141,0.040197,329.318083,22.966796,0.999531,0.986874,0.004619,0.383975,0.000004,0.000016,-0.000001,0.000016,0.000004,-86.430811,0.000021,
2461,2188,4.50552269883973,-9.98089485612364,0.00175983503760335,0.004918,-0.000496,0.004876,0.206517,0.047326,328.316477,22.474064,0.999654,0.987006,0.004699,0.420554,0.000031,-0.000010,-0.000003,0.000031,-0.000010,-4.099251,0.000032,
2416,2278,3.50529766944333,-8.01048110899881,0.0149277544461484,0.004788,-0.001020,0.007428,0.191788,0.024006,326.873985,22.996330,0.999241,0.982848,0.005060,0.409104,0.000007,0.000032,-0.000005,0.000033,0.000006,-79.773794,0.000042,
2221,2488,-0.786628391882129,-3.41953523928235,-0.00367050535470526,0.004512,-0.000935,0.008337,0.180312,0.044845,323.410802,24.082019,0.999426,0.986776,0.004411,0.467067,0.000018,0.000000,-0.000004,0.000019,-0.000001,-10.630512,0.000021,
2431,2128,3.86413855955026,-11.3001973318183,0.0390488149614612,0.004246,-0.000302,0.006315,0.170845,0.071028,329.501006,22.450549,0.999524,0.979494,0.005958,0.411036,-0.000005,-0.000006,0.000013,0.000007,-0.000019,44.701922,0.000019,
2326,3298,1.34980065428128,14.1975982764479,-0.000291858908667564,0.004582,-0.000333,0.005176,0.193356,0.033724,310.090225,25.678401,0.999706,0.994215,0.003062,0.470109,-0.000011,0.000039,-0.000012,0.000042,-0.000013,-77.575814,0.000043,
2446,3268,3.9619155105568,13.5589764819997,0.00634089422754869,0.004632,-0.000090,0.003236,0.201213,0.034946,310.718619,26.298216,0.999688,0.993198,0.003318,0.444351,0.000034,0.000032,0.000002,0.000036,0.000030,30.426704,0.000066,
2311,2908,1.0964583603647,5.73365822217952,-0.0079603574115481,0.004685,-0.000126,0.001021,0.212098,0.032361,316.437619,24.866944,0.999543,0.991888,0.003720,0.383620,-0.000001,0.000019,0.000000,0.000019,-0.000001,-89.544367,0.000022,
2176,2578,-1.78154711579513,-1.45647288266921,-0.0178487723142666,0.004857,-0.000486,0.004425,0.209474,0.026833,321.994077,24.237537,0.999196,0.987648,0.004314,0.471807,0.000012,0.000024,-0.000003,0.000025,0.000011,-75.384760,0.000037,
2356,2083,2.23346908536172,-12.2842417494845,0.0265128719759105,0.004963,-0.000469,0.007509,0.200584,0.072344,330.075703,22.798709,0.999357,0.981290,0.005227,0.371808,0.000005,0.000020,0.000017,0.000031,-0.000006,57.067766,0.000033,
2371,3178,2.35203992682871,11.5984906371532,0.0275125606834763,0.004883,-0.000471,0.004576,0.208502,0.032917,312.302978,25.636065,0.999540,0.991303,0.003647,0.454894,0.000024,0.000038,-0.000004,0.000039,0.000023,-74.688018,0.000063,
2416,2008,3.56170760289254,-13.9371571053449,0.0494851851015596,0.005003,-0.000517,0.003800,0.214647,0.040178,331.543535,22.034950,0.999130,0.973338,0.006198,0.473297,-0.000017,-0.000022,0.000036,0.000017,-0.000056,42.767796,0.000057,
2386,2323,2.83998502325802,-7.02312055251981,-0.0071500783594729,0.004677,-0.000312,0.005306,0.195205,0.069862,325.931378,23.207927,0.999669,0.992022,0.003930,0.509325,0.000000,0.000008,0.000003,0.000009,-0.000001,70.111463,0.000010,
2386,3253,2.66175754543919,13.2278483415217,0.00767194617492351,0.004789,-0.000354,0.004223,0.205359,0.026285,310.909216,25.933786,0.999701,0.992350,0.003300,0.429176,0.000013,0.000035,0.000000,0.000035,0.000013,88.889484,0.000049,
2431,2533,3.78148926095585,-2.43286734007198,0.0030540042607754,0.004815,-0.000587,0.005098,0.201843,0.038833,322.674298,23.808678,0.999380,0.986927,0.004466,0.424162,0.000006,-0.000010,-0.000001,0.000006,-0.000010,-3.838799,0.000010,
2446,2608,4.09233012384631,-0.793951363379065,-0.0105796000461851,0.004908,-0.000852,0.007889,0.195515,0.048738,321.361061,24.045708,0.999384,0.987992,0.004334,0.435819,0.000022,0.000014,0.000005,0.000025,0.000012,24.905140,0.000037,
2476,2233,4.82551026005457,-8.99704492825848,0.0234178132958505,0.004580,-0.000740,0.006472,0.184760,0.057814,327.784981,22.564596,0.999145,0.981400,0.005543,0.439151,0.000043,0.000009,-0.000006,0.000044,0.000008,-8.990246,0.000056,
2476,2173,4.83816861571122,-10.3120229993927,0.0260491322031839,0.004923,-0.000693,0.008427,0.192975,0.056066,328.784973,22.398898,0.997969,0.964292,0.007001,0.366095,0.000026,-0.000016,0.000000,0.000026,-0.000016,-0.015433,0.000026,
2461,2668,4.40678521092999,0.515206595241906,-0.0180973388012262,0.004940,-0.000607,0.006124,0.203464,0.039083,320.360686,24.180541,0.999478,0.986689,0.004327,0.495889,0.000017,-0.000003,-0.000024,0.000033,-0.000019,-33.875496,0.000034,
2506,2623,5.39753275768407,-0.466649847793079,-0.00954476026817019,0.004597,-0.000613,0.005103,0.190897,0.046888,321.271446,23.872307,0.999861,0.994058,0.003425,0.606474,0.000020,0.000001,-0.000001,0.000020,0.000001,-1.824598,0.000023,
2356,2248,2.20095295566232,-8.66681571742043,0.0140364434279832,0.004828,-0.001078,0.010779,0.182977,0.036656,327.293073,23.193810,0.998910,0.980676,0.005494,0.399609,-0.000003,-0.000012,-0.000014,0.000008,-0.000023,-36.280206,0.000023,
2371,2128,2.55226933818977,-11.2975733571479,0.0197965978035199,0.004920,-0.000270,0.005030,0.207242,0.073839,329.307906,22.737587,0.999263,0.980583,0.005394,0.474149,-0.000001,0.000011,0.000002,0.000011,-0.000001,78.751923,0.000012,
2371,2983,2.3874833092975,7.36675628898565,-0.000883832793078909,0.004959,-0.000305,0.002111,0.220619,0.033674,315.268594,25.145073,0.999507,0.989259,0.004129,0.425595,0.000005,0.000026,-0.000007,0.000028,0.000003,-73.432682,0.000034,
2461,2203,4.50179167502229,-9.65249466397736,0.000499941365660561,0.004580,-0.001067,0.007945,0.179313,0.026704,328.036605,22.497743,0.999255,0.981430,0.005318,0.433365,0.000035,0.000001,-0.000010,0.000038,-0.000002,-14.781894,0.000042,
2326,2998,1.40664850116321,7.68848524446692,0.00986500389365119,0.004736,-0.000732,0.007856,0.190721,0.038015,315.087207,25.026101,0.999785,0.994718,0.003087,0.462040,-0.000003,0.000017,-0.000006,0.000019,-0.000005,-73.960338,0.000020,
2431,2143,3.85998891234987,-10.9696376526526,0.0260166022125077,0.004546,-0.001034,0.011306,0.165920,0.064233,329.144970,22.506498,0.999312,0.978773,0.005733,0.401865,-0.000007,-0.000002,0.000005,0.000001,-0.000010,60.444259,0.000011,
2476,2473,4.77389765560088,-3.74101361551189,-0.0164808428111201,0.005164,-0.000585,0.004980,0.217564,0.044281,323.594164,23.460917,0.999585,0.989297,0.004168,0.466361,0.000021,-0.000037,0.000005,0.000022,-0.000037,5.153003,0.000037,
2281,3118,0.407408074880035,10.2906599572131,0.012981434021242,0.004672,-0.000527,0.005329,0.197267,0.017417,313.200726,25.176524,0.999760,0.994059,0.003276,0.378579,0.000008,0.000021,-0.000007,0.000024,0.000005,-66.616097,0.000031,
2341,1993,1.92264602846918,-14.2617590843572,0.0364226523736306,0.004465,-0.001580,0.009955,0.169088,0.016340,331.573897,22.645212,0.998569,0.976945,0.006225,0.321380,0.000023,0.000057,0.000029,0.000074,0.000007,60.204658,0.000090,
2446,2038,4.21083051781092,-13.275869007635,0.0352862864336885,0.005000,-0.000070,0.002787,0.218155,0.066526,330.996925,22.028067,0.999171,0.977990,0.005675,0.409784,0.000009,-0.000054,0.000031,0.000022,-0.000067,22.377616,0.000068,
2311,3238,1.03792093398939,12.8949917839801,0.026803744552069,0.004707,0.000087,0.001220,0.212918,0.038100,311.332587,25.537704,0.999423,0.991381,0.003574,0.405743,0.000010,0.000033,-0.000007,0.000035,0.000008,-75.055973,0.000046,
2296,2953,0.763224206585154,6.71033818324167,9.08101372942838E-06,0.005337,-0.000293,0.003412,0.234139,0.042825,315.806133,24.927466,0.999108,0.988120,0.004253,0.392965,0.000003,0.000020,-0.000003,0.000021,0.000002,-81.040569,0.000025,
2446,3223,3.97271472889313,12.5817514298832,0.0317081148027683,0.004495,-0.000205,0.004753,0.189164,0.039962,311.659276,26.172471,0.999597,0.990610,0.003871,0.422788,0.000035,0.000032,-0.000009,0.000042,0.000025,-39.751952,0.000068,
2476,2248,4.82283115467699,-8.66962017038852,0.022977424105477,0.004803,-0.000559,0.004225,0.203548,0.043496,327.558242,22.515592,0.999187,0.981788,0.005309,0.532709,0.000042,0.000029,-0.000002,0.000042,0.000028,-7.623919,0.000071,
2476,2713,4.72439328034772,1.49705838481437,-0.0213116237199529,0.004911,-0.000290,0.004634,0.207765,0.050897,319.639857,24.317921,0.999589,0.989543,0.004186,0.534890,0.000003,0.000012,-0.000020,0.000028,-0.000013,-51.813279,0.000028,
2416,2488,3.46258212596067,-3.41625590004202,-0.00651764399208332,0.004988,-0.000958,0.006334,0.205230,0.014618,323.306325,23.605944,0.999293,0.986363,0.004587,0.482936,0.000018,-0.000033,0.000006,0.000019,-0.000034,6.933721,0.000034,
2476,2188,4.83569153754073,-9.98338452394831,0.0270534728255143,0.005122,-0.000709,0.004750,0.216029,0.051103,328.574178,22.445381,0.998461,0.967290,0.006852,0.373894,0.000036,-0.000010,-0.000003,0.000036,-0.000010,-3.745257,0.000037,
2491,2368,5.12441812528708,-6.03890068075818,0.00594953604769444,0.005018,-0.000617,0.007046,0.202590,0.050531,325.510939,23.032883,0.998606,0.982470,0.005448,0.441448,0.000031,0.000028,0.000004,0.000034,0.000025,31.744040,0.000059,
2386,3103,2.69157618265081,9.97209031390666,0.0224774549739095,0.004570,-0.000635,0.006091,0.188295,0.027319,313.476978,25.473324,0.999136,0.988114,0.004202,0.470140,0.000025,0.000028,-0.000004,0.000031,0.000023,-55.390384,0.000054,
2356,3133,2.0345292181287,10.6212256179879,0.0280631073883342,0.004722,-0.000450,0.006399,0.194817,0.032369,313.028379,25.498909,0.999515,0.990875,0.003870,0.409250,0.000023,0.000034,-0.000008,0.000038,0.000019,-62.830788,0.000058,
2461,2428,4.45662539512264,-4.72693171448951,-0.000103688476826846,0.004917,-0.000631,0.007285,0.197713,0.062068,324.406339,23.280411,0.999253,0.984300,0.004981,0.532660,0.000021,0.000002,0.000005,0.000022,0.000001,14.169822,0.000026,
2131,2578,-2.76066747579883,-1.45530348481972,-0.0259965091921117,0.005073,-0.000408,0.007282,0.211528,0.080739,322.095878,24.391386,0.999558,0.991331,0.004081,0.430388,0.000015,0.000019,-0.000001,0.000019,0.000014,-72.748097,0.000033,
2341,2008,1.9196292829489,-13.9320337077589,0.0378395766401241,0.004233,-0.001309,0.011153,0.154396,0.053925,331.329409,22.686724,0.998521,0.975326,0.006429,0.357882,0.000027,0.000045,0.000029,0.000067,0.000005,53.547360,0.000080,
2401,3163,3.00696679055319,11.2756914816215,0.0307023219688745,0.004905,-0.000533,0.004962,0.207703,0.035357,312.593523,25.752115,0.999637,0.992695,0.003417,0.434800,0.000027,0.000037,-0.000005,0.000040,0.000025,-66.577645,0.000065,
2386,3268,2.65845949982798,13.5532313169449,0.00618702923139836,0.004585,-0.000405,0.005165,0.192610,0.029004,310.637546,25.981310,0.999686,0.992012,0.003472,0.425966,0.000009,0.000032,0.000002,0.000033,0.000009,85.119316,0.000044,
2431,2278,3.83170926544527,-8.01016971156411,0.00802846470838858,0.004423,-0.000958,0.010007,0.165273,0.039262,326.813005,22.876845,0.999188,0.976622,0.005867,0.479871,0.000007,0.000035,-0.000010,0.000038,0.000003,-72.336903,0.000046,
2296,3163,0.726552914817187,11.266905020786,0.040000353279936,0.004536,-0.000143,0.007042,0.185271,0.053546,312.659604,25.339456,0.999709,0.992329,0.003514,0.398205,0.000007,0.000029,-0.000005,0.000030,0.000006,-78.407523,0.000038,
2416,2023,3.55701794002552,-13.6042968304179,0.0435685581219332,0.004437,-0.001158,0.012112,0.158240,0.058963,331.194522,22.303763,0.998799,0.974351,0.006137,0.275371,-0.000017,-0.000026,0.000036,0.000015,-0.000058,41.238662,0.000060,
2446,2053,4.20744107433778,-12.947205791924,0.0359837457573917,0.004662,-0.000269,0.004063,0.197924,0.059901,330.741072,22.026374,0.999130,0.978383,0.005631,0.460455,0.000010,-0.000042,0.000028,0.000022,-0.000054,23.375624,0.000055,
2326,2803,1.44072817385771,3.45076462941989,-0.0187362154869106,0.004385,-0.000358,0.004764,0.185191,0.055642,318.022644,24.577779,0.999491,0.993062,0.003621,0.486296,-0.000005,0.000016,-0.000007,0.000018,-0.000007,-74.113418,0.000018,
2386,2338,2.8379765412005,-6.69583898802797,0.00693291657330519,0.004423,-0.000103,0.004950,0.184945,0.082605,325.795982,23.294127,0.999119,0.984973,0.004797,0.480573,0.000002,0.000008,0.000001,0.000008,0.000001,78.541296,0.000011,
2356,2263,2.19809403866121,-8.33825601877898,0.0131238576585702,0.004575,-0.000409,0.006940,0.185131,0.056968,327.045210,23.213898,0.999247,0.983854,0.005079,0.441024,-0.000007,-0.000005,-0.000020,0.000014,-0.000026,-46.503478,0.000026,
2371,3193,2.35000095284932,11.9237392147207,0.0320678156695635,0.005216,-0.000311,0.002632,0.230829,0.026479,312.117598,25.694561,0.999479,0.991794,0.003620,0.429810,0.000024,0.000036,-0.000003,0.000036,0.000023,-78.235524,0.000060,
2416,2293,3.50205140978055,-7.68187213187479,0.0106932881872694,0.004696,-0.001197,0.005727,0.193724,-0.000581,326.598105,23.043499,0.998862,0.978736,0.005667,0.387380,0.000007,0.000034,0.000000,0.000034,0.000007,-89.421412,0.000043,
2371,2293,2.52122443227231,-7.68214081248547,0.0252282776448851,0.005049,-0.000504,0.006288,0.208867,0.067626,326.690751,23.285190,0.999769,0.994079,0.003501,0.400147,0.000003,0.000020,-0.000005,0.000022,0.000001,-73.730068,0.000026,
2431,2548,3.77899485911145,-2.10552996762655,0.0069618467895225,0.005012,-0.000657,0.005496,0.209399,0.033533,322.470921,23.882894,0.999700,0.989697,0.003963,0.395529,0.000011,-0.000010,0.000001,0.000011,-0.000010,2.489899,0.000012,
2506,2863,5.34674210884901,4.76691939804518,-0.0225825485867404,0.004787,-0.000621,0.007462,0.190784,0.041850,317.246083,25.005322,0.999720,0.992146,0.003558,0.449136,-0.000008,0.000027,-0.000006,0.000028,-0.000009,-80.794961,0.000029,
2461,2443,4.45419311819239,-4.3992928120711,0.00568694477351528,0.005019,-0.000851,0.007027,0.203287,0.038801,324.217076,23.386204,0.999080,0.984503,0.004936,0.458972,0.000030,-0.000028,0.000000,0.000030,-0.000028,-0.180459,0.000034,
2491,2788,5.03536947504711,3.13349011494242,-0.0237168565681714,0.004650,-0.000483,0.005417,0.192633,0.049077,318.419744,24.726937,0.999314,0.987556,0.004253,0.418895,-0.000005,-0.000004,-0.000027,0.000022,-0.000032,-45.698254,0.000033,
2461,2218,4.49989607496716,-9.32437805395815,0.00645241642911287,0.005060,-0.000757,0.005946,0.208931,0.050670,327.873517,22.531117,0.999452,0.985452,0.005055,0.480617,0.000034,0.000010,-0.000008,0.000037,0.000007,-17.154908,0.000047,
2506,2638,5.39443641024394,-0.138106227037788,-0.00992337434985302,0.004805,-0.000595,0.006941,0.193304,0.034306,321.025852,24.056769,0.999757,0.991660,0.003814,0.471053,0.000010,0.000001,-0.000008,0.000015,-0.000004,-30.904719,0.000016,
2386,3283,2.65577103814948,13.8781320204427,0.00662876518646272,0.004769,-0.000336,0.005211,0.200910,0.029301,310.403262,26.001041,0.999671,0.991067,0.003647,0.448351,0.000008,0.000026,0.000000,0.000026,0.000008,89.338154,0.000036,
2446,2323,4.15128446469643,-7.02467726974947,0.00819029902925195,0.005051,-0.000496,0.005451,0.210886,0.049511,326.159065,22.987669,0.999447,0.979149,0.005251,0.477362,0.000014,0.000019,-0.000008,0.000025,0.000009,-53.123603,0.000035,
2476,2263,4.81995952149412,-8.33999732359212,0.0190651604121399,0.005093,-0.000441,0.001394,0.227628,0.025780,327.306674,22.640865,0.998992,0.979818,0.005332,0.448735,0.000038,0.000029,-0.000008,0.000043,0.000024,-30.431867,0.000068,
2386,2128,2.87959674220911,-11.2978113026,0.0219503079079573,0.004694,-0.000749,0.009069,0.182105,0.050988,329.311357,22.697361,0.998969,0.976144,0.005820,0.405046,-0.000003,0.000005,0.000000,0.000005,-0.000003,-89.086714,0.000005,
2416,2038,3.55310941920415,-13.2749919694415,0.031565972070382,0.004174,-0.000811,0.008909,0.158052,0.051483,330.853243,22.212492,0.998822,0.974074,0.006147,0.411013,-0.000018,-0.000034,0.000025,0.000000,-0.000052,36.294164,0.000060,
2491,2548,5.08586104037073,-2.10299667642586,-0.00975852438892844,0.004717,-0.000557,0.005823,0.193744,0.043390,322.448033,23.715153,0.999688,0.988406,0.004166,0.475392,0.000015,-0.000026,0.000004,0.000016,-0.000026,5.908177,0.000026,
2401,2428,3.1477914502846,-4.72768457407064,0.00184896918364075,0.004832,-0.000634,0.004966,0.203353,0.037617,324.328940,23.500212,0.999308,0.984920,0.004845,0.457422,0.000004,-0.000007,0.000011,0.000010,-0.000014,31.736453,0.000014,
2371,2143,2.54936174509485,-10.968383848648,0.0216100203475094,0.004827,-0.000663,0.006152,0.198879,0.076195,329.072569,22.819470,0.999122,0.978663,0.005580,0.438539,-0.000002,0.000011,-0.000004,0.000012,-0.000003,-73.934273,0.000013,
2251,3118,-0.2428462376737,10.2873135602508,0.0253223515458671,0.004566,-0.000336,0.002412,0.202525,0.037569,313.360427,25.024310,0.999514,0.991134,0.003814,0.430520,0.000000,0.000017,-0.000011,0.000023,-0.000005,-63.502626,0.000024,
2446,2068,4.20426105827037,-12.6173540243191,0.0331303089330959,0.004858,-0.000539,0.005620,0.201015,0.044467,330.478424,22.107819,0.998983,0.977215,0.005876,0.419271,0.000011,-0.000038,0.000025,0.000021,-0.000048,22.716457,0.000048,
2386,3118,2.68871265305406,10.2981779511855,0.0251625672860882,0.004559,-0.000656,0.008146,0.180444,0.032493,313.245622,25.568787,0.999583,0.991791,0.003588,0.421843,0.000027,0.000037,-0.000002,0.000037,0.000026,-80.012501,0.000064,
2491,2383,5.12110779695492,-5.71040888678463,0.00387180767864947,0.005074,-0.000597,0.008263,0.200547,0.055595,325.248175,23.094210,0.998685,0.979210,0.005636,0.445934,0.000031,0.000026,-0.000010,0.000039,0.000018,-38.327611,0.000059,
2431,2293,3.8289393716237,-7.68232855505134,0.0145024843463943,0.004184,-0.001633,0.010920,0.150709,0.006360,326.610056,22.970420,0.999155,0.979218,0.005530,0.405115,0.000006,0.000036,-0.000007,0.000037,0.000005,-77.738503,0.000046,
2506,2878,5.34506729554794,5.09150818704018,-0.00927332479750476,0.004769,-0.000712,0.003836,0.203913,0.013562,317.126591,25.015407,0.999673,0.992719,0.003507,0.471252,-0.000006,0.000041,-0.000003,0.000041,-0.000006,-85.881400,0.000045,
2296,3178,0.723550592248632,11.5920940930315,0.0340154201912242,0.004577,-0.000278,0.004880,0.194363,0.033148,312.373081,25.338465,0.999675,0.992577,0.003470,0.407444,0.000009,0.000030,-0.000006,0.000031,0.000008,-75.739100,0.000041,
2461,2683,4.40337065743798,0.843184740844549,-0.0231269492088018,0.004915,-0.000620,0.005435,0.204940,0.038892,320.075422,24.276564,0.999503,0.987763,0.004257,0.454844,0.000016,0.000005,-0.000023,0.000034,-0.000013,-37.898058,0.000035,
2446,2128,4.19199231254061,-11.2994108145731,0.0275495956806253,0.004879,-0.000055,0.003062,0.211780,0.053154,329.474205,22.351201,0.999389,0.977328,0.005946,0.405926,0.000015,-0.000013,0.000014,0.000021,-0.000018,22.435760,0.000023,
2356,2278,2.19424780758292,-8.00841320086263,-0.00262021651803934,0.004626,-0.000397,0.004902,0.194624,0.047363,326.680789,23.236427,0.999400,0.988191,0.004473,0.450720,-0.000007,0.000003,-0.000021,0.000020,-0.000024,-51.202960,0.000025,
2386,3298,2.6515038487575,14.2046860641573,-0.011725170549596,0.004844,0.000019,0.005158,0.204756,0.046388,310.005879,26.059492,0.999685,0.992156,0.003614,0.448984,0.000003,0.000018,-0.000007,0.000021,0.000000,-67.365452,0.000024,
2446,3283,3.95821290390721,13.8847946015243,-0.00152176601579868,0.004689,-0.000164,0.004718,0.198279,0.032203,310.402842,26.361358,0.999722,0.992350,0.003430,0.428958,0.000040,0.000020,0.000003,0.000041,0.000019,8.332327,0.000061,
2476,2488,4.7714491001303,-3.41414509332402,-0.00873944193261877,0.004851,-0.000122,0.001725,0.215797,0.058124,323.413764,23.491693,0.999549,0.986803,0.004379,0.507226,0.000018,-0.000040,0.000001,0.000018,-0.000040,0.554099,0.000040,
2446,2623,4.08933334200342,-0.467032724332,-0.00510650584158157,0.004611,-0.000768,0.009702,0.175206,0.058119,321.142530,24.103737,0.999465,0.988156,0.004215,0.439957,0.000023,0.000009,-0.000004,0.000024,0.000008,-16.159686,0.000033,
2326,2818,1.438480781771,3.77666189978206,-0.0118569377796121,0.004529,-0.000468,0.006325,0.186347,0.042145,317.837224,24.628565,0.999546,0.991083,0.003792,0.456178,-0.000008,0.000020,-0.000004,0.000020,-0.000009,-82.290024,0.000020,
2326,3013,1.40398425495,8.01442406879282,0.00968361684414276,0.004781,-0.000752,0.006454,0.197639,0.029424,314.847478,25.075474,0.999452,0.988628,0.004000,0.437490,-0.000002,0.000013,-0.000008,0.000017,-0.000006,-66.770881,0.000017,
2401,2143,3.20541693860553,-10.9702768722103,0.0294088220841218,0.004860,-0.000435,0.006197,0.199827,0.063947,329.164636,22.613585,0.999140,0.978195,0.005542,0.463306,-0.000011,0.000003,-0.000006,0.000005,-0.000013,-70.498134,0.000013,
2341,2023,1.91726785846238,-13.6030280990495,0.0343209457267335,0.004613,-0.000532,0.007001,0.186534,0.056147,331.091297,22.647383,0.998699,0.976349,0.006204,0.439660,0.000022,0.000050,0.000033,0.000072,0.000000,56.421359,0.000084,
2311,3253,1.0342878714123,13.2205419681028,0.0205728461655212,0.004606,-0.000145,0.004937,0.195418,0.033923,311.016660,25.574806,0.999506,0.991521,0.003545,0.395181,0.000006,0.000032,-0.000006,0.000033,0.000004,-76.837416,0.000041,
2491,2803,5.03236788605438,3.45963525962669,-0.0207220995927742,0.004778,-0.000800,0.009060,0.184392,0.050054,318.191984,24.754647,0.999293,0.986543,0.004549,0.451000,0.000001,-0.000007,-0.000028,0.000026,-0.000031,-41.016513,0.000033,
2416,2503,3.4589314575382,-3.08749489184483,-0.0130373173245744,0.005008,-0.001081,0.008753,0.197288,0.020654,322.999995,23.691614,0.999521,0.989836,0.004107,0.452650,0.000016,-0.000021,0.000006,0.000017,-0.000022,9.051702,0.000023,
2461,2233,4.49658699820572,-8.99513338831069,0.0124149001813976,0.004323,-0.000445,0.006221,0.174326,0.062276,327.645515,22.684771,0.999141,0.981068,0.005427,0.395348,0.000035,0.000009,-0.000008,0.000037,0.000007,-15.587205,0.000047,
2461,2458,4.45123624004394,-4.0709500563378,0.0070067526744424,0.004793,-0.000208,0.004706,0.201946,0.056909,323.982993,23.477781,0.999388,0.985580,0.004720,0.441604,0.000029,-0.000028,0.000000,0.000029,-0.000028,0.455510,0.000033,
2431,2158,3.85845992090494,-10.6426868311364,0.0326723356794218,0.004839,-0.000496,0.003870,0.206961,0.029767,329.000448,22.477652,0.999313,0.977806,0.005727,0.448425,-0.000011,-0.000011,-0.000004,-0.000007,-0.000015,-42.890264,0.000022,
2371,3208,2.34662459972872,12.2486114928789,0.0312294010693108,0.004983,-0.000545,0.005208,0.210820,0.017203,311.844807,25.693294,0.999404,0.992150,0.003667,0.461259,0.000024,0.000031,-0.000004,0.000032,0.000022,-68.327241,0.000055,
2506,2653,5.39015815234859,0.190623956710212,-0.0183971536776539,0.004502,-0.000957,0.008592,0.172988,0.055581,320.689522,24.161502,0.999577,0.987542,0.004473,0.449666,0.000009,0.000017,-0.000014,0.000028,-0.000001,-53.538229,0.000031,
2476,2278,4.8158445800097,-8.00946606260232,0.0138774495199527,0.004953,-0.000592,0.006981,0.200020,0.059812,326.991864,22.790573,0.999441,0.979899,0.005250,0.392403,0.000038,0.000039,-0.000010,0.000048,0.000029,-45.795570,0.000078,
2356,2098,2.22966816489315,-11.9547190021165,0.0221843946849276,0.004601,-0.000895,0.011011,0.171609,0.058068,329.769005,22.844010,0.999387,0.980405,0.005314,0.354591,0.000000,0.000018,0.000006,0.000020,-0.000002,73.124338,0.000022,
2431,2308,3.82715649551473,-7.35247279995703,0.0149740042648432,0.004861,-0.000384,0.004940,0.204306,0.050028,326.423962,23.115820,0.999230,0.982236,0.005082,0.355307,0.000007,0.000024,-0.000004,0.000025,0.000006,-77.583116,0.000033,
2401,2443,3.14511561200607,-4.40007434993149,0.00884817739125765,0.004810,-0.000608,0.008604,0.189196,0.063069,324.129911,23.565303,0.999322,0.986370,0.004749,0.464558,0.000011,-0.000028,0.000009,0.000013,-0.000030,12.271909,0.000030,
2386,3133,2.68664306224651,10.6237058704701,0.0318169682028611,0.004833,-0.000335,0.007706,0.194783,0.050845,313.069847,25.627333,0.999700,0.992507,0.003507,0.424011,0.000030,0.000040,-0.000004,0.000041,0.000029,-73.161441,0.000071,
2326,2833,1.43514177913076,4.10516224199837,-0.0251256222719576,0.004826,-0.000354,0.004101,0.207750,0.037665,317.502339,24.761137,0.999832,0.992813,0.003557,0.353478,-0.000008,0.000031,-0.000002,0.000031,-0.000008,-87.562731,0.000033,
2311,3268,1.03142295011058,13.5461852775632,0.0114846339240557,0.004870,0.000145,0.000410,0.223236,0.039717,310.721874,25.599285,0.999568,0.992749,0.003296,0.407399,0.000001,0.000031,-0.000008,0.000033,-0.000001,-76.677198,0.000037,
2461,2473,4.44756249233251,-3.7425565900698,-0.000475279416832564,0.004849,-0.000493,0.005655,0.200858,0.052125,323.675811,23.520505,0.999528,0.986862,0.004490,0.449858,0.000020,-0.000034,0.000001,0.000020,-0.000034,0.604422,0.000034,
2416,2053,3.55099310878827,-12.9458524258206,0.0341839798460342,0.004462,-0.000779,0.004682,0.186647,0.021243,330.662161,22.299035,0.998763,0.973897,0.006200,0.345068,-0.000016,-0.000025,0.000022,0.000002,-0.000043,39.423271,0.000048,
2416,2518,3.45629713971805,-2.76075700763356,-0.00988959724855931,0.004739,-0.000809,0.004698,0.199868,0.010954,322.785815,23.700316,0.999369,0.987312,0.004476,0.482904,0.000012,-0.000019,0.000006,0.000013,-0.000020,9.764899,0.000020,
2446,2338,4.14856444711851,-6.69680013846946,0.0182359717455256,0.004829,-0.001108,0.009228,0.186432,0.036339,325.975546,23.114163,0.999289,0.979646,0.005273,0.391367,0.000014,0.000020,-0.000008,0.000026,0.000009,-54.509872,0.000036,
2401,1993,3.23559412832683,-14.2643800712382,0.0441257159246788,0.004541,-0.000474,0.004771,0.190171,0.046432,331.695119,22.198896,0.998593,0.968418,0.006749,0.371451,-0.000022,-0.000007,0.000022,0.000009,-0.000037,54.732390,0.000039,
2431,2173,3.85517787706607,-10.3128049283177,0.0309397519052936,0.004938,-0.000922,0.006976,0.199921,0.028873,328.736286,22.598604,0.999333,0.981640,0.005163,0.379503,-0.000010,-0.000011,-0.000005,-0.000005,-0.000016,-40.522008,0.000022,
2371,2998,2.38512253741679,7.69216956221925,0.0109963354093452,0.004726,-0.000340,0.004405,0.201720,0.036762,315.104117,25.213390,0.999545,0.990716,0.003874,0.400235,0.000008,0.000024,-0.000008,0.000027,0.000004,-67.061496,0.000034,
2506,2668,5.38793881664347,0.516642441738981,-0.0140263310422029,0.004917,-0.000743,0.007495,0.196331,0.040126,320.505776,24.166271,0.999449,0.985859,0.004688,0.490881,0.000012,-0.000006,-0.000018,0.000023,-0.000017,-31.806397,0.000024,
2371,2308,2.51734561450857,-7.35368821225461,0.014979339158856,0.004928,-0.000743,0.007556,0.198769,0.062188,326.352889,23.243184,0.999854,0.995476,0.003068,0.480123,0.000003,0.000013,0.000002,0.000013,0.000003,80.796130,0.000017,
2476,2293,4.81241646365192,-7.68269736280897,0.0160972916112883,0.004562,-0.000654,0.009073,0.174200,0.061841,326.742542,22.708428,0.999484,0.981196,0.005160,0.535408,0.000033,0.000040,-0.000009,0.000046,0.000028,-56.017571,0.000075,
2461,2248,4.49466981966341,-8.66755444771984,0.016016397177907,0.004886,-0.000398,0.003169,0.211574,0.049186,327.470823,22.690690,0.999022,0.978314,0.005504,0.432945,0.000034,0.000026,-0.000005,0.000037,0.000024,-24.245110,0.000061,
2431,2563,3.77565312905384,-1.77761875552449,0.00256263839486337,0.005267,-0.000607,0.008767,0.209058,0.061140,322.189832,23.908056,0.999527,0.988627,0.004172,0.449051,0.000013,0.000004,0.000000,0.000013,0.000004,-3.134496,0.000018,
2401,3178,3.00375711454521,11.6008453918375,0.0306251900313441,0.004732,-0.000496,0.006317,0.194826,0.027960,312.334185,25.772156,0.999566,0.992344,0.003524,0.451744,0.000028,0.000041,-0.000004,0.000042,0.000027,-72.774734,0.000070,
2446,2143,4.18799623866682,-10.9693586357341,0.0170096529668626,0.004848,-0.000405,0.004144,0.206209,0.045808,329.138420,22.389089,0.999138,0.977079,0.006015,0.416461,0.000014,-0.000007,0.000005,0.000015,-0.000009,12.503822,0.000015,
2401,2158,3.20269387234543,-10.6412456886899,0.0283585816818572,0.005160,-0.000720,0.006402,0.212756,0.031353,328.926907,22.690172,0.999281,0.978437,0.005423,0.402122,-0.000013,-0.000007,-0.000011,0.000001,-0.000022,-53.050780,0.000024,
2431,2323,3.82386761438034,-7.02513307522601,0.013178436104397,0.004798,-0.000561,0.006324,0.196281,0.059220,326.158689,23.048340,0.999264,0.981245,0.005093,0.484157,0.000004,0.000018,-0.000004,0.000019,0.000003,-75.208168,0.000024,
2296,3193,0.720964373373583,11.9174633684013,0.0332845266424897,0.004771,-0.000332,0.004413,0.204932,0.032216,312.131723,25.370106,0.999678,0.992393,0.003472,0.403796,0.000011,0.000028,-0.000005,0.000029,0.000009,-74.523718,0.000040,
2446,3298,3.95510247970931,14.2094332617616,-0.00569885191407593,0.004819,-0.000144,0.003564,0.208546,0.022057,310.131757,26.347475,0.999777,0.993037,0.003296,0.483580,0.000048,0.000010,-0.000005,0.000049,0.000009,-7.213965,0.000063,
2491,2818,5.02949861139512,3.78569347766376,-0.0161710645342623,0.004665,-0.000694,0.009860,0.176222,0.054109,317.977262,24.787115,0.999273,0.987664,0.004542,0.481338,0.000008,-0.000011,-0.000025,0.000025,-0.000028,-34.920679,0.000031,
2491,2398,5.11738512906732,-5.38210803017242,0.00316737553038138,0.004527,-0.000971,0.008551,0.174266,0.035261,324.972674,23.182004,0.999405,0.987058,0.004609,0.398406,0.000037,0.000028,-0.000009,0.000042,0.000023,-31.465127,0.000066,
2371,2158,2.54684001401165,-10.6396336906414,0.0247981856999786,0.004894,-0.000648,0.005825,0.203177,0.046218,328.861605,22.913260,0.999487,0.981279,0.005345,0.358335,-0.000007,-0.000002,-0.000012,0.000008,-0.000017,-51.820134,0.000017,
2341,3163,1.70371504979504,11.2707230856372,0.0345149468909085,0.004803,-0.000041,0.004903,0.204245,0.060257,312.601758,25.500100,0.999578,0.992820,0.003653,0.444679,0.000017,0.000035,-0.000001,0.000035,0.000017,-85.827153,0.000053,
2386,2143,2.87636311694526,-10.9683572226448,0.0164658023738866,0.004550,-0.000578,0.006081,0.186266,0.053162,329.027786,22.725170,0.998909,0.973943,0.005947,0.425761,-0.000004,0.000007,-0.000007,0.000011,-0.000007,-63.257750,0.000011,
2416,2308,3.50006423522672,-7.35364896201148,0.0156761851012561,0.005064,-0.000279,0.003361,0.219574,0.049500,326.422609,23.078386,0.999258,0.984140,0.004843,0.452108,0.000008,0.000022,0.000003,0.000023,0.000007,77.657523,0.000031,
2416,2068,3.54754308185894,-12.616672023823,0.0330238871438837,0.004351,-0.001122,0.008386,0.167961,0.046910,330.392034,22.296864,0.998758,0.976058,0.006196,0.424215,-0.000015,-0.000024,0.000021,0.000002,-0.000041,38.509013,0.000046,
2326,3028,1.40141224483454,8.34037916598109,0.012892706505454,0.004734,-0.000370,0.006004,0.197174,0.041470,314.628525,25.132371,0.999601,0.991348,0.003680,0.426430,0.000002,0.000011,-0.000009,0.000017,-0.000004,-59.010938,0.000018,
2401,2008,3.23215945026761,-13.933568561642,0.0363186986331243,0.004653,-0.000369,0.004755,0.195411,0.043339,331.393506,22.275294,0.998461,0.967538,0.006768,0.341440,-0.000019,-0.000013,0.000020,0.000005,-0.000036,49.549500,0.000040,
2356,2293,2.19185880405879,-7.67901572720238,0.000689997664551356,0.005038,-0.000647,0.007629,0.203889,0.065781,326.474505,23.389064,0.999598,0.992876,0.003992,0.357350,-0.000007,0.000007,-0.000014,0.000016,-0.000016,-57.605167,0.000018,
2356,3148,2.03190627131091,10.9465868212049,0.0302562632203376,0.004698,-0.000356,0.005286,0.197654,0.028948,312.803916,25.539634,0.999537,0.991310,0.003795,0.402673,0.000022,0.000028,-0.000006,0.000032,0.000018,-57.483278,0.000050,
2416,3223,3.32117207965327,12.5781187048673,0.0341045332760928,0.004546,-0.000567,0.003515,0.196300,0.015630,311.642412,25.981301,0.999405,0.989909,0.003940,0.438414,0.000029,0.000030,-0.000006,0.000036,0.000023,-46.999144,0.000060,
2446,2158,4.18536370792808,-10.6410667581185,0.024963009698638,0.004940,-0.000730,0.008641,0.193606,0.046982,328.950018,22.461960,0.999247,0.978025,0.005675,0.399460,0.000008,-0.000016,-0.000006,0.000010,-0.000017,-12.929855,0.000017,
2461,1993,4.54778373874616,-14.2641795888265,0.0324685474681701,0.004898,-0.000060,0.002171,0.215624,0.052312,331.728803,21.814303,0.998904,0.966961,0.006608,0.335205,0.000039,-0.000071,0.000071,0.000073,-0.000106,26.143329,0.000108,
2461,2698,4.40101672393835,1.17019282650392,-0.017053424612925,0.005114,-0.000556,0.005750,0.212927,0.045635,319.889790,24.372543,0.999654,0.988207,0.004311,0.420206,0.000014,0.000011,-0.000023,0.000036,-0.000011,-42.937220,0.000037,
2326,2848,1.43273906739457,4.42939531909818,-0.0167013011449626,0.004635,-0.000408,0.004913,0.196117,0.034937,317.317680,24.667975,0.999752,0.991883,0.003687,0.478081,-0.000008,0.000036,-0.000001,0.000036,-0.000008,-88.355493,0.000037,
2431,2578,3.77224518401371,-1.44934250946491,-0.00139494921370442,0.005171,-0.000745,0.008905,0.204142,0.065318,321.907668,23.999389,0.999756,0.993149,0.003589,0.412812,0.000021,0.000023,0.000004,0.000026,0.000018,55.359190,0.000044,
2401,3193,3.00119790655411,11.926628565718,0.0324614136061427,0.004838,-0.000269,0.004862,0.205160,0.044466,312.113582,25.841356,0.999554,0.991686,0.003557,0.443372,0.000026,0.000037,-0.000004,0.000038,0.000025,-71.721431,0.000064,
2431,2338,3.82042578764144,-6.69566912915137,0.0088372011164779,0.004733,-0.000528,0.006816,0.191492,0.055340,325.874313,23.168592,0.999212,0.981890,0.004909,0.412119,0.000005,0.000019,-0.000004,0.000020,0.000003,-75.218442,0.000025,
2491,2413,5.11438644258439,-5.0547769999929,-0.00537848241179972,0.004808,-0.000595,0.002410,0.210796,0.034089,324.695173,23.092149,0.999443,0.987964,0.004485,0.547883,0.000029,0.000019,0.000010,0.000036,0.000013,31.876571,0.000050,
2371,2173,2.54358425018509,-10.312660476233,0.0228323334400216,0.004620,-0.000820,0.005597,0.191375,0.023210,328.592584,22.788139,0.999322,0.981730,0.005285,0.504714,-0.000008,-0.000006,-0.000014,0.000007,-0.000021,-47.362383,0.000021,
2221,2503,-0.789462372630258,-3.091549905401,-0.00793767978569804,0.004621,-0.000581,0.009067,0.183124,0.044650,323.135040,24.120274,0.999355,0.987051,0.004440,0.448982,0.000019,0.000012,-0.000004,0.000021,0.000010,-22.034856,0.000032,
2416,3238,3.31772586708572,12.9044282771224,0.0247552546760517,0.004817,-0.000282,0.003734,0.208191,0.044093,311.328989,26.034973,0.999386,0.990840,0.003794,0.459443,0.000027,0.000031,-0.000006,0.000036,0.000022,-54.620528,0.000059,
2461,2008,4.54470353738601,-13.9353224935236,0.036995660638695,0.004860,-0.000705,0.006727,0.196594,0.044928,331.506037,21.858498,0.999089,0.971735,0.006189,0.341579,0.000035,-0.000068,0.000065,0.000066,-0.000100,25.825363,0.000102,
2416,2083,3.54513988774761,-12.2872306594911,0.0394737299262715,0.004876,-0.001641,0.014459,0.169646,0.045955,330.205343,22.434490,0.998344,0.976991,0.006337,0.336229,-0.000013,-0.000007,0.000023,0.000013,-0.000033,48.487414,0.000033,
2386,2158,2.87370018469161,-10.6394050232335,0.0196487404511458,0.004633,-0.000951,0.007344,0.185413,0.034907,328.811420,22.826203,0.999276,0.979043,0.005480,0.352580,-0.000008,-0.000004,-0.000014,0.000008,-0.000019,-48.805693,0.000020,
2326,3043,1.39900641007012,8.66566691484624,0.0178087097015123,0.004776,-0.000422,0.006230,0.198300,0.042923,314.425755,25.153187,0.999654,0.992148,0.003593,0.440467,0.000002,0.000010,-0.000008,0.000015,-0.000003,-59.445691,0.000016,
2401,2023,3.22867125108461,-13.6044546923633,0.0338967149584164,0.004655,-0.001105,0.009525,0.178074,0.023660,331.114822,22.281074,0.998657,0.971009,0.006470,0.365205,-0.000019,-0.000017,0.000022,0.000004,-0.000039,46.600023,0.000043,
2416,2323,3.49684488285306,-7.02497473348778,0.0162371678871409,0.004887,-0.000416,0.005051,0.205317,0.069913,326.169985,23.144965,0.999168,0.981705,0.005131,0.455988,0.000005,0.000016,0.000002,0.000016,0.000004,77.708867,0.000022,
2371,3223,2.3432899374702,12.5742996477783,0.0317526035556739,0.004635,-0.000679,0.007090,0.188032,0.011812,311.580129,25.775125,0.999546,0.992728,0.003422,0.413567,0.000021,0.000033,-0.000002,0.000033,0.000021,-82.216033,0.000054,
2446,2173,4.18291237001518,-10.312151306767,0.0290934061728763,0.005035,-0.000965,0.007051,0.203773,0.041187,328.752296,22.562338,0.999526,0.982733,0.005018,0.348056,0.000008,-0.000012,-0.000007,0.000010,-0.000014,-17.072931,0.000015,
2386,3148,2.68426406802217,10.9484540589418,0.0369649965452368,0.004831,-0.000416,0.006210,0.200007,0.029909,312.872869,25.647078,0.999640,0.991983,0.003543,0.425308,0.000029,0.000032,-0.000003,0.000034,0.000027,-60.466640,0.000061,
2431,2188,3.85272785542053,-9.98374660856467,0.0371722924689379,0.004874,-0.000640,0.005832,0.201302,0.051353,328.546985,22.710410,0.999639,0.986958,0.004528,0.342646,-0.000006,-0.000004,-0.000002,-0.000003,-0.000008,-57.222717,0.000011,
2401,2173,3.19868207941825,-10.3121454169558,0.0249847208602887,0.004536,-0.001125,0.008881,0.175119,0.016763,328.619053,22.736143,0.999183,0.980795,0.005286,0.390215,-0.000011,-0.000010,-0.000010,-0.000001,-0.000020,-46.205929,0.000024,
2341,2143,1.89267995979958,-10.9665376834754,0.00890937164854222,0.004614,-0.000764,0.009764,0.177057,0.069765,328.936575,22.987349,0.999258,0.983834,0.005082,0.433405,0.000000,0.000015,-0.000005,0.000017,-0.000001,-73.796385,0.000019,
2326,2863,1.43010616206013,4.75526262371879,-0.0112472717498235,0.004502,-0.000701,0.006451,0.184568,0.019105,317.107455,24.719324,0.999697,0.991389,0.003787,0.444997,-0.000011,0.000036,-0.000006,0.000037,-0.000012,-83.415823,0.000037,
2491,2833,5.02672120890005,4.11217841350548,-0.0200970929952859,0.004857,-0.000586,0.004679,0.204944,0.043504,317.728414,24.813173,0.999271,0.988098,0.004371,0.503419,0.000008,0.000004,-0.000016,0.000022,-0.000010,-41.645750,0.000022,
2431,2353,3.81724865386062,-6.36756240879331,0.00447979676965815,0.004664,-0.000756,0.004080,0.198353,0.029818,325.602196,23.191754,0.999113,0.981489,0.005135,0.415058,0.000010,0.000009,-0.000002,0.000012,0.000007,-37.119652,0.000019,
2416,2533,3.45297602158033,-2.43216216530804,-0.00889304260863355,0.004519,-0.000870,0.007514,0.179507,0.022234,322.529576,23.843587,0.999314,0.987448,0.004554,0.399514,0.000007,-0.000006,0.000004,0.000009,-0.000008,16.871955,0.000009,
2356,2308,2.18956934626997,-7.35332779283073,0.0109040893855195,0.004879,-0.000863,0.008893,0.192073,0.051971,326.306566,23.308306,0.999447,0.990592,0.004008,0.464702,-0.000007,0.000002,-0.000004,0.000004,-0.000009,-66.840876,0.000009,
2461,2713,4.39790701074762,1.49746823589074,-0.0194644115157416,0.005265,-0.000184,0.006203,0.218368,0.072640,319.630432,24.407835,0.999643,0.990349,0.003963,0.466677,0.000011,0.000013,-0.000022,0.000034,-0.000011,-46.778520,0.000035,
2401,3208,2.99849624143405,12.2512896847134,0.0370145371950343,0.004740,-0.000475,0.005368,0.198656,0.022597,311.899591,25.864699,0.999507,0.991319,0.003730,0.442157,0.000024,0.000029,-0.000007,0.000034,0.000019,-55.407367,0.000054,
2491,2563,5.08244087744042,-1.77484843627287,-0.0136068422340259,0.004802,-0.000373,0.006982,0.193319,0.058172,322.171194,23.781495,0.999550,0.988648,0.004376,0.483653,0.000018,-0.000002,0.000004,0.000019,-0.000003,9.649622,0.000020,
2416,2338,3.49329708690049,-6.69536536840016,0.00836752828456611,0.004611,0.000180,0.001146,0.207171,0.072686,325.862850,23.236756,0.999033,0.981409,0.005083,0.416852,0.000006,0.000017,0.000002,0.000017,0.000006,81.232849,0.000024,
2341,3178,1.7007342073717,11.5961064017934,0.0315115889542312,0.004893,-0.000141,0.005047,0.207852,0.052380,312.334433,25.523293,0.999614,0.993789,0.003647,0.449013,0.000018,0.000038,-0.000001,0.000038,0.000018,-87.340454,0.000057,
2431,2593,3.76945287016831,-1.12360312107802,-0.000527513703900695,0.004897,-0.000117,0.004312,0.208767,0.055814,321.676615,23.918639,0.999577,0.990797,0.003973,0.534691,0.000023,0.000017,0.000007,0.000027,0.000012,33.331608,0.000040,
2431,2203,3.84904041968816,-9.65567820846415,0.0283671954313718,0.004758,-0.000577,0.004497,0.200984,0.013434,328.231747,22.639197,0.999482,0.984710,0.004899,0.428794,-0.000002,0.000006,-0.000003,0.000007,-0.000003,-70.799741,0.000007,
2386,2173,2.87031535280738,-10.3110966559376,0.0139105595071101,0.004446,-0.000698,0.005623,0.183130,0.029493,328.519747,22.765928,0.999426,0.982513,0.005204,0.453585,-0.000007,-0.000008,-0.000014,0.000006,-0.000021,-43.923986,0.000022,
2401,2188,3.19633327795804,-9.98263325417562,0.0264131432883232,0.004803,-0.000447,0.006431,0.196450,0.057348,328.409562,22.820729,0.999172,0.983168,0.005137,0.394266,-0.000009,-0.000003,-0.000008,0.000002,-0.000014,-54.342872,0.000015,
2476,2203,4.83229788430153,-9.6545662898103,0.0231490191215471,0.005303,-0.000947,0.006977,0.215814,0.043026,328.299077,22.465274,0.998360,0.968648,0.006602,0.405294,0.000045,-0.000002,-0.000011,0.000047,-0.000004,-12.788572,0.000052,
2341,2158,1.89029132494614,-10.6394825472233,0.0101831700499702,0.004686,-0.000395,0.006762,0.190926,0.069427,328.720148,22.876860,0.999391,0.985061,0.004929,0.583121,-0.000008,0.000000,-0.000013,0.000010,-0.000018,-52.918859,0.000018,
2491,2848,5.02399701232195,4.43977895350339,-0.0160911464715809,0.004871,-0.000337,0.004616,0.205951,0.044397,317.517389,24.994712,0.999454,0.991442,0.003843,0.381345,0.000001,0.000020,-0.000017,0.000030,-0.000010,-59.353934,0.000031,
2461,2728,4.39511683082599,1.82417443696171,-0.0146715665715078,0.005192,-0.000507,0.007230,0.210990,0.045740,319.418876,24.507488,0.999597,0.991932,0.003645,0.394433,0.000009,0.000006,-0.000014,0.000022,-0.000007,-42.091010,0.000023,
2386,3163,2.68102086338534,11.2742085413158,0.0306908566118977,0.004801,-0.000346,0.003891,0.207015,0.033945,312.581281,25.669354,0.999459,0.990584,0.003849,0.449348,0.000026,0.000035,-0.000002,0.000035,0.000026,-80.029944,0.000061,
2416,2548,3.45001370235802,-2.10497133885771,-0.012674894115662,0.004897,-0.001261,0.008644,0.192586,0.007831,322.267765,23.845929,0.999366,0.987264,0.004481,0.431697,0.000009,-0.000005,0.000005,0.000011,-0.000007,18.614585,0.000011,
2401,3223,2.99510890335759,12.5769840125285,0.0307222800419709,0.004609,-0.000417,0.003225,0.200377,0.011468,311.602276,25.913795,0.999487,0.991568,0.003631,0.426057,0.000021,0.000029,-0.000005,0.000031,0.000019,-65.727170,0.000051,
2356,3163,2.02949732943572,11.27140183859,0.0373050387597118,0.004786,-0.000333,0.007718,0.193189,0.044187,312.612904,25.544083,0.999512,0.991367,0.003892,0.451342,0.000022,0.000033,-0.000005,0.000034,0.000020,-69.628819,0.000055,
2431,2608,3.76549715949658,-0.794471418116935,-0.0179328357219219,0.005196,-0.000313,0.002607,0.228717,0.040575,321.306634,24.002540,0.999345,0.987154,0.004478,0.486804,0.000021,0.000015,0.000004,0.000023,0.000013,26.339673,0.000036,
2416,2353,3.49002434863191,-6.3674846444985,0.00750620385338152,0.004556,-0.000241,0.003649,0.195371,0.065947,325.601216,23.254583,0.998713,0.980747,0.005241,0.441804,0.000013,0.000006,0.000004,0.000014,0.000004,23.903214,0.000020,
2401,2203,3.19363854809388,-9.65525758585063,0.0283700583484006,0.005060,-0.001129,0.008863,0.199185,0.026757,328.187219,22.791960,0.999106,0.981332,0.005388,0.440569,-0.000009,0.000006,-0.000010,0.000011,-0.000014,-63.065255,0.000015,
2431,2218,3.84673138147534,-9.32691973956518,0.0298851069553621,0.005118,-0.000140,0.002215,0.226068,0.056182,328.026915,22.664110,0.999492,0.985125,0.004871,0.499020,0.000001,0.000014,-0.000002,0.000014,0.000001,-81.527527,0.000017,
2461,2743,4.39099585539157,2.15083224684901,-0.0230934434679853,0.004864,-0.000884,0.008135,0.192390,0.026033,319.085586,24.494195,0.999634,0.991025,0.003759,0.442958,0.000012,0.000011,-0.000014,0.000026,-0.000002,-43.968196,0.000029,
2491,2863,5.02122056181976,4.76549888564009,-0.0173986950928224,0.005113,-0.000368,0.002699,0.224418,0.031665,317.280397,24.981190,0.999538,0.990900,0.003824,0.440806,0.000001,0.000034,-0.000014,0.000039,-0.000004,-69.303922,0.000043,
2191,2548,-1.44997487410037,-2.11054571029754,-0.0089641729516643,0.004610,-0.000401,0.006771,0.190618,0.059320,322.487389,24.202674,0.999469,0.989508,0.004172,0.488887,0.000021,0.000034,0.000003,0.000035,0.000020,77.890716,0.000056,
2341,2173,1.8871287974308,-10.3099180620922,0.0144761617974041,0.004291,-0.000684,0.010443,0.159975,0.074792,328.482490,23.027091,0.999187,0.982602,0.005165,0.477428,-0.000009,-0.000008,-0.000014,0.000006,-0.000023,-45.596626,0.000024,
2386,2353,2.83534777709837,-6.36914142072322,0.0067250442052682,0.004790,-0.000964,0.006128,0.197221,0.040293,325.564763,23.245260,0.998717,0.981907,0.005299,0.532158,0.000006,-0.000006,0.000003,0.000007,-0.000007,14.448947,0.000008,
2476,2218,4.8288966279071,-9.32458174374309,0.0195042621099333,0.005121,-0.000570,0.005090,0.214780,0.055098,328.024506,22.580161,0.999051,0.978998,0.005779,0.361844,0.000042,0.000008,-0.000007,0.000043,0.000007,-10.577417,0.000054,
2476,2728,4.72153968629111,1.82505422682141,-0.017931203077012,0.004874,-0.000263,0.005085,0.204347,0.049504,319.419632,24.499533,0.999565,0.990867,0.003754,0.408520,0.000000,0.000005,-0.000012,0.000014,-0.000009,-51.456397,0.000014,
2446,2188,4.17946053944197,-9.98261853019162,0.0263938243029997,0.004649,-0.000049,0.005092,0.193784,0.079727,328.477014,22.607676,0.999593,0.985327,0.004790,0.396401,0.000012,-0.000006,-0.000004,0.000012,-0.000007,-11.497662,0.000012,
2431,2368,3.81449546246359,-6.03977416297521,0.0100623851835735,0.004521,-0.000622,0.005161,0.187894,0.036924,325.395390,23.255333,0.999176,0.982403,0.005012,0.410495,0.000009,0.000011,0.000004,0.000013,0.000006,51.815862,0.000020,
2386,2188,2.86808093866359,-9.98134374392345,0.0187356584941085,0.004900,-0.000683,0.007735,0.196392,0.067445,328.330299,22.911561,0.999093,0.981412,0.005324,0.391813,-0.000006,-0.000002,-0.000012,0.000008,-0.000016,-49.185183,0.000016,
2371,2323,2.51395220935129,-7.0254492984137,0.0121975888383759,0.004589,-0.000694,0.007237,0.184384,0.039250,326.072905,23.279660,0.999580,0.991509,0.003896,0.463847,0.000002,0.000004,0.000002,0.000006,0.000001,58.688107,0.000007,
2401,3238,2.99204250838428,12.902879462392,0.024829176533558,0.004929,-0.000325,0.003132,0.215577,0.020998,311.321486,25.967700,0.999478,0.992197,0.003475,0.425785,0.000018,0.000029,-0.000005,0.000031,0.000016,-69.290118,0.000048,
2416,2368,3.48767765061541,-6.04019322354077,0.00943996326856222,0.004893,-0.000225,0.002346,0.215581,0.053193,325.395152,23.256630,0.999107,0.982670,0.004975,0.476496,0.000010,0.000008,0.000009,0.000018,0.000000,42.061287,0.000020,
2491,2428,5.11169960060264,-4.72589513986515,-0.0040352998888693,0.005237,-0.000500,0.004012,0.224388,0.062789,324.476002,23.214021,0.999363,0.986754,0.004641,0.514992,0.000030,0.000005,0.000018,0.000039,-0.000004,27.404370,0.000043,
2491,2878,5.0186388149885,5.09036282703102,-0.011660597571904,0.004958,-0.000410,0.000811,0.224435,0.004574,317.084285,24.959445,0.999469,0.992373,0.003628,0.493924,0.000006,0.000044,-0.000010,0.000046,0.000004,-75.406930,0.000056,
2401,2038,3.22562855372619,-13.2747884398003,0.0301553231788603,0.004489,-0.000401,0.005271,0.186098,0.041129,330.850033,22.291030,0.998651,0.971921,0.006367,0.421822,-0.000021,-0.000028,0.000010,-0.000014,-0.000035,35.287371,0.000050,
2356,3178,2.02698033828144,11.5970060008377,0.0368478278917337,0.005083,-0.000167,0.006729,0.210438,0.050961,312.380324,25.588073,0.999538,0.992054,0.003724,0.451669,0.000023,0.000036,-0.000003,0.000037,0.000022,-76.536402,0.000060,
2446,2203,4.17550835209812,-9.65393562161523,0.0212696466839475,0.004224,-0.000227,0.006358,0.169564,0.069365,328.167900,22.604606,0.999554,0.984614,0.004914,0.444242,0.000015,0.000005,-0.000006,0.000018,0.000002,-25.853495,0.000021,
2386,2368,2.83160193835402,-6.03955757497275,0.0011161143960976,0.004649,-0.000962,0.009474,0.178809,0.065435,325.255963,23.345968,0.998782,0.982035,0.005230,0.502028,0.000004,-0.000004,0.000007,0.000008,-0.000008,31.206266,0.000009,
2476,2743,4.71816838765109,2.15189989074672,-0.0242787645917133,0.004991,-0.000290,0.004004,0.213865,0.053096,319.131594,24.497001,0.999677,0.991987,0.003651,0.471757,0.000001,0.000012,-0.000010,0.000018,-0.000005,-59.241249,0.000019,
2371,2338,2.51081778770445,-6.6963147493681,0.00677432925579069,0.004573,-0.000419,0.005035,0.191618,0.051896,325.791854,23.341944,0.999051,0.984670,0.004908,0.457431,0.000005,0.000005,0.000000,0.000005,0.000004,78.645816,0.000010,
2431,2383,3.81123342588936,-5.71089198364271,0.00426540948382126,0.004709,-0.000653,0.005158,0.196523,0.043117,325.112323,23.314544,0.999599,0.986039,0.004662,0.409269,0.000014,0.000003,-0.000004,0.000015,0.000001,-19.548793,0.000019,
2416,2383,3.4853662366625,-5.71191985430846,0.0183933285996432,0.004932,-0.000271,0.003773,0.212158,0.037439,325.223257,23.424040,0.999734,0.987168,0.004401,0.342436,0.000013,0.000001,0.000001,0.000013,0.000000,6.372752,0.000015,
2446,2218,4.17270132500103,-9.32444527171177,0.0115012032617301,0.004954,-0.000190,0.003032,0.215369,0.057640,327.889819,22.634096,0.999361,0.983575,0.005112,0.457953,0.000017,0.000013,-0.000005,0.000020,0.000010,-31.595195,0.000031,
2386,2383,2.82925196793166,-5.71093099953217,-0.00129367999795704,0.005036,-0.000427,0.005069,0.212547,0.044765,325.026595,23.441265,0.999017,0.983053,0.005215,0.431109,0.000006,-0.000008,0.000001,0.000006,-0.000008,3.392452,0.000008,
2401,2053,3.22246883956283,-12.9438577250361,0.0271949985303763,0.004859,-0.001291,0.009734,0.186586,0.044115,330.583463,22.445563,0.998962,0.975728,0.006110,0.319595,-0.000019,-0.000021,0.000007,-0.000013,-0.000028,41.506804,0.000042,
2491,2893,5.01452773401875,5.41890287002408,-0.0179390759921034,0.004855,-0.000481,0.005540,0.201665,0.037255,316.762486,25.132703,0.998815,0.986617,0.004456,0.411908,0.000012,0.000048,-0.000012,0.000052,0.000008,-72.964130,0.000065,
2491,2443,5.1084614769683,-4.39806983598277,0.00249093949537382,0.004820,-0.000984,0.007328,0.192403,0.031835,324.255074,23.352191,0.999064,0.982594,0.004994,0.405736,0.000038,-0.000029,0.000010,0.000039,-0.000030,8.239424,0.000041,
2476,2758,4.7158932571608,2.4761937733753,-0.0101616015381865,0.005046,-0.001038,0.009573,0.194959,0.046020,318.987378,24.437514,0.999572,0.989970,0.003931,0.580731,0.000006,0.000013,-0.000011,0.000021,-0.000002,-53.983016,0.000023,
2356,3193,2.02377044516772,11.9229970824971,0.0301160269422098,0.005067,-0.000215,0.004377,0.218025,0.045473,312.085311,25.647200,0.999487,0.991757,0.003710,0.424775,0.000023,0.000034,-0.000002,0.000034,0.000023,-80.071506,0.000057,
2386,2203,2.86508144276083,-9.65178547503184,0.0115533118155895,0.005346,-0.000587,0.007562,0.217506,0.059067,328.049198,22.964684,0.998698,0.978414,0.005672,0.376358,-0.000006,0.000005,-0.000014,0.000014,-0.000015,-56.052090,0.000017,
2446,2233,4.17020754531466,-8.99644900624023,0.0195235633918287,0.004792,-0.000197,0.002815,0.208792,0.046058,327.707848,22.717454,0.998944,0.979108,0.005606,0.417205,0.000020,0.000012,-0.000004,0.000021,0.000011,-22.766075,0.000033,
2371,2353,2.50871056655721,-6.36941057271051,0.0114628007338524,0.004978,-0.000691,0.005275,0.209243,0.045717,325.606475,23.323537,0.998955,0.984524,0.004979,0.512572,0.000008,-0.000009,0.000003,0.000009,-0.000009,9.194146,0.000010,
2431,2398,3.80832539697948,-5.38304697504488,0.00069957474261173,0.005037,-0.000535,0.004853,0.212765,0.052382,324.855897,23.302855,0.999734,0.986834,0.004656,0.481995,0.000017,0.000006,-0.000003,0.000018,0.000006,-12.465289,0.000024,
2416,2398,3.48194636264722,-5.38432735091239,0.00835940471085905,0.005338,-0.000688,0.004738,0.227080,0.038033,324.911896,23.334896,0.999600,0.986436,0.004627,0.482004,0.000016,0.000003,0.000003,0.000016,0.000003,12.525419,0.000021,
2386,2398,2.82677846028792,-5.38435315292308,0.00625330075177999,0.004835,-0.000523,0.004814,0.204220,0.051445,324.838863,23.422404,0.999282,0.984847,0.004904,0.501348,0.000007,-0.000006,0.000002,0.000007,-0.000006,8.638237,0.000008,
2491,2458,5.10496229590754,-4.06982259037355,0.000137524817432677,0.004723,-0.000837,0.008735,0.182676,0.049610,323.981938,23.401774,0.999230,0.984088,0.004768,0.434499,0.000042,-0.000028,0.000009,0.000043,-0.000029,7.192640,0.000044,
2491,2908,5.01189608492551,5.74518357233932,-0.00758921269726898,0.004730,-0.000523,0.009129,0.182136,0.044750,316.584302,25.247882,0.999177,0.986415,0.004471,0.362535,0.000013,0.000029,-0.000005,0.000031,0.000012,-75.005914,0.000044,
2401,2068,3.21844365701869,-12.6145892879453,0.01759139359757,0.004518,-0.001133,0.009838,0.170671,0.052645,330.246122,22.375285,0.999285,0.979298,0.005958,0.447647,-0.000019,-0.000024,0.000008,-0.000013,-0.000030,36.604078,0.000043,
2476,2773,4.71174275943135,2.8055114841989,-0.021770628664342,0.004681,-0.000734,0.006641,0.189486,0.045191,318.638889,24.634942,0.999205,0.986289,0.004412,0.439328,0.000006,0.000001,-0.000017,0.000021,-0.000013,-40.822393,0.000021,
2356,3208,2.02107425477544,12.2477704627757,0.0331152375674719,0.004927,-0.000113,0.003507,0.214652,0.041200,311.861365,25.653896,0.999488,0.992261,0.003596,0.451277,0.000023,0.000030,-0.000003,0.000031,0.000023,-71.186186,0.000054,
2491,2578,5.08024949736453,-1.44820405481759,-0.00583220776451299,0.005167,-0.000902,0.008496,0.204079,0.056270,322.003340,23.833237,0.998775,0.980565,0.005413,0.489679,0.000019,0.000021,0.000007,0.000026,0.000013,48.454756,0.000040,
2416,2563,3.44721661158792,-1.77705729811225,-0.0130408408744529,0.005021,-0.000620,0.007948,0.201112,0.060228,322.029086,23.883250,0.999009,0.983274,0.004817,0.495533,0.000009,0.000006,0.000003,0.000011,0.000004,30.899550,0.000016,
2446,2638,4.08607017823872,-0.138734123255141,-0.0147008868551097,0.004725,-0.000190,0.004677,0.199379,0.061897,320.842052,24.170491,0.999588,0.989348,0.004050,0.430278,0.000016,0.000006,-0.000012,0.000024,-0.000002,-33.185853,0.000027,
2476,2503,4.76870074817818,-3.08678975738596,-0.00493529990404795,0.004983,-0.000229,0.003418,0.215412,0.059673,323.201650,23.547424,0.999596,0.987827,0.004280,0.510829,0.000020,-0.000023,-0.000001,0.000020,-0.000023,-1.326930,0.000025,
2491,2923,5.00751771362204,6.07240692680217,-0.0234638085823349,0.004544,-0.000550,0.006554,0.183530,0.046064,316.207087,25.272035,0.999493,0.986036,0.004316,0.398444,0.000014,0.000024,-0.000009,0.000029,0.000009,-59.913636,0.000040,
2461,2758,4.38770628933595,2.47790045726354,-0.0236973356543331,0.004712,-0.000697,0.008888,0.182698,0.049478,318.826021,24.542842,0.999630,0.989550,0.003943,0.472233,0.000018,0.000015,-0.000014,0.000031,0.000002,-41.830955,0.000037,
2506,2683,5.38397707189143,0.845845086772457,-0.0286571353793761,0.005111,-0.000393,0.005138,0.214469,0.035819,320.156267,24.299878,0.999623,0.989919,0.003962,0.414748,0.000005,-0.000001,-0.000012,0.000014,-0.000010,-36.843863,0.000015,
2401,2218,3.19024334096342,-9.32417474436627,0.0214271937979902,0.004776,-0.000431,0.004142,0.203543,0.053039,327.890237,22.957568,0.999311,0.981601,0.005459,0.349651,-0.000006,0.000013,-0.000009,0.000016,-0.000009,-68.366079,0.000016,
2491,2938,5.00526347142184,6.39862473678852,-0.0144127157277012,0.004772,-0.000389,0.008572,0.186347,0.065172,316.040264,25.368020,0.999523,0.988985,0.003909,0.379882,0.000016,0.000030,-0.000009,0.000034,0.000012,-65.063230,0.000048,
2491,2593,5.07720970186866,-1.12029565418076,-0.00909956697108782,0.005052,-0.000437,0.003346,0.218732,0.046616,321.746541,23.916760,0.999826,0.994148,0.003532,0.456161,0.000021,0.000010,0.000012,0.000029,0.000003,32.243288,0.000035,
2356,3223,2.01762785354274,12.5734984771708,0.0310200980673017,0.004569,-0.000149,0.004416,0.194963,0.040093,311.577846,25.719812,0.999498,0.992118,0.003517,0.421618,0.000021,0.000033,-0.000001,0.000033,0.000021,-85.583875,0.000055,
2476,2518,4.76532741455324,-2.75913567555708,-0.00249387705895288,0.004653,-0.000550,0.005654,0.191647,0.047277,322.954564,23.636629,0.999430,0.983970,0.004631,0.466663,0.000014,-0.000026,-0.000001,0.000015,-0.000026,-0.944875,0.000026,
2446,2653,4.08312461371426,0.188264629519971,-0.0157282077051377,0.004914,-0.000272,0.005306,0.205676,0.044354,320.595848,24.217069,0.999655,0.990426,0.003897,0.418679,0.000014,0.000013,-0.000017,0.000030,-0.000003,-43.733238,0.000033,
2341,2188,1.88490718779694,-9.98027255155651,0.0145341490959936,0.004548,-0.000348,0.006131,0.186881,0.052479,328.267536,23.172258,0.999228,0.985642,0.004883,0.349004,-0.000010,-0.000005,-0.000013,0.000006,-0.000021,-50.438763,0.000021,
2416,2578,3.44414313648642,-1.44895327555668,-0.0140672975584266,0.005064,-0.001188,0.008923,0.199337,0.041673,321.774734,24.007998,0.999396,0.988343,0.004245,0.400670,0.000016,0.000025,0.000007,0.000028,0.000012,62.202738,0.000041,
2506,2698,5.38151655751327,1.17189368851543,-0.0212859756983903,0.004982,-0.000391,0.003442,0.215127,0.021366,319.974644,24.340328,0.999583,0.991030,0.003791,0.421099,0.000002,0.000005,-0.000011,0.000015,-0.000008,-48.524812,0.000015,
2461,2773,4.38438898981714,2.80485573079002,-0.0269389483917735,0.004387,-0.000656,0.005242,0.181587,0.048223,318.553108,24.589704,0.999403,0.987390,0.004294,0.479034,0.000021,0.000006,-0.000018,0.000033,-0.000007,-34.122845,0.000035,
2491,2953,5.00296436390641,6.72358623883896,-0.0098119410288291,0.004970,-0.000619,0.006378,0.203749,0.042394,315.851608,25.361970,0.999421,0.988574,0.004063,0.421493,0.000020,0.000034,-0.000002,0.000034,0.000019,-82.576377,0.000054,
2491,2608,5.07451592207547,-0.793788495837298,-0.00398641030682256,0.005009,-0.000318,0.003392,0.216651,0.060931,321.543446,23.924921,0.999833,0.993904,0.003602,0.521831,0.000026,0.000015,0.000009,0.000031,0.000010,28.667805,0.000043,
2476,2533,4.76205327110803,-2.43066299163031,-0.00800222505250758,0.004809,-0.000355,0.004591,0.202928,0.038678,322.675784,23.730419,0.999625,0.987706,0.004135,0.422099,0.000010,-0.000013,-0.000001,0.000010,-0.000013,-1.986525,0.000013,
2446,2668,4.08045842134975,0.51454352733284,-0.0104970205384234,0.004982,-0.000652,0.007301,0.201262,0.056893,320.391306,24.224291,0.999476,0.988485,0.004207,0.476644,0.000012,0.000001,-0.000022,0.000029,-0.000017,-38.361875,0.000029,
2401,2233,3.18694992574841,-8.99585794720135,0.0191662670537767,0.004664,-0.000719,0.005186,0.194532,0.039347,327.620329,22.964998,0.999306,0.982752,0.005319,0.376595,-0.000004,0.000010,-0.000007,0.000013,-0.000007,-67.571162,0.000013,
2356,3238,2.01482633735706,12.8990115809925,0.0274852837903268,0.004823,0.000145,0.003476,0.210192,0.062359,311.317073,25.738400,0.999572,0.992140,0.003444,0.462837,0.000018,0.000032,-0.000002,0.000032,0.000018,-81.586831,0.000051,
2506,2713,5.37843370230263,1.49932671439019,-0.0173215992192581,0.004792,-0.000421,0.004855,0.200977,0.045525,319.748717,24.445397,0.999605,0.990175,0.003902,0.401580,-0.000007,0.000004,-0.000008,0.000008,-0.000011,-62.798834,0.000011,
2491,2968,5.00057039966789,7.04916498277351,-0.00422872091365889,0.004858,-0.000269,0.002609,0.213233,0.036210,315.662758,25.406541,0.999288,0.986888,0.004428,0.428899,0.000029,0.000036,0.000004,0.000038,0.000027,65.735828,0.000065,
2416,2593,3.44054151159909,-1.12166643101472,-0.0202045869034464,0.004495,-0.000489,0.003918,0.191804,0.032924,321.472289,24.008635,0.999513,0.990589,0.003986,0.440086,0.000017,0.000018,0.000009,0.000026,0.000009,45.513453,0.000036,
2461,2788,4.38250952891454,3.13096712903567,-0.0187725463508741,0.004607,-0.000142,0.002230,0.203222,0.058720,318.398632,24.640475,0.999214,0.985631,0.004522,0.492973,0.000016,0.000009,-0.000026,0.000039,-0.000014,-41.019992,0.000040,
2341,2203,1.88234474440205,-9.65229016000505,0.0143278368300344,0.004770,-0.000443,0.005725,0.198436,0.064555,328.035687,23.133786,0.999068,0.982868,0.005263,0.438894,-0.000013,0.000000,-0.000017,0.000012,-0.000024,-55.577176,0.000024,
2491,2623,5.07083961380824,-0.467066373047082,-0.00638002754317313,0.004895,-0.000788,0.006767,0.198349,0.049449,321.261359,23.918680,0.999840,0.993960,0.003475,0.575972,0.000026,-0.000002,0.000000,0.000026,-0.000002,-0.812387,0.000029,
2476,2548,4.75904673305281,-2.10389341478387,-0.00829330124429362,0.004857,-0.000594,0.004334,0.206039,0.026215,322.433154,23.723717,0.999584,0.987070,0.004319,0.473912,0.000013,-0.000019,-0.000001,0.000013,-0.000019,-2.592109,0.000020,
2491,2983,4.99713607587517,7.37615979628476,-0.00597291427760638,0.004675,-0.000197,0.002956,0.203509,0.037267,315.392450,25.527686,0.999242,0.987419,0.004273,0.366960,0.000035,0.000037,0.000008,0.000045,0.000028,48.604345,0.000073,
2506,2728,5.3757741812601,1.82564131452068,-0.0131082568286729,0.004914,-0.000401,0.005310,0.204870,0.050866,319.543572,24.472399,0.999488,0.988820,0.004090,0.441159,-0.000008,-0.000005,-0.000003,-0.000003,-0.000010,-59.584912,0.000014,
2446,2683,4.07681510975542,0.842375022065866,-0.0169061580489256,0.004708,-0.000551,0.005375,0.195971,0.060418,320.087855,24.291096,0.999266,0.987471,0.004313,0.466129,0.000012,0.000009,-0.000022,0.000032,-0.000012,-42.735222,0.000033,
2356,3253,2.01180128295732,13.2237728367957,0.028878503626629,0.004750,-0.000181,0.006107,0.197382,0.046890,311.070054,25.757091,0.999612,0.991893,0.003482,0.466175,0.000015,0.000033,0.000000,0.000033,0.000015,-88.639323,0.000050,
2491,2638,5.06656102008493,-0.137104291626855,-0.0204382019059608,0.004991,-0.000617,0.007946,0.198327,0.054208,320.898331,24.100117,0.999558,0.988867,0.004097,0.459189,0.000022,-0.000004,-0.000010,0.000025,-0.000008,-19.339335,0.000026,
2461,2803,4.37865807765353,3.45840723272517,-0.0224615766352372,0.004683,-0.001150,0.009390,0.179357,0.036757,318.098857,24.758295,0.999321,0.986179,0.004487,0.407346,0.000017,0.000005,-0.000028,0.000039,-0.000018,-38.918283,0.000039,
2416,2608,3.43774994777401,-0.794284892235559,-0.0223082949541435,0.004783,-0.000628,0.003448,0.206733,0.034321,321.225785,24.047956,0.999388,0.988512,0.004248,0.450727,0.000016,0.000015,0.000008,0.000023,0.000008,44.591545,0.000032,
2401,2248,3.18344650327804,-8.66726434794646,0.00978812775855431,0.004628,-0.000156,0.002805,0.201745,0.060310,327.307115,22.895571,0.999205,0.982349,0.005311,0.515409,-0.000002,0.000017,-0.000006,0.000019,-0.000004,-74.517752,0.000020,
2446,2248,4.16714984024067,-8.66760596818863,0.0192747877841271,0.005023,-0.000708,0.005959,0.207505,0.034340,327.461884,22.797596,0.999046,0.978575,0.005594,0.379914,0.000021,0.000026,-0.000002,0.000027,0.000020,-69.720314,0.000047,
2491,2473,5.10217795424431,-3.74163261253587,-0.00418704104140488,0.004892,-0.000298,0.002842,0.213210,0.048968,323.732770,23.451442,0.999399,0.984432,0.004691,0.444453,0.000032,-0.000041,0.000009,0.000033,-0.000042,7.019847,0.000044,
2446,2698,4.0726608283587,1.17026985864611,-0.0279194016777637,0.004512,-0.000557,0.006050,0.184427,0.052856,319.739616,24.342717,0.999602,0.989782,0.004013,0.459837,0.000011,0.000014,-0.000022,0.000034,-0.000009,-46.647323,0.000036,
2431,2413,3.80491149002394,-5.05544653835128,0.00273242116855954,0.004683,-0.000759,0.007938,0.185093,0.058065,324.602155,23.331168,0.999593,0.986561,0.004732,0.510974,0.000014,0.000005,0.000006,0.000017,0.000002,27.284328,0.000021,
2416,2098,3.54161091572628,-11.9568878453122,0.0247856371162811,0.004769,-0.000450,0.005711,0.197154,0.064427,329.868421,22.407973,0.998894,0.976827,0.006157,0.432880,-0.000013,-0.000003,0.000013,0.000006,-0.000022,55.307407,0.000023,
2386,2413,2.82409082868734,-5.05652929314292,0.00673401202840296,0.004843,-0.000209,0.002820,0.211891,0.053939,324.607615,23.458594,0.999358,0.984493,0.004860,0.512412,0.000002,-0.000004,0.000010,0.000009,-0.000011,36.478896,0.000012,
2401,2083,3.21720423868543,-12.2857186598896,0.0286573477378056,0.004965,-0.000450,0.005354,0.207594,0.046529,330.133366,22.517635,0.998909,0.976371,0.006121,0.347358,-0.000016,-0.000008,0.000011,-0.000001,-0.000024,55.752583,0.000028,
2446,2263,4.16445998846619,-8.33829173978415,0.0167863064751259,0.005244,-0.000360,0.002239,0.231591,0.056549,327.222226,22.869241,0.999061,0.977316,0.005780,0.385175,0.000018,0.000027,-0.000011,0.000034,0.000011,-56.007221,0.000047,
2446,2713,4.06941442171164,1.49777129495558,-0.0311804996977116,0.004467,-0.000079,0.005264,0.185541,0.074796,319.468755,24.397587,0.999733,0.991714,0.003710,0.479432,0.000009,0.000015,-0.000023,0.000036,-0.000011,-48.305527,0.000036,
2491,2488,5.09978797006407,-3.41463253101112,0.00417939415558521,0.005108,-0.000539,0.005524,0.212753,0.062003,323.558806,23.500064,0.999460,0.984685,0.004632,0.468872,0.000027,-0.000047,0.000007,0.000028,-0.000048,5.681361,0.000048,
2371,2368,2.50496047617824,-6.03993816156119,0.00610441448816346,0.004852,-0.000711,0.009582,0.188217,0.065886,325.297287,23.420940,0.998589,0.982819,0.005160,0.478374,0.000008,-0.000005,0.000007,0.000010,-0.000008,23.081543,0.000011,
2431,2428,3.80164585728288,-4.72592403952023,-0.00231724549894352,0.004502,-0.000535,0.004092,0.191054,0.033277,324.322157,23.503813,0.999345,0.985610,0.004888,0.365203,0.000014,-0.000003,0.000010,0.000019,-0.000008,24.430589,0.000019,
2416,2113,3.54032133956665,-11.6281882168828,0.0292113723756415,0.005521,0.000512,-0.001127,0.256867,0.059720,329.723282,22.469946,0.998940,0.976881,0.006055,0.416260,-0.000013,-0.000006,0.000010,0.000001,-0.000020,54.632565,0.000022,
2446,2728,4.06715035912153,1.82271441192539,-0.0225700700560765,0.004783,-0.000998,0.008808,0.186447,0.032180,319.298409,24.382203,0.999672,0.991543,0.003695,0.504315,0.000007,0.000007,-0.000016,0.000023,-0.000009,-44.848851,0.000024,
2386,2428,2.82133348466403,-4.72842023852654,0.00695752430812036,0.005042,-0.000554,0.003792,0.217402,0.039258,324.371905,23.540549,0.999355,0.987491,0.004614,0.460471,0.000005,-0.000009,0.000013,0.000012,-0.000017,30.636896,0.000018,
2446,2278,4.16105741841107,-8.00982893429057,0.0182799112206453,0.004987,-0.000760,0.005419,0.207898,0.036723,326.968367,22.951085,0.999277,0.977932,0.005655,0.337843,0.000020,0.000035,-0.000012,0.000042,0.000013,-60.297616,0.000057,
2491,2503,5.09589076773385,-3.08645574549287,0.00140898235218856,0.004743,-0.000681,0.008049,0.186315,0.047956,323.265360,23.586367,0.999436,0.985647,0.004647,0.428617,0.000026,-0.000026,0.000006,0.000026,-0.000026,6.122942,0.000030,
2446,2743,4.0651654198338,2.14919502947535,-0.015769181988162,0.005029,-0.000889,0.006196,0.207488,0.022965,319.132084,24.463558,0.999632,0.990630,0.003796,0.465943,0.000010,0.000010,-0.000015,0.000026,-0.000005,-45.106416,0.000027,
2431,2443,3.79853587949123,-4.39819817000926,-0.00387476822430699,0.004692,-0.000544,0.006580,0.190637,0.046328,324.065538,23.512423,0.999165,0.984931,0.004909,0.421105,0.000022,-0.000029,0.000006,0.000023,-0.000030,7.070157,0.000031,
2416,2128,3.53526331923339,-11.2971688352943,0.0187443564308865,0.004742,-0.000286,0.004771,0.199420,0.069112,329.335778,22.573883,0.999208,0.979194,0.005703,0.373329,-0.000006,-0.000002,0.000011,0.000007,-0.000015,51.171064,0.000015,
2371,2383,2.50215999826752,-5.71102145573267,0.00383644330065636,0.004870,-0.000167,0.006681,0.199561,0.067108,325.046480,23.521853,0.999070,0.983567,0.005064,0.421548,0.000011,-0.000007,0.000000,0.000011,-0.000007,-1.075656,0.000011,
2446,2293,4.15730275303202,-7.68274406239785,0.0146278338286834,0.004484,-0.000909,0.004920,0.186656,0.013558,326.674825,22.863444,0.999342,0.979277,0.005502,0.456662,0.000019,0.000036,-0.000008,0.000039,0.000016,-67.151549,0.000057,
2491,2518,5.09225528406764,-2.75882943536991,-0.00596188612911419,0.004787,-0.000651,0.007805,0.189310,0.043302,322.963222,23.576467,0.999480,0.985739,0.004513,0.493950,0.000016,-0.000027,0.000004,0.000016,-0.000027,5.483146,0.000027,
2386,2443,2.81739282957529,-4.39953582533226,-0.00158343103322522,0.005021,-0.000581,0.008270,0.200411,0.052527,324.040082,23.588657,0.999112,0.988363,0.004641,0.470887,0.000011,-0.000027,0.000012,0.000014,-0.000031,15.732880,0.000031,
2446,2758,4.06111349488766,2.47692467665526,-0.026906372571716,0.004812,-0.000674,0.005263,0.201100,0.023982,318.787639,24.511615,0.999604,0.989301,0.004007,0.471455,0.000016,0.000016,-0.000015,0.000031,0.000001,-45.183512,0.000036,
2431,2458,3.79551826307824,-4.07032647236738,-0.00668452103610662,0.004702,-0.000032,0.004462,0.199160,0.070952,323.807223,23.516315,0.999403,0.984989,0.004849,0.493335,0.000020,-0.000029,0.000007,0.000021,-0.000030,7.624675,0.000031,
2446,2308,4.15421611042308,-7.35153352845396,0.00894941676153849,0.004933,-0.000578,0.005495,0.205255,0.051345,326.401776,23.077584,0.999309,0.979116,0.005394,0.335029,0.000019,0.000023,-0.000008,0.000029,0.000013,-53.057708,0.000043,
2491,2533,5.08921405256755,-2.43068561701236,-0.00740657707967785,0.004878,-0.000391,0.006907,0.197018,0.043956,322.714838,23.667557,0.999678,0.988932,0.004000,0.463352,0.000010,-0.000013,0.000005,0.000011,-0.000014,12.672547,0.000015,
2416,2143,3.53213220033003,-10.9690377105662,0.0197163114360706,0.004725,-0.000658,0.007873,0.187246,0.052783,329.090152,22.569367,0.999274,0.980714,0.005232,0.412229,-0.000007,0.000002,0.000003,0.000003,-0.000008,72.442502,0.000008,
2386,2458,2.81447660821704,-4.07080225674474,-0.00759541934479557,0.005349,-0.000569,0.006657,0.221262,0.034945,323.767305,23.683238,0.999226,0.986919,0.004733,0.403516,0.000009,-0.000024,0.000013,0.000014,-0.000028,18.959523,0.000028,
2431,2473,3.79287354511676,-3.74346496621984,0.00206066587981013,0.004608,-0.000678,0.007950,0.181714,0.050523,323.619820,23.584543,0.999328,0.984919,0.004771,0.455511,0.000016,-0.000034,0.000006,0.000017,-0.000035,7.144378,0.000035,
2416,2158,3.5293772769756,-10.6403281243144,0.0182276336095697,0.004828,-0.000602,0.005255,0.201529,0.030491,328.850214,22.602460,0.999180,0.979005,0.005441,0.407367,-0.000008,-0.000008,-0.000003,-0.000005,-0.000011,-44.571219,0.000017,
2386,2218,2.86264462520877,-9.32387506412816,0.017069068921387,0.005062,-0.000454,0.003714,0.218332,0.034609,327.854137,23.021656,0.998962,0.979643,0.005684,0.340419,-0.000001,0.000010,-0.000012,0.000018,-0.000009,-58.286447,0.000018,
2371,3238,2.34052037819646,12.9002787129604,0.0302348870366131,0.004831,-0.000065,0.006671,0.198890,0.053913,311.331514,25.828463,0.999723,0.993794,0.003125,0.442376,0.000018,0.000034,-0.000002,0.000034,0.000018,-81.129051,0.000053,
2386,2233,2.85990015546168,-8.99649979128111,0.0308913811752518,0.004712,-0.001341,0.011206,0.175160,0.041962,327.684125,23.088350,0.999257,0.982837,0.005482,0.326679,0.000001,0.000004,-0.000010,0.000012,-0.000008,-49.397287,0.000013,
2371,3253,2.33712810742013,13.2253805969365,0.0223246730402025,0.004834,-0.000360,0.005393,0.203444,0.027043,311.023747,25.838069,0.999694,0.992803,0.003295,0.445404,0.000015,0.000037,-0.000002,0.000037,0.000015,-84.532207,0.000053,
2341,2218,1.88018270382795,-9.32385366119439,0.0140352153277377,0.005161,-0.000090,0.002172,0.228867,0.064552,327.821718,23.153159,0.998918,0.981913,0.005441,0.458597,-0.000010,-0.000001,-0.000016,0.000011,-0.000022,-52.105115,0.000022,
2506,2743,5.37089643597535,2.15451128383478,-0.0248744209567349,0.004429,-0.000537,0.008632,0.169768,0.064249,319.164302,24.603167,0.999682,0.989607,0.003939,0.385335,-0.000011,0.000003,-0.000003,0.000004,-0.000012,-80.439656,0.000012,
2491,2653,5.06355839909767,0.190159755681805,-0.017837971811673,0.004857,-0.000568,0.008009,0.191955,0.058870,320.669351,24.180163,0.999519,0.987464,0.004347,0.443281,0.000021,0.000010,-0.000018,0.000034,-0.000003,-35.958074,0.000037,
2431,2623,3.76186018417199,-0.467409273408066,-0.0146437237400505,0.004757,-0.000950,0.008631,0.186118,0.041593,321.047551,24.063938,0.999416,0.988238,0.004264,0.476862,0.000022,0.000013,-0.000005,0.000024,0.000010,-23.737504,0.000035,
2461,2488,4.44508192957921,-3.41496836330886,-0.00184805232549934,0.005244,-0.000089,0.002452,0.231183,0.047622,323.451355,23.550832,0.999585,0.985736,0.004568,0.470704,0.000018,-0.000036,-0.000006,0.000019,-0.000036,-5.843766,0.000036,
2461,2263,4.49163240834394,-8.33776534030783,0.00889716835587251,0.005318,-0.000339,0.001216,0.238722,0.048718,327.195524,22.781607,0.999148,0.978490,0.005521,0.398366,0.000032,0.000027,-0.000014,0.000043,0.000016,-38.914774,0.000061,
2386,2248,2.85551024804171,-8.66597831531722,0.0105597908562913,0.004639,-0.000794,0.008960,0.180096,0.062567,327.276645,23.082201,0.999222,0.982486,0.005355,0.399990,0.000003,0.000008,-0.000008,0.000014,-0.000002,-54.640429,0.000015,
2506,2758,5.36749128497811,2.47982786221094,-0.0241726039704417,0.004379,-0.001307,0.012370,0.152657,0.038085,318.909248,24.551237,0.999692,0.990469,0.003798,0.472318,-0.000008,-0.000004,-0.000002,-0.000003,-0.000009,-68.018636,0.000012,
2461,2503,4.44177840017993,-3.08733879489092,-0.000973419872650538,0.004933,-0.000152,0.002860,0.215362,0.049672,323.199245,23.604048,0.999517,0.986339,0.004422,0.475018,0.000017,-0.000021,-0.000005,0.000018,-0.000021,-6.714457,0.000023,
2491,2668,5.06080655558353,0.516363954904293,-0.0157037819164998,0.004895,-0.000507,0.006772,0.198475,0.042005,320.449989,24.184713,0.999420,0.985948,0.004530,0.481140,0.000022,-0.000008,-0.000023,0.000035,-0.000021,-28.738387,0.000035,
2476,2563,4.7549234538596,-1.7746314343969,-0.0178804940763939,0.004506,-0.000173,0.003265,0.194215,0.044787,322.096451,23.837773,0.998701,0.982231,0.005210,0.436561,0.000014,0.000003,-0.000002,0.000014,0.000002,-8.569970,0.000018,
2401,2458,3.14174754975626,-4.07191343298287,-0.000776930065342185,0.005072,-0.000662,0.007926,0.203685,0.050255,323.820929,23.568573,0.999458,0.985661,0.004831,0.495515,0.000010,-0.000027,0.000010,0.000012,-0.000030,13.929947,0.000030,
2326,3058,1.39584658402002,8.99110655529907,0.0133249992737206,0.004709,-0.000712,0.005599,0.197355,0.038537,314.142163,25.136200,0.999662,0.993275,0.003341,0.486917,0.000004,0.000013,-0.000006,0.000016,0.000001,-64.833159,0.000019,
2461,2278,4.48881641721638,-8.00987970772353,0.016478334798478,0.005077,-0.000418,0.003256,0.220050,0.059307,326.997451,22.842540,0.999518,0.978513,0.005469,0.404533,0.000035,0.000035,-0.000015,0.000050,0.000020,-45.705149,0.000072,
2431,2638,3.75867742863355,-0.139880689577907,-0.0187243800664874,0.004583,-0.000488,0.004991,0.191775,0.041415,320.774989,24.111109,0.999596,0.990007,0.004043,0.480236,0.000016,0.000011,-0.000011,0.000025,0.000002,-38.268811,0.000030,
2461,2518,4.43909839135958,-2.76072821548447,0.00764281596758565,0.004981,-0.000936,0.007824,0.198596,0.032343,323.011277,23.657650,0.999319,0.983675,0.004602,0.459411,0.000013,-0.000023,-0.000003,0.000013,-0.000023,-5.516748,0.000023,
2491,2683,5.05728273148849,0.844166918928899,-0.0231793173646224,0.005057,-0.000755,0.006459,0.207005,0.023777,320.151464,24.262615,0.999639,0.989678,0.003955,0.444356,0.000017,0.000000,-0.000021,0.000031,-0.000014,-33.966756,0.000031,
2506,2773,5.36510763188579,2.80654042473134,-0.0236088718521046,0.004637,-0.000795,0.007526,0.183440,0.033484,318.700162,24.609225,0.999662,0.990738,0.003836,0.470906,-0.000007,-0.000018,-0.000010,-0.000002,-0.000023,-30.966104,0.000028,
2476,2308,4.80995506063243,-7.35234420392149,0.0159013048555607,0.004747,-0.000221,0.003688,0.203300,0.086603,326.526072,22.912014,0.999252,0.976741,0.005807,0.415191,0.000030,0.000022,-0.000009,0.000036,0.000016,-33.416533,0.000053,
2461,2023,4.54153010314386,-13.6045575257441,0.0314026227921431,0.005008,-0.000317,0.004446,0.212042,0.060371,331.232651,21.944289,0.999250,0.977550,0.005662,0.329485,0.000035,-0.000072,0.000063,0.000064,-0.000101,24.885122,0.000102,
2431,2233,3.84239739038508,-8.99680255793254,0.0242064390229189,0.004480,-0.000603,0.005238,0.185553,0.045083,327.695978,22.798047,0.999261,0.982005,0.005247,0.406964,0.000004,0.000013,-0.000002,0.000014,0.000004,-79.138632,0.000018,
2476,2578,4.75208771354099,-1.44762251645184,-0.0122951475683521,0.004826,-0.001010,0.010015,0.182941,0.050943,321.888034,23.896063,0.998327,0.982832,0.005277,0.441699,0.000018,0.000023,0.000004,0.000025,0.000016,59.794152,0.000041,
2401,2473,3.13915459458645,-3.74408308172352,0.00186583723160538,0.004911,-0.000309,0.004400,0.209210,0.058741,323.605121,23.639613,0.999309,0.986777,0.004684,0.479818,0.000008,-0.000031,0.000011,0.000011,-0.000034,15.154614,0.000035,
2326,3073,1.39321739997369,9.31804951513933,0.0145362353112546,0.004704,-0.000109,0.004408,0.201506,0.057763,313.910332,25.275335,0.999676,0.994599,0.003034,0.400460,0.000009,0.000018,-0.000004,0.000019,0.000008,-70.383441,0.000028,
2461,2818,4.37612170187958,3.78435926631269,-0.0189401987017277,0.004636,-0.000698,0.006487,0.188259,0.024923,317.892836,24.788808,0.999273,0.985337,0.004677,0.419256,0.000019,0.000000,-0.000027,0.000038,-0.000019,-35.637938,0.000038,
2401,2263,3.17994761833116,-8.33655414565683,0.0022428114361901,0.004838,-0.000513,0.004972,0.203443,0.049773,327.002510,23.076345,0.999295,0.985184,0.004815,0.372151,-0.000003,0.000022,-0.000011,0.000026,-0.000007,-70.248169,0.000027,
2491,2698,5.05391506272396,1.17242221853331,-0.0274723767740284,0.004828,-0.000300,0.002819,0.210670,0.029619,319.874192,24.389711,0.999674,0.990046,0.003920,0.382340,0.000013,0.000008,-0.000022,0.000032,-0.000012,-41.865378,0.000033,
2461,2533,4.43610870087569,-2.43206832551537,0.00121273497342145,0.005402,-0.000721,0.005954,0.225022,0.027109,322.739932,23.756074,0.999500,0.987350,0.004259,0.411483,0.000010,-0.000011,-0.000004,0.000010,-0.000011,-10.639048,0.000013,
2311,2923,1.09342669287085,6.05913539162941,-0.00714801171488944,0.004653,-0.000040,0.004928,0.197406,0.066597,316.185132,24.814175,0.999236,0.989611,0.004029,0.502544,-0.000001,0.000016,-0.000003,0.000016,-0.000001,-81.181098,0.000018,
2221,2518,-0.791809957052724,-2.76506184498874,-0.00618266098081222,0.004582,-0.000671,0.006787,0.188577,0.032115,322.912754,24.093313,0.999137,0.985762,0.004621,0.483171,0.000023,0.000015,0.000000,0.000023,0.000015,0.821803,0.000038,
2506,2893,5.34291931217253,5.41873224957623,-0.00225224120708845,0.005215,-0.000417,0.004851,0.220704,0.056895,316.956356,25.153251,0.999541,0.989982,0.004058,0.437597,0.000002,0.000052,-0.000006,0.000053,0.000001,-83.451097,0.000062,
2341,2233,1.87704886966251,-8.99587158676256,0.017157185120027,0.004753,-0.000453,0.004264,0.202784,0.050317,327.579813,23.185992,0.998603,0.978163,0.005796,0.450574,-0.000009,-0.000015,-0.000014,0.000003,-0.000026,-39.445141,0.000029,
2251,3133,-0.245474200322054,10.6119445195843,0.0347968305028417,0.004608,-0.000915,0.011670,0.173969,0.045363,313.166121,25.026121,0.999308,0.991462,0.003828,0.458700,-0.000004,0.000023,-0.000009,0.000026,-0.000006,-73.770986,0.000027,
2446,2353,4.14572324344184,-6.36851292261267,0.0109402438701522,0.004922,-0.000304,0.001129,0.221132,0.030462,325.706650,23.104861,0.999349,0.980917,0.005380,0.449035,0.000018,0.000011,-0.000007,0.000023,0.000007,-31.625441,0.000030,
2191,2563,-1.45187436399101,-1.78454174338126,-0.00418161097888969,0.004821,-0.000568,0.005301,0.204888,0.042325,322.299172,24.175905,0.999414,0.989266,0.004109,0.513764,0.000022,0.000030,0.000000,0.000030,0.000022,-87.348351,0.000052,
2431,2653,3.75659225227161,0.186621306588385,-0.0128959650583624,0.004987,-0.000621,0.004851,0.210808,0.032955,320.599008,24.160504,0.999549,0.989532,0.004140,0.472781,0.000015,0.000015,-0.000015,0.000030,0.000000,-45.521113,0.000035,
2371,3013,2.38221009792447,8.01806796931509,0.0116754244402841,0.004666,-0.000111,0.004813,0.197659,0.059446,314.860362,25.234184,0.999569,0.990465,0.003875,0.442831,0.000006,0.000019,-0.000011,0.000026,0.000000,-59.596514,0.000030,
2461,2548,4.43292337965906,-2.10365497917944,-0.001956809063131,0.005216,-0.000486,0.002367,0.230124,0.024442,322.474427,23.864055,0.999722,0.991632,0.003739,0.356290,0.000013,-0.000016,-0.000003,0.000013,-0.000016,-5.656727,0.000017,
2461,2293,4.4849574195394,-7.6825200965481,0.0167629887204157,0.004488,-0.000607,0.006515,0.180798,0.054294,326.718330,22.801789,0.999391,0.978697,0.005468,0.496855,0.000031,0.000037,-0.000013,0.000047,0.000021,-51.338605,0.000069,
2371,3268,2.33332610196449,13.5510353391934,0.0133312786158513,0.004552,-0.000472,0.004601,0.193272,0.029574,310.691627,25.868280,0.999742,0.993175,0.003272,0.457307,0.000012,0.000036,-0.000001,0.000036,0.000012,-88.027490,0.000050,
2401,2278,3.17565239412322,-8.00641469409694,-0.00976427213811348,0.004579,-0.000928,0.006866,0.184561,0.010339,326.640541,23.195044,0.999745,0.993768,0.003513,0.262194,0.000001,0.000029,-0.000009,0.000032,-0.000002,-74.231760,0.000035,
2416,3253,3.31418229060805,13.2303935066558,0.0184505042420255,0.004874,-0.000292,0.005537,0.204226,0.050882,311.025407,26.100626,0.999215,0.989552,0.004000,0.446975,0.000025,0.000035,-0.000006,0.000037,0.000022,-65.833898,0.000060,
2506,2788,5.36242297127179,3.13376493405333,-0.0242363113520128,0.004813,-0.000361,0.004040,0.205209,0.038388,318.471676,24.699988,0.999519,0.990260,0.004009,0.446219,-0.000013,-0.000015,-0.000018,0.000004,-0.000032,-43.119761,0.000035,
2461,2038,4.53828641540523,-13.2755058660259,0.0311543549773319,0.004867,-0.000366,0.005004,0.203521,0.047285,330.980536,21.968786,0.999239,0.979119,0.005654,0.349871,0.000031,-0.000072,0.000051,0.000052,-0.000093,22.426877,0.000093,
2476,2788,4.70902915674179,3.13256143254686,-0.0221733335298495,0.004851,-0.000343,0.004233,0.206622,0.052006,318.407784,24.709092,0.999193,0.985384,0.004501,0.428591,0.000000,0.000003,-0.000025,0.000027,-0.000024,-46.582345,0.000030,
2491,2713,5.05065943439889,1.49871970934518,-0.028210147852576,0.004950,-0.000460,0.005691,0.205221,0.047946,319.618360,24.358417,0.999612,0.989700,0.004184,0.491385,0.000002,0.000009,-0.000019,0.000025,-0.000014,-50.021722,0.000025,
2506,2908,5.33890343404784,5.74543031373441,-0.0104966610311408,0.005129,-0.000593,0.006402,0.210623,0.036642,316.631930,25.199875,0.999564,0.988679,0.004125,0.431496,0.000008,0.000032,0.000001,0.000032,0.000008,87.863241,0.000042,
2476,2323,4.80641807513513,-7.02429276298852,0.00866816531396353,0.004950,-0.000429,0.004652,0.208861,0.067603,326.228774,22.884241,0.999218,0.978849,0.005485,0.483019,0.000019,0.000021,-0.000010,0.000031,0.000010,-46.901268,0.000042,
2461,2833,4.37247425253532,4.11276495413071,-0.0291107210659334,0.004634,-0.000303,0.003772,0.198640,0.048175,317.572286,24.910635,0.999555,0.989256,0.003986,0.375379,0.000017,0.000012,-0.000021,0.000036,-0.000007,-41.602825,0.000038,
2221,2533,-0.794341363049696,-2.43627780834044,-0.00905900475169119,0.004754,-0.000370,0.005365,0.201228,0.056073,322.657659,24.203464,0.999487,0.988964,0.004116,0.417082,0.000024,0.000024,0.000002,0.000027,0.000022,47.063495,0.000049,
2446,2368,4.14256256544832,-6.03999754849398,0.0089320381848097,0.005114,-0.000723,0.003324,0.221625,0.023785,325.447273,23.174776,0.999474,0.984364,0.004980,0.426422,0.000017,0.000014,0.000000,0.000017,0.000014,-5.196306,0.000031,
2191,2578,-1.45451723527387,-1.45751904321715,-0.00812424667179812,0.005035,-0.000670,0.005929,0.212753,0.045393,322.031266,24.150486,0.999473,0.990381,0.003893,0.557792,0.000014,0.000026,0.000000,0.000026,0.000014,89.732879,0.000040,
2371,3028,2.37919123329383,8.34407893264952,0.00867979144220499,0.004701,-0.000252,0.004109,0.201662,0.033029,314.594048,25.293994,0.999508,0.989695,0.004029,0.396672,0.000007,0.000017,-0.000014,0.000027,-0.000002,-55.049504,0.000030,
2251,3148,-0.247720040386561,10.9373438455,0.0298126576236086,0.004784,-0.000539,0.002980,0.210655,0.022720,312.915705,25.043738,0.998495,0.987889,0.004489,0.440770,-0.000003,0.000025,-0.000007,0.000027,-0.000005,-76.320131,0.000029,
2311,2938,1.09070094890416,6.38504980422529,-0.00684213259268063,0.004661,-0.000175,0.004702,0.198514,0.062141,315.944097,24.840731,0.999158,0.988134,0.004224,0.503138,0.000000,0.000019,-0.000004,0.000019,-0.000001,-78.040935,0.000022,
2506,2923,5.33443003687055,6.07316333707359,-0.0240324138289338,0.004989,-0.000732,0.007378,0.200400,0.031970,316.262350,25.293993,0.999474,0.986135,0.004283,0.393447,0.000011,0.000026,-0.000007,0.000029,0.000008,-67.446408,0.000039,
2476,2593,4.7492894144104,-1.12043856186463,-0.0129266605616749,0.004863,-0.000752,0.006774,0.197049,0.039877,321.653103,23.937650,0.998619,0.982699,0.004992,0.446522,0.000022,0.000013,0.000009,0.000027,0.000007,30.537558,0.000036,
2461,2563,4.4279844396812,-1.77537595363761,-0.0157805647800728,0.004929,-0.000683,0.008209,0.194914,0.034119,322.079571,23.859040,0.999412,0.988390,0.004345,0.426750,0.000013,0.000002,-0.000003,0.000014,0.000002,-16.019791,0.000017,
2431,2668,3.75233479204295,0.515657915807431,-0.0222302445246783,0.004807,-0.001033,0.008999,0.187090,0.038408,320.252180,24.306759,0.999506,0.989356,0.004290,0.382552,0.000013,0.000005,-0.000022,0.000031,-0.000013,-39.899807,0.000031,
2401,2488,3.1360912519821,-3.41646941721167,0.00392297304182421,0.004993,-0.001042,0.009237,0.195197,0.043421,323.365022,23.713824,0.999292,0.987766,0.004509,0.436832,0.000010,-0.000032,0.000008,0.000012,-0.000033,10.042177,0.000033,
2506,2803,5.35885799504917,3.46059716731676,-0.0227541519614078,0.004740,-0.000787,0.010097,0.178280,0.047971,318.212084,24.770924,0.999044,0.986188,0.004915,0.446100,-0.000004,-0.000015,-0.000021,0.000012,-0.000030,-37.433448,0.000031,
2326,3088,1.39095999296801,9.6415871218523,0.0225239250481764,0.004826,-0.000659,0.006837,0.198457,0.027510,313.729909,25.196963,0.999608,0.994276,0.003184,0.481894,0.000010,0.000013,-0.000011,0.000023,0.000000,-47.926968,0.000026,
2476,2803,4.70595482941857,3.45924265357626,-0.0205591782300871,0.004935,-0.000568,0.007128,0.199386,0.052194,318.169251,24.776043,0.999240,0.984399,0.004733,0.418559,0.000002,-0.000001,-0.000027,0.000027,-0.000026,-43.534253,0.000031,
2461,2308,4.48174014458887,-7.35207988452521,0.00918907701509397,0.004921,-0.000769,0.006214,0.201711,0.054265,326.432366,22.964325,0.999218,0.975803,0.005742,0.390928,0.000029,0.000022,-0.000012,0.000037,0.000013,-36.701007,0.000052,
2476,2338,4.80306166684219,-6.69545559303817,0.00910029082871233,0.004719,-0.000665,0.005774,0.193966,0.050999,325.974243,23.007642,0.998971,0.979373,0.005565,0.401325,0.000017,0.000020,-0.000009,0.000028,0.000010,-49.285576,0.000039,
2491,2728,5.04753907953193,1.82627775095216,-0.0265797058109456,0.004871,-0.000532,0.006830,0.197241,0.052652,319.379097,24.480294,0.999566,0.991428,0.003698,0.433347,-0.000002,0.000002,-0.000013,0.000013,-0.000013,-49.216677,0.000015,
2446,2383,4.13934955567282,-5.71075205186354,0.00561797564409972,0.005068,-0.000236,0.001942,0.224896,0.049068,325.179183,23.272345,0.999751,0.987753,0.004580,0.408351,0.000021,0.000006,-0.000011,0.000027,0.000000,-28.561772,0.000031,
2401,2293,3.17265831345828,-7.67928684363403,-0.00701440401843456,0.004502,-0.001102,0.009692,0.170769,0.025382,326.407618,23.139007,0.999553,0.990166,0.004006,0.380855,0.000001,0.000031,-0.000003,0.000031,0.000001,-84.610145,0.000037,
2371,3283,2.33011379260482,13.8761733748225,0.00986717698674511,0.004580,-0.000593,0.005769,0.190385,0.024961,310.413350,25.892922,0.999691,0.992579,0.003393,0.467695,0.000011,0.000033,-0.000005,0.000034,0.000010,-78.014957,0.000047,
2416,3268,3.31014946772394,13.5559123615323,0.0109914123858061,0.004605,-0.000370,0.008241,0.181955,0.062511,310.693918,26.118575,0.999540,0.991321,0.003697,0.486961,0.000024,0.000027,-0.000002,0.000028,0.000023,-65.130261,0.000051,
2221,2548,-0.796353029575364,-2.10983530143746,-0.0054717445346455,0.005025,-0.000342,0.004532,0.216374,0.054657,322.460087,24.186861,0.999685,0.991044,0.003720,0.452217,0.000026,0.000031,0.000006,0.000035,0.000022,58.215850,0.000058,
2461,2578,4.42369031020057,-1.44757047742499,-0.0270417578993829,0.004644,-0.000897,0.008841,0.179469,0.048754,321.726010,23.834614,0.999581,0.991310,0.004113,0.521445,0.000018,0.000022,0.000002,0.000022,0.000018,67.757932,0.000040,
2311,2953,1.08861349642302,6.7111069963937,-0.00509859815718983,0.004940,-0.000020,0.000983,0.224097,0.049962,315.739420,24.902242,0.999303,0.990143,0.003929,0.461036,0.000000,0.000018,-0.000004,0.000019,-0.000001,-77.613301,0.000021,
2476,2353,4.80031161360035,-6.36736089641529,0.00846312707903962,0.005102,-0.000633,0.006017,0.210599,0.060544,325.742612,23.031378,0.999006,0.981691,0.005539,0.445741,0.000023,0.000016,-0.000007,0.000027,0.000012,-30.450021,0.000040,
2446,2398,4.13522289764744,-5.38272345671403,-0.00211428459135732,0.004751,-0.000549,0.004087,0.202278,0.046031,324.849045,23.250131,0.999693,0.986645,0.004726,0.481658,0.000022,0.000009,-0.000010,0.000028,0.000004,-28.306558,0.000035,
2416,3283,3.30702929451111,13.8818245420057,0.00426626588239287,0.005011,-0.000518,0.008692,0.198899,0.044928,310.407710,26.210637,0.999698,0.991398,0.003658,0.423495,0.000025,0.000019,-0.000003,0.000026,0.000018,-23.324689,0.000045,
2431,2683,3.74970421473421,0.842124026856496,-0.019322470562372,0.004915,-0.000835,0.009054,0.191975,0.057956,320.037370,24.309540,0.999466,0.988666,0.004269,0.449870,0.000013,0.000013,-0.000022,0.000035,-0.000009,-44.854920,0.000036,
2191,2593,-1.45776873137858,-1.12917534335378,-0.0113826382957996,0.004684,-0.000637,0.007755,0.190953,0.063754,321.738616,24.242203,0.999105,0.987412,0.004379,0.499799,0.000010,0.000016,-0.000003,0.000017,0.000009,-71.312820,0.000026,
2461,2053,4.53563148554467,-12.9466576905234,0.0346658216953983,0.004803,-0.000209,0.003119,0.207753,0.044452,330.772389,22.011898,0.999291,0.979996,0.005491,0.361558,0.000032,-0.000059,0.000044,0.000050,-0.000077,21.931955,0.000078,
2506,2938,5.33264099374295,6.39815801144513,-0.00738238467732799,0.004962,-0.000746,0.008327,0.195515,0.037248,316.152099,25.344924,0.999610,0.989943,0.003856,0.408284,0.000014,0.000032,-0.000009,0.000035,0.000011,-67.866441,0.000048,
2506,2818,5.35651196039724,3.78697363054137,-0.0170091399684793,0.005228,-0.001141,0.012677,0.190581,0.047631,318.027702,24.846359,0.999237,0.988539,0.004393,0.431003,0.000001,-0.000018,-0.000018,0.000012,-0.000029,-30.843838,0.000030,
2401,2503,3.13239474021543,-3.08739640143985,-0.00789651425878901,0.005055,-0.000971,0.007894,0.202971,0.042273,323.030202,23.786214,0.999459,0.988665,0.004308,0.410520,0.000007,-0.000019,0.000008,0.000009,-0.000022,15.058760,0.000022,
2491,2743,5.04420940954688,2.15329405251472,-0.0303728732131958,0.004888,-0.000490,0.006246,0.200334,0.061884,319.105795,24.508928,0.999654,0.991212,0.003755,0.473148,-0.000005,0.000011,-0.000013,0.000018,-0.000012,-60.953534,0.000018,
2461,2323,4.47865657928383,-7.0246827416152,0.00743264475840988,0.005025,-0.000805,0.006426,0.205661,0.047719,326.179364,22.918851,0.999257,0.977608,0.005508,0.486346,0.000020,0.000019,-0.000012,0.000031,0.000008,-43.884668,0.000041,
2461,2593,4.42207589294361,-1.12132760274613,-0.013209360490066,0.004861,-0.000871,0.008196,0.191815,0.033892,321.610527,23.919769,0.999231,0.987667,0.004437,0.476261,0.000023,0.000013,0.000006,0.000026,0.000010,25.957930,0.000037,
2416,3298,3.30278151608699,14.2070566819512,-0.0119080961407008,0.004928,-0.000568,0.007698,0.198629,0.026974,310.025241,26.194288,0.999701,0.991898,0.003560,0.468029,0.000026,0.000010,-0.000010,0.000031,0.000005,-25.056003,0.000039,
2476,2818,4.70290253857511,3.7853335586657,-0.0161782152837304,0.004645,-0.000395,0.008105,0.182486,0.064362,317.944331,24.802001,0.999309,0.986025,0.004660,0.461096,0.000006,-0.000006,-0.000024,0.000025,-0.000025,-38.317542,0.000029,
2476,2368,4.79633893472393,-6.03772231336549,0.00118614919853144,0.004750,-0.000514,0.005366,0.197025,0.037552,325.424648,23.169862,0.999609,0.985143,0.005043,0.342878,0.000024,0.000020,0.000002,0.000025,0.000019,26.931560,0.000044,
2311,2968,1.0866052828123,7.03704523271683,0.00950307332584543,0.004823,-0.000086,0.003736,0.209262,0.045108,315.601773,25.038404,0.999910,0.997218,0.002585,0.351301,-0.000006,0.000019,-0.000004,0.000019,-0.000006,-81.592474,0.000020,
2446,2413,4.13267757008175,-5.05474701805673,0.00621128102693547,0.004750,-0.000324,0.006782,0.192323,0.067035,324.665141,23.357600,0.999687,0.986891,0.004783,0.448756,0.000017,0.000008,0.000001,0.000017,0.000008,5.690744,0.000025,
2476,2608,4.74548962766796,-0.792931587334337,-0.0163744404247268,0.004400,-0.000821,0.006709,0.176067,0.037637,321.359193,23.980824,0.999025,0.984399,0.004636,0.458578,0.000025,0.000016,0.000006,0.000029,0.000012,26.548513,0.000042,
2461,2608,4.41922620202279,-0.794223644421251,-0.00932304878699597,0.004672,-0.001006,0.007618,0.185292,0.030511,321.392574,23.989897,0.999032,0.984362,0.004803,0.457646,0.000025,0.000013,0.000004,0.000026,0.000012,15.812741,0.000039,
2431,1993,3.89118681440253,-14.2637699961586,0.0409020575763179,0.004469,-0.000913,0.008031,0.174345,0.038523,331.695986,22.093608,0.999130,0.975939,0.005942,0.255619,-0.000004,-0.000033,0.000051,0.000035,-0.000071,37.095967,0.000071,
2251,3163,-0.249904369656463,11.2632344433809,0.036403046789701,0.004880,-0.000204,0.003843,0.212353,0.035430,312.726669,25.145472,0.999161,0.989806,0.004005,0.373675,0.000001,0.000031,-0.000006,0.000032,0.000000,-79.022234,0.000037,
2476,2383,4.79279517003424,-5.70933906214236,-0.00676968718499893,0.004802,-0.000363,0.003860,0.205192,0.049440,325.123228,23.157964,0.999618,0.984059,0.005121,0.425357,0.000026,0.000015,-0.000010,0.000032,0.000009,-30.182293,0.000043,
2326,3103,1.38853145346286,9.96733695691061,0.0260961207287664,0.004850,-0.000437,0.005735,0.203432,0.029875,313.519194,25.264979,0.999477,0.993557,0.003412,0.449437,0.000014,0.000020,-0.000011,0.000029,0.000006,-52.917388,0.000037,
2401,2308,3.17029603532166,-7.35164852308748,-0.00900059905580974,0.005031,-0.000629,0.007468,0.203275,0.055358,326.181242,23.072014,0.999773,0.993885,0.003490,0.525459,0.000002,0.000021,0.000002,0.000021,0.000002,83.573314,0.000025,
2371,3298,2.32672353413395,14.2021502087213,-0.000164773091000825,0.004889,-0.000429,0.006240,0.202992,0.029911,310.094933,25.954352,0.999682,0.992669,0.003451,0.450704,0.000005,0.000030,-0.000014,0.000036,-0.000001,-65.728387,0.000041,
2461,2338,4.47537898320372,-6.69560420037037,0.00651587794050101,0.004751,-0.000658,0.005072,0.198270,0.048044,325.920965,23.034051,0.999146,0.976630,0.005552,0.427958,0.000019,0.000019,-0.000011,0.000030,0.000008,-45.434541,0.000040,
2506,2833,5.35359669910297,4.11277999659602,-0.0125277177850194,0.004650,-0.000848,0.008216,0.181448,0.035421,317.811536,24.875337,0.999454,0.989662,0.004123,0.450731,-0.000001,-0.000007,-0.000009,0.000006,-0.000013,-35.885117,0.000013,
2491,2758,5.04165657767487,2.47875360285921,-0.0251115151605177,0.004959,-0.000794,0.006180,0.203692,0.032024,318.909356,24.509994,0.999496,0.988381,0.004120,0.500977,0.000000,0.000007,-0.000012,0.000016,-0.000009,-52.872884,0.000017,
2461,2068,4.53365207477345,-12.618461519806,0.0401969585599886,0.005402,-0.000243,0.003153,0.235032,0.030647,330.604423,22.033770,0.999360,0.980551,0.005384,0.383116,0.000032,-0.000052,0.000036,0.000045,-0.000066,20.345780,0.000067,
2506,2953,5.33023464586433,6.72346735137423,0.000689159319392729,0.004747,-0.000714,0.005746,0.195593,0.020317,315.974896,25.388996,0.999613,0.990560,0.003855,0.407559,0.000018,0.000037,0.000000,0.000037,0.000018,-89.263316,0.000056,
2311,2983,1.08431703950246,7.36184039276798,0.0107753938650035,0.005078,-0.000089,0.001967,0.227040,0.032404,315.385851,24.988031,0.999744,0.994603,0.003064,0.420617,-0.000005,0.000019,-0.000004,0.000019,-0.000005,-81.159572,0.000020,
2401,2518,3.12937480086354,-2.76099168114688,-0.0105275219836471,0.004819,-0.000422,0.003694,0.207575,0.041239,322.770072,23.703139,0.999472,0.987789,0.004455,0.539169,0.000004,-0.000017,0.000008,0.000007,-0.000020,19.045507,0.000020,
2221,2563,-0.799358018992884,-1.78247407654298,-0.0135487537577319,0.005287,-0.000791,0.005994,0.223583,0.035945,322.157050,24.173448,0.999528,0.990333,0.003878,0.466811,0.000026,0.000025,0.000002,0.000028,0.000023,38.092415,0.000051,
2371,3043,2.37643840321342,8.66947783223084,0.0123268774219696,0.004686,-0.000308,0.006008,0.194245,0.045541,314.371911,25.306647,0.999643,0.991281,0.003704,0.436854,0.000008,0.000018,-0.000011,0.000025,0.000001,-57.903084,0.000030,
2446,2428,4.12851467877634,-4.72562057620141,-0.00594474431983372,0.004689,-0.000780,0.007968,0.184947,0.052054,324.312712,23.417161,0.999197,0.984847,0.004968,0.428324,0.000016,-0.000001,0.000006,0.000018,-0.000003,19.018653,0.000019,
2476,2623,4.74294726456378,-0.465219124077699,-0.0161667101688181,0.004836,-0.000773,0.005965,0.198919,0.034930,321.139542,24.079495,0.999613,0.990286,0.003853,0.414343,0.000028,0.000003,-0.000002,0.000028,0.000003,-4.361791,0.000034,
2191,2608,-1.46056175004527,-0.802386843486303,-0.0120033807975801,0.004488,-0.000849,0.007864,0.181523,0.045410,321.481149,24.255726,0.998709,0.984710,0.004833,0.483302,0.000013,0.000008,0.000003,0.000015,0.000007,27.035894,0.000022,
2461,2623,4.41566460236605,-0.465174588044974,-0.0181395017162913,0.004818,-0.000489,0.006970,0.194689,0.055460,321.083327,24.106159,0.999437,0.987902,0.004229,0.421960,0.000029,0.000005,-0.000005,0.000030,0.000004,-10.685295,0.000037,
2491,2773,5.03845259127497,2.80658496708467,-0.0247814013723087,0.004659,-0.000293,0.004406,0.196973,0.050516,318.660036,24.646036,0.999125,0.986483,0.004443,0.442635,0.000000,-0.000006,-0.000019,0.000016,-0.000022,-40.475518,0.000023,
2506,2968,5.32706217991735,7.0498613098063,0.00183056702132944,0.004595,-0.000480,0.005996,0.187789,0.032584,315.730979,25.458991,0.999532,0.989612,0.004133,0.410243,0.000027,0.000041,0.000008,0.000045,0.000023,66.492894,0.000069,
2506,2848,5.35048267584435,4.44005668887633,-0.00979508750822333,0.004560,-0.000912,0.009983,0.170448,0.040802,317.577938,25.012725,0.999625,0.991809,0.003661,0.379417,-0.000008,0.000011,-0.000010,0.000016,-0.000012,-67.332928,0.000016,
2461,2083,4.52955419487958,-12.2881727677351,0.0345940602666133,0.004978,-0.000497,0.005143,0.208081,0.045518,330.288338,22.100140,0.999310,0.979019,0.005612,0.389742,0.000030,-0.000034,0.000034,0.000045,-0.000049,23.537122,0.000054,
2446,2443,4.12692312797813,-4.39946941289298,0.00569671883266665,0.005081,-0.000708,0.007244,0.205638,0.032430,324.188137,23.437938,0.998503,0.982588,0.005219,0.441007,0.000025,-0.000029,0.000003,0.000025,-0.000029,3.236486,0.000032,
2251,3178,-0.25231322964823,11.5873845704619,0.040663528554262,0.004874,-0.000450,0.004121,0.211082,0.026516,312.516083,25.097497,0.999447,0.991195,0.003609,0.434877,0.000003,0.000032,-0.000006,0.000034,0.000002,-78.797964,0.000040,
2476,2833,4.70089730716554,4.11137880030363,-0.0145498726539586,0.005036,-0.000048,0.001920,0.224089,0.060521,317.755070,24.822543,0.999517,0.987384,0.004162,0.493505,0.000005,0.000008,-0.000017,0.000024,-0.000011,-47.278523,0.000024,
2191,2623,-1.46286378938159,-0.475380229232755,-0.0129879789445795,0.004531,-0.000486,0.003925,0.195970,0.044062,321.244172,24.273877,0.999227,0.986292,0.004558,0.478785,0.000014,0.000007,-0.000002,0.000014,0.000007,-14.303641,0.000021,
2506,2983,5.323767802104,7.37601649415565,-0.00146220911750561,0.004596,-0.000493,0.005053,0.191497,0.033127,315.461579,25.492347,0.999429,0.987974,0.004218,0.437935,0.000033,0.000044,0.000015,0.000054,0.000023,55.070153,0.000079,
2461,2098,4.52583585590195,-11.9579157418617,0.0306100613921103,0.004771,-0.000825,0.006768,0.192441,0.034955,329.997059,22.212979,0.999578,0.979818,0.005469,0.324272,0.000029,-0.000023,0.000024,0.000038,-0.000032,21.669447,0.000041,
2461,2353,4.47160458752434,-6.3664562748266,-0.00161892854004009,0.004769,-0.000761,0.006094,0.195269,0.049575,325.606749,23.089069,0.999281,0.981405,0.005355,0.431171,0.000023,0.000012,-0.000009,0.000028,0.000007,-28.497807,0.000037,
2476,2398,4.79000528364805,-5.38219017966553,0.005001536172756,0.004512,-0.001110,0.008884,0.172561,0.036548,324.945891,23.252780,0.999614,0.985670,0.004789,0.375556,0.000031,0.000019,-0.000011,0.000037,0.000013,-30.877359,0.000052,
2446,2458,4.12338702461102,-4.07083670353036,0.00227002483069327,0.004551,-0.000044,0.003843,0.194333,0.054496,323.904395,23.507946,0.999212,0.984998,0.004823,0.446979,0.000024,-0.000030,0.000004,0.000025,-0.000030,4.091557,0.000032,
2401,2533,3.1265986897894,-2.43206424135192,-0.0090478730490986,0.004794,-0.000082,0.002927,0.209371,0.053860,322.539899,23.879669,0.999429,0.988156,0.004497,0.421830,0.000000,-0.000005,0.000008,0.000005,-0.000010,36.521755,0.000010,
2371,3058,2.37345149749691,8.99555191372665,0.0126655836845089,0.004714,-0.000645,0.008122,0.187987,0.046993,314.122886,25.374621,0.999705,0.992836,0.003391,0.410264,0.000009,0.000019,-0.000006,0.000021,0.000007,-65.346926,0.000029,
2311,2998,1.08157717044361,7.68688342084916,0.0165752133955266,0.004967,-0.000613,0.005819,0.208646,0.031361,315.171365,24.983547,0.999891,0.996223,0.002907,0.455354,-0.000005,0.000018,-0.000006,0.000020,-0.000007,-76.973455,0.000020,
2506,2998,5.32095576656157,7.70210997821454,0.00266350488658418,0.004637,-0.000592,0.006303,0.188516,0.034597,315.247541,25.573959,0.999537,0.989276,0.003943,0.418280,0.000035,0.000036,0.000010,0.000045,0.000025,46.955741,0.000072,
2386,1993,2.90736824795006,-14.2636918085834,0.0455640381620697,0.004463,-0.000483,0.007615,0.176614,0.075119,331.677669,22.315634,0.998855,0.961110,0.007177,0.390042,-0.000001,0.000016,0.000032,0.000041,-0.000026,52.347475,0.000041,
2476,2848,4.69711119852849,4.43832522201878,-0.021521609388742,0.005118,-0.000544,0.004752,0.216889,0.037040,317.444509,24.885716,0.999320,0.987120,0.004264,0.463011,-0.000002,0.000022,-0.000019,0.000033,-0.000013,-61.184274,0.000033,
2191,2638,-1.46512299198873,-0.148507569462737,-0.0159690439639917,0.004984,-0.000180,0.003351,0.218704,0.049447,320.998785,24.260951,0.999519,0.988113,0.004263,0.512462,0.000011,0.000009,-0.000003,0.000014,0.000007,-37.337673,0.000021,
2461,2113,4.52219854406322,-11.6281309367033,0.0201752074899559,0.004956,-0.000622,0.005846,0.204433,0.040575,329.679984,22.202211,0.999438,0.976896,0.005826,0.398560,0.000026,-0.000024,0.000020,0.000033,-0.000030,19.052149,0.000037,
2401,2323,3.16822451171474,-7.02407877948452,0.0089327549361542,0.004458,-0.000534,0.007466,0.177089,0.077336,326.061772,23.209765,0.999412,0.987226,0.004401,0.456669,-0.000001,0.000013,0.000001,0.000013,-0.000001,84.923409,0.000014,
2461,2368,4.46939595983076,-6.03843020888821,0.00712368426411558,0.004754,-0.000300,0.004661,0.200133,0.048012,325.441443,23.214427,0.999622,0.986383,0.004949,0.360107,0.000025,0.000016,-0.000001,0.000025,0.000016,-5.095371,0.000042,
2476,2638,4.73985073705009,-0.13800760833179,-0.019260551585262,0.004929,-0.000331,0.004552,0.208776,0.046300,320.879414,24.094902,0.999683,0.989989,0.003814,0.467611,0.000022,0.000000,-0.000011,0.000026,-0.000004,-22.049054,0.000028,
2446,2473,4.12061163374016,-3.74346476905882,0.00852788888317946,0.004627,-0.000758,0.008200,0.181308,0.043067,323.700356,23.590545,0.999553,0.986837,0.004502,0.406333,0.000018,-0.000035,0.000004,0.000019,-0.000035,4.238101,0.000035,
2506,3013,5.31835986366177,8.02825760024424,0.00357370917299704,0.004874,-0.000279,0.004134,0.207954,0.033527,315.028965,25.645020,0.999527,0.990167,0.003763,0.406415,0.000029,0.000043,0.000005,0.000045,0.000028,71.323070,0.000073,
2476,2413,4.78763310471404,-5.05502377400168,0.00858811726442354,0.004642,-0.000572,0.005884,0.190148,0.056461,324.750497,23.241806,0.999549,0.986879,0.004633,0.464614,0.000022,0.000015,0.000005,0.000024,0.000012,26.966073,0.000037,
2461,2128,4.51964415309276,-11.2993003306193,0.0239486763193213,0.005092,-0.000647,0.005405,0.212338,0.034606,329.477282,22.276427,0.999467,0.975068,0.005994,0.375506,0.000032,-0.000022,0.000019,0.000038,-0.000028,17.255751,0.000040,
2386,2008,2.90377909184328,-13.9334244012961,0.0399174665363944,0.004398,-0.001399,0.009882,0.165251,0.027695,331.377888,22.411094,0.998745,0.971479,0.006289,0.294357,-0.000001,0.000007,0.000029,0.000032,-0.000027,48.715216,0.000035,
2506,3028,5.31554528697054,8.35360557046558,0.00733493897291737,0.004796,-0.000245,0.003697,0.206057,0.030792,314.813217,25.666994,0.999595,0.991619,0.003668,0.441994,0.000026,0.000051,0.000001,0.000051,0.000026,88.686918,0.000078,
2191,2653,-1.46804608405704,0.178456905484822,-0.0139899578781524,0.004830,-0.000787,0.008471,0.195407,0.044281,320.748716,24.313716,0.999573,0.989377,0.004069,0.469345,0.000010,0.000016,-0.000001,0.000016,0.000010,-82.541450,0.000026,
2371,3073,2.37123327116791,9.32083121168625,0.0137440146323797,0.004921,-0.000362,0.003437,0.214292,0.041909,313.912982,25.384501,0.999580,0.991665,0.003646,0.435600,0.000015,0.000020,-0.000005,0.000023,0.000012,-59.075267,0.000036,
2446,2488,4.11790966283119,-3.41683224361259,0.00732961085452644,0.004796,-0.000564,0.005502,0.199186,0.036838,323.465442,23.535843,0.999473,0.985796,0.004555,0.508234,0.000017,-0.000036,-0.000004,0.000018,-0.000036,-3.757884,0.000036,
2311,3013,1.07782189099536,8.0141143463464,0.00438692073026914,0.004899,-0.000713,0.005762,0.205694,0.027528,314.820742,25.066061,0.999541,0.990559,0.003749,0.400643,-0.000005,0.000013,-0.000007,0.000015,-0.000008,-71.648827,0.000015,
2476,2863,4.69436927396627,4.76423485294369,-0.0144134651871468,0.004973,-0.000629,0.006444,0.203757,0.037194,317.246094,24.939416,0.999162,0.985526,0.004465,0.465838,-0.000003,0.000037,-0.000016,0.000042,-0.000008,-70.693785,0.000045,
2476,2428,4.78459603431761,-4.72667780885337,0.00625730308473749,0.004961,-0.000526,0.007103,0.200191,0.069396,324.497568,23.294603,0.999362,0.986656,0.004663,0.483318,0.000020,0.000003,0.000013,0.000027,-0.000004,28.071299,0.000029,
2461,2383,4.46590761374073,-5.70995289504752,0.00124170965705162,0.004820,-0.000419,0.005102,0.201522,0.056017,325.150524,23.234480,0.999647,0.985825,0.004883,0.404405,0.000029,0.000011,-0.000013,0.000036,0.000004,-27.839327,0.000043,
2461,2143,4.51600670439199,-10.96933228123,0.0171758004254343,0.005048,-0.000393,0.005337,0.210718,0.048140,329.176643,22.326604,0.999002,0.975248,0.005991,0.396534,0.000035,-0.000016,0.000011,0.000037,-0.000018,12.181831,0.000037,
2476,2653,4.73687697425538,0.188900620666203,-0.0169902361266736,0.004881,-0.000451,0.005288,0.203726,0.041510,320.649275,24.148716,0.999638,0.989575,0.003910,0.466312,0.000020,0.000011,-0.000017,0.000033,-0.000002,-37.562338,0.000037,
2506,3043,5.31247857615412,8.68038055185711,0.00727389053412253,0.004976,-0.000545,0.005372,0.207736,0.022249,314.568247,25.804799,0.999717,0.992186,0.003767,0.355639,0.000029,0.000053,0.000010,0.000056,0.000025,70.535666,0.000083,
2446,2503,4.11444018584456,-3.08838299747747,0.0013801242602085,0.004658,-0.000529,0.003521,0.200269,0.033969,323.173032,23.606310,0.999568,0.988120,0.004236,0.488486,0.000015,-0.000022,-0.000003,0.000015,-0.000022,-3.916631,0.000022,
2476,2443,4.78081726651189,-4.39819257229256,0.00207429477706,0.004814,-0.001057,0.009721,0.183297,0.039123,324.202233,23.391438,0.999175,0.985545,0.004824,0.414238,0.000028,-0.000030,0.000006,0.000029,-0.000031,5.988366,0.000035,
2371,3088,2.36838286178873,9.64571184908703,0.021694845881882,0.004622,-0.000603,0.007232,0.186834,0.022142,313.707023,25.419956,0.999386,0.989958,0.003998,0.420251,0.000017,0.000016,-0.000011,0.000027,0.000006,-44.793977,0.000035,
2476,2668,4.73350754108418,0.515596834390109,-0.0206941654857928,0.004913,-0.000412,0.005818,0.203206,0.044940,320.373786,24.129476,0.999480,0.986942,0.004282,0.546283,0.000016,-0.000005,-0.000023,0.000031,-0.000020,-32.577240,0.000031,
2476,2878,4.69050018852546,5.09187180482401,-0.0225030733362814,0.004879,-0.000539,0.007035,0.197277,0.040989,316.926228,25.040353,0.998496,0.985390,0.004856,0.425055,0.000002,0.000045,-0.000010,0.000048,-0.000001,-77.372654,0.000055,
2311,3028,1.07590440162609,8.33922841893158,0.0127032471306165,0.005042,-0.000370,0.004525,0.216639,0.034718,314.656377,25.084314,0.999573,0.990823,0.003761,0.420966,-0.000002,0.000010,-0.000007,0.000013,-0.000005,-65.783398,0.000013,
2506,3058,5.30984154260822,9.00477168114784,0.014124713849526,0.004936,-0.000701,0.006427,0.201752,0.020252,314.374623,25.765213,0.999720,0.992002,0.003890,0.453634,0.000026,0.000046,0.000012,0.000052,0.000020,64.311810,0.000074,
2476,2458,4.77804656507406,-4.07022022724706,0.00237575979838311,0.004945,-0.000645,0.008158,0.195407,0.043539,323.973367,23.453644,0.999340,0.986192,0.004642,0.414339,0.000030,-0.000028,0.000006,0.000031,-0.000029,5.372493,0.000034,
2446,2518,4.11103575911029,-2.76053175051429,-0.0011774035565395,0.004708,-0.000809,0.006469,0.191484,0.033964,322.899215,23.655367,0.999348,0.985590,0.004546,0.492558,0.000011,-0.000022,-0.000001,0.000011,-0.000022,-2.151262,0.000022,
2476,2683,4.73015371192153,0.843679972327998,-0.0237387788981778,0.004904,-0.000694,0.006182,0.201312,0.034216,320.101667,24.262378,0.999612,0.988685,0.004077,0.459704,0.000013,0.000001,-0.000022,0.000030,-0.000016,-37.609451,0.000030,
2476,2893,4.68766163487987,5.41856037143725,-0.0211473661786385,0.004846,-0.000250,0.005463,0.201898,0.056979,316.696846,25.115804,0.998622,0.985843,0.004730,0.422030,0.000006,0.000045,-0.000011,0.000048,0.000003,-75.002687,0.000058,
2446,2533,4.10853155636185,-2.43073104375956,-0.00542204335300767,0.005170,-0.000039,0.001652,0.231002,0.061323,322.658480,23.845805,0.999336,0.986388,0.004559,0.383089,0.000008,-0.000010,-0.000001,0.000008,-0.000010,-1.800197,0.000011,
2476,2908,4.68513056331488,5.74386335793938,-0.013319920268998,0.004824,-0.000688,0.006833,0.195470,0.037773,316.511357,25.149540,0.998826,0.984231,0.004848,0.425220,0.000006,0.000029,-0.000004,0.000029,0.000005,-81.591640,0.000037,
2476,2698,4.72749486674519,1.17103741099504,-0.0215293481722938,0.004992,-0.000361,0.004705,0.211120,0.044311,319.885358,24.355718,0.999650,0.989045,0.004139,0.433366,0.000010,0.000009,-0.000023,0.000032,-0.000013,-44.537605,0.000032,
2446,2548,4.10474499963468,-2.1034581862295,-0.00877291558850857,0.004900,-0.000390,0.004609,0.207441,0.045833,322.363439,23.860816,0.999600,0.989026,0.004145,0.405589,0.000013,-0.000013,0.000001,0.000013,-0.000013,1.359751,0.000015,
