Image X[Pixel],Image Y[Pixel],X[mm],Y[mm],Z[mm],Horizontal Displacement U[mm],Vertical Displacement V[mm],Out-Of-Plane: W[mm],Horizontal: u[Pixel],Vertical: v[Pixel],Horizontal: q[Pixel],Vertical: r[Pixel],Correlation Value 2D,Correlation Value Persp,Sigma,Epipolar Distance,Strain-global frame: Exx,Strain-global frame: Eyy,Strain-global frame: Exy,Maximum Principal Strain: EI,Minimum Principal Strain: EII,Shear Angle Gamma,Von Mises Equivalent Strain,
2011,1993,-5.28376484203255,-14.2505211676492,0.0208364489415658,0.000898,0.001714,-0.009579,0.067563,0.024220,332.388835,24.974094,0.998396,0.983492,0.005406,0.324186,0.000007,-0.000268,0.000015,0.000008,-0.000269,3.133253,0.000306,
2026,2068,-4.96806715312905,-12.6078339573159,0.0248378766655151,0.000558,0.000536,-0.004149,0.037150,-0.005313,331.099066,24.786329,0.999708,0.992714,0.003594,0.346502,-0.000015,-0.000068,0.000038,0.000004,-0.000088,27.574170,0.000099,
2056,2218,-4.33749960699121,-9.31979278623004,0.00419442883804777,0.000956,0.001334,-0.006361,0.062202,0.038936,328.370264,24.659948,0.998432,0.982892,0.005299,0.305501,-0.000031,0.000013,0.000010,0.000015,-0.000033,77.849349,0.000033,
2041,2143,-4.65253692451372,-10.963900220462,0.0153720323282869,0.000879,0.000414,-0.003826,0.051079,-0.014486,329.742661,24.683618,0.998234,0.983370,0.005683,0.324381,-0.000045,-0.000016,0.000021,-0.000005,-0.000056,62.036501,0.000068,
2071,2293,-4.02293897358587,-7.67973799664826,-0.00856204566071028,0.001070,0.000880,-0.007021,0.069432,0.003542,326.984815,24.480899,0.999767,0.993845,0.003714,0.373264,-0.000025,-0.000012,-0.000008,-0.000009,-0.000028,-64.698687,0.000039,
2086,2368,-3.70827259541604,-6.04098617291208,-0.0121025681524429,0.001097,0.000415,-0.006468,0.069162,-0.011482,325.670340,24.391732,0.998204,0.982806,0.005418,0.391563,-0.000011,0.000003,-0.000004,0.000004,-0.000012,-76.909322,0.000013,
2011,2008,-5.28680756695541,-13.9201736064481,0.0123951049698121,0.000856,0.000623,-0.003701,0.049456,0.006040,332.060550,25.011417,0.998677,0.985004,0.005131,0.260996,0.000027,-0.000170,0.000074,0.000051,-0.000194,18.431066,0.000201,
2206,2968,-1.19811578081706,7.03094469991583,-0.00622439268636299,0.001405,0.000797,-0.006026,0.084198,0.033355,315.535544,24.744856,0.999318,0.992259,0.003678,0.367241,-0.000020,-0.000007,0.000005,-0.000006,-0.000022,70.102538,0.000029,
2026,2083,-4.97078437694877,-12.2791011052258,0.0249821986504912,0.000375,-0.000334,0.001802,0.012204,-0.030313,330.835271,24.808265,0.999321,0.988088,0.004441,0.293430,-0.000021,-0.000017,0.000031,0.000012,-0.000050,47.224076,0.000052,
2146,2668,-2.45238379020206,0.504549559936947,-0.0272354742025414,0.001169,0.000859,-0.006589,0.074075,0.025688,320.430808,24.345194,0.999570,0.992766,0.003532,0.453031,-0.000016,-0.000016,-0.000004,-0.000012,-0.000020,-45.018930,0.000033,
2191,2893,-1.51215531036453,5.40104527843815,-0.0178423863616217,0.001049,0.000314,-0.004799,0.063498,0.009571,316.684554,24.615721,0.999751,0.995696,0.003028,0.364648,-0.000013,-0.000004,0.000006,-0.000001,-0.000016,62.154822,0.000020,
2251,3193,-0.259188729845821,11.91359459221,0.0349778126511637,0.000801,0.000123,-0.000010,0.037030,0.010534,312.048775,25.191997,0.999460,0.993633,0.003309,0.345548,-0.000021,-0.000007,-0.000004,-0.000006,-0.000022,-75.954691,0.000029,
2161,2743,-2.13956913966367,2.13814866286485,-0.0318821828088289,0.001095,-0.000024,-0.001749,0.055736,-0.012392,319.100098,24.426136,0.999321,0.991010,0.003975,0.379681,-0.000023,-0.000024,-0.000002,-0.000021,-0.000026,-40.025143,0.000047,
2236,3118,-0.572714186793892,10.2871069955403,0.0131067297599543,0.000830,0.000177,-0.001888,0.044454,0.010611,313.132173,25.006095,0.999557,0.993119,0.003504,0.361137,-0.000029,-0.000020,-0.000005,-0.000018,-0.000031,-66.089854,0.000050,
2116,2518,-3.08072749832057,-2.76480874067964,-0.0261137133848024,0.000705,0.000401,-0.004933,0.047151,0.001262,322.967642,24.377253,0.999266,0.988797,0.004252,0.367113,-0.000012,-0.000022,-0.000009,-0.000007,-0.000027,-30.195429,0.000036,
2266,3268,0.0511527441421507,13.5411505953663,0.0117350420869116,0.000870,0.000066,-0.000513,0.041896,0.010253,310.601481,25.310419,0.999595,0.994005,0.003264,0.418923,-0.000013,0.000007,-0.000003,0.000007,-0.000013,-82.543686,0.000013,
2356,2323,2.18166009210981,-7.02410048828214,-0.00163687275284019,0.000155,0.000308,0.000941,0.003947,0.020284,325.771221,23.348063,0.999686,0.994881,0.003530,0.435237,-0.000049,-0.000027,-0.000001,-0.000027,-0.000049,-88.356233,0.000077,
2461,2848,4.36580213948527,4.43923795350327,-0.038849475535244,0.001178,0.000327,-0.003584,0.067730,0.007302,317.114967,24.928318,0.999719,0.994173,0.003179,0.370889,-0.000055,-0.000018,-0.000018,-0.000010,-0.000063,-67.757757,0.000079,
2131,2593,-2.76673766582889,-1.12914448393705,-0.0304168077279314,0.000987,0.000487,-0.003967,0.057465,0.025626,321.663533,24.346722,0.999414,0.991180,0.004053,0.426592,-0.000016,-0.000020,-0.000003,-0.000014,-0.000022,-24.808745,0.000036,
2176,2818,-1.82680860835951,3.77175204060675,-0.0366618792069744,0.000734,0.000537,-0.004416,0.047716,0.020418,317.779917,24.553911,0.999280,0.991896,0.003799,0.351010,-0.000016,-0.000011,0.000001,-0.000010,-0.000017,75.400871,0.000027,
2431,2698,3.74240586321293,1.17085142274571,-0.0307413942463199,0.000412,0.000516,-0.004605,0.036145,0.003452,319.541076,24.481817,0.999745,0.992964,0.003524,0.273273,-0.000041,0.000006,-0.000016,0.000011,-0.000046,-72.554082,0.000048,
2026,2098,-4.97259752643352,-11.9495999883096,0.0232648767023989,0.000614,0.000339,-0.002141,0.034163,-0.001908,330.601970,24.831841,0.998941,0.983033,0.005221,0.291584,-0.000024,-0.000028,0.000026,0.000001,-0.000052,42.881818,0.000060,
2011,2023,-5.2888444612826,-13.592155195417,0.0125870546515898,0.000867,0.001040,-0.004958,0.053518,-0.013536,331.826762,24.942113,0.998691,0.984074,0.005212,0.302453,-0.000004,-0.000216,0.000039,0.000003,-0.000223,10.074293,0.000255,
2101,2443,-3.39346039206051,-4.40266114731661,-0.013488563411272,0.001521,0.000561,-0.004354,0.082846,0.024193,324.389188,24.363976,0.999349,0.989036,0.004308,0.418680,-0.000011,-0.000031,-0.000011,-0.000006,-0.000036,-24.269420,0.000045,
2296,2023,0.930261928032881,-13.6016439457775,0.0239650025108062,0.000864,0.000457,-0.003060,0.049991,0.018287,330.888363,22.894039,0.999009,0.983514,0.005344,0.461881,-0.000066,0.000001,-0.000011,0.000003,-0.000068,-80.940486,0.000076,
2311,2098,1.2437724839541,-11.9530636671585,0.0112395898590307,0.001193,0.000743,-0.005226,0.072688,0.016814,329.586210,23.112629,0.999340,0.983289,0.005268,0.318183,-0.000055,-0.000002,-0.000012,0.000001,-0.000057,-77.716533,0.000066,
2446,2773,4.0539777701713,2.80404246477587,-0.0364302144621433,0.000646,0.000052,-0.004589,0.046755,-0.028384,318.308911,24.576017,0.999569,0.989760,0.004088,0.407030,-0.000044,-0.000019,-0.000018,-0.000010,-0.000053,-62.845616,0.000067,
2371,2398,2.49496042658375,-5.38266446573639,-0.00731112451228455,0.000684,0.000665,-0.002501,0.040516,0.029993,324.551691,23.530970,0.999308,0.989211,0.004501,0.418785,-0.000020,-0.000009,0.000014,0.000000,-0.000029,55.861422,0.000034,
2326,2173,1.55619539337039,-10.3082095773881,0.00934155830339023,0.000468,0.000094,0.000331,0.020352,0.003552,328.302450,23.264679,0.998660,0.980998,0.005412,0.249337,-0.000041,-0.000008,-0.000012,-0.000004,-0.000045,-72.257773,0.000055,
2221,3043,-0.885862036130749,8.65924187794884,0.00532487844077423,0.000793,0.000012,0.001232,0.032646,0.018100,314.316920,24.863408,0.999683,0.994438,0.003130,0.361740,-0.000024,-0.000022,-0.000006,-0.000017,-0.000029,-49.433721,0.000046,
2206,2983,-1.20137389166343,7.35711570547137,-0.0108340321139053,0.001001,0.000771,-0.007025,0.068738,0.025610,315.236819,24.775405,0.999372,0.992723,0.003548,0.344845,-0.000019,-0.000011,0.000004,-0.000010,-0.000021,67.041803,0.000031,
2416,2623,3.43087495755072,-0.467035642608934,-0.0277658138272727,0.000830,-0.000125,-0.002296,0.046457,-0.001667,320.776021,24.089601,0.999271,0.989319,0.004131,0.421539,-0.000028,-0.000018,-0.000008,-0.000013,-0.000033,-61.153714,0.000047,
2011,2038,-5.29091834190951,-13.2628707217184,0.00643882301272924,0.001250,0.000749,-0.005889,0.073513,-0.010131,331.555545,24.899507,0.998194,0.981576,0.005531,0.340125,-0.000015,-0.000212,0.000028,-0.000012,-0.000216,7.953171,0.000257,
2086,2383,-3.71111715753927,-5.71200259676831,-0.0158985379581509,0.000883,0.000489,-0.005660,0.057076,0.009839,325.384208,24.460624,0.998010,0.982922,0.005448,0.344664,-0.000015,0.000002,-0.000007,0.000004,-0.000018,-69.564194,0.000019,
2386,2473,2.80739245909423,-3.74150847893398,-0.0179636549261772,0.000977,0.001301,-0.005994,0.066833,0.045056,323.282305,23.767840,0.999405,0.989523,0.004370,0.374383,-0.000020,-0.000042,0.000018,-0.000010,-0.000052,29.051696,0.000067,
2266,3283,0.0474994890523845,13.8664982174056,0.00207397858531522,0.000574,0.000036,-0.001371,0.031086,0.006714,310.263533,25.318138,0.999434,0.993834,0.003278,0.431712,-0.000013,0.000011,-0.000003,0.000012,-0.000014,-83.985536,0.000015,
2161,2758,-2.14240701779245,2.46400774335924,-0.0267504861755015,0.000577,-0.000279,0.000600,0.024646,-0.008505,318.868536,24.424769,0.998968,0.988966,0.004208,0.394901,-0.000021,-0.000024,-0.000002,-0.000020,-0.000025,-28.000793,0.000045,
2401,2548,3.11973653807751,-2.1048375953492,-0.0155762573508014,0.000990,0.000182,-0.001820,0.052083,0.002168,322.084846,23.898725,0.999341,0.990589,0.004411,0.397991,-0.000023,-0.000045,0.000001,-0.000023,-0.000045,2.878088,0.000069,
2026,2113,-4.97481681632781,-11.6201814320141,0.0125834338571735,0.001291,0.000119,-0.001025,0.062104,-0.017370,330.300618,24.799889,0.998455,0.980201,0.005773,0.301849,-0.000030,-0.000047,0.000026,-0.000011,-0.000066,36.257865,0.000083,
2251,3208,-0.261905448518906,12.2382214259036,0.0342306221481294,0.000637,-0.000248,-0.002697,0.038157,-0.011990,311.798354,25.179692,0.999729,0.996033,0.002868,0.357259,-0.000020,-0.000008,-0.000004,-0.000007,-0.000021,-71.700852,0.000029,
2146,2683,-2.45561699015717,0.831881991453145,-0.0322209110658491,0.001104,-0.000029,-0.001180,0.054379,-0.006326,320.126245,24.409999,0.999285,0.991645,0.003756,0.364375,-0.000014,-0.000012,-0.000005,-0.000008,-0.000017,-51.436803,0.000026,
2116,2533,-3.08346434297217,-2.43787261735397,-0.0248461766547052,0.000444,0.000587,-0.002549,0.028164,0.026995,322.716713,24.352972,0.999163,0.987394,0.004546,0.421579,-0.000017,-0.000020,0.000000,-0.000017,-0.000020,-0.747023,0.000037,
2041,2158,-4.65610348178231,-10.6325096490553,-0.000502999564275797,0.000820,-0.000175,0.001208,0.034269,-0.013407,329.352330,24.778984,0.999323,0.987850,0.004636,0.226249,-0.000052,-0.000031,0.000006,-0.000029,-0.000054,74.454373,0.000085,
2071,2308,-4.026066318996,-7.35023794319133,-0.0221482638633574,0.000994,0.001111,-0.008593,0.070471,-0.000725,326.630949,24.497612,0.999794,0.993446,0.003842,0.351877,-0.000028,-0.000024,-0.000020,-0.000006,-0.000045,-47.957480,0.000056,
2056,2233,-4.34049372487267,-8.99198180329523,-0.00244407224028009,0.000781,0.000156,-0.003949,0.047001,-0.005456,328.059493,24.602396,0.999165,0.988780,0.004552,0.316222,-0.000032,0.000007,0.000009,0.000009,-0.000034,77.332833,0.000035,
2461,2863,4.36297948545471,4.76503211902909,-0.0308246428666052,0.000815,0.000183,-0.002375,0.046488,0.012294,316.916147,24.974455,0.999499,0.992260,0.003530,0.383664,-0.000047,-0.000008,-0.000015,-0.000003,-0.000052,-71.802698,0.000062,
2236,3133,-0.575668220237645,10.6129703104066,0.00979718358809123,0.000778,0.000386,-0.001818,0.041967,0.024776,312.856334,25.037178,0.999593,0.993421,0.003560,0.364305,-0.000030,-0.000012,-0.000004,-0.000011,-0.000030,-78.917032,0.000043,
2431,2713,3.74043107577218,1.49554809460825,-0.0216004401204373,0.000697,0.000380,-0.004153,0.047492,0.002847,319.385637,24.401963,0.999702,0.992593,0.003583,0.402720,-0.000045,0.000003,-0.000017,0.000008,-0.000051,-72.249500,0.000055,
2356,2338,2.1790422761926,-6.69419514298828,-0.00714203046874218,0.000480,0.000481,-0.003349,0.033928,0.008885,325.511973,23.504774,0.999392,0.990325,0.004246,0.307936,-0.000044,-0.000022,-0.000001,-0.000022,-0.000044,-87.702763,0.000067,
2011,2053,-5.29372320576754,-12.9339124324173,0.0147430390327372,0.000668,-0.000127,0.003558,0.021005,0.011130,331.331706,24.976960,0.999377,0.991483,0.003893,0.275377,-0.000019,-0.000117,0.000030,-0.000010,-0.000126,15.477431,0.000151,
2026,2128,-4.97720086090099,-11.2909767886543,0.00842964019000192,0.001314,0.000239,-0.001565,0.064654,0.010786,330.027824,24.782416,0.998541,0.979689,0.005942,0.340809,-0.000041,-0.000047,0.000024,-0.000020,-0.000068,41.701168,0.000093,
2341,2248,1.86912492354147,-8.66498099971754,-0.00248015592831052,0.000759,0.000338,-0.000719,0.037427,0.012730,327.008053,23.279945,0.998989,0.983924,0.005045,0.359502,-0.000044,-0.000031,-0.000012,-0.000024,-0.000051,-59.392067,0.000076,
2131,2608,-2.76889702889157,-0.802818530611603,-0.0258628315642113,0.000929,0.000348,-0.004581,0.056516,-0.015993,321.458072,24.385608,0.999408,0.990615,0.004162,0.352197,-0.000017,-0.000025,-0.000001,-0.000017,-0.000025,-10.793531,0.000042,
2101,2458,-3.39655928857645,-4.07496911226481,-0.0162331960121946,0.001085,0.000490,-0.002534,0.057471,0.024583,324.098811,24.371961,0.999414,0.989388,0.004176,0.413778,-0.000008,-0.000032,-0.000015,-0.000001,-0.000039,-24.874924,0.000046,
2176,2833,-1.82924936378995,4.09761216827681,-0.0412403605132567,0.001271,0.000276,-0.002515,0.066395,0.001985,317.516645,24.522459,0.999581,0.994957,0.003264,0.375950,-0.000015,-0.000001,0.000002,-0.000001,-0.000015,84.055415,0.000018,
2311,2113,1.24124828758417,-11.626206746807,0.0191718481505632,0.000969,0.000011,-0.003107,0.054965,-0.021237,329.394043,23.077957,0.999233,0.983290,0.005208,0.349620,-0.000053,0.000003,-0.000012,0.000006,-0.000056,-78.806471,0.000061,
2041,2173,-4.65749251096069,-10.3051985696773,0.00293318897934114,0.001075,0.000731,-0.004717,0.062669,0.006665,329.168729,24.695284,0.999356,0.989421,0.004300,0.324732,-0.000056,-0.000017,0.000001,-0.000017,-0.000056,88.366747,0.000077,
2446,2788,4.05129506117578,3.13094275020287,-0.0335918022685746,0.000687,0.000389,-0.005119,0.050804,-0.002567,318.091815,24.643302,0.999523,0.990027,0.003958,0.417766,-0.000043,-0.000019,-0.000023,-0.000005,-0.000057,-59.004872,0.000069,
2386,2488,2.8042987804659,-3.41439688098156,-0.0171901007724387,0.000865,0.000820,-0.004089,0.054657,0.024737,323.033664,23.790524,0.999429,0.989798,0.004183,0.375803,-0.000012,-0.000045,0.000013,-0.000008,-0.000049,19.322059,0.000062,
2416,2638,3.42830217841286,-0.139230075961656,-0.0241683076699815,0.000944,0.000186,-0.001999,0.050684,-0.002401,320.565980,24.228398,0.999379,0.989766,0.004087,0.330427,-0.000036,-0.000014,-0.000008,-0.000011,-0.000038,-71.202177,0.000052,
2161,2773,-2.14500375158303,2.79122784850658,-0.0345561216126953,0.000868,-0.000115,-0.001581,0.044781,-0.008356,318.579448,24.454541,0.999345,0.991646,0.003815,0.375447,-0.000016,-0.000019,-0.000001,-0.000016,-0.000019,-13.872693,0.000036,
2266,3298,0.0451784631409389,14.1919176502479,0.00795212397997602,0.000489,-0.000100,-0.002222,0.029891,-0.010895,310.065311,25.434877,0.999525,0.994208,0.003267,0.320915,-0.000006,0.000017,-0.000007,0.000019,-0.000008,-74.157841,0.000019,
2296,2038,0.928029031770247,-13.270889594899,0.0298145363274216,0.000852,0.000633,-0.004075,0.052964,-0.001226,330.697899,23.147136,0.999243,0.985511,0.004903,0.222309,-0.000063,-0.000006,-0.000014,-0.000003,-0.000066,-77.013816,0.000078,
2251,3223,-0.264303101196599,12.5628850539568,0.0467333725990215,0.000313,-0.000002,0.001169,0.010753,0.030128,311.629883,25.186011,0.999680,0.995501,0.003003,0.415138,-0.000020,0.000003,-0.000006,0.000004,-0.000022,-75.158042,0.000023,
2401,2563,3.11582087923641,-1.77672206120042,-0.0214168578965541,0.000532,0.000358,-0.000919,0.027888,0.019551,321.767864,23.941518,0.999266,0.988975,0.004339,0.419173,-0.000026,-0.000033,-0.000001,-0.000026,-0.000034,-5.223332,0.000060,
2116,2548,-3.08602582623231,-2.11093052300723,-0.0269690445009587,0.000716,0.000053,0.001907,0.027296,0.007787,322.455768,24.348516,0.999205,0.989072,0.004286,0.411410,-0.000016,-0.000019,0.000002,-0.000015,-0.000020,22.673502,0.000035,
2371,2413,2.49247005968487,-5.0541933263935,-0.00641372963565345,0.000967,0.000657,-0.002846,0.054714,0.026809,324.330149,23.636818,0.999521,0.989986,0.004268,0.352235,-0.000026,-0.000012,0.000015,-0.000002,-0.000036,57.382287,0.000042,
2191,2908,-1.51467119689961,5.72530081332032,-0.0101514105364231,0.000825,0.000164,-0.001108,0.041553,0.014324,316.483393,24.524027,0.999736,0.995459,0.003122,0.475274,-0.000010,-0.000018,0.000004,-0.000008,-0.000020,23.956975,0.000029,
2221,3058,-0.88751801964732,8.98393454231261,0.0115547399389015,0.001036,0.000347,-0.002977,0.057467,0.020011,314.149166,24.839931,0.999742,0.995009,0.002914,0.405087,-0.000021,-0.000025,-0.000008,-0.000015,-0.000032,-38.939285,0.000047,
2026,2143,-4.97899241696804,-10.9630590555723,0.00609653370247543,0.001567,0.000794,-0.006191,0.089143,-0.005584,329.792674,24.717370,0.998163,0.980874,0.005753,0.382766,-0.000040,-0.000003,0.000022,0.000007,-0.000050,65.042455,0.000054,
2011,2068,-5.29562428922633,-12.6065354814502,0.0191837164333606,0.000386,0.000309,-0.000797,0.019972,0.004316,331.127975,24.899756,0.999423,0.991743,0.003839,0.336926,-0.000022,-0.000047,0.000038,0.000006,-0.000075,36.128125,0.000083,
2326,2188,1.55454781933421,-9.98152540680979,0.0164058178389155,0.000683,0.000435,-0.004501,0.046949,-0.016616,328.146949,23.211233,0.998927,0.983562,0.005212,0.319046,-0.000044,-0.000002,-0.000012,0.000001,-0.000047,-75.252373,0.000054,
2086,2398,-3.71350606371461,-5.38475157324835,-0.0141183215917522,0.000682,0.000757,-0.006185,0.049419,0.018224,325.149626,24.442800,0.998585,0.985531,0.004937,0.371378,-0.000016,-0.000003,-0.000012,0.000004,-0.000023,-59.608670,0.000025,
2356,2353,2.17691559312266,-6.36902715779819,-0.00428236714833474,0.000937,0.000285,-0.003487,0.055303,-0.012907,325.316145,23.326025,0.999397,0.990535,0.004365,0.505273,-0.000039,-0.000009,0.000006,-0.000008,-0.000040,79.423725,0.000052,
2071,2323,-4.02749979409497,-7.02407157499407,-0.00750003783235798,0.001198,0.000655,-0.004492,0.068031,0.006961,326.509312,24.484311,0.999220,0.989038,0.004428,0.371133,-0.000028,-0.000040,-0.000026,-0.000007,-0.000061,-38.665941,0.000074,
2461,2878,4.35959482640768,5.09170599654322,-0.0316058533940122,0.000773,0.000079,0.000700,0.032976,0.030311,316.650823,25.027149,0.999376,0.992739,0.003566,0.403142,-0.000049,0.000003,-0.000009,0.000005,-0.000051,-80.065853,0.000056,
2206,2998,-1.20391260349871,7.68235598946527,-0.00857802210930458,0.001213,0.000356,-0.002649,0.064480,0.025490,315.006938,24.763914,0.999362,0.992437,0.003654,0.372118,-0.000022,-0.000010,0.000004,-0.000009,-0.000023,74.861651,0.000033,
2146,2698,-2.45863838597654,1.15886967402816,-0.0369196621207948,0.000863,0.000173,-0.001285,0.043685,0.015118,319.832839,24.397502,0.999341,0.991444,0.003815,0.406826,-0.000013,-0.000019,-0.000002,-0.000013,-0.000020,-18.473609,0.000033,
2056,2248,-4.34251536219457,-8.66429007865115,-7.57866589538025E-05,0.000896,0.000333,-0.003557,0.051230,0.004585,327.842365,24.577990,0.999005,0.986688,0.004782,0.347509,-0.000039,0.000014,0.000002,0.000014,-0.000039,88.085155,0.000040,
2041,2188,-4.6595452494946,-9.97658033109073,0.00211159617737167,0.001292,0.000997,-0.004793,0.072937,0.044733,328.930997,24.672947,0.999207,0.986600,0.004731,0.380468,-0.000050,-0.000011,0.000003,-0.000011,-0.000051,85.356552,0.000065,
2431,2728,3.73731431404047,1.82139830507811,-0.0212531033694745,0.000828,-0.000245,-0.000368,0.039304,-0.007991,319.136580,24.371016,0.999712,0.993032,0.003469,0.472940,-0.000049,-0.000005,-0.000013,-0.000002,-0.000052,-74.712909,0.000062,
2446,2803,4.04834449132425,3.45853611136726,-0.0357767040483168,0.000920,0.000402,-0.005108,0.061458,-0.004019,317.839049,24.767023,0.999609,0.991046,0.003743,0.344678,-0.000045,-0.000025,-0.000022,-0.000010,-0.000059,-57.213990,0.000075,
2131,2623,-2.77151537496308,-0.475852846134153,-0.0238100315822862,0.000740,0.000514,-0.002722,0.042333,0.010253,321.217875,24.398310,0.999462,0.991015,0.003975,0.372041,-0.000017,-0.000034,-0.000003,-0.000017,-0.000034,-8.435377,0.000051,
2101,2473,-3.39931699049906,-3.74741017219304,-0.0178334697170044,0.000886,0.000174,-0.001251,0.044484,0.021704,323.830256,24.386784,0.999359,0.990000,0.004126,0.398745,-0.000006,-0.000023,-0.000007,-0.000004,-0.000025,-19.617727,0.000031,
2236,3148,-0.577222667870007,10.9372266840303,0.0184584473907989,0.001175,0.000241,-0.003203,0.064678,0.015413,312.706605,25.020555,0.999249,0.991977,0.003755,0.391526,-0.000027,-0.000007,-0.000004,-0.000006,-0.000028,-78.148440,0.000037,
2176,2848,-1.83118537334087,4.4229952707275,-0.031214278544212,0.001156,0.000188,-0.003100,0.062931,0.006527,317.353143,24.538367,0.999299,0.992816,0.003538,0.376706,-0.000013,0.000003,0.000002,0.000003,-0.000013,82.965957,0.000014,
2026,2158,-4.98210520751887,-10.6332880534895,0.00935295979479633,0.000878,-0.000121,0.000677,0.038413,-0.010593,329.527873,24.875396,0.999190,0.987124,0.004682,0.212905,-0.000048,-0.000024,0.000002,-0.000023,-0.000048,84.534933,0.000073,
2251,3238,-0.267266270381871,12.8878451915255,0.0365358852080817,0.000465,0.000338,-0.003127,0.031831,0.010653,311.319926,25.154812,0.999796,0.996365,0.002735,0.448895,-0.000020,-0.000002,-0.000009,0.000001,-0.000024,-67.504325,0.000027,
2011,2083,-5.29785764655003,-12.276852993333,0.0106295743336204,0.000716,0.000069,-0.002508,0.039651,0.000140,330.836072,24.891676,0.998812,0.984770,0.005113,0.332635,-0.000028,0.000002,0.000030,0.000020,-0.000046,58.764925,0.000046,
2311,2128,1.23823399538177,-11.2947992529665,0.0152461825226169,0.000601,0.001134,-0.008531,0.056962,0.007314,329.120428,23.268028,0.999157,0.984790,0.005049,0.223622,-0.000049,0.000010,-0.000014,0.000013,-0.000052,-77.020385,0.000054,
2341,2263,1.86636049316312,-8.33728955348689,0.00467964571151924,0.000457,0.000232,0.001969,0.014182,0.012290,326.802444,23.324695,0.999079,0.985173,0.004889,0.353174,-0.000043,-0.000036,-0.000015,-0.000024,-0.000055,-51.379855,0.000082,
2386,2503,2.80139099438862,-3.08717667683413,-0.0115225543523252,0.000558,0.000328,-0.002165,0.033519,0.016864,322.816629,23.859926,0.999570,0.991352,0.003847,0.342773,-0.000017,-0.000045,0.000012,-0.000013,-0.000050,20.518855,0.000066,
2416,2653,3.42530088004927,0.187640897652685,-0.0218615325636051,0.001011,-0.000033,0.001827,0.039724,0.011749,320.330297,24.259920,0.999503,0.990023,0.004085,0.361188,-0.000039,-0.000010,-0.000013,-0.000006,-0.000044,-69.370857,0.000054,
2281,1993,0.608319777460562,-14.2576839734785,0.0269276329780155,0.001039,0.000903,-0.002845,0.057369,0.026577,331.416277,23.165354,0.999269,0.971280,0.006654,0.237550,-0.000060,-0.000017,-0.000019,-0.000010,-0.000067,-69.287034,0.000084,
2161,2788,-2.1470066096277,3.11724257759216,-0.0293590899363494,0.000947,0.000116,-0.002760,0.052084,-0.011990,318.386482,24.483695,0.999478,0.991637,0.003877,0.352555,-0.000021,-0.000018,-0.000003,-0.000016,-0.000023,-58.415355,0.000039,
2461,2893,4.35658111530339,5.41841847718894,-0.0257279052696617,0.000381,-0.000015,0.001677,0.011311,0.035064,316.433001,25.149463,0.999185,0.990798,0.003934,0.339361,-0.000044,-0.000003,-0.000009,-0.000001,-0.000045,-78.760566,0.000053,
2326,2203,1.55161997043289,-9.65149001271232,0.0080945383647304,0.000859,0.000978,-0.008549,0.069096,-0.004764,327.857349,23.275324,0.998960,0.983479,0.005394,0.304074,-0.000047,-0.000004,-0.000012,-0.000001,-0.000050,-75.429518,0.000058,
2401,2578,3.11287618578686,-1.44884461420685,-0.0247580018397571,0.000523,0.000251,-0.004125,0.039063,0.006611,321.507304,24.020030,0.999265,0.988525,0.004365,0.373960,-0.000026,-0.000020,0.000001,-0.000020,-0.000026,83.852009,0.000046,
2296,2053,0.925364791487315,-12.9414193508722,0.024799757633275,0.001231,0.000814,-0.004596,0.072113,0.008222,330.434051,23.137813,0.999248,0.984081,0.004974,0.274620,-0.000059,-0.000011,-0.000017,-0.000006,-0.000065,-72.048025,0.000079,
2056,2263,-4.34491593971443,-8.33569521273562,-0.00280644075468217,0.001103,0.000027,-0.000739,0.052772,0.003471,327.579806,24.600119,0.999025,0.985264,0.005128,0.321499,-0.000041,0.000001,-0.000002,0.000001,-0.000041,-87.528672,0.000047,
2431,2743,3.73399395532782,2.14959767623792,-0.0244069607710458,0.000683,-0.000058,-0.001121,0.035479,-0.002998,318.861262,24.516733,0.999610,0.991536,0.003688,0.382312,-0.000049,-0.000007,-0.000016,-0.000002,-0.000055,-71.648625,0.000064,
2116,2563,-3.08819091378621,-1.78351086718413,-0.0264614404519534,0.000783,0.000209,-0.000348,0.037084,-0.007536,322.226946,24.412054,0.999224,0.988774,0.004423,0.336756,-0.000016,-0.000026,-0.000005,-0.000014,-0.000028,-23.742863,0.000043,
2101,2488,-3.40148921373964,-3.42026766734845,-0.0220468664275018,0.001064,0.000841,-0.005764,0.066023,0.011755,323.574514,24.351637,0.999246,0.990312,0.004054,0.426618,-0.000014,-0.000015,-0.000009,-0.000005,-0.000023,-43.216695,0.000031,
2191,2923,-1.51723365652091,6.05233154588213,-0.0102877800133001,0.000894,0.000020,-0.000453,0.042613,-0.001942,316.238489,24.655808,0.999240,0.992292,0.003759,0.340961,-0.000014,-0.000018,0.000007,-0.000009,-0.000023,36.587784,0.000033,
2086,2413,-3.71579842869791,-5.05830085515936,-0.00864486880817594,0.000568,0.000297,-0.003191,0.035391,0.007716,324.939779,24.410369,0.998646,0.986643,0.004703,0.393944,-0.000012,-0.000015,-0.000014,0.000000,-0.000027,-42.265862,0.000031,
2011,2098,-5.3003142747442,-11.9465887005678,0.00437361288322791,0.000607,0.000883,-0.005573,0.043175,0.028623,330.546549,24.935866,0.998366,0.980278,0.005750,0.308244,-0.000029,-0.000015,0.000022,0.000001,-0.000045,54.360852,0.000051,
2146,2713,-2.46123863324422,1.48556357607074,-0.0364444693261134,0.000681,0.000128,-0.001716,0.036594,0.007391,319.586317,24.434186,0.999394,0.992647,0.003804,0.370405,-0.000011,-0.000017,-0.000001,-0.000011,-0.000017,-4.438909,0.000028,
2206,3013,-1.20642543701321,8.00700052646357,0.000576576084483804,0.000858,-0.000088,0.000071,0.039288,-0.001124,314.814173,24.774055,0.999317,0.992373,0.003642,0.351113,-0.000019,-0.000013,0.000002,-0.000012,-0.000020,71.180374,0.000032,
2371,2428,2.48891947194674,-4.7274467516763,-0.012737382755688,0.000690,0.000633,-0.003789,0.045335,0.019600,324.025759,23.525663,0.999694,0.993098,0.003906,0.499116,-0.000024,-0.000025,0.000014,-0.000011,-0.000039,44.089955,0.000052,
2221,3073,-0.890444787576818,9.30959407065793,0.0148818290913368,0.000635,0.000234,-0.001209,0.033305,0.020656,313.907747,24.891413,0.999586,0.993976,0.003200,0.372073,-0.000021,-0.000020,-0.000010,-0.000010,-0.000030,-45.871816,0.000042,
2356,2368,2.17351681137582,-6.03851220045255,-0.00480100939626027,0.000749,0.000518,0.000649,0.032296,0.046941,325.044533,23.527078,0.999068,0.986766,0.004724,0.405063,-0.000038,-0.000010,0.000006,-0.000009,-0.000040,78.066173,0.000052,
2041,2203,-4.66225394064834,-9.64759115214366,-0.0043314217103898,0.001060,0.001127,-0.007168,0.068920,0.029886,328.632463,24.683865,0.998695,0.983429,0.005258,0.349887,-0.000040,0.000005,0.000003,0.000006,-0.000040,85.632987,0.000043,
2071,2338,-4.02969610629295,-6.69701060729659,-0.00192265777411649,0.000824,0.000851,-0.006532,0.056743,0.014428,326.303120,24.466874,0.998793,0.987168,0.004680,0.394407,-0.000024,-0.000034,-0.000017,-0.000011,-0.000047,-36.190222,0.000062,
2251,3253,-0.270838868260483,13.2144990859883,0.0252798982128297,0.000529,0.000199,-0.001272,0.028679,0.012605,310.975864,25.257813,0.999644,0.994745,0.003106,0.369572,-0.000022,0.000001,-0.000006,0.000002,-0.000024,-76.477289,0.000026,
2446,2818,4.04561369657592,3.78367676298705,-0.0310229113228502,0.000784,0.000484,-0.005201,0.055644,0.017061,317.628861,24.700228,0.999486,0.990958,0.003885,0.484732,-0.000051,-0.000033,-0.000024,-0.000016,-0.000068,-55.187082,0.000089,
2176,2863,-1.83313781213061,4.74810909044586,-0.0229466240788838,0.001028,0.000246,-0.005395,0.064159,-0.001375,317.179782,24.531825,0.998863,0.989768,0.003995,0.387112,-0.000010,0.000002,0.000001,0.000002,-0.000010,85.415493,0.000011,
2131,2638,-2.7729451178391,-0.150964724147414,-0.00698018664184019,0.000630,0.000144,-0.003003,0.037998,-0.004554,321.111631,24.390509,0.999728,0.993782,0.003294,0.370867,-0.000015,-0.000029,-0.000001,-0.000015,-0.000029,-4.342950,0.000045,
2281,2008,0.605954047830636,-13.9290723384974,0.0267182941184387,0.001333,0.000717,-0.003266,0.072179,0.010163,331.188806,23.140618,0.999241,0.984166,0.005206,0.277204,-0.000058,-0.000018,-0.000011,-0.000015,-0.000061,-75.617565,0.000080,
2056,2278,-4.34747327786872,-8.00609812590523,-0.00612702461404524,0.000925,0.000554,-0.002327,0.049185,0.003762,327.306630,24.711948,0.999633,0.991904,0.004024,0.206637,-0.000037,-0.000015,-0.000005,-0.000014,-0.000039,-77.668517,0.000054,
2461,2908,4.35461266381087,5.74387147289119,-0.0193113731056656,0.000617,0.000276,-0.001778,0.035211,0.015109,316.266054,25.187676,0.999110,0.989466,0.004175,0.335136,-0.000040,-0.000003,-0.000004,-0.000002,-0.000041,-83.473413,0.000049,
2341,2278,1.86329394957609,-8.00877204468048,-0.00111233053956994,0.000402,0.000179,-0.001138,0.022437,0.002598,326.520238,23.327230,0.999006,0.985033,0.004943,0.379888,-0.000043,-0.000024,-0.000013,-0.000018,-0.000049,-63.305192,0.000069,
2026,2173,-4.98402670421401,-10.3061320277074,0.0123744996198525,0.000834,-0.000063,-0.001454,0.042261,-0.017049,329.316683,24.798680,0.999256,0.989127,0.004332,0.276020,-0.000048,-0.000007,-0.000003,-0.000007,-0.000049,-86.155191,0.000060,
2311,2143,1.23562252395964,-10.9669886599741,0.0222516620975739,0.000675,0.000447,-0.002279,0.038837,0.021857,328.919269,23.267260,0.999270,0.985310,0.005042,0.273963,-0.000048,-0.000008,-0.000016,-0.000002,-0.000053,-70.366365,0.000063,
2116,2578,-3.09060950743224,-1.4571376563605,-0.022239626166197,0.000523,-0.000019,-0.000004,0.024056,-0.007050,322.006669,24.401127,0.999414,0.990887,0.004038,0.352355,-0.000018,-0.000022,-0.000007,-0.000013,-0.000027,-37.073019,0.000041,
2011,2113,-5.30180814247081,-11.6200613418049,0.0152193620853609,0.000769,0.000262,-0.003062,0.043670,-0.015566,330.397630,24.903991,0.998452,0.981519,0.005653,0.286807,-0.000038,-0.000038,0.000022,-0.000015,-0.000060,45.361073,0.000080,
2386,2518,2.79852858101467,-2.76019386702399,-0.0131120910324967,0.000589,0.000598,-0.003683,0.040461,0.016087,322.567243,23.839054,0.999473,0.989668,0.004226,0.407241,-0.000022,-0.000042,0.000009,-0.000018,-0.000045,20.601615,0.000066,
2401,2593,3.11016453051236,-1.12188182262579,-0.0232254953438087,0.000704,0.000394,-0.002909,0.042981,-0.003033,321.280492,24.058764,0.999418,0.990208,0.004081,0.371935,-0.000023,-0.000025,-0.000001,-0.000022,-0.000025,-29.836235,0.000048,
2326,2218,1.54850468220789,-9.32360503431556,0.00880765934584815,0.000745,0.000402,-0.004820,0.050838,-0.005842,327.603386,23.256295,0.998605,0.980980,0.005665,0.358956,-0.000044,-0.000016,-0.000012,-0.000011,-0.000048,-69.193042,0.000063,
2041,2218,-4.664869995686,-9.3191228768094,-0.00545650809300469,0.000728,0.001785,-0.007340,0.054342,0.049333,328.367480,24.674498,0.998101,0.977942,0.005826,0.373977,-0.000046,0.000018,0.000005,0.000018,-0.000046,85.775149,0.000047,
2101,2503,-3.40417382908297,-3.09250570468197,-0.0222882078616635,0.000857,0.000573,-0.004475,0.052654,0.007193,323.316585,24.409383,0.999297,0.990382,0.003973,0.366685,-0.000008,-0.000020,-0.000008,-0.000004,-0.000024,-27.594089,0.000030,
2236,3163,-0.579893368885049,11.2620806036334,0.0192873760914267,0.001052,0.000171,-0.004018,0.061609,0.004211,312.465278,25.016605,0.999412,0.991878,0.003670,0.404137,-0.000024,-0.000006,-0.000005,-0.000004,-0.000025,-74.793087,0.000032,
2161,2803,-2.14897759639926,3.44330678415404,-0.0245122333677159,0.001121,0.000350,-0.003383,0.062114,0.014543,318.193052,24.488319,0.999560,0.992643,0.003629,0.384421,-0.000020,-0.000020,-0.000002,-0.000018,-0.000022,-47.796314,0.000040,
2431,2758,3.73111095137062,2.47667982496751,-0.0246938664176923,0.000706,0.000315,-0.002242,0.040830,0.013553,318.619519,24.575769,0.999573,0.990395,0.003831,0.389960,-0.000042,-0.000005,-0.000016,0.000001,-0.000048,-69.399789,0.000055,
2416,2668,3.42210297636047,0.514934232759728,-0.0227599959375198,0.000616,-0.000182,-0.000909,0.031554,-0.007567,320.070524,24.341328,0.999449,0.989769,0.004194,0.308603,-0.000040,-0.000003,-0.000015,0.000002,-0.000045,-70.630110,0.000051,
2251,3268,-0.274243718191236,13.5402033696818,0.0109670768553087,0.000810,0.000269,-0.001764,0.043298,0.018608,310.624269,25.257634,0.999463,0.993381,0.003412,0.397870,-0.000023,0.000008,-0.000004,0.000009,-0.000023,-82.733703,0.000024,
2146,2728,-2.46324441995776,1.81082277711162,-0.0256767890036826,0.000537,0.000150,-0.000194,0.025362,0.003030,319.422028,24.422915,0.999370,0.991624,0.003921,0.385230,-0.000014,-0.000018,-0.000002,-0.000013,-0.000019,-22.483615,0.000032,
2191,2938,-1.51943653738816,6.37733840957321,-0.00448826446097428,0.000767,-0.000258,-0.001922,0.041259,-0.011895,316.041620,24.641281,0.999173,0.993406,0.003648,0.359610,-0.000016,-0.000013,0.000006,-0.000008,-0.000021,50.828434,0.000030,
2206,3028,-1.20879080470717,8.33261555694506,0.00120007637571007,0.000987,0.000069,-0.000922,0.048437,0.005216,314.583647,24.786810,0.999557,0.993968,0.003353,0.360491,-0.000019,-0.000015,0.000000,-0.000015,-0.000019,86.893144,0.000033,
2296,2068,0.922499764167039,-12.6127162584125,0.027200346270547,0.000992,0.000757,-0.003323,0.056892,0.019577,330.197627,23.145133,0.999287,0.984242,0.004960,0.312217,-0.000057,0.000008,-0.000010,0.000010,-0.000058,-81.652761,0.000062,
2086,2428,-3.71793645408454,-4.72981121502871,-0.0132152707927276,0.000955,0.000864,-0.004839,0.058141,0.014488,324.681929,24.456685,0.999049,0.988043,0.004432,0.354904,-0.000011,-0.000024,-0.000001,-0.000011,-0.000024,-2.256237,0.000037,
2176,2878,-1.83559371904601,5.07362834597947,-0.0121220755315221,0.000706,-0.000200,-0.000625,0.034418,-0.003775,316.996584,24.579030,0.999453,0.993877,0.003316,0.349043,-0.000009,0.000001,0.000001,0.000001,-0.000009,87.141633,0.000010,
2221,3088,-0.893251683252497,9.63522330408189,0.010031620690711,0.000674,0.000133,-0.003072,0.041007,0.008827,313.629760,24.904077,0.999359,0.993643,0.003330,0.365558,-0.000020,-0.000020,-0.000009,-0.000011,-0.000029,-44.072266,0.000041,
2026,2188,-4.98635205552243,-9.97616279278475,-0.000823638234010104,0.000874,0.001608,-0.011801,0.072965,0.016352,328.996189,24.772980,0.999173,0.987127,0.004712,0.328374,-0.000040,-0.000002,-0.000001,-0.000002,-0.000040,-89.039215,0.000047,
2281,2023,0.602686310501699,-13.5994836600614,0.020532306179291,0.001081,0.000834,-0.004868,0.066000,0.015925,330.890148,23.120956,0.999113,0.983622,0.005300,0.334324,-0.000053,-0.000001,-0.000003,-0.000001,-0.000053,-86.807593,0.000062,
2131,2653,-2.77606161593008,0.176842447286823,-0.018313258346268,0.000600,0.000465,-0.004548,0.041380,0.004321,320.777035,24.393237,0.999630,0.992570,0.003532,0.383386,-0.000016,-0.000017,0.000000,-0.000015,-0.000017,-19.326423,0.000032,
2011,2128,-5.30417026627538,-11.2899293876089,0.00905360750721229,0.001055,0.000275,-0.001102,0.051481,0.012779,330.112987,24.948567,0.998374,0.981227,0.005798,0.261834,-0.000049,-0.000035,0.000020,-0.000022,-0.000063,54.834679,0.000088,
2056,2293,-4.34932752593468,-7.68037510476423,-0.000647059932816774,0.000898,0.000594,-0.003787,0.052069,0.016718,327.114699,24.551381,0.999848,0.994646,0.003462,0.376981,-0.000022,-0.000010,0.000001,-0.000010,-0.000022,83.621629,0.000033,
2356,2383,2.17004089352768,-5.70896800567691,-0.0114186029916254,0.000432,0.000403,-0.001942,0.026779,0.014063,324.740537,23.678254,0.999232,0.984442,0.004919,0.261853,-0.000030,-0.000013,0.000008,-0.000010,-0.000033,67.644185,0.000045,
2371,2443,2.48610565586815,-4.39938478766938,-0.00572834056885085,0.000442,-0.000069,-0.000743,0.022894,0.004606,323.818534,23.673326,0.999226,0.988464,0.004516,0.378610,-0.000019,-0.000040,0.000016,-0.000010,-0.000049,28.127654,0.000063,
2071,2353,-4.03240429900001,-6.36826028087829,-0.00850294350794911,0.000907,0.000481,-0.005386,0.057161,0.009142,326.006835,24.502100,0.998413,0.984155,0.005160,0.353123,-0.000022,-0.000024,-0.000005,-0.000018,-0.000028,-37.834662,0.000046,
2461,2923,4.35106893060092,6.07067591514966,-0.0233372957256961,0.000386,0.000332,-0.002314,0.026649,0.022744,315.978285,25.251867,0.999328,0.990733,0.003998,0.332455,-0.000032,-0.000011,0.000000,-0.000011,-0.000032,-89.588419,0.000044,
2341,2293,1.86124211256709,-7.67896023169081,-0.00636055058032525,0.001190,0.001071,-0.006019,0.075852,0.019703,326.286798,23.432595,0.999024,0.986819,0.004664,0.330413,-0.000041,-0.000023,-0.000010,-0.000019,-0.000045,-65.235157,0.000066,
2041,2233,-4.66674539858896,-8.99113357095166,-0.00415970674333721,0.001080,0.000793,-0.006188,0.067034,0.011115,328.150081,24.709081,0.999049,0.984792,0.005017,0.295834,-0.000049,0.000009,0.000001,0.000009,-0.000049,88.930245,0.000052,
2251,3283,-0.277374887158135,13.8652231194037,0.00306476128520217,0.000869,0.000092,-0.002778,0.049224,-0.002090,310.318060,25.261513,0.999422,0.993214,0.003439,0.395119,-0.000027,0.000009,-0.000004,0.000009,-0.000028,-83.164038,0.000028,
2236,3178,-0.582092380426456,11.5867634130051,0.0296809988970494,0.000876,0.000141,-0.002698,0.049140,-0.007023,312.294597,25.057354,0.999341,0.992545,0.003547,0.371870,-0.000021,-0.000002,-0.000005,-0.000001,-0.000022,-76.877174,0.000027,
2116,2593,-3.09246977612757,-1.13098207805595,-0.0208077473451453,0.000727,0.000461,-0.003867,0.045025,0.000487,321.797029,24.343099,0.999580,0.992032,0.003802,0.421955,-0.000020,-0.000021,0.000000,-0.000020,-0.000021,14.737088,0.000041,
2026,2203,-4.98890936354105,-9.64698614103647,-0.0136928531465514,0.001316,0.001357,-0.011370,0.092001,-0.003462,328.667349,24.738608,0.999060,0.985149,0.005056,0.336241,-0.000023,0.000015,0.000000,0.000015,-0.000023,89.309442,0.000023,
2161,2818,-2.15175636340382,3.77035772154767,-0.0203773055973215,0.000640,0.000507,-0.002510,0.037366,0.023417,317.958559,24.599594,0.999689,0.994367,0.003219,0.291857,-0.000018,-0.000009,-0.000002,-0.000009,-0.000018,-79.713069,0.000027,
2056,2308,-4.35169726898855,-7.35238835135885,0.000314959840125084,0.000837,0.000600,-0.002184,0.044770,0.007279,326.874029,24.579143,0.999635,0.991535,0.004034,0.336391,-0.000023,-0.000022,-0.000012,-0.000010,-0.000035,-45.911231,0.000047,
2401,2608,3.107480084145,-0.794302870250768,-0.0251050140205962,0.000662,0.000634,-0.008324,0.060755,-0.006548,321.038660,24.123064,0.999473,0.990662,0.003927,0.350400,-0.000026,-0.000025,0.000000,-0.000025,-0.000026,82.392339,0.000050,
2086,2443,-3.72087190188602,-4.40139322948208,-0.0224720379408154,0.000816,0.000907,-0.006943,0.057826,0.010688,324.362208,24.468894,0.999351,0.989148,0.004278,0.339753,-0.000011,-0.000032,-0.000008,-0.000009,-0.000034,-18.160242,0.000046,
2101,2518,-3.40693415478043,-2.76512530708585,-0.0271259656209963,0.000827,0.000046,-0.003818,0.049216,-0.007346,323.030503,24.405633,0.999610,0.993329,0.003490,0.358221,-0.000010,-0.000025,-0.000002,-0.000010,-0.000025,-6.981281,0.000036,
2386,2533,2.79506621946817,-2.43159994534763,-0.0205875424082933,0.000693,0.000625,-0.002659,0.041605,0.034269,322.261980,23.899436,0.999489,0.990186,0.004219,0.409742,-0.000020,-0.000047,0.000004,-0.000020,-0.000048,8.687177,0.000069,
2431,2773,3.72833141029573,2.80328566136919,-0.0248490982387466,0.000866,0.000196,-0.002816,0.050263,0.010470,318.383225,24.616176,0.999543,0.990154,0.003968,0.396570,-0.000043,-0.000017,-0.000018,-0.000007,-0.000053,-62.775622,0.000066,
2206,3043,-1.21107632361076,8.6575704480167,0.0106014001787571,0.000635,-0.000079,-0.001240,0.033189,-0.003553,314.402462,24.815465,0.999770,0.995725,0.002974,0.338915,-0.000018,-0.000020,-0.000003,-0.000016,-0.000022,-37.505266,0.000038,
2221,3103,-0.8951464698557,9.95990729376759,0.016634587148701,0.000874,0.000276,-0.004174,0.053849,0.016919,313.452913,24.886340,0.999458,0.993071,0.003499,0.409320,-0.000022,-0.000017,-0.000009,-0.000010,-0.000028,-53.285038,0.000040,
2326,2233,1.54519279012937,-8.9944070182168,0.00329493149610016,0.000630,0.000415,-0.004801,0.045527,-0.008747,327.309884,23.299860,0.998130,0.977589,0.006135,0.349666,-0.000048,-0.000024,-0.000013,-0.000018,-0.000054,-65.825806,0.000075,
2446,2833,4.04298651750932,4.11199231278897,-0.0257955761438211,0.000710,0.000482,-0.005567,0.053635,0.017712,317.424828,24.953196,0.999624,0.993245,0.003481,0.284160,-0.000051,-0.000024,-0.000020,-0.000013,-0.000061,-62.013313,0.000079,
2416,2683,3.41950095346368,0.841805929681207,-0.0243558223303921,0.000777,0.000528,-0.004744,0.053257,0.006703,319.834809,24.349334,0.999403,0.987953,0.004505,0.362980,-0.000036,0.000002,-0.000010,0.000004,-0.000039,-75.861279,0.000043,
2146,2743,-2.46519812223749,2.13677111985892,-0.0220884722692745,0.000801,0.000063,-0.000551,0.038542,-0.011645,319.221884,24.430957,0.999374,0.991797,0.003931,0.370489,-0.000018,-0.000022,-0.000005,-0.000015,-0.000025,-32.804639,0.000041,
2281,2038,0.598814435885973,-13.2684088032179,0.013043216899348,0.000732,0.000484,-0.001051,0.037184,0.023178,330.557172,23.227109,0.999191,0.986203,0.004874,0.267212,-0.000048,-0.000009,-0.000008,-0.000007,-0.000050,-79.464991,0.000062,
2296,2083,0.918983626425486,-12.2819232340322,0.0180675013096447,0.000782,0.000930,-0.004566,0.051532,0.035176,329.874220,23.216866,0.999266,0.984748,0.004985,0.289588,-0.000054,-0.000001,-0.000012,0.000002,-0.000057,-77.662267,0.000065,
2011,2143,-5.30610301232926,-10.9609506845233,-0.00053010643904372,0.001581,0.000980,-0.005585,0.087970,0.037777,329.829087,24.860893,0.998168,0.981609,0.005665,0.365722,-0.000038,0.000018,0.000017,0.000023,-0.000043,74.662445,0.000043,
2461,2938,4.34849475690968,6.39654505524196,-0.02099886447877,0.000520,0.000322,-0.003775,0.038223,-0.002285,315.764519,25.312182,0.999368,0.991869,0.003931,0.300911,-0.000028,-0.000010,0.000002,-0.000010,-0.000028,82.484717,0.000040,
2191,2953,-1.52242047485658,6.70296979412637,0.000247662069000398,0.000264,-0.000165,0.001450,0.007596,0.010965,315.803096,24.647544,0.999208,0.992929,0.003634,0.389989,-0.000018,-0.000013,0.000003,-0.000012,-0.000020,65.873596,0.000032,
2176,2893,-1.83736657932353,5.39832074751585,-0.000757371656789019,0.000580,0.000090,-0.002461,0.034404,0.004899,316.847803,24.545774,0.999766,0.995952,0.002997,0.402796,-0.000011,-0.000002,0.000004,0.000000,-0.000013,69.272524,0.000015,
2311,2158,1.23275436527518,-10.6396997767622,0.0233583268133657,0.000699,-0.000264,0.000906,0.028843,0.015704,328.677590,23.180928,0.999327,0.986744,0.004949,0.389064,-0.000048,-0.000017,-0.000017,-0.000009,-0.000056,-65.772322,0.000070,
2251,3298,-0.279634424970851,14.1902664245103,0.00863458419962626,0.000875,0.000273,-0.003258,0.051130,0.001867,310.120431,25.320039,0.999322,0.992216,0.003565,0.362039,-0.000028,0.000014,-0.000012,0.000018,-0.000032,-75.476234,0.000032,
2071,2368,-4.03500980034803,-6.0406014058663,-0.01089396084285,0.000688,0.000439,-0.006447,0.050131,-0.005585,325.738401,24.493577,0.997615,0.981674,0.005659,0.345616,-0.000016,0.000005,0.000000,0.000005,-0.000016,88.742852,0.000016,
2356,2398,2.16802437637363,-5.38266291323315,-0.00545580125799461,0.000702,0.000355,-0.002989,0.042846,0.005734,324.564294,23.634542,0.999450,0.988448,0.004464,0.337194,-0.000029,-0.000008,0.000012,-0.000002,-0.000034,65.339999,0.000041,
2131,2668,-2.77689177419589,0.50022920556728,0.00456731943819477,0.000763,0.000604,-0.003682,0.046381,0.026114,320.730892,24.267956,0.999635,0.992997,0.003509,0.536008,-0.000013,-0.000019,-0.000001,-0.000013,-0.000019,-9.613953,0.000033,
2371,2458,2.48318795520599,-4.0707273464113,-0.012641570067558,0.000814,0.000283,-0.002237,0.045368,-0.003873,323.539914,23.743572,0.999067,0.987398,0.004649,0.342702,-0.000020,-0.000036,0.000016,-0.000010,-0.000046,31.090422,0.000060,
2041,2248,-4.66886551316664,-8.66442869238602,-0.00235639102714913,0.001208,0.000264,-0.004036,0.066776,0.000404,327.924469,24.609345,0.999107,0.986807,0.004673,0.379645,-0.000054,0.000016,-0.000009,0.000017,-0.000056,-82.798475,0.000057,
2026,2218,-4.99122147808254,-9.31939597375958,-0.00926838209568359,0.001069,0.001335,-0.009135,0.074561,-0.006438,328.446076,24.729389,0.998765,0.981889,0.005409,0.335099,-0.000030,0.000025,0.000000,0.000025,-0.000030,89.967578,0.000032,
2056,2323,-4.35337887164053,-7.02500410779731,0.00535123482137578,0.000860,0.000954,-0.006312,0.057559,0.011857,326.687271,24.583110,0.999165,0.986191,0.004714,0.333454,-0.000024,-0.000040,-0.000019,-0.000011,-0.000053,-33.631305,0.000069,
2086,2458,-3.72344926003064,-4.07501539972952,-0.0188519518392241,0.000698,0.000280,-0.001438,0.036309,-0.002316,324.129311,24.429325,0.999423,0.989856,0.004175,0.366596,-0.000007,-0.000035,-0.000013,-0.000002,-0.000040,-21.044652,0.000047,
2161,2833,-2.15373152733318,4.09489038856658,-0.0168860600892913,0.000859,0.000411,-0.003711,0.051086,0.009693,317.758329,24.500897,0.999632,0.994496,0.003219,0.386819,-0.000016,-0.000001,-0.000002,-0.000001,-0.000017,-84.151323,0.000020,
2416,2698,3.41547145820912,1.16929086388514,-0.0351668993407088,0.000333,0.000942,-0.007579,0.043378,0.004426,319.490210,24.359852,0.999534,0.990762,0.003960,0.398581,-0.000032,0.000004,-0.000009,0.000006,-0.000034,-76.438580,0.000037,
2206,3058,-1.21364444144575,8.98302519132971,0.00837823767682266,0.000660,0.000072,-0.003690,0.042154,-0.001755,314.147909,24.806839,0.999738,0.995186,0.003002,0.365107,-0.000017,-0.000023,-0.000006,-0.000013,-0.000027,-31.087666,0.000041,
2011,2158,-5.30928827028682,-10.6322497308927,0.00232158854998943,0.000686,-0.000014,-0.000719,0.033442,0.005000,329.557907,24.944896,0.998068,0.979904,0.006025,0.239971,-0.000050,-0.000004,-0.000009,-0.000002,-0.000052,-78.856486,0.000061,
2431,2788,3.72505760767399,3.1306555870361,-0.023879304235777,0.000486,0.000433,-0.002855,0.033108,0.024970,318.129135,24.722579,0.999514,0.990899,0.003891,0.354622,-0.000042,-0.000017,-0.000023,-0.000004,-0.000055,-59.608398,0.000066,
2116,2608,-3.09491218321691,-0.803705645764005,-0.0234788218845097,0.000910,0.000358,-0.003292,0.051714,-0.006325,321.538458,24.371410,0.999273,0.989280,0.004309,0.390872,-0.000019,-0.000026,0.000001,-0.000019,-0.000026,6.796970,0.000046,
2236,3193,-0.585081557754965,11.9120139508135,0.0294503233276373,0.000776,0.000002,0.000205,0.035086,-0.004593,312.033014,25.076976,0.999285,0.992600,0.003573,0.374411,-0.000023,-0.000007,-0.000006,-0.000005,-0.000025,-70.413072,0.000032,
2461,2953,4.34575969483827,6.72188645710776,-0.0126302045678699,0.000430,0.000037,0.000045,0.019604,0.002993,315.571001,25.339688,0.999459,0.991983,0.003782,0.332432,-0.000026,-0.000007,0.000008,-0.000004,-0.000028,70.302371,0.000035,
2266,1993,0.279950040450238,-14.257259100373,0.0223229583977513,0.000736,0.000960,-0.002073,0.040847,0.039351,331.381007,23.205834,0.998942,0.968010,0.007153,0.316213,-0.000030,-0.000022,-0.000022,-0.000003,-0.000049,-50.080319,0.000058,
2296,2098,0.915785734791964,-11.9528701875462,0.0158917762035458,0.000706,0.000460,-0.001249,0.036709,0.026172,329.599969,23.237380,0.999049,0.982530,0.005321,0.293390,-0.000054,-0.000004,-0.000014,0.000000,-0.000057,-75.636077,0.000066,
2341,2308,1.85844877394711,-7.35227095698967,0.00840588329242564,0.000580,0.000030,0.000583,0.024565,0.007093,326.116721,23.488094,0.998311,0.983141,0.005154,0.300641,-0.000041,-0.000029,-0.000003,-0.000028,-0.000042,-78.064443,0.000071,
2101,2533,-3.41015264726616,-2.4374319119651,-0.0343325936497649,0.000496,0.000347,-0.003063,0.031853,0.006049,322.710475,24.387110,0.999521,0.992135,0.003752,0.392650,-0.000015,-0.000021,0.000007,-0.000010,-0.000026,33.893206,0.000038,
2386,2548,2.79261588488925,-2.10553351203819,-0.011757093210349,0.000583,-0.000098,-0.000843,0.029711,-0.014560,322.081118,23.945458,0.999375,0.989885,0.004310,0.358663,-0.000021,-0.000040,0.000005,-0.000019,-0.000042,14.194075,0.000062,
2446,2848,4.04051954618039,4.43611411672641,-0.0154089700943132,0.000587,0.000273,-0.003061,0.038507,0.006680,317.252942,24.874236,0.999577,0.992698,0.003468,0.403680,-0.000047,-0.000018,-0.000020,-0.000007,-0.000057,-62.592378,0.000070,
2401,2623,3.10457014525707,-0.46713926410974,-0.0225870044639009,0.000770,0.000583,-0.004577,0.052172,0.019600,320.807110,24.162140,0.999252,0.989269,0.004155,0.383618,-0.000029,-0.000015,-0.000002,-0.000014,-0.000030,-80.524123,0.000045,
2176,2908,-1.84064804966457,5.72506353530491,-0.0116521859786758,0.000611,0.000032,-0.002072,0.034627,0.004224,316.512487,24.553024,0.999463,0.993286,0.003515,0.406831,-0.000007,-0.000015,0.000002,-0.000007,-0.000016,13.088042,0.000023,
2146,2758,-2.46781228146573,2.46347945217073,-0.0217684459719294,0.000751,-0.000155,0.000977,0.031547,-0.008324,318.973859,24.469104,0.999334,0.991957,0.003747,0.343483,-0.000016,-0.000025,-0.000005,-0.000013,-0.000027,-25.710442,0.000041,
2281,2053,0.596211348980443,-12.9399429757992,0.0101759980263978,0.000941,0.000405,-0.002056,0.050063,0.012601,330.305509,23.171173,0.999151,0.984131,0.005018,0.343762,-0.000045,-0.000011,-0.000010,-0.000008,-0.000048,-74.094024,0.000060,
2326,2248,1.54234567464204,-8.66537918939721,0.00205540693957573,0.000708,0.000541,-0.004108,0.046799,0.004871,327.058370,23.361170,0.998721,0.982323,0.005315,0.338913,-0.000047,-0.000038,-0.000013,-0.000029,-0.000056,-54.351018,0.000086,
2221,3118,-0.897504802089315,10.2852282934256,0.0240349535631026,0.000719,0.000054,-0.002998,0.042776,-0.002964,313.258653,24.963207,0.999601,0.992806,0.003533,0.330155,-0.000026,-0.000016,-0.000009,-0.000010,-0.000032,-59.825235,0.000043,
2071,2383,-4.03741993917582,-5.71260060456578,-0.0097535083032767,0.000617,0.000490,-0.004812,0.042241,0.015926,325.497965,24.519519,0.998389,0.985222,0.005105,0.339617,-0.000020,0.000003,-0.000004,0.000004,-0.000021,-79.837018,0.000022,
2026,2233,-4.99370664190828,-8.99048161946395,-0.00716324699698134,0.000930,0.000779,-0.004777,0.056049,0.000575,328.203705,24.811710,0.999371,0.986760,0.004664,0.252703,-0.000032,0.000012,-0.000004,0.000013,-0.000032,-85.211209,0.000032,
2041,2263,-4.67116656789338,-8.33666841177349,0.0022902171874648,0.000975,0.000192,-0.002125,0.050761,0.001551,327.706046,24.627976,0.999078,0.987178,0.004724,0.356812,-0.000051,-0.000002,-0.000016,0.000003,-0.000056,-73.206836,0.000063,
2191,2968,-1.524274343023,7.02891447808011,-0.00294969112388799,0.000846,0.000248,-0.003788,0.051014,0.015002,315.575049,24.649849,0.999189,0.991930,0.003782,0.405571,-0.000018,-0.000010,0.000006,-0.000007,-0.000021,62.146621,0.000029,
2056,2338,-4.35659955393342,-6.69640645747798,-0.00416780181853937,0.000577,0.000643,-0.005087,0.041025,0.011659,326.349982,24.564177,0.998971,0.986851,0.004666,0.349108,-0.000022,-0.000035,-0.000013,-0.000014,-0.000043,-31.799489,0.000060,
2086,2473,-3.72604140876169,-3.74720856844824,-0.0222995209122132,0.000698,0.000141,-0.000994,0.035040,0.009065,323.856923,24.435456,0.999429,0.990398,0.004117,0.372159,-0.000006,-0.000026,-0.000008,-0.000004,-0.000029,-19.037535,0.000035,
2011,2173,-5.31150847784227,-10.305362316592,0.00629333433329293,0.000348,-0.000050,-0.001393,0.019704,-0.000672,329.337283,24.853215,0.998668,0.986271,0.005221,0.316772,-0.000051,0.000015,-0.000015,0.000018,-0.000055,-77.902817,0.000056,
2371,2473,2.48081786139123,-3.74339975281604,-0.0104011414742899,0.000972,0.000677,-0.004278,0.060037,0.010290,323.330203,23.759619,0.999355,0.988830,0.004339,0.382791,-0.000021,-0.000040,0.000015,-0.000013,-0.000048,28.975608,0.000064,
2131,2683,-2.78075456379027,0.829090153508467,-0.0114061024274292,0.000522,-0.000022,-0.001885,0.029667,-0.005126,320.337137,24.379145,0.999430,0.992374,0.003632,0.399980,-0.000010,-0.000015,-0.000001,-0.000009,-0.000015,-11.095665,0.000024,
2461,2968,4.34336666553746,7.04760935136333,-0.00923203005186224,0.000612,0.000236,-0.001954,0.035621,0.016951,315.370280,25.362185,0.999488,0.991623,0.003812,0.377853,-0.000027,-0.000004,0.000013,0.000001,-0.000033,66.227625,0.000037,
2311,2173,1.22955318333475,-10.3097658331121,0.0158208832381774,0.000566,0.000137,-0.002384,0.034103,-0.000421,328.377968,23.259480,0.999115,0.983637,0.005152,0.329627,-0.000040,-0.000010,-0.000013,-0.000005,-0.000044,-69.994550,0.000055,
2206,3073,-1.21596065793306,9.30794812234419,0.0148590178937411,0.000571,-0.000066,-0.002724,0.034949,-0.005142,313.950176,24.814642,0.999650,0.993955,0.003225,0.369489,-0.000016,-0.000020,-0.000008,-0.000010,-0.000026,-38.617213,0.000037,
2266,2008,0.278220509537437,-13.9286807293174,0.0293133218967796,0.001009,0.000778,-0.004027,0.059761,0.013242,331.217356,23.269573,0.999078,0.983687,0.005317,0.255053,-0.000040,-0.000026,-0.000018,-0.000013,-0.000053,-55.482117,0.000070,
2431,2803,3.72258938089499,3.45734192210323,-0.0195574441287363,0.000524,0.000399,-0.004327,0.040261,0.011814,317.927818,24.823719,0.999512,0.990633,0.003951,0.290042,-0.000045,-0.000023,-0.000022,-0.000009,-0.000059,-58.425886,0.000074,
2416,2713,3.413711349567,1.49483420815643,-0.0247314955406068,0.000732,0.000362,-0.006950,0.059230,0.005814,319.349663,24.366409,0.999652,0.991546,0.003763,0.441277,-0.000037,0.000001,-0.000011,0.000004,-0.000040,-74.944196,0.000044,
2041,2278,-4.67326374143985,-8.00771245241548,0.000289136177514138,0.001096,0.000673,-0.004492,0.063038,0.009839,327.459928,24.685883,0.999806,0.992853,0.003915,0.301717,-0.000039,-0.000017,-0.000021,-0.000005,-0.000052,-58.723796,0.000063,
2161,2848,-2.15648689867002,4.42037834785885,-0.0193193731754491,0.000814,0.000346,-0.003203,0.047463,0.020531,317.490728,24.425149,0.999656,0.994720,0.003116,0.483227,-0.000013,0.000002,-0.000002,0.000003,-0.000013,-81.845871,0.000014,
2356,2413,2.16535354605582,-5.05416346575672,-0.00970563751991449,0.001181,0.000427,-0.003217,0.065628,-0.000748,324.308544,23.697070,0.999685,0.991101,0.004045,0.308706,-0.000033,-0.000007,0.000011,-0.000003,-0.000038,69.597340,0.000045,
2281,2068,0.594219484870667,-12.6108688814151,0.0188152175830396,0.000998,0.000558,-0.002126,0.052990,0.017352,330.138780,23.288766,0.999184,0.984781,0.004874,0.261782,-0.000043,0.000006,-0.000003,0.000006,-0.000043,-86.407486,0.000046,
2401,2638,3.10118357907563,-0.139876786206493,-0.0252799518323741,0.000600,0.000367,-0.003566,0.040590,0.006901,320.529143,24.209411,0.999180,0.988238,0.004275,0.369691,-0.000036,-0.000011,-0.000004,-0.000011,-0.000036,-81.614781,0.000049,
2146,2773,-2.47015836233347,2.79088794753007,-0.0310201980815918,0.001099,0.000413,-0.005121,0.066226,0.001404,318.687112,24.494635,0.999598,0.994559,0.003176,0.335710,-0.000011,-0.000020,-0.000003,-0.000010,-0.000021,-17.319922,0.000031,
2011,2188,-5.31486721364292,-9.97229682081388,-0.0255958912122196,0.000537,0.001326,-0.010203,0.052654,0.002371,328.862874,24.943630,0.999481,0.992379,0.004189,0.221106,-0.000040,0.000018,-0.000013,0.000020,-0.000043,-77.941338,0.000043,
2116,2623,-3.0982659053664,-0.47548752633103,-0.0359016903104816,0.000723,0.000396,-0.004170,0.045740,0.009686,321.185462,24.385425,0.999136,0.986884,0.004686,0.397380,-0.000019,-0.000037,0.000000,-0.000019,-0.000037,-0.819677,0.000057,
2101,2548,-3.41244650644356,-2.11152495892163,-0.0382668853193877,0.001004,-0.000359,-0.000323,0.047006,-0.020932,322.451024,24.279865,0.999691,0.994584,0.003375,0.475212,-0.000014,-0.000022,0.000008,-0.000008,-0.000027,32.014125,0.000037,
2086,2488,-3.72812134423797,-3.4204409933493,-0.0229261636186493,0.000806,0.000484,-0.004067,0.048974,0.007144,323.623598,24.390797,0.999373,0.990905,0.003994,0.415161,-0.000016,-0.000017,-0.000010,-0.000007,-0.000026,-42.751539,0.000035,
2026,2248,-4.9956938369066,-8.66444504703935,-0.00197909823020836,0.001054,0.000156,-0.000998,0.051189,-0.009183,328.001908,24.684573,0.999357,0.988313,0.004423,0.362245,-0.000039,0.000020,-0.000013,0.000023,-0.000042,-78.307916,0.000042,
2341,2323,1.85516332084945,-7.02278763029519,-0.00300607164166422,0.000674,0.000549,-0.003368,0.042803,0.017920,325.796893,23.519140,0.999096,0.987670,0.004563,0.319239,-0.000045,-0.000025,0.000005,-0.000024,-0.000046,78.010836,0.000071,
2221,3133,-0.900240506633651,10.6096819494942,0.0232629333877981,0.000811,0.000154,-0.001030,0.040746,0.007148,313.005256,24.882982,0.999611,0.993512,0.003429,0.438382,-0.000028,-0.000009,-0.000009,-0.000005,-0.000032,-67.934700,0.000040,
2296,2113,0.912847305786141,-11.6245502788773,0.00909508409012005,0.000861,0.000152,-0.002848,0.049078,-0.021859,329.315030,23.185322,0.998987,0.981890,0.005392,0.330785,-0.000053,0.000000,-0.000014,0.000004,-0.000056,-75.962866,0.000063,
2191,2983,-1.5271508866731,7.35455117731686,0.000708521526291861,0.000437,0.000264,-0.001751,0.025773,0.024118,315.335834,24.670460,0.999321,0.992488,0.003634,0.407825,-0.000017,-0.000015,0.000004,-0.000011,-0.000021,52.448373,0.000033,
2371,2488,2.47785769342985,-3.41622085599696,-0.0085671917554464,0.000839,0.000388,-0.002930,0.049028,-0.002150,323.091540,23.789562,0.999408,0.988784,0.004253,0.382796,-0.000015,-0.000041,0.000010,-0.000012,-0.000044,18.549590,0.000059,
2266,2023,0.275558115988343,-13.5985103657802,0.0213272709677881,0.001086,0.001451,-0.010819,0.085884,0.016901,330.935802,23.284162,0.999009,0.980604,0.005777,0.273522,-0.000040,-0.000006,-0.000009,-0.000004,-0.000042,-76.682400,0.000051,
2056,2353,-4.3592198872378,-6.36800180584644,-0.0135631141241674,0.000886,0.000554,-0.003868,0.051788,0.025730,326.040783,24.520895,0.998759,0.985294,0.004968,0.403279,-0.000021,-0.000024,0.000000,-0.000021,-0.000024,-3.872132,0.000045,
2236,3208,-0.587027439760909,12.2372124283926,0.0358494434370868,0.000779,0.000344,-0.003564,0.047634,0.011505,311.853316,25.120284,0.999439,0.993834,0.003375,0.366986,-0.000021,-0.000007,-0.000007,-0.000004,-0.000024,-67.262211,0.000030,
2041,2293,-4.67587360155555,-7.68082548453197,0.00159805944394975,0.000495,0.000961,-0.006852,0.042042,0.009485,327.209191,24.602310,0.999828,0.993743,0.003752,0.379692,-0.000018,-0.000013,-0.000010,-0.000006,-0.000026,-51.727608,0.000034,
2446,2863,4.03775716149223,4.76200208044841,-0.0111108645065201,0.000496,0.000199,-0.002738,0.033092,0.000596,317.038873,24.910604,0.999719,0.994219,0.003166,0.413397,-0.000042,-0.000009,-0.000018,-0.000001,-0.000050,-65.964462,0.000058,
2176,2923,-1.84326039726409,6.05192782144308,-0.0134084206264333,0.000959,0.000151,0.002215,0.037399,0.027030,316.255677,24.618848,0.998861,0.988947,0.004346,0.375628,-0.000008,-0.000018,0.000005,-0.000006,-0.000020,22.250422,0.000027,
2071,2398,-4.03987208081262,-5.38501940393832,-0.0139171290171589,0.000647,0.000665,-0.006167,0.047494,0.009677,325.226853,24.488909,0.998769,0.986192,0.004974,0.362435,-0.000022,-0.000004,-0.000009,0.000000,-0.000026,-67.737621,0.000030,
2416,2728,3.41023607033074,1.82227040588482,-0.0285335522762011,0.000766,0.000380,-0.003767,0.049125,0.009383,319.063173,24.433550,0.999620,0.991698,0.003730,0.425865,-0.000042,-0.000008,-0.000007,-0.000007,-0.000044,-78.302142,0.000055,
2311,2188,1.22759397472209,-9.98171978110786,0.0228905890569422,0.000594,0.000580,-0.005418,0.045880,0.005149,328.206898,23.304142,0.999004,0.983015,0.005165,0.325162,-0.000042,-0.000002,-0.000013,0.000002,-0.000046,-73.390885,0.000053,
2431,2818,3.71922693655765,3.78351238820619,-0.0266248767529191,0.000560,0.000581,-0.006086,0.048478,0.019254,317.632458,24.773962,0.999478,0.991600,0.003899,0.397282,-0.000053,-0.000030,-0.000025,-0.000014,-0.000069,-57.239806,0.000088,
2386,2563,2.78905656774785,-1.77681451736674,-0.0171085751849773,0.000380,0.000168,-0.000376,0.018874,0.012090,321.781281,24.038147,0.999424,0.990840,0.004013,0.337146,-0.000025,-0.000030,0.000003,-0.000023,-0.000031,22.697846,0.000055,
2011,2203,-5.31546299614439,-9.64662777900352,-0.0118844604634774,0.001493,0.001083,-0.006721,0.087060,0.027727,328.771003,24.823395,0.999583,0.992522,0.004036,0.356592,-0.000022,0.000032,-0.000015,0.000036,-0.000025,-75.514572,0.000037,
2131,2698,-2.78382115545758,1.15743903566933,-0.0279383992019007,0.000861,0.000328,-0.003867,0.051321,0.003101,319.976871,24.406204,0.999380,0.991648,0.003776,0.387414,-0.000007,-0.000021,0.000001,-0.000007,-0.000021,3.386218,0.000030,
2461,2983,4.34068696422785,7.37404490441983,-0.00744927337029822,0.000727,0.000169,-0.002954,0.044625,0.000715,315.148722,25.473181,0.999472,0.991423,0.003808,0.304128,-0.000021,-0.000001,0.000017,0.000009,-0.000031,59.370800,0.000032,
2146,2788,-2.47284813350456,3.11687584663959,-0.0328298081684011,0.001042,0.000413,-0.004656,0.062248,0.010733,318.424493,24.453657,0.999571,0.993399,0.003419,0.393986,-0.000016,-0.000018,-0.000005,-0.000012,-0.000022,-39.891788,0.000035,
2026,2263,-4.997678431766,-8.33472471733192,-0.00634436179979048,0.001240,0.000789,-0.006074,0.073867,0.001426,327.746268,24.780491,0.998828,0.984298,0.004949,0.269595,-0.000036,0.000001,-0.000021,0.000010,-0.000045,-65.851876,0.000048,
2161,2863,-2.1597636587914,4.7478260355979,-0.0246815664941096,0.000526,0.000039,-0.001610,0.029169,-0.005737,317.183203,24.549493,0.999368,0.992872,0.003474,0.342522,-0.000010,0.000001,-0.000003,0.000002,-0.000011,-75.691353,0.000012,
2281,2083,0.591037993118949,-12.2824931280232,0.0184135855852219,0.000588,0.000287,-0.001275,0.031263,0.005648,329.872859,23.263933,0.999088,0.983741,0.005105,0.305938,-0.000040,-0.000003,-0.000006,-0.000002,-0.000041,-81.442332,0.000049,
2206,3088,-1.21845268939886,9.63401012720359,0.0190306916239251,0.000563,-0.000009,-0.000418,0.027346,0.014489,313.731983,24.892815,0.999458,0.993130,0.003483,0.326732,-0.000016,-0.000019,-0.000007,-0.000011,-0.000024,-37.200266,0.000036,
2116,2638,-3.10057060577926,-0.148331861386936,-0.0381581121259273,0.000939,0.000587,-0.004824,0.057729,0.026565,320.935362,24.393336,0.999369,0.990171,0.003981,0.410476,-0.000018,-0.000032,0.000001,-0.000018,-0.000032,4.054308,0.000050,
2401,2653,3.09871224209319,0.187178145413462,-0.0222341117863039,0.001019,0.000414,-0.000898,0.050214,0.026693,320.320147,24.258204,0.999274,0.988900,0.004269,0.386664,-0.000040,-0.000007,-0.000007,-0.000006,-0.000042,-77.959681,0.000052,
2041,2308,-4.67839863754211,-7.35199554073019,-0.00565315254095822,0.000684,0.000852,-0.006382,0.049408,0.008813,326.914599,24.615971,0.999734,0.991857,0.004119,0.360040,-0.000018,-0.000026,-0.000026,0.000005,-0.000049,-40.804623,0.000054,
2266,2038,0.271772521917253,-13.2694471253582,0.0242906628290598,0.000389,0.000838,-0.001832,0.024152,0.035740,330.657643,23.312557,0.999020,0.982297,0.005376,0.293520,-0.000038,-0.000008,-0.000013,-0.000003,-0.000043,-70.138651,0.000051,
2101,2563,-3.41418436970059,-1.78396729565176,-0.0317211850470471,0.001160,-0.000151,-0.001477,0.057612,-0.029534,322.273134,24.402869,0.999302,0.990457,0.004079,0.345418,-0.000016,-0.000028,0.000000,-0.000016,-0.000028,0.427887,0.000044,
2011,2218,-5.31793866115185,-9.31953638677069,0.000196689509436965,0.000848,0.000416,-0.000375,0.040102,0.013254,328.584145,24.859227,0.999167,0.987757,0.004727,0.296657,-0.000031,0.000034,-0.000021,0.000041,-0.000037,-73.319849,0.000045,
2356,2428,2.16211815952907,-4.72807326846606,-0.0135513493677308,0.000952,0.000625,-0.004665,0.060299,0.017005,324.029106,23.524262,0.999502,0.990627,0.004147,0.539801,-0.000032,-0.000019,0.000010,-0.000014,-0.000038,61.285532,0.000053,
2086,2503,-3.73051384261604,-3.092952436632,-0.0236827501757375,0.000673,0.000784,-0.006242,0.049205,0.008351,323.375080,24.412801,0.999267,0.991102,0.003822,0.394577,-0.000011,-0.000022,-0.000009,-0.000006,-0.000027,-29.084153,0.000035,
2056,2368,-4.36151626857558,-6.03954083089714,-0.0191602884227677,0.001012,0.000612,-0.007159,0.066852,-0.005463,325.767428,24.570951,0.998614,0.986011,0.004926,0.318637,-0.000017,0.000009,0.000006,0.000011,-0.000018,77.949334,0.000018,
2326,2263,1.53958923063487,-8.33763771543464,0.00766152804732201,0.000546,0.000339,-0.000895,0.028230,0.011175,326.844518,23.387399,0.999084,0.985035,0.004791,0.355415,-0.000044,-0.000044,-0.000018,-0.000026,-0.000062,-44.298592,0.000090,
2416,2743,3.40709586377926,2.14962214089616,-0.0282603622262627,0.000556,0.000363,-0.003752,0.039399,-0.002917,318.811132,24.546297,0.999533,0.990785,0.003826,0.348673,-0.000044,-0.000009,-0.000010,-0.000006,-0.000046,-74.816017,0.000057,
2431,2833,3.71621021231283,4.11110997433077,-0.0262027836873244,0.000677,0.000427,-0.003757,0.045183,0.016035,317.387397,24.928035,0.999297,0.990479,0.003954,0.289774,-0.000054,-0.000022,-0.000021,-0.000011,-0.000064,-63.449380,0.000081,
2341,2338,1.85307533046713,-6.6955870893869,0.00147981349999782,0.000819,0.000618,-0.006352,0.059849,0.009486,325.609238,23.523707,0.999425,0.989028,0.004398,0.344663,-0.000042,-0.000019,0.000003,-0.000019,-0.000042,82.887734,0.000062,
2026,2278,-4.99994628280365,-8.00780321817392,-0.00530104160827705,0.000972,0.000867,-0.008407,0.067964,0.010816,327.508404,24.682742,0.998588,0.984917,0.005090,0.369346,-0.000024,-0.000016,-0.000029,0.000009,-0.000049,-49.255831,0.000052,
2176,2938,-1.84509808855733,6.37728339169723,-0.0100283228668445,0.001175,0.000096,-0.001716,0.059493,0.007425,316.061888,24.628820,0.999098,0.991467,0.003903,0.357743,-0.000009,-0.000013,0.000004,-0.000006,-0.000016,31.575504,0.000023,
2446,2878,4.03394551487494,5.08956490121349,-0.0214344534199427,0.000598,-0.000026,-0.001924,0.034645,-0.003619,316.708551,24.995749,0.999508,0.992979,0.003452,0.375829,-0.000045,0.000001,-0.000012,0.000004,-0.000048,-75.659762,0.000053,
2221,3148,-0.902662066098205,10.9352252135678,0.025142413237802,0.000786,0.000129,-0.002645,0.044797,0.004715,312.779549,24.935714,0.999588,0.993261,0.003403,0.401046,-0.000026,-0.000007,-0.000010,-0.000003,-0.000030,-67.293981,0.000036,
2236,3223,-0.5903573922254,12.5625779055215,0.0346840896567073,0.000581,0.000007,0.001777,0.021102,0.023731,311.571185,25.142638,0.999403,0.993515,0.003525,0.376549,-0.000020,0.000004,-0.000009,0.000007,-0.000023,-71.080180,0.000024,
2071,2413,-4.04216254120998,-5.05877946188791,-0.00894187570457916,0.000612,-0.000032,-0.002000,0.033843,-0.000806,325.013399,24.432133,0.998609,0.986340,0.004830,0.407223,-0.000018,-0.000015,-0.000010,-0.000007,-0.000026,-48.341967,0.000035,
2311,2203,1.22444424139214,-9.65219093948012,0.0139253667646244,0.000920,0.000502,-0.004676,0.058273,0.001490,327.902517,23.330005,0.998713,0.980906,0.005552,0.330615,-0.000043,-0.000004,-0.000013,0.000000,-0.000047,-73.380938,0.000055,
2206,3103,-1.22051689339798,9.95825934428207,0.0230473356421044,0.000872,0.000006,0.000193,0.039645,0.010881,313.533282,24.829566,0.999340,0.992005,0.003850,0.401976,-0.000018,-0.000015,-0.000007,-0.000010,-0.000023,-49.585909,0.000034,
2296,2128,0.910472279170225,-11.2952625989773,0.0127496985840025,0.000656,0.001057,-0.006550,0.052517,0.004686,329.106904,23.266383,0.998991,0.982898,0.005243,0.308883,-0.000048,0.000005,-0.000017,0.000010,-0.000053,-73.750162,0.000057,
2041,2323,-4.68030636412172,-7.02363397803425,-0.00873177896863808,0.001189,0.000703,-0.006718,0.073517,-0.011428,326.671466,24.653676,0.998958,0.985589,0.004785,0.296446,-0.000019,-0.000046,-0.000035,0.000005,-0.000070,-34.685225,0.000078,
2371,2503,2.47465689517759,-3.08809180601281,-0.0106082853204157,0.000770,0.000186,-0.001608,0.041116,-0.000468,322.823051,23.861913,0.999448,0.989222,0.004240,0.354313,-0.000020,-0.000041,0.000009,-0.000016,-0.000044,20.747641,0.000062,
2161,2878,-2.16170680714092,5.07333096831967,-0.0188955352815583,0.000630,0.000208,-0.002835,0.037812,0.003884,316.996193,24.546199,0.999438,0.993930,0.003347,0.364838,-0.000011,0.000003,-0.000004,0.000004,-0.000012,-75.914488,0.000012,
2281,2098,0.588280887921503,-11.9521050404514,0.00916226115140262,0.000841,0.000975,-0.006122,0.059269,0.020457,329.581962,23.304583,0.998603,0.980195,0.005639,0.311372,-0.000039,-0.000004,-0.000007,-0.000002,-0.000040,-79.299743,0.000048,
2131,2713,-2.78643116645443,1.48504989380711,-0.0343951774415814,0.000951,0.000755,-0.006561,0.063664,0.012996,319.691471,24.452356,0.999323,0.991512,0.003896,0.357285,-0.000005,-0.000019,0.000002,-0.000004,-0.000019,9.673212,0.000025,
2146,2803,-2.47500073585149,3.44178339891801,-0.023368907812312,0.000932,0.000089,-0.001851,0.048573,0.010933,318.246656,24.413754,0.999615,0.993558,0.003372,0.441798,-0.000016,-0.000019,-0.000003,-0.000014,-0.000021,-34.495229,0.000036,
2101,2578,-3.41679173313099,-1.45851923553785,-0.0201314290897017,0.000305,-0.000139,0.000321,0.013047,-0.017800,322.083182,24.360398,0.999296,0.989815,0.004100,0.401276,-0.000019,-0.000024,-0.000002,-0.000018,-0.000025,-19.752855,0.000044,
2266,2053,0.268785037191336,-12.9398108648281,0.0147658353010911,0.000509,0.001053,-0.005060,0.040353,0.030963,330.353545,23.282277,0.998980,0.981461,0.005349,0.348297,-0.000037,-0.000008,-0.000014,-0.000002,-0.000043,-67.908651,0.000050,
2191,2998,-1.52974799460553,7.68032807063497,-0.00195268473521537,0.000681,0.000028,-0.000592,0.033318,0.013878,315.076488,24.684015,0.999457,0.992492,0.003655,0.397753,-0.000020,-0.000013,0.000005,-0.000011,-0.000023,63.987618,0.000034,
2026,2293,-5.00294546039578,-7.68033738853075,0.00408965700552244,0.000405,-0.000194,0.004634,0.005862,0.043689,327.283359,24.700209,0.998470,0.984768,0.005155,0.377045,-0.000004,-0.000010,-0.000017,0.000010,-0.000025,-40.334163,0.000025,
2461,2998,4.33774034590085,7.69906842725755,-0.00775505458727821,0.000734,0.000403,-0.004014,0.049024,0.007916,314.905585,25.420429,0.999323,0.991141,0.003877,0.417912,-0.000017,0.000001,0.000020,0.000014,-0.000030,56.936335,0.000030,
2326,2278,1.53603907362841,-8.0081279738332,-0.00208855535095154,0.000352,0.000353,-0.003065,0.026806,-0.000092,326.519282,23.441811,0.999082,0.985313,0.004804,0.326751,-0.000039,-0.000030,-0.000017,-0.000017,-0.000052,-52.018717,0.000072,
2431,2848,3.71362065528959,4.43640995084836,-0.0235465068001304,0.000791,0.000373,-0.004356,0.052587,0.001433,317.172888,24.903077,0.999246,0.989157,0.004046,0.349887,-0.000051,-0.000016,-0.000023,-0.000005,-0.000062,-64.044677,0.000075,
2401,2668,3.09552653189818,0.514279133056213,-0.0245749289613286,0.000695,0.000278,-0.003998,0.046530,0.002193,320.052994,24.314972,0.999320,0.989797,0.004217,0.351395,-0.000043,0.000001,-0.000011,0.000004,-0.000046,-76.814350,0.000051,
2446,2893,4.02982700296472,5.41693385821141,-0.0328148856743269,0.000512,-0.000187,-0.000680,0.026046,0.003568,316.359152,25.049803,0.999459,0.992634,0.003602,0.380977,-0.000041,-0.000006,-0.000012,-0.000003,-0.000045,-72.908727,0.000053,
2041,2338,-4.68294868451622,-6.69662550303365,-0.00663075984601846,0.000882,0.000118,-0.003111,0.049193,-0.013393,326.423647,24.606196,0.999168,0.988753,0.004302,0.336328,-0.000018,-0.000041,-0.000030,0.000003,-0.000062,-34.237159,0.000070,
2116,2653,-3.10288455182068,0.178745601485595,-0.0392003527260272,0.001115,0.000413,-0.004812,0.065665,0.000832,320.691495,24.451663,0.999507,0.991196,0.003714,0.330188,-0.000019,-0.000020,0.000001,-0.000019,-0.000020,28.042341,0.000039,
2056,2383,-4.36414707772408,-5.71121386648585,-0.0253666723714332,0.001022,0.000922,-0.007494,0.068352,0.011535,325.475272,24.560784,0.999162,0.990098,0.004338,0.342246,-0.000024,0.000006,-0.000004,0.000007,-0.000024,-82.790592,0.000025,
2011,2233,-5.32062100983924,-8.99153433970755,0.00214861975769054,0.000406,0.000023,0.002676,0.011416,0.016023,328.330958,24.860026,0.999211,0.985453,0.004918,0.289265,-0.000035,0.000011,-0.000029,0.000025,-0.000049,-64.173842,0.000049,
2386,2578,2.7864172310262,-1.44953388240875,-0.0203324211674385,0.000633,0.000218,-0.003610,0.042102,0.001860,321.534104,24.059698,0.999355,0.989476,0.004260,0.349468,-0.000025,-0.000017,0.000004,-0.000015,-0.000027,67.446371,0.000042,
2356,2443,2.15933546675562,-4.40036207207193,-0.006170531820203,0.000526,0.000140,-0.003595,0.036842,0.002366,323.824179,23.642777,0.998906,0.983927,0.005052,0.446836,-0.000026,-0.000031,0.000013,-0.000015,-0.000042,39.628386,0.000059,
2236,3238,-0.593284137878424,12.8873053570008,0.0284127699041505,0.000500,0.000097,-0.001996,0.029554,-0.004694,311.281681,25.121693,0.999605,0.994821,0.003123,0.388655,-0.000019,0.000001,-0.000012,0.000006,-0.000024,-65.147630,0.000025,
2371,2518,2.47131626657363,-2.76109635182368,-0.0124062481464762,0.000525,-0.000032,-0.000420,0.025575,0.004873,322.549440,23.834053,0.999399,0.987556,0.004577,0.429817,-0.000022,-0.000040,0.000006,-0.000020,-0.000042,16.491855,0.000063,
2086,2518,-3.73238499126806,-2.76679714674474,-0.0142490375869215,0.000694,0.000323,-0.004052,0.043704,0.005900,323.206138,24.413013,0.999477,0.992568,0.003650,0.391876,-0.000010,-0.000026,-0.000001,-0.000010,-0.000026,-4.479066,0.000037,
2416,2758,3.40431894592373,2.47580216482714,-0.0252483372338475,0.000638,0.000286,-0.001815,0.036055,0.010208,318.588754,24.552003,0.999512,0.990088,0.003957,0.403710,-0.000039,-0.000006,-0.000011,-0.000002,-0.000042,-74.070367,0.000051,
2341,2353,1.85039518194791,-6.36763268501272,-0.00132304825785923,0.001059,0.000615,-0.007660,0.075407,-0.002880,325.359027,23.534411,0.999249,0.987801,0.004525,0.360198,-0.000039,-0.000006,0.000007,-0.000004,-0.000041,78.331094,0.000050,
2071,2428,-4.04428040015789,-4.7307917675972,-0.00564873508238861,0.000696,0.000080,-0.000532,0.033526,0.001478,324.798195,24.510794,0.998857,0.987925,0.004417,0.328786,-0.000018,-0.000022,0.000004,-0.000015,-0.000025,31.237122,0.000041,
2221,3163,-0.905055738432711,11.2604451590892,0.0298067318855146,0.000638,0.000090,-0.003635,0.041239,0.014937,312.569551,24.966381,0.999516,0.993375,0.003398,0.398210,-0.000022,-0.000007,-0.000010,-0.000002,-0.000027,-63.735007,0.000033,
2431,2863,3.71064110153926,4.76250152814371,-0.0191950792341231,0.000535,0.000180,-0.003077,0.036094,0.011007,316.948011,24.943393,0.999468,0.991697,0.003612,0.368622,-0.000048,-0.000009,-0.000022,0.000001,-0.000058,-65.667781,0.000066,
2281,2113,0.585538947596529,-11.6241618455296,0.00862306159103809,0.000744,0.000760,-0.007113,0.058081,-0.009211,329.335532,23.268192,0.998747,0.981441,0.005443,0.348882,-0.000037,0.000000,-0.000007,0.000002,-0.000038,-79.091688,0.000043,
2311,2218,1.22086978747331,-9.32335659416137,0.00689495952724428,0.000749,0.000387,-0.002921,0.044396,-0.002705,327.588208,23.319716,0.998669,0.979275,0.005693,0.371720,-0.000038,-0.000016,-0.000013,-0.000010,-0.000044,-64.765174,0.000057,
2161,2893,-2.16419052111869,5.39964710058736,-0.0217442720210101,0.000805,0.000373,-0.003629,0.048337,0.007104,316.738579,24.564656,0.999538,0.993556,0.003440,0.359559,-0.000013,0.000001,0.000000,0.000001,-0.000013,-89.057977,0.000015,
2206,3118,-1.22313260376124,10.283426638525,0.0259938966071331,0.000601,-0.000157,-0.000764,0.030030,-0.013819,313.303378,24.868697,0.999510,0.993334,0.003500,0.353582,-0.000021,-0.000013,-0.000007,-0.000009,-0.000026,-59.337078,0.000036,
2026,2308,-5.00513315546459,-7.35092757727053,-0.00850893086123961,0.000948,0.000313,0.000604,0.042003,0.016520,326.972928,24.739312,0.998779,0.984995,0.004996,0.303261,-0.000007,-0.000025,-0.000037,0.000022,-0.000054,-37.878825,0.000054,
2296,2143,0.907223784471519,-10.964792593008,0.012038118870862,0.000506,0.000286,-0.002338,0.031167,0.006297,328.837197,23.438339,0.999374,0.984240,0.005068,0.171802,-0.000046,-0.000014,-0.000020,-0.000005,-0.000056,-64.630629,0.000067,
2131,2728,-2.78871638342408,1.80971145853971,-0.0289311983780181,0.000832,0.000400,-0.005378,0.054547,0.003808,319.485475,24.348070,0.999278,0.990535,0.004074,0.458256,-0.000010,-0.000018,0.000001,-0.000010,-0.000018,3.958134,0.000029,
2176,2953,-1.84808611052744,6.70276070994031,-0.00932942198204501,0.000708,0.000324,-0.001425,0.037128,0.008720,315.801155,24.614322,0.999125,0.993165,0.003543,0.385204,-0.000011,-0.000014,0.000002,-0.000010,-0.000015,29.923581,0.000026,
2011,2248,-5.3222201542025,-8.66448204328138,0.00113891032674474,0.000788,0.000167,-0.001507,0.040329,-0.004125,328.110995,24.771367,0.999085,0.985491,0.004873,0.347977,-0.000044,0.000022,-0.000040,0.000041,-0.000063,-64.745966,0.000064,
2041,2353,-4.68550482230252,-6.36872243614654,-0.00811580004182133,0.000928,-0.000182,0.001234,0.039174,0.012452,326.159634,24.582454,0.998817,0.986488,0.004849,0.380478,-0.000012,-0.000029,-0.000012,-0.000005,-0.000035,-27.948139,0.000044,
2146,2818,-2.47800393507898,3.76952518587144,-0.027522647184071,0.000644,0.000556,-0.002626,0.037865,0.038083,317.956646,24.506800,0.999546,0.993468,0.003428,0.383727,-0.000016,-0.000009,-0.000003,-0.000008,-0.000017,-69.658207,0.000025,
2101,2593,-3.41878793269028,-1.1308240731114,-0.0229623106714598,0.000629,0.000456,-0.003563,0.039473,-0.001044,321.842727,24.396890,0.999229,0.989751,0.004177,0.383784,-0.000020,-0.000022,0.000004,-0.000017,-0.000025,40.180386,0.000042,
2326,2293,1.53352052561302,-7.67955557850684,-0.00576527337989319,0.000680,0.000521,-0.005841,0.051464,0.000853,326.270919,23.465775,0.999122,0.985143,0.004838,0.340294,-0.000036,-0.000029,-0.000014,-0.000018,-0.000047,-51.658650,0.000067,
2056,2398,-4.36589543922968,-5.38598762746872,-0.0146954738988256,0.000966,0.000764,-0.006213,0.062107,0.000077,325.317089,24.462563,0.998847,0.987817,0.004628,0.424889,-0.000026,-0.000003,-0.000010,0.000001,-0.000030,-69.029987,0.000034,
2401,2683,3.09237694646371,0.842114016987715,-0.0282507411905613,0.000751,0.000795,-0.004111,0.049718,0.032260,319.780837,24.378552,0.999360,0.989433,0.004199,0.363965,-0.000042,0.000005,-0.000007,0.000006,-0.000043,-81.225759,0.000046,
2461,3013,4.33528081317403,8.0253475733138,0.00248409021008911,0.000468,0.000389,-0.003849,0.036200,0.006667,314.732803,25.566696,0.999390,0.991055,0.003777,0.323807,-0.000023,0.000007,0.000019,0.000016,-0.000032,64.113558,0.000032,
2356,2458,2.15586694398311,-4.07069642375766,-0.0140819301434476,0.000635,0.000105,-0.002065,0.036405,-0.008664,323.513857,23.798586,0.999239,0.987554,0.004502,0.320434,-0.000028,-0.000026,0.000014,-0.000013,-0.000041,47.475950,0.000056,
2266,2068,0.266224944152775,-12.610539681343,0.0181818807300829,0.000548,0.000702,-0.002464,0.033479,0.027765,330.133715,23.367404,0.999159,0.983585,0.005064,0.288557,-0.000036,0.000006,-0.000007,0.000007,-0.000037,-80.876357,0.000039,
2086,2533,-3.73491798107333,-2.43945151006797,-0.0131903967082394,0.000688,0.000256,-0.000220,0.032394,0.018522,322.961069,24.435934,0.999619,0.993234,0.003599,0.381583,-0.000013,-0.000022,0.000009,-0.000007,-0.000028,31.794321,0.000036,
2191,3013,-1.53171216073925,8.00482799350924,0.00979643281237941,0.000527,-0.000024,-0.000064,0.024453,-0.003113,314.921723,24.687821,0.999421,0.992332,0.003684,0.390451,-0.000019,-0.000013,0.000005,-0.000010,-0.000022,63.117102,0.000033,
2446,2908,4.02738020210023,5.74262173908332,-0.0236408662808572,0.000409,-0.000123,0.000516,0.016857,0.001733,316.181924,25.111820,0.999450,0.992056,0.003704,0.368679,-0.000039,-0.000006,-0.000007,-0.000005,-0.000040,-78.464532,0.000049,
2236,3253,-0.596258465578963,13.2125919203957,0.0220808635186813,0.000675,0.000176,-0.001595,0.036294,-0.004615,310.989426,25.128175,0.999546,0.994672,0.003121,0.402177,-0.000019,0.000003,-0.000008,0.000006,-0.000022,-72.361951,0.000023,
2371,2533,2.46848659256937,-2.43257558174825,-0.017023236522391,0.000735,0.000239,-0.002869,0.044031,0.008115,322.285475,23.927878,0.999346,0.988250,0.004500,0.381593,-0.000018,-0.000044,0.000002,-0.000018,-0.000044,3.561767,0.000064,
2386,2593,2.78345596320318,-1.1224654902613,-0.020543696983566,0.000694,0.000137,-0.002170,0.039680,-0.014084,321.286425,24.098853,0.999397,0.989431,0.004295,0.338440,-0.000021,-0.000022,0.000002,-0.000020,-0.000024,37.391381,0.000044,
2026,2323,-5.0067796048846,-7.02389986613763,-0.00983270225896149,0.001199,0.000570,-0.005925,0.071517,-0.006713,326.750463,24.675415,0.998913,0.986412,0.004777,0.336114,-0.000004,-0.000051,-0.000048,0.000026,-0.000080,-31.914315,0.000082,
2116,2668,-3.10538831251089,0.505406664685552,-0.0439521494484438,0.001248,0.000736,-0.006174,0.075922,0.003966,320.419038,24.417021,0.999510,0.992344,0.003591,0.372110,-0.000019,-0.000025,0.000000,-0.000019,-0.000025,2.193582,0.000044,
2071,2443,-4.046465988945,-4.4034689064655,-0.00796386380170588,0.000699,0.000525,-0.004807,0.045994,-0.003173,324.549450,24.487624,0.999202,0.988944,0.004323,0.345799,-0.000018,-0.000031,-0.000004,-0.000017,-0.000032,-15.691075,0.000050,
2341,2368,1.84622047916992,-6.0380059696767,-0.0122596565046251,0.000906,0.000806,-0.002750,0.051410,0.045654,325.000357,23.564058,0.999024,0.986777,0.004689,0.417908,-0.000039,-0.000009,0.000005,-0.000008,-0.000040,80.374149,0.000051,
2011,2263,-5.3238137280606,-8.33571317087269,-0.0070550795672375,0.001320,0.001058,-0.010569,0.089578,-0.010725,327.850678,24.758010,0.998650,0.982417,0.005087,0.345191,-0.000044,-0.000003,-0.000046,0.000027,-0.000074,-56.989016,0.000075,
2431,2878,3.70760114447188,5.0892522884638,-0.0213737341505293,0.000558,0.000261,-0.004163,0.041165,0.006482,316.689782,25.014219,0.999478,0.992325,0.003472,0.343193,-0.000050,-0.000002,-0.000017,0.000003,-0.000055,-72.449517,0.000062,
2461,3028,4.33257117402091,8.35088976996509,0.0090446997617164,0.000473,-0.000041,-0.001024,0.025600,0.000708,314.531781,25.628025,0.999619,0.992394,0.003657,0.310027,-0.000022,0.000003,0.000016,0.000011,-0.000030,63.725489,0.000030,
2416,2773,3.40172061996289,2.8018485811813,-0.0219849261888498,0.000691,0.000290,-0.002198,0.039955,0.017770,318.375750,24.556968,0.999515,0.989564,0.004063,0.454300,-0.000042,-0.000016,-0.000014,-0.000010,-0.000048,-66.816614,0.000062,
2311,2233,1.21858482640836,-8.99361170052315,0.00408995106914745,0.001229,0.000707,-0.005591,0.075639,0.011982,327.353401,23.423406,0.998555,0.980458,0.005613,0.317547,-0.000041,-0.000026,-0.000013,-0.000018,-0.000049,-60.413555,0.000069,
2041,2368,-4.68739052728484,-6.04087449915157,-0.00564126069912163,0.001062,0.000329,-0.000044,0.049060,0.029230,325.948218,24.606208,0.998918,0.986978,0.004739,0.367511,-0.000002,0.000008,-0.000003,0.000009,-0.000003,-74.037803,0.000009,
2056,2413,-4.36833845198306,-5.05890349097717,-0.00799704287732084,0.000745,0.000164,-0.000521,0.035764,0.012871,325.104799,24.475890,0.998162,0.984600,0.005226,0.420520,-0.000022,-0.000013,-0.000011,-0.000006,-0.000029,-57.211292,0.000037,
2206,3133,-1.22535450669076,10.6087048702197,0.0309379790253956,0.000648,0.000027,-0.000817,0.032467,-0.000675,313.101842,24.896048,0.999663,0.994560,0.003221,0.355028,-0.000023,-0.000007,-0.000007,-0.000004,-0.000026,-68.201110,0.000033,
2281,2128,0.583548877396961,-11.2951754417243,0.0155902593624546,0.000904,0.001509,-0.007446,0.066794,0.031274,329.160283,23.343440,0.998446,0.980674,0.005461,0.344462,-0.000034,0.000001,-0.000012,0.000005,-0.000038,-73.283662,0.000041,
2296,2158,0.90458400532675,-10.6373479932909,0.00945031050343914,0.000689,0.000387,-0.003312,0.042842,-0.005113,328.586485,23.332508,0.999430,0.984839,0.005024,0.298870,-0.000046,-0.000019,-0.000022,-0.000007,-0.000058,-60.537414,0.000071,
2266,2083,0.263040272699154,-12.2805812441226,0.00838103731598494,0.000723,0.000564,-0.002582,0.041821,0.017746,329.819117,23.381414,0.999299,0.985241,0.004922,0.293880,-0.000033,-0.000002,-0.000009,0.000000,-0.000036,-74.719211,0.000041,
2131,2743,-2.79095776789701,2.13712440916366,-0.0307503455219376,0.001047,0.000857,-0.007212,0.070007,-0.003643,319.241809,24.440230,0.999364,0.991564,0.003877,0.364360,-0.000015,-0.000023,-0.000002,-0.000014,-0.000023,-13.862712,0.000038,
2146,2833,-2.47920351285675,4.09384571190639,-0.0148528889923227,0.000937,0.000352,-0.004934,0.058258,0.007171,317.839806,24.475082,0.999603,0.993938,0.003279,0.391820,-0.000016,-0.000002,-0.000004,-0.000001,-0.000017,-75.047348,0.000021,
2101,2608,-3.42070417705227,-0.804320219931419,-0.0213056271169307,0.000846,0.000462,-0.005870,0.056195,-0.006711,321.630564,24.390203,0.998967,0.987590,0.004586,0.386700,-0.000019,-0.000026,0.000004,-0.000017,-0.000028,24.927465,0.000046,
2326,2308,1.53053477512281,-7.3512792768307,-0.00125544274072809,0.000662,0.000068,0.001141,0.026474,0.011835,326.040980,23.540171,0.998947,0.984984,0.004954,0.313435,-0.000036,-0.000035,-0.000009,-0.000026,-0.000044,-46.876616,0.000071,
2236,3268,-0.599546161030105,13.5380620531689,0.0153430302711399,0.000575,0.000049,-0.001072,0.030034,0.003470,310.680566,25.146027,0.999445,0.994050,0.003297,0.411862,-0.000019,0.000010,-0.000007,0.000011,-0.000020,-77.534772,0.000020,
2446,2923,4.02518315629019,6.06943205572616,-0.0219424562505424,0.000697,0.000259,-0.004092,0.047484,0.017660,315.981304,25.209017,0.999600,0.994103,0.003493,0.339071,-0.000030,-0.000014,-0.000003,-0.000014,-0.000031,-80.590614,0.000046,
2086,2548,-3.73761915048681,-2.11303190034351,-0.0193499753359561,0.000746,-0.000170,0.000080,0.034017,-0.002579,322.669438,24.348332,0.999454,0.992043,0.003808,0.448122,-0.000010,-0.000025,0.000010,-0.000004,-0.000030,26.934758,0.000037,
2191,3028,-1.53445034623839,8.33087382671301,0.00575320897200982,0.000616,0.000067,-0.000541,0.030162,0.015743,314.648541,24.695896,0.999546,0.993281,0.003630,0.415230,-0.000020,-0.000015,0.000004,-0.000013,-0.000022,61.071706,0.000035,
2401,2698,3.08874155337255,1.16932128820415,-0.0367469577491875,0.000791,0.000580,-0.003104,0.047827,0.017785,319.463811,24.394740,0.999338,0.990585,0.004049,0.379422,-0.000038,0.000007,-0.000006,0.000008,-0.000039,-82.430352,0.000041,
2221,3178,-0.907407016349062,11.5852907825594,0.0356380253083444,0.000487,0.000048,-0.004125,0.035698,-0.009984,312.367647,25.007711,0.999333,0.992712,0.003525,0.349338,-0.000019,-0.000005,-0.000008,-0.000001,-0.000023,-66.216633,0.000027,
2371,2548,2.46556859316251,-2.10563430672671,-0.0163321124554159,0.000569,0.000105,-0.003624,0.039027,-0.013819,322.043126,23.954631,0.999244,0.987925,0.004596,0.374760,-0.000018,-0.000034,0.000003,-0.000018,-0.000035,9.401319,0.000054,
2176,2968,-1.84958006373035,7.02801569825904,-0.00359500401293644,0.001121,0.000227,-0.005214,0.067895,-0.000937,315.635500,24.628953,0.999285,0.992974,0.003535,0.372461,-0.000012,-0.000012,0.000004,-0.000008,-0.000016,47.740040,0.000024,
2161,2908,-2.16582279965954,5.72444592111955,-0.0147683258063012,0.001111,0.000433,-0.005309,0.067617,0.003885,316.572359,24.525286,0.999488,0.992784,0.003595,0.405105,-0.000010,-0.000014,-0.000001,-0.000009,-0.000014,-17.134946,0.000024,
2011,2278,-5.32610157552331,-8.00785117068638,-0.00842645333449354,0.001415,0.000740,-0.008534,0.088317,0.005363,327.596948,24.714725,0.998616,0.982950,0.005334,0.395042,-0.000029,-0.000023,-0.000053,0.000028,-0.000079,-46.609174,0.000081,
2356,2473,2.15334938232558,-3.7431611738101,-0.0118237425001553,0.000823,0.000025,-0.001530,0.043134,-0.002334,323.296313,23.841596,0.999538,0.989614,0.004082,0.323767,-0.000028,-0.000030,0.000013,-0.000016,-0.000042,43.128667,0.000059,
2461,3043,4.32975613175846,8.67612050423373,0.010179261455221,0.000592,0.000079,-0.000903,0.030665,0.007854,314.301035,25.615050,0.999492,0.991479,0.003777,0.383794,-0.000021,0.000008,0.000019,0.000017,-0.000031,63.412171,0.000031,
2041,2383,-4.69003365185812,-5.713761143004,-0.00738576719174944,0.000699,0.000135,-0.001281,0.035718,-0.001485,325.679241,24.574328,0.999281,0.989613,0.004145,0.362868,-0.000005,0.000005,-0.000011,0.000012,-0.000012,-57.207334,0.000014,
2431,2893,3.70458489589342,5.41572931628613,-0.0230277021024676,0.000598,0.000426,-0.004774,0.045389,0.021574,316.435046,25.048684,0.999512,0.992173,0.003579,0.373395,-0.000046,-0.000010,-0.000016,-0.000004,-0.000053,-69.309982,0.000063,
2071,2458,-4.04883391161351,-4.07693739535797,-0.00643068724889417,0.000757,0.000137,-0.001457,0.038982,-0.011258,324.313611,24.436469,0.999496,0.990491,0.004130,0.387032,-0.000014,-0.000036,-0.000010,-0.000010,-0.000040,-21.583856,0.000052,
2056,2428,-4.37073074116576,-4.72986227711898,-0.0166363434370851,0.001054,0.000608,-0.002462,0.055594,0.029580,324.810031,24.523783,0.998759,0.986767,0.004694,0.385687,-0.000023,-0.000018,0.000004,-0.000016,-0.000025,61.598817,0.000041,
2341,2383,1.84293853825803,-5.7093835511727,-0.0145370573031869,0.000656,0.000381,-0.002187,0.037845,0.013157,324.724941,23.672635,0.999327,0.987361,0.004595,0.315065,-0.000032,-0.000013,0.000005,-0.000011,-0.000034,76.427577,0.000047,
2116,2683,-3.10739104403308,0.83076305379349,-0.0408089522560999,0.001445,0.000392,-0.006412,0.085575,-0.009541,320.212351,24.349543,0.999419,0.993204,0.003486,0.429812,-0.000015,-0.000022,0.000000,-0.000015,-0.000022,-3.953878,0.000037,
2236,3283,-0.602624969536468,13.8641016766435,0.0108091137168458,0.000589,0.000337,0.000291,0.026332,0.011610,310.392340,25.232982,0.999251,0.993773,0.003433,0.352422,-0.000022,0.000009,-0.000008,0.000010,-0.000024,-76.785718,0.000024,
2311,2248,1.2157520665683,-8.66557173570548,0.00473270210898136,0.001020,0.000869,-0.006561,0.069430,0.023747,327.110622,23.415382,0.998681,0.982745,0.005288,0.372024,-0.000040,-0.000039,-0.000011,-0.000029,-0.000050,-47.195327,0.000080,
2266,2098,0.260456900405075,-11.9509026128936,0.00615927422916229,0.000949,0.000389,-0.002761,0.052711,0.010097,329.569915,23.457261,0.999011,0.982630,0.005331,0.238991,-0.000031,-0.000002,-0.000009,0.000000,-0.000034,-74.896793,0.000039,
2386,2608,2.78071481076988,-0.79542514119953,-0.0215633128642594,0.000780,0.000313,-0.004017,0.050334,-0.001830,321.044881,24.105017,0.999273,0.989296,0.004216,0.388522,-0.000024,-0.000022,0.000004,-0.000019,-0.000027,48.832672,0.000046,
2131,2758,-2.79378923849228,2.46350034229551,-0.0286730240665634,0.000890,-0.000023,-0.001837,0.046486,-0.000825,318.992168,24.462596,0.999397,0.992506,0.003673,0.350635,-0.000014,-0.000024,-0.000004,-0.000013,-0.000025,-16.884597,0.000039,
2326,2323,1.52797292810034,-7.02212974508572,-0.0110552296909532,0.000994,0.001169,-0.007118,0.070522,0.025132,325.760556,23.554575,0.998964,0.983631,0.005171,0.348903,-0.000038,-0.000029,-0.000002,-0.000028,-0.000039,-77.220785,0.000067,
2011,2293,-5.32964973959969,-7.67826257530374,-0.013890984527734,0.000866,0.000124,-0.000368,0.040840,0.016587,327.262405,24.798339,0.999037,0.987514,0.004680,0.313152,-0.000007,-0.000013,-0.000036,0.000026,-0.000046,-42.702829,0.000046,
2416,2788,3.39828950193358,3.13038822197544,-0.0262170754347721,0.000647,0.000136,-0.001087,0.033801,0.019663,318.088715,24.742773,0.999494,0.989726,0.004090,0.318016,-0.000041,-0.000016,-0.000017,-0.000007,-0.000050,-63.150117,0.000062,
2206,3148,-1.22820201824697,10.9343820681785,0.0256096505368077,0.000684,0.000182,-0.002299,0.038872,-0.000864,312.818171,24.914340,0.999515,0.994020,0.003368,0.352009,-0.000022,-0.000004,-0.000007,-0.000002,-0.000024,-71.573020,0.000029,
2296,2173,0.901373966755266,-10.3089820833632,0.00265457767517319,0.000535,0.000514,-0.005424,0.042964,-0.001033,328.288665,23.256419,0.999469,0.983792,0.005084,0.412227,-0.000038,-0.000011,-0.000018,-0.000002,-0.000047,-63.271178,0.000055,
2026,2338,-5.00927838813429,-6.69686680418125,-0.00498238777890947,0.000764,0.000555,-0.003555,0.045052,0.003238,326.523288,24.645075,0.999153,0.988453,0.004349,0.368412,0.000000,-0.000051,-0.000041,0.000023,-0.000074,-29.272470,0.000075,
2461,3058,4.32656699223864,9.00221629225374,0.00914443109354579,0.000363,0.000187,-0.002684,0.026877,0.002355,314.042789,25.684300,0.999430,0.990923,0.003997,0.362580,-0.000015,0.000004,0.000019,0.000016,-0.000027,58.336088,0.000027,
2101,2623,-3.42422907356312,-0.475965740733486,-0.0386678708678687,0.000779,0.000706,-0.006541,0.055201,0.017732,321.241388,24.365810,0.999117,0.988099,0.004423,0.437830,-0.000019,-0.000038,0.000003,-0.000019,-0.000038,10.356722,0.000058,
2086,2563,-3.73914426424465,-1.78597590165182,-0.0123069935519311,0.000871,-0.000066,-0.004081,0.051835,-0.017595,322.503193,24.434467,0.998997,0.988656,0.004416,0.346587,-0.000012,-0.000031,0.000001,-0.000011,-0.000032,4.124939,0.000045,
2281,2143,0.580319665637699,-10.9649824182187,0.0156650061919095,0.000692,0.000880,-0.003070,0.042235,0.035334,328.894081,23.495710,0.999193,0.983931,0.005105,0.227351,-0.000034,-0.000020,-0.000015,-0.000010,-0.000043,-58.106511,0.000057,
2431,2908,3.70133512529774,5.74121669523521,-0.0227768837548865,0.000553,0.000050,-0.001624,0.031427,-0.005712,316.178668,25.052669,0.999631,0.992021,0.003546,0.391713,-0.000044,-0.000009,-0.000011,-0.000006,-0.000047,-73.637142,0.000058,
2041,2398,-4.69240297733704,-5.386459686557,-0.0117315932234305,0.000835,0.000420,-0.001398,0.042399,0.025006,325.408132,24.482990,0.999297,0.990378,0.003976,0.474949,-0.000004,-0.000007,-0.000014,0.000008,-0.000019,-42.324998,0.000019,
2371,2563,2.46240687808028,-1.77743828956557,-0.0158700803078773,0.000504,0.000309,-0.000254,0.024186,0.024376,321.787998,24.039112,0.999329,0.989578,0.004289,0.370507,-0.000021,-0.000024,0.000001,-0.000021,-0.000025,16.604653,0.000046,
2146,2848,-2.48239539723615,4.42041705242028,-0.0218159031639971,0.000824,0.000125,-0.003043,0.047218,0.002280,317.526631,24.480309,0.999603,0.993912,0.003280,0.389430,-0.000014,0.000000,-0.000006,0.000002,-0.000016,-69.851373,0.000018,
2236,3298,-0.6057235135955,14.1893620641316,2.78734690368765E-05,0.000804,0.000283,-0.001483,0.041993,0.007142,310.071467,25.231378,0.999298,0.993801,0.003364,0.369243,-0.000024,0.000016,-0.000017,0.000022,-0.000030,-69.808938,0.000031,
2221,3193,-0.909813228004968,11.9104093264888,0.0353827190504603,0.000883,0.000085,-0.002108,0.047575,0.007403,312.131744,24.999333,0.999427,0.993763,0.003373,0.392961,-0.000021,-0.000012,-0.000010,-0.000006,-0.000027,-56.962325,0.000035,
2191,3043,-1.53601365446766,8.65700134830314,0.0131093037079495,0.000831,0.000186,-0.004978,0.054038,0.007178,314.488726,24.818136,0.999700,0.995261,0.003127,0.297892,-0.000021,-0.000021,0.000001,-0.000020,-0.000022,49.126146,0.000042,
2071,2473,-4.05093495936482,-3.74942947134023,-0.00818717873619335,0.000818,0.000321,-0.005724,0.054006,-0.007982,324.071728,24.437618,0.999415,0.990356,0.004231,0.387108,-0.000013,-0.000029,-0.000007,-0.000010,-0.000031,-20.702452,0.000043,
2401,2713,3.08572248739042,1.49593557364047,-0.0413540751724781,0.000810,0.000519,-0.006218,0.059964,0.006251,319.193487,24.390717,0.999540,0.991562,0.003778,0.417660,-0.000042,0.000003,-0.000009,0.000004,-0.000044,-79.431145,0.000048,
2161,2923,-2.16876619617967,6.05063538716193,-0.0104933288965867,0.000714,0.000115,-0.000730,0.035209,0.016641,316.331249,24.582045,0.999174,0.989966,0.004101,0.370681,-0.000009,-0.000017,0.000003,-0.000008,-0.000017,17.066989,0.000026,
2116,2698,-3.10971507120187,1.15765090002213,-0.0318191149999052,0.001070,0.000395,-0.004800,0.063581,-0.001978,320.021865,24.453467,0.999298,0.992026,0.003745,0.336918,-0.000012,-0.000028,0.000001,-0.000012,-0.000028,2.286273,0.000042,
2356,2488,2.15086257894595,-3.41692854487981,-0.00663716991067531,0.000854,-0.000194,-0.000409,0.040543,-0.011301,323.094508,23.811895,0.999437,0.989100,0.004195,0.384385,-0.000020,-0.000033,0.000010,-0.000015,-0.000038,27.904406,0.000055,
2056,2443,-4.37321580547927,-4.40267173236077,-0.0168990471127586,0.000840,0.000360,-0.002982,0.047104,-0.005323,324.557726,24.538341,0.999102,0.988213,0.004469,0.332172,-0.000021,-0.000027,-0.000006,-0.000018,-0.000030,-30.990517,0.000049,
2446,2938,4.02200595418093,6.3954938400652,-0.0257232163918388,0.000699,0.000465,-0.005626,0.053306,0.006852,315.710428,25.229474,0.999570,0.993214,0.003602,0.359712,-0.000027,-0.000012,0.000000,-0.000012,-0.000027,-89.624682,0.000040,
2386,2623,2.77718327048875,-0.468290466885378,-0.0236071279996395,0.000557,0.000074,-0.000793,0.028429,0.003362,320.762111,24.123131,0.999085,0.988858,0.004285,0.419656,-0.000028,-0.000013,0.000001,-0.000013,-0.000028,84.727016,0.000042,
2011,2308,-5.33185847765731,-7.35119077273664,-0.0103351731244743,0.000578,0.000039,-0.001220,0.029871,0.008306,327.040182,24.767218,0.999047,0.987882,0.004653,0.325953,-0.000010,-0.000034,-0.000055,0.000034,-0.000078,-38.688775,0.000078,
2176,2983,-1.85297422368703,7.35387614115616,-0.0071584605091175,0.000733,-0.000222,-0.002109,0.040263,-0.008927,315.333630,24.637597,0.999265,0.992806,0.003550,0.367462,-0.000013,-0.000017,0.000002,-0.000012,-0.000018,22.967185,0.000030,
2026,2353,-5.011664344528,-6.36810120498467,-0.0102727227987316,0.000862,0.000664,-0.004516,0.052205,0.019098,326.244440,24.672430,0.999065,0.988444,0.004553,0.349144,0.000009,-0.000037,-0.000019,0.000016,-0.000044,-20.016122,0.000044,
2431,2923,3.69882478173591,6.06821235953998,-0.0211558114114609,0.000701,0.000237,-0.003930,0.046903,0.009453,315.962161,25.166962,0.999644,0.993008,0.003508,0.341946,-0.000036,-0.000017,-0.000007,-0.000015,-0.000039,-71.988490,0.000055,
2131,2773,-2.79630917967273,2.78983048949114,-0.0291199014307608,0.000724,0.000462,-0.003841,0.044997,0.014167,318.743311,24.453004,0.999549,0.993580,0.003370,0.380800,-0.000010,-0.000019,-0.000001,-0.000010,-0.000019,-7.423214,0.000029,
2341,2398,1.84047002906168,-5.38187268017579,-0.0113432310564576,0.000665,0.000614,-0.003299,0.042213,0.026604,324.513256,23.691162,0.999574,0.989037,0.004392,0.348276,-0.000031,-0.000006,0.000009,-0.000004,-0.000034,72.703443,0.000042,
2326,2338,1.52626492648665,-6.69556031908899,0.00321716060494737,0.001009,0.001154,-0.006758,0.069966,0.040753,325.636912,23.574109,0.999207,0.985627,0.004732,0.380839,-0.000037,-0.000022,-0.000004,-0.000022,-0.000038,-77.316692,0.000060,
2416,2803,3.39537307746879,3.45658135368288,-0.0308583177634318,0.000566,0.000775,-0.007054,0.052118,0.010475,317.823940,24.725706,0.999449,0.988986,0.004270,0.373781,-0.000043,-0.000021,-0.000016,-0.000013,-0.000052,-62.146763,0.000068,
2251,1993,-0.0494712295741202,-14.2541433759729,-0.00437461226084679,0.000821,0.000052,-0.002875,0.046999,-0.022309,331.188686,23.313320,0.999624,0.990987,0.004308,0.254168,-0.000022,-0.000028,-0.000032,0.000007,-0.000057,-42.406053,0.000062,
2266,2113,0.25871857804783,-11.6235796830814,0.0174641570470726,0.000745,0.000974,-0.006790,0.056891,-0.000556,329.427330,23.474064,0.998954,0.983005,0.005280,0.239646,-0.000029,0.000000,-0.000009,0.000003,-0.000031,-73.835235,0.000034,
2461,3073,4.32327891174041,9.32825510990827,0.00229255411193208,0.000698,0.000282,-0.002224,0.040550,0.000866,313.753234,25.711074,0.999545,0.992904,0.003615,0.387751,-0.000014,0.000005,0.000016,0.000015,-0.000024,60.652419,0.000024,
2071,2488,-4.05387610411457,-3.42145638146971,-0.0124967328498542,0.000582,0.000569,-0.003856,0.037935,0.017520,323.777271,24.441119,0.999549,0.991809,0.003982,0.407448,-0.000020,-0.000020,-0.000008,-0.000012,-0.000028,-46.016144,0.000041,
2311,2263,1.21276381647056,-8.3368609913366,0.00593152363973104,0.000905,0.000678,-0.003751,0.054504,0.022213,326.863369,23.492733,0.999073,0.985713,0.004819,0.327490,-0.000037,-0.000043,-0.000013,-0.000026,-0.000053,-37.747239,0.000081,
2296,2188,0.899693332701634,-9.98047041857817,0.0151608642270276,0.000744,0.000582,-0.004160,0.048331,0.012065,328.156046,23.394053,0.998916,0.981378,0.005428,0.319752,-0.000041,-0.000001,-0.000019,0.000006,-0.000049,-68.042218,0.000054,
2086,2578,-3.74233419405713,-1.45816920251863,-0.0212157188524316,0.000757,0.000053,-0.001624,0.039545,0.007349,322.173732,24.414410,0.999082,0.989444,0.004270,0.391761,-0.000015,-0.000026,-0.000001,-0.000015,-0.000026,-3.350969,0.000042,
2041,2413,-4.69496754353546,-5.0571249380615,-0.0237515368609138,0.001127,0.000707,-0.003616,0.062110,0.036529,325.085213,24.525200,0.998989,0.986904,0.004547,0.438522,0.000005,-0.000010,-0.000009,0.000009,-0.000015,-25.272232,0.000015,
2161,2938,-2.17087866965653,6.37599936931949,-0.00683389256442979,0.000884,0.000112,-0.000656,0.042833,0.012581,316.125313,24.578816,0.999233,0.990351,0.004073,0.379134,-0.000010,-0.000013,0.000003,-0.000008,-0.000015,33.553742,0.000023,
2221,3208,-0.912248355933883,12.236076746404,0.0375249048149158,0.000842,0.000483,-0.003574,0.050505,0.022363,311.906638,25.061716,0.999337,0.993187,0.003536,0.363061,-0.000018,-0.000012,-0.000010,-0.000005,-0.000025,-53.927875,0.000032,
2206,3163,-1.23104974761122,11.2596151895265,0.0257726326473744,0.000491,0.000165,-0.001608,0.027731,-0.007044,312.563085,24.935300,0.999732,0.995648,0.002995,0.340259,-0.000020,-0.000005,-0.000007,-0.000002,-0.000023,-68.726885,0.000028,
2191,3058,-1.5389544361194,8.98114959201823,0.0136744100253736,0.000561,0.000034,-0.003103,0.035585,-0.007431,314.230907,24.723316,0.999792,0.996055,0.002894,0.391579,-0.000019,-0.000022,-0.000003,-0.000017,-0.000024,-29.472362,0.000041,
2446,2953,4.01913060683426,6.72145975112669,-0.0237141830671703,0.000727,0.000475,-0.004753,0.051375,0.014436,315.480102,25.267913,0.999634,0.994090,0.003447,0.380377,-0.000024,-0.000011,0.000004,-0.000010,-0.000025,75.578436,0.000036,
2371,2578,2.45980325843575,-1.45014429209434,-0.0207754172686236,0.000767,0.000590,-0.005145,0.053704,0.016378,321.533118,24.044688,0.999333,0.989107,0.004365,0.398928,-0.000021,-0.000013,0.000004,-0.000012,-0.000023,69.346122,0.000035,
2011,2323,-5.33333039850611,-7.02517919468437,0.00265999113753423,0.000429,0.000089,-0.002692,0.027025,-0.003321,326.904731,24.740525,0.998956,0.985849,0.004924,0.330526,-0.000009,-0.000066,-0.000067,0.000035,-0.000110,-33.632072,0.000113,
2101,2638,-3.42694822225502,-0.149196121713921,-0.03670010019232,0.000507,0.000391,-0.003702,0.034310,0.010637,320.994060,24.397867,0.999105,0.988824,0.004232,0.400256,-0.000017,-0.000033,0.000005,-0.000015,-0.000035,15.146190,0.000051,
2281,2158,0.577517470359712,-10.6367803522313,0.0105688114130089,0.000759,0.000929,-0.005572,0.053710,0.020700,328.622026,23.435018,0.999548,0.984581,0.004994,0.304079,-0.000031,-0.000023,-0.000014,-0.000013,-0.000042,-52.388374,0.000057,
2026,2368,-5.01349163872299,-6.04164995703972,-0.00686769896094575,0.001117,0.000414,-0.003326,0.060622,0.011269,326.040163,24.601929,0.999147,0.988593,0.004527,0.403634,0.000020,0.000000,-0.000010,0.000024,-0.000004,-22.306338,0.000026,
2146,2863,-2.48523728895049,4.74708406691339,-0.0266830361889561,0.000979,0.000076,-0.000308,0.046046,0.005934,317.240567,24.506591,0.999515,0.993070,0.003437,0.374343,-0.000013,0.000000,-0.000007,0.000003,-0.000016,-65.794986,0.000017,
2056,2458,-4.3760106315293,-4.07645651157839,-0.0115845777792174,0.000224,-0.000176,0.000610,0.008526,-0.009128,324.322062,24.489484,0.999150,0.987930,0.004612,0.373234,-0.000015,-0.000032,-0.000011,-0.000010,-0.000037,-25.575488,0.000050,
2416,2818,3.39295912597603,3.78235028361129,-0.0246383026989747,0.000783,0.000530,-0.004746,0.053591,0.012726,317.633138,24.745976,0.999318,0.989653,0.004174,0.403106,-0.000049,-0.000027,-0.000019,-0.000016,-0.000059,-60.372132,0.000079,
2401,2728,3.0831679565871,1.82240611057365,-0.033099896550425,0.000792,0.000081,-0.002833,0.046710,0.001362,319.005084,24.475406,0.999584,0.991427,0.003863,0.373741,-0.000046,-0.000007,-0.000006,-0.000006,-0.000047,-80.839379,0.000059,
2461,3088,4.32027231716281,9.6545495456761,0.00177041433863678,0.000870,0.000087,-0.000862,0.043308,0.006361,313.505509,25.799648,0.999583,0.994702,0.003368,0.358165,-0.000008,0.000006,0.000014,0.000014,-0.000017,58.891426,0.000018,
2356,2503,2.14748994638967,-3.08888010566957,-0.00954333805873375,0.000651,-0.000312,0.000945,0.026440,-0.010327,322.812715,23.869406,0.999417,0.989195,0.004285,0.368118,-0.000022,-0.000034,0.000009,-0.000017,-0.000039,28.139646,0.000057,
2116,2713,-3.11220005126401,1.48383382315524,-0.0275957224790773,0.000902,0.000285,-0.002236,0.048252,0.007872,319.798604,24.455160,0.999239,0.991216,0.003929,0.348579,-0.000010,-0.000023,0.000002,-0.000009,-0.000023,7.645884,0.000034,
2431,2938,3.69616165568564,6.39382266074891,-0.0170216459447374,0.000788,0.000224,-0.002525,0.045634,0.005434,315.750640,25.194666,0.999677,0.992795,0.003539,0.359642,-0.000032,-0.000014,-0.000004,-0.000013,-0.000033,-76.469170,0.000047,
2041,2428,-4.69699411043878,-4.72940324911001,-0.0245200073026126,0.001269,0.000729,-0.005874,0.074898,0.013319,324.849659,24.567060,0.998916,0.986330,0.004665,0.367228,0.000007,-0.000011,0.000010,0.000011,-0.000016,24.700169,0.000016,
2311,2278,1.21016887942351,-8.00794490508886,0.00519874230320738,0.000969,0.000901,-0.005743,0.064299,0.022670,326.624572,23.572253,0.999117,0.986038,0.004644,0.282884,-0.000031,-0.000028,-0.000015,-0.000015,-0.000044,-47.708267,0.000062,
2251,2008,-0.0517796505001975,-13.925775431246,0.002384496184618,0.000525,0.000316,-0.004520,0.038906,-0.016609,330.996149,23.325305,0.999557,0.989112,0.004525,0.274718,-0.000032,-0.000031,-0.000027,-0.000005,-0.000058,-45.582113,0.000070,
2026,2383,-5.0160389685782,-5.71363962510163,-0.00562138407752855,0.000670,0.000713,-0.004157,0.042426,0.025138,325.790533,24.636138,0.999392,0.990801,0.003873,0.375278,0.000017,-0.000003,-0.000015,0.000025,-0.000011,-27.646204,0.000025,
2266,2128,0.255596256991591,-11.2943031004974,0.00970984953079324,0.000876,0.000996,-0.006285,0.061247,-0.002029,329.125740,23.457824,0.998847,0.983034,0.005264,0.283362,-0.000027,0.000001,-0.000013,0.000006,-0.000032,-68.283427,0.000034,
2086,2593,-3.74496911128801,-1.13108721889305,-0.02105234768635,0.000507,0.000186,-0.001040,0.026418,0.007787,321.919251,24.436792,0.999072,0.989566,0.004219,0.369666,-0.000016,-0.000021,0.000004,-0.000014,-0.000023,30.475035,0.000038,
2326,2353,1.52237178939705,-6.36610444576748,-0.00653582985341927,0.000549,0.001214,-0.007950,0.053002,0.036242,325.295617,23.646273,0.999152,0.984865,0.004649,0.340823,-0.000034,-0.000011,0.000000,-0.000011,-0.000034,-89.975506,0.000047,
2386,2638,2.77445779884942,-0.141056708439663,-0.0227217990079112,0.000573,-0.000007,-0.001875,0.033018,-0.006725,320.530223,24.195202,0.999122,0.988321,0.004344,0.381258,-0.000032,-0.000010,0.000000,-0.000010,-0.000032,-89.067081,0.000044,
2071,2503,-4.05638866890494,-3.09352529369485,-0.0204776563413702,0.000678,0.001047,-0.007228,0.052101,0.014231,323.482459,24.441523,0.999427,0.991558,0.003865,0.401787,-0.000014,-0.000024,-0.000009,-0.000009,-0.000029,-30.051254,0.000039,
2011,2338,-5.33631288886697,-6.69714395267938,-0.000908239779334963,0.000016,0.000376,0.000201,0.000301,0.032325,326.606947,24.692233,0.999046,0.987787,0.004599,0.404716,-0.000011,-0.000063,-0.000058,0.000027,-0.000101,-32.999938,0.000105,
2341,2413,1.8390292678121,-5.05500224741498,0.00113035266161887,0.000774,0.001048,-0.007273,0.061199,-0.000113,324.393847,23.783701,0.999616,0.990819,0.004118,0.266829,-0.000035,-0.000004,0.000007,-0.000003,-0.000037,77.632858,0.000044,
2131,2788,-2.79872741006102,3.11552425315082,-0.0261533198375332,0.000569,0.000159,-0.003854,0.037822,0.007327,318.517584,24.437691,0.999591,0.993842,0.003249,0.394916,-0.000015,-0.000017,-0.000004,-0.000012,-0.000020,-39.577666,0.000032,
2056,2473,-4.37779336738395,-3.74785765543555,-0.0159745821625847,0.000693,0.000129,-0.004503,0.044585,-0.004189,324.078697,24.564504,0.999187,0.988728,0.004696,0.298924,-0.000013,-0.000029,-0.000007,-0.000011,-0.000032,-21.929695,0.000044,
2296,2203,0.896743718003016,-9.65112420131479,0.0101807370097617,0.001120,0.000437,-0.000978,0.054772,0.009394,327.878930,23.444303,0.998218,0.977854,0.005956,0.299636,-0.000043,-0.000002,-0.000019,0.000005,-0.000050,-68.616855,0.000055,
2206,3178,-1.23310949443581,11.5852445061184,0.0238014382081246,0.001084,0.000337,-0.003096,0.059941,0.006649,312.332984,24.964015,0.999654,0.995434,0.003050,0.340782,-0.000019,-0.000001,-0.000004,0.000000,-0.000020,-76.513960,0.000023,
2221,3223,-0.915892488969536,12.5611204348986,0.039030233245569,0.000205,0.000007,0.003077,-0.000339,0.023322,311.622870,25.080581,0.999552,0.994483,0.003236,0.362461,-0.000016,-0.000002,-0.000012,0.000004,-0.000023,-60.291488,0.000024,
2371,2593,2.45671620719567,-1.12345171432541,-0.0205944699992529,0.000685,0.000159,-0.003171,0.042736,-0.014606,321.280467,24.067654,0.999255,0.988874,0.004348,0.386899,-0.000018,-0.000020,0.000002,-0.000017,-0.000021,29.132536,0.000038,
2176,2998,-1.85500319939908,7.67936430254423,-0.0009357377001038,0.000787,0.000103,-0.002845,0.045156,0.007010,315.145850,24.658879,0.999422,0.992580,0.003613,0.373722,-0.000016,-0.000014,0.000004,-0.000011,-0.000019,49.615839,0.000030,
2191,3073,-1.54105280462256,9.30627792727699,0.0187316070075099,0.000581,0.000345,-0.004852,0.042101,-0.003098,314.034843,24.732495,0.999652,0.994710,0.003147,0.400305,-0.000017,-0.000019,-0.000005,-0.000013,-0.000023,-41.328520,0.000037,
2101,2653,-3.42904008535651,0.177624513176603,-0.0350030855523187,0.000713,0.000251,-0.003519,0.043151,-0.006919,320.774018,24.447004,0.999403,0.990721,0.003833,0.335224,-0.000020,-0.000021,0.000005,-0.000015,-0.000025,42.062998,0.000041,
2401,2743,3.08012763463237,2.14913073465033,-0.0351712290905652,0.000922,0.000111,-0.001761,0.048747,-0.003213,318.745560,24.504241,0.999541,0.991083,0.003852,0.386005,-0.000049,-0.000007,-0.000010,-0.000005,-0.000051,-77.281247,0.000062,
2281,2173,0.574126367936284,-10.309424961822,0.00748686145271904,0.000556,0.000342,-0.001688,0.031211,0.010402,328.333084,23.320213,0.999368,0.983741,0.005120,0.439205,-0.000023,-0.000017,-0.000010,-0.000009,-0.000031,-53.642356,0.000042,
2416,2833,3.38988337044297,4.10931497926897,-0.0259504035451528,0.000870,0.000255,-0.003418,0.052568,-0.008352,317.376314,24.846262,0.998842,0.987916,0.004390,0.329268,-0.000049,-0.000019,-0.000015,-0.000013,-0.000056,-67.510160,0.000073,
2026,2398,-5.01821422554096,-5.38663091896173,-0.00621348255691601,0.000894,0.000360,-0.001806,0.046193,0.011909,325.548047,24.592983,0.999438,0.990881,0.003844,0.397288,0.000018,-0.000017,-0.000014,0.000022,-0.000022,-19.084658,0.000025,
2146,2878,-2.48706584840481,5.07224022767114,-0.0163252928077782,0.000730,0.000536,-0.003699,0.045057,0.017141,317.082283,24.503034,0.999496,0.992899,0.003501,0.396699,-0.000014,0.000003,-0.000008,0.000006,-0.000017,-69.389519,0.000017,
2446,2968,4.01682410463834,7.04750393089166,-0.0161893101930559,0.000789,0.000365,-0.004948,0.054947,0.019706,315.301348,25.357878,0.999649,0.993387,0.003474,0.347231,-0.000025,-0.000009,0.000009,-0.000005,-0.000029,66.633115,0.000037,
2161,2953,-2.17323604468184,6.70114546226991,-0.00249777555484343,0.000744,0.000060,-0.000913,0.037098,0.000145,315.911791,24.572337,0.999372,0.992505,0.003601,0.382706,-0.000012,-0.000014,0.000000,-0.000012,-0.000014,6.522036,0.000026,
2251,2023,-0.0533957592100904,-13.597312831598,0.0167916287578009,0.000566,0.000788,-0.003530,0.037714,0.016945,330.873593,23.408964,0.999108,0.983425,0.005300,0.250943,-0.000031,-0.000011,-0.000015,-0.000003,-0.000039,-61.771023,0.000046,
2056,2488,-4.380112608187,-3.42065869218951,-0.0150873075829168,0.000719,0.000366,-0.002717,0.040845,0.012004,323.840143,24.554097,0.999410,0.990161,0.004231,0.321351,-0.000020,-0.000020,-0.000007,-0.000013,-0.000028,-45.138074,0.000041,
2461,3103,4.31769954941242,9.97934743899891,0.0132938075509514,0.000403,0.000099,-0.000404,0.020107,0.006921,313.333407,25.834929,0.999515,0.993172,0.003555,0.376445,-0.000004,0.000006,0.000020,0.000022,-0.000019,51.826946,0.000024,
2431,2953,3.69222164007644,6.72032210002245,-0.0235722923188746,0.000287,0.000168,-0.003316,0.025528,-0.000452,315.430324,25.235232,0.999724,0.993770,0.003401,0.362465,-0.000030,-0.000013,-0.000001,-0.000013,-0.000030,-85.263268,0.000044,
2116,2728,-3.11515756648359,1.81029282903072,-0.0309094317105405,0.000608,0.000289,-0.001877,0.033679,0.016974,319.513119,24.426396,0.999306,0.991011,0.003936,0.390136,-0.000015,-0.000022,0.000000,-0.000015,-0.000022,-0.386913,0.000037,
2356,2518,2.1444459124995,-2.76129919127479,-0.0108994421227635,0.000311,0.000071,-0.002144,0.021831,-0.010400,322.553486,23.904290,0.999244,0.987316,0.004545,0.373095,-0.000020,-0.000037,0.000006,-0.000018,-0.000039,16.776711,0.000059,
2131,2803,-2.80085745943148,3.44145654529655,-0.0234522964960888,0.000863,0.000229,-0.001681,0.044871,0.008006,318.303566,24.438688,0.999490,0.993213,0.003473,0.399922,-0.000015,-0.000018,-0.000002,-0.000014,-0.000019,-27.200038,0.000033,
2071,2518,-4.05878812191534,-2.76628305585122,-0.0233181323946496,0.000878,0.000643,-0.005649,0.056697,-0.002019,323.221140,24.444000,0.999412,0.992605,0.003689,0.381209,-0.000013,-0.000027,-0.000002,-0.000012,-0.000027,-7.185130,0.000040,
2086,2608,-3.74677007092111,-0.80330742050851,-0.0269630979685189,0.001200,0.000700,-0.004871,0.069512,0.014683,321.669721,24.469049,0.999144,0.989366,0.004207,0.344213,-0.000015,-0.000024,0.000003,-0.000013,-0.000025,17.351354,0.000039,
2206,3193,-1.2348826680666,11.909585980478,0.0299795487428582,0.001462,0.000332,-0.003684,0.079251,0.013797,312.158764,24.932435,0.999752,0.996555,0.002858,0.395201,-0.000019,-0.000009,-0.000006,-0.000006,-0.000022,-65.549080,0.000030,
2416,2848,3.38719782847618,4.43507945169303,-0.0208749581657912,0.000844,0.000127,-0.001913,0.045803,-0.003445,317.167533,24.862477,0.999250,0.989994,0.003989,0.365410,-0.000049,-0.000013,-0.000017,-0.000006,-0.000055,-68.537942,0.000067,
2341,2428,1.83671388751449,-4.7289688005924,0.00737287505285167,0.000944,0.000864,-0.005148,0.061550,0.025714,324.204080,23.691718,0.999724,0.994383,0.003585,0.422460,-0.000033,-0.000019,0.000005,-0.000017,-0.000035,72.976872,0.000053,
2101,2668,-3.4309983765107,0.503574509319712,-0.0322893333320735,0.000967,0.000339,-0.003587,0.055112,0.000516,320.565769,24.404231,0.999478,0.991978,0.003657,0.387183,-0.000020,-0.000028,0.000005,-0.000017,-0.000030,27.473517,0.000049,
2011,2353,-5.33816463517956,-6.36766412101708,-0.0155945518057479,0.000899,0.000511,-0.005415,0.056173,0.016828,326.298453,24.723582,0.999172,0.990392,0.004336,0.347976,-0.000002,-0.000040,-0.000034,0.000018,-0.000060,-30.230052,0.000061,
2311,2293,1.20687621080458,-7.68025336126765,0.00146245161312208,0.000807,0.000651,-0.004308,0.051914,0.009841,326.339272,23.528292,0.999252,0.986544,0.004683,0.348444,-0.000030,-0.000029,-0.000013,-0.000017,-0.000043,-46.540301,0.000061,
2326,2368,1.51924566287557,-6.03847314437411,-0.0096826585813119,0.000752,0.000865,-0.003787,0.047839,0.030293,325.021915,23.623383,0.999312,0.987746,0.004434,0.394100,-0.000031,-0.000016,-0.000002,-0.000016,-0.000032,-81.196614,0.000048,
2221,3238,-0.918317034992992,12.8864802659475,0.0277404911683448,0.000791,0.000072,-0.003039,0.046257,-0.001258,311.329128,25.085085,0.999675,0.994734,0.003110,0.350968,-0.000013,-0.000004,-0.000012,0.000005,-0.000022,-55.079624,0.000023,
2266,2143,0.252895860857144,-10.9638398347531,0.0124294062437684,0.001002,0.000357,-0.001498,0.050962,0.018354,328.895562,23.646977,0.999403,0.986229,0.004899,0.142940,-0.000030,-0.000019,-0.000014,-0.000010,-0.000039,-56.157749,0.000052,
2056,2503,-4.38333712968531,-3.09390224378721,-0.0222878316661763,0.000381,0.000218,-0.000220,0.018241,0.017760,323.515855,24.445095,0.999479,0.990717,0.003969,0.432218,-0.000012,-0.000023,-0.000010,-0.000007,-0.000029,-30.204838,0.000038,
2371,2608,2.45432214827097,-0.795687521692315,-0.0244309780941876,0.001169,0.000691,-0.006867,0.078311,-0.005997,321.040045,24.119405,0.999138,0.988233,0.004356,0.385423,-0.000020,-0.000021,0.000004,-0.000016,-0.000025,39.897170,0.000042,
2041,2443,-4.69891281179657,-4.40379846699023,-0.0103336606396169,0.000844,0.000690,-0.004171,0.050584,-0.002104,324.702297,24.552438,0.998761,0.984608,0.005063,0.359984,0.000006,-0.000020,0.000000,0.000006,-0.000020,0.748696,0.000021,
2401,2758,3.07748920633231,2.47542067454712,-0.029972732164822,0.000867,0.000228,-0.000788,0.042757,0.004604,318.538794,24.542928,0.999425,0.989608,0.004106,0.400794,-0.000047,-0.000004,-0.000011,-0.000001,-0.000050,-77.163226,0.000058,
2191,3088,-1.54348100565948,9.63208141235109,0.017624790485911,0.000963,0.000148,-0.002732,0.053011,0.000778,313.791243,24.768446,0.999484,0.992919,0.003529,0.381593,-0.000017,-0.000018,-0.000005,-0.000012,-0.000023,-44.132941,0.000036,
2431,2968,3.68939511729085,7.04594318431259,-0.0250335807042461,0.000272,0.000288,-0.006732,0.037518,-0.007752,315.185106,25.236475,0.999839,0.995581,0.002998,0.403342,-0.000031,-0.000013,0.000003,-0.000012,-0.000031,80.857515,0.000045,
2296,2218,0.893627826550354,-9.32251277442032,0.00735925286670636,0.000726,0.000475,-0.003751,0.046090,-0.002260,327.604954,23.464874,0.998593,0.980421,0.005595,0.300100,-0.000036,-0.000013,-0.000019,-0.000002,-0.000047,-61.051691,0.000055,
2461,3118,4.31506282905601,10.3045498252645,0.013319140427825,0.000809,-0.000094,-0.000091,0.037531,0.002260,313.105423,25.843534,0.999490,0.991850,0.003710,0.416839,0.000002,0.000009,0.000018,0.000024,-0.000013,50.482220,0.000024,
2161,2968,-2.17581625075059,7.02728067373749,-0.00298966151046898,0.000703,-0.000063,-0.001266,0.036274,0.004590,315.662201,24.610202,0.999561,0.993995,0.003266,0.358812,-0.000012,-0.000013,0.000000,-0.000012,-0.000013,2.615165,0.000025,
2386,2653,2.77169394964718,0.185906067724069,-0.0220786067504264,0.000779,-0.000010,-0.000262,0.036694,0.001545,320.295369,24.226568,0.999095,0.987542,0.004497,0.402167,-0.000037,-0.000005,-0.000003,-0.000005,-0.000038,-84.240349,0.000047,
2251,2038,-0.0562103316012355,-13.2685305358854,0.0179070164176665,0.000521,0.000461,-0.000327,0.025105,0.015906,330.629457,23.410757,0.998899,0.980920,0.005505,0.274855,-0.000030,-0.000011,-0.000016,-0.000002,-0.000039,-60.071057,0.000046,
2026,2413,-5.02086445332966,-5.05777717170395,-0.0145587532778109,0.000902,0.000835,-0.003025,0.050063,0.044724,325.240081,24.604199,0.999321,0.988749,0.004226,0.410928,0.000025,-0.000012,-0.000004,0.000025,-0.000013,-6.304383,0.000025,
2281,2188,0.572002193680543,-9.97989650378432,0.0105835346889762,0.000854,0.000552,-0.002329,0.047110,0.017243,328.132424,23.457258,0.998973,0.980852,0.005505,0.339349,-0.000029,-0.000008,-0.000013,-0.000002,-0.000035,-64.461083,0.000041,
2176,3013,-1.85731619839667,8.00441728203248,0.00631491930079164,0.000852,-0.000288,0.001782,0.033680,0.003644,314.950590,24.669526,0.999364,0.991184,0.003808,0.371063,-0.000015,-0.000013,0.000004,-0.000010,-0.000018,51.231939,0.000028,
2146,2893,-2.48949649670227,5.39789264217632,-0.0138521892075687,0.000701,0.000369,-0.002647,0.040466,0.020011,316.854373,24.499019,0.999461,0.991556,0.003821,0.410862,-0.000016,-0.000001,-0.000004,0.000001,-0.000017,-75.690174,0.000019,
2116,2743,-3.11771982678817,2.13819204370548,-0.039193447202365,0.000927,0.000587,-0.003226,0.052432,0.021178,319.218620,24.499989,0.999407,0.991418,0.003832,0.324765,-0.000022,-0.000026,-0.000003,-0.000020,-0.000027,-26.397422,0.000048,
2446,2983,4.01363943424163,7.37329016555634,-0.0155742219937451,0.000856,0.000025,-0.001206,0.043905,0.006396,315.050274,25.398550,0.999636,0.992254,0.003640,0.344548,-0.000020,-0.000005,0.000015,0.000004,-0.000029,58.562351,0.000031,
2086,2623,-3.74984178833942,-0.477206437958088,-0.0326708025835387,0.000994,0.000313,-0.002547,0.053213,0.007575,321.363612,24.368886,0.999262,0.989097,0.004188,0.436955,-0.000016,-0.000038,0.000001,-0.000016,-0.000038,3.930411,0.000056,
2131,2818,-2.80285562570598,3.76734202015695,-0.0186446786092915,0.000934,0.000462,-0.002870,0.051749,0.012285,318.106859,24.451829,0.999276,0.992007,0.003841,0.396446,-0.000014,-0.000009,-0.000001,-0.000009,-0.000015,-78.601762,0.000024,
2356,2533,2.14174387042682,-2.4336255748867,-0.0159766815154967,0.000697,0.000465,-0.003961,0.046084,-0.004796,322.291960,23.913654,0.999252,0.987331,0.004607,0.409296,-0.000017,-0.000044,0.000000,-0.000017,-0.000044,-0.031689,0.000063,
2101,2683,-3.43338117028036,0.82963994276934,-0.0309508063319299,0.000860,0.000363,-0.004100,0.051675,0.003396,320.330634,24.369511,0.999391,0.992592,0.003579,0.426249,-0.000017,-0.000026,0.000004,-0.000016,-0.000027,21.347543,0.000044,
2011,2368,-5.33965965044009,-6.04102565312689,-0.0147205359708664,0.001410,0.000487,-0.007617,0.085617,-0.007663,326.094097,24.662216,0.999154,0.989697,0.004464,0.374522,0.000008,-0.000005,-0.000026,0.000029,-0.000025,-38.082388,0.000032,
2071,2533,-4.06075555379945,-2.43898033699898,-0.0197735669019607,0.001067,0.000746,-0.004841,0.063093,0.011198,323.014390,24.484839,0.999420,0.991859,0.003815,0.351212,-0.000015,-0.000022,0.000010,-0.000008,-0.000029,34.651838,0.000039,
2461,3133,4.31191092673601,10.6306124693016,0.0154636426860861,0.000516,-0.000056,0.000071,0.023427,-0.001285,312.863076,25.947433,0.999477,0.990882,0.003769,0.362486,0.000001,-0.000004,0.000017,0.000016,-0.000019,40.443298,0.000020,
2056,2518,-4.38481005959948,-2.76682252990783,-0.0197793386640228,0.000779,0.000546,-0.004609,0.049007,0.010990,323.325067,24.471056,0.999337,0.991108,0.003942,0.394996,-0.000010,-0.000027,-0.000003,-0.000009,-0.000027,-10.247809,0.000038,
2416,2863,3.38422273304201,4.76160574689191,-0.0193101702778335,0.000567,0.000200,-0.003463,0.038839,0.002477,316.928733,24.925416,0.999431,0.991088,0.003765,0.355929,-0.000046,-0.000007,-0.000018,0.000000,-0.000053,-69.044050,0.000061,
2206,3208,-1.23800395841004,12.2347884224616,0.0310049342002117,0.001084,0.000305,-0.000901,0.053046,0.026623,311.895525,24.947817,0.999588,0.995178,0.003146,0.407887,-0.000017,-0.000009,-0.000006,-0.000006,-0.000020,-62.754864,0.000027,
2431,2983,3.68751544882408,7.37079627389391,-0.00919932543911273,0.000322,0.000267,-0.003741,0.028748,-0.001957,315.064094,25.276635,0.999654,0.992326,0.003553,0.418126,-0.000026,-0.000008,0.000009,-0.000004,-0.000030,67.007890,0.000037,
2266,2158,0.250502172769981,-10.6362738728426,0.0124416939065668,0.000936,0.000992,-0.005856,0.062561,0.026245,328.666279,23.560260,0.999178,0.984868,0.005021,0.265913,-0.000025,-0.000022,-0.000012,-0.000012,-0.000035,-49.124442,0.000049,
2041,2458,-4.70173028921126,-4.07667735026568,-0.0102794506995565,0.000515,0.000381,-0.000358,0.024795,0.011796,324.435189,24.519203,0.998816,0.984287,0.005152,0.401001,0.000010,-0.000026,-0.000005,0.000011,-0.000027,-8.070675,0.000027,
2026,2428,-5.02347943326247,-4.73060429811494,-0.0180995202778718,0.000737,0.000316,-0.002891,0.041943,0.000131,324.961189,24.590195,0.999071,0.986782,0.004608,0.372143,0.000020,-0.000008,0.000017,0.000028,-0.000016,25.208424,0.000028,
2221,3253,-0.921478528100753,13.211108086509,0.0220808042110434,0.000795,-0.000120,-0.001300,0.040751,-0.016866,311.030733,25.050018,0.999628,0.994915,0.003062,0.387904,-0.000011,-0.000001,-0.000007,0.000002,-0.000015,-62.627730,0.000016,
2401,2773,3.07508615574546,2.80100086602917,-0.0213925921421492,0.000723,-0.000129,-0.000526,0.035052,-0.008537,318.358954,24.567497,0.999424,0.989718,0.004079,0.408405,-0.000051,-0.000013,-0.000015,-0.000008,-0.000056,-70.728956,0.000070,
2341,2443,1.83264974787697,-4.39914009842303,-0.0066965259474614,0.000838,0.000513,-0.004330,0.053711,0.012421,323.835195,23.800501,0.999372,0.989178,0.004302,0.339018,-0.000027,-0.000030,0.000008,-0.000020,-0.000036,39.605404,0.000057,
2326,2383,1.51636600716327,-5.71032544925981,-0.0102192628658599,0.000873,0.000015,-0.001497,0.045191,-0.012347,324.772241,23.714964,0.999477,0.989188,0.004379,0.295876,-0.000024,-0.000019,0.000000,-0.000019,-0.000024,88.205118,0.000042,
2251,2053,-0.0585406810201263,-12.9397521296801,0.0191087744539686,0.000559,0.000473,-0.002667,0.034466,0.003309,330.407933,23.429919,0.998965,0.981018,0.005403,0.269563,-0.000030,-0.000011,-0.000015,-0.000003,-0.000038,-61.469889,0.000045,
2011,2383,-5.34171897003612,-5.71277961443602,-0.011592438006744,0.001429,0.000959,-0.006504,0.083618,0.039966,325.875922,24.702597,0.999185,0.989832,0.004203,0.371576,0.000004,-0.000010,-0.000032,0.000031,-0.000036,-38.882258,0.000039,
2386,2668,2.76849824799045,0.512994349712073,-0.0245458536660408,0.000567,-0.000034,-0.001602,0.031749,-0.006450,320.025866,24.264434,0.999279,0.989076,0.004263,0.399948,-0.000041,0.000004,-0.000007,0.000005,-0.000042,-81.016230,0.000047,
2371,2623,2.45067842163245,-0.468799298811348,-0.0244825416294248,0.000815,0.000125,-0.001507,0.042805,0.002597,320.760438,24.128543,0.999075,0.988529,0.004358,0.426637,-0.000024,-0.000013,0.000000,-0.000013,-0.000024,-89.844200,0.000038,
2446,2998,4.01139719201118,7.69832705623482,-0.00444607501492555,0.000745,-0.000011,-0.000641,0.036734,0.016998,314.891265,25.421501,0.999345,0.989512,0.004004,0.383578,-0.000017,-0.000003,0.000018,0.000009,-0.000029,56.087086,0.000030,
2056,2533,-4.38691522564459,-2.44057620877825,-0.0153823911161908,0.000784,0.000395,-0.003218,0.045277,0.018114,323.115941,24.428334,0.999141,0.989897,0.004131,0.440414,-0.000011,-0.000023,0.000008,-0.000006,-0.000027,27.237492,0.000036,
2161,2983,-2.17872662964627,7.35366456509996,-0.00920252511639319,0.000694,0.000248,-0.001913,0.038006,0.017464,315.367140,24.627660,0.999531,0.993984,0.003305,0.363515,-0.000012,-0.000018,-0.000002,-0.000012,-0.000019,-13.785723,0.000031,
2086,2638,-3.7521217658133,-0.150054294315659,-0.0292021134274023,0.000909,0.000305,-0.001803,0.047151,0.008366,321.143338,24.440012,0.999229,0.989318,0.004123,0.366177,-0.000013,-0.000035,0.000002,-0.000013,-0.000035,4.770753,0.000049,
2191,3103,-1.54557275876112,9.95685801071064,0.0258592418453532,0.001071,-0.000083,-0.000176,0.049859,-0.004634,313.612167,24.781894,0.999460,0.993386,0.003472,0.376102,-0.000020,-0.000014,-0.000006,-0.000010,-0.000024,-57.028074,0.000035,
2131,2833,-2.8053122547,4.09408455371324,-0.0235852423116398,0.001141,0.000380,-0.004782,0.067024,0.005021,317.836812,24.485411,0.999534,0.993383,0.003464,0.361364,-0.000015,-0.000003,-0.000003,-0.000003,-0.000016,-75.863748,0.000020,
2296,2233,0.891283225426481,-8.99325887741164,0.00411124088407178,0.001125,0.000978,-0.006691,0.074486,0.019940,327.363892,23.511420,0.998739,0.982222,0.005336,0.308050,-0.000041,-0.000022,-0.000020,-0.000010,-0.000053,-58.195216,0.000068,
2176,3028,-1.85962756974179,8.33001880937383,0.00383612403373945,0.001062,-0.000047,-0.001233,0.052809,0.013063,314.704155,24.656404,0.999482,0.992753,0.003661,0.405178,-0.000017,-0.000017,0.000003,-0.000013,-0.000020,44.543372,0.000033,
2221,3268,-0.924049666244013,13.5361632494767,0.0134759677595184,0.001138,0.000175,-0.006129,0.072259,-0.001414,310.744115,25.011577,0.999520,0.994375,0.003224,0.459441,-0.000008,0.000005,-0.000005,0.000006,-0.000010,-71.750142,0.000010,
2116,2758,-3.11906986690343,2.46217672745057,-0.0223635400001854,0.000888,0.000200,-0.003614,0.051655,0.003419,319.115846,24.439903,0.999465,0.992140,0.003656,0.370095,-0.000022,-0.000027,-0.000005,-0.000019,-0.000030,-31.600754,0.000050,
2026,2443,-5.02535869384633,-4.40177291957431,-0.0231867261758794,0.001097,0.001071,-0.007920,0.072496,-0.004176,324.706751,24.678545,0.999330,0.990640,0.004063,0.271293,0.000014,-0.000016,0.000005,0.000015,-0.000017,9.288545,0.000019,
2311,2308,1.20264035483598,-7.35057933727543,-0.0126898023304989,0.000627,0.000098,-0.001103,0.032539,-0.001250,325.959276,23.565636,0.999392,0.988023,0.004653,0.335047,-0.000032,-0.000038,-0.000010,-0.000025,-0.000045,-36.445111,0.000070,
2416,2878,3.38116561588434,5.08827857578235,-0.0206597129686656,0.000653,0.000342,-0.002373,0.038904,0.021541,316.672381,24.971434,0.999444,0.991960,0.003622,0.376604,-0.000048,-0.000003,-0.000013,0.000001,-0.000051,-74.917332,0.000059,
2356,2548,2.13903134913037,-2.10631668657981,-0.0177447912736852,0.000829,0.000543,-0.005655,0.058099,-0.014187,322.045931,23.939447,0.999142,0.987597,0.004581,0.413790,-0.000016,-0.000032,0.000002,-0.000016,-0.000033,6.385484,0.000050,
2461,3148,4.30929260352294,10.9562616827,0.0174676458572662,0.000542,0.000274,-0.002472,0.034348,0.003051,312.644721,26.007998,0.999401,0.990736,0.003723,0.359608,-0.000002,-0.000014,0.000015,0.000008,-0.000025,34.076963,0.000025,
2101,2698,-3.43563070301757,1.15704738808952,-0.0296147736659123,0.000851,0.000638,-0.005265,0.054780,0.011790,320.101195,24.456700,0.999153,0.992037,0.003790,0.349057,-0.000015,-0.000030,0.000004,-0.000014,-0.000031,13.799886,0.000047,
2281,2203,0.569153083983565,-9.65079414497914,0.00701385621562167,0.000916,0.000664,-0.002894,0.051872,0.007405,327.865541,23.507258,0.998649,0.980944,0.005567,0.309990,-0.000031,-0.000009,-0.000014,-0.000002,-0.000037,-64.383784,0.000044,
2041,2473,-4.70409939555757,-3.74824549840985,-0.0205617912245657,0.000805,0.000383,-0.004200,0.048818,0.002884,324.131138,24.538152,0.998560,0.984188,0.005220,0.367200,0.000010,-0.000027,-0.000002,0.000010,-0.000027,-3.386256,0.000028,
2146,2908,-2.49126452658367,5.7233242435015,-0.00980049032557417,0.001071,0.000122,-0.004011,0.061538,-0.002514,316.665363,24.515177,0.999369,0.990646,0.003941,0.379532,-0.000012,-0.000015,-0.000005,-0.000008,-0.000019,-38.082823,0.000028,
2401,2788,3.07163192463743,3.12930893266125,-0.0274371259788495,0.000656,0.000235,-0.000784,0.033104,0.020827,318.061015,24.690275,0.999497,0.989454,0.004136,0.360739,-0.000048,-0.000013,-0.000019,-0.000005,-0.000056,-66.476247,0.000069,
2266,2173,0.246941072193664,-10.3086108924496,0.00738793875632382,0.000693,0.000265,-0.001704,0.037459,0.011175,328.358293,23.457080,0.999482,0.985737,0.004896,0.382790,-0.000020,-0.000016,-0.000007,-0.000010,-0.000025,-51.399453,0.000037,
2431,2998,3.68528941808736,7.69703353747291,-0.00199989936476186,0.000736,-0.000092,-0.000703,0.036408,-0.000152,314.886515,25.391686,0.999308,0.986725,0.004382,0.353871,-0.000024,-0.000006,0.000012,0.000000,-0.000030,63.796248,0.000035,
2206,3223,-1.24174111285463,12.5616942315236,0.0186454116561663,0.000756,0.000448,-0.001956,0.041279,0.019593,311.533899,25.067135,0.999794,0.996498,0.002773,0.296680,-0.000015,0.000000,-0.000009,0.000004,-0.000019,-65.581843,0.000020,
2086,2653,-3.75411309159884,0.175565449060159,-0.0202608959933741,0.001004,-0.000277,0.002731,0.038256,0.002208,320.966507,24.427561,0.999525,0.990884,0.003727,0.371790,-0.000017,-0.000021,0.000001,-0.000017,-0.000021,7.879044,0.000038,
2071,2548,-4.06364228644615,-2.11200772399576,-0.0244770822222335,0.000931,0.000529,-0.002722,0.050757,0.017190,322.720594,24.433987,0.999510,0.991699,0.003842,0.405983,-0.000009,-0.000027,0.000011,-0.000003,-0.000032,25.649967,0.000039,
2011,2398,-5.34440693090913,-5.38665181819873,-0.00705193913705671,0.000914,0.000234,-0.002310,0.048350,-0.000678,325.637839,24.655465,0.999155,0.989406,0.004256,0.367581,0.000006,-0.000026,-0.000027,0.000021,-0.000041,-29.261561,0.000041,
2221,3283,-0.927541144790169,13.8633549148688,0.00413415659318161,0.001116,0.000185,-0.003842,0.063994,0.016354,310.410503,25.168933,0.999404,0.993504,0.003306,0.336968,-0.000010,0.000006,-0.000004,0.000007,-0.000011,-77.193227,0.000011,
2341,2458,1.82897017628448,-4.07086229170459,-0.0166052206357676,0.000752,0.000435,-0.003985,0.048521,-0.002135,323.504291,23.814035,0.999446,0.989278,0.004223,0.349131,-0.000028,-0.000022,0.000010,-0.000015,-0.000036,53.532818,0.000052,
2191,3118,-1.54814312300966,10.2817895901192,0.030584851238757,0.000785,-0.000118,0.000097,0.035797,-0.010872,313.392745,24.791480,0.999437,0.993966,0.003395,0.373794,-0.000023,-0.000013,-0.000008,-0.000008,-0.000027,-61.202800,0.000037,
2176,3043,-1.86179816778241,8.65632633213955,0.0112230999894223,0.000843,0.000418,-0.002842,0.047862,0.022322,314.515701,24.777585,0.999694,0.995983,0.003009,0.304538,-0.000019,-0.000023,0.000000,-0.000019,-0.000023,-5.457437,0.000042,
2326,2398,1.51465073630379,-5.38396626443524,-0.00157606159308443,0.000916,0.000849,-0.006235,0.063778,0.005316,324.620725,23.675389,0.999481,0.988987,0.004432,0.388861,-0.000021,-0.000011,0.000005,-0.000009,-0.000023,68.465944,0.000032,
2026,2458,-5.02819192429903,-4.07488064031654,-0.0322452993333968,0.001184,0.000819,-0.005463,0.069718,0.020194,324.386989,24.530004,0.999402,0.990953,0.003955,0.435872,0.000016,-0.000024,0.000000,0.000016,-0.000024,0.057848,0.000024,
2446,3013,4.00816370372101,8.02482957960476,-0.00653459708860282,0.000364,0.000639,-0.004494,0.033872,0.032509,314.625080,25.488581,0.999115,0.987927,0.004116,0.383558,-0.000020,0.000001,0.000016,0.000010,-0.000029,62.001443,0.000030,
2251,2068,-0.0609659352220469,-12.6106680148534,0.0193181360862695,0.000453,0.001211,-0.006653,0.042867,0.021194,330.176842,23.440838,0.999173,0.982858,0.005110,0.303340,-0.000029,0.000003,-0.000007,0.000005,-0.000031,-79.030850,0.000033,
2416,2893,3.37856320674492,5.41449807374521,-0.0192011146554023,0.000795,0.000243,-0.003463,0.049323,0.004534,316.450211,25.036614,0.999480,0.991713,0.003697,0.341630,-0.000045,-0.000010,-0.000012,-0.000006,-0.000049,-72.242867,0.000061,
2056,2548,-4.3899021483845,-2.11251732909772,-0.0257729893780834,0.000778,0.000350,-0.002587,0.043205,0.001761,322.784711,24.448141,0.999347,0.990818,0.003935,0.400094,-0.000006,-0.000028,0.000007,-0.000004,-0.000030,16.076580,0.000037,
2296,2248,0.888386728282928,-8.66517352721197,-0.000200052408558804,0.001149,0.001037,-0.008223,0.080774,0.012424,327.092569,23.475751,0.998950,0.984263,0.005102,0.368729,-0.000042,-0.000035,-0.000017,-0.000021,-0.000056,-50.078423,0.000080,
2461,3163,4.30676458403472,11.281629701212,0.0216052329287777,0.000545,0.000244,-0.004269,0.041244,-0.003104,312.440337,26.069527,0.999545,0.991799,0.003631,0.344846,0.000001,-0.000006,0.000011,0.000009,-0.000015,36.650319,0.000015,
2116,2773,-3.12183127643681,2.78840138639143,-0.0229576535584783,0.000709,0.000109,-0.001874,0.038217,0.001324,318.854058,24.435788,0.999609,0.993415,0.003381,0.375755,-0.000020,-0.000021,-0.000003,-0.000017,-0.000023,-39.356513,0.000041,
2011,2413,-5.34758370881484,-5.05968654516332,-0.00522623715306736,-0.000017,0.000022,0.000330,-0.001677,-0.006789,325.361897,24.629133,0.999191,0.989622,0.004183,0.377562,0.000013,-0.000017,-0.000014,0.000018,-0.000022,-21.747615,0.000024,
2386,2683,2.76524572458695,0.842263370436626,-0.036783459942626,0.001019,0.000428,-0.003651,0.060071,0.017422,319.706739,24.395079,0.999377,0.989395,0.004024,0.337168,-0.000041,0.000008,-0.000004,0.000008,-0.000041,-85.066873,0.000043,
2371,2638,2.44807135142092,-0.14071885995746,-0.0286337152867873,0.001168,0.000347,-0.004523,0.069873,0.011310,320.508534,24.216793,0.999127,0.988644,0.004318,0.388995,-0.000029,-0.000009,-0.000002,-0.000009,-0.000029,-83.996479,0.000040,
2356,2563,2.13575646690271,-1.77758064125227,-0.0198067020747317,0.000696,0.000567,-0.003904,0.045879,0.008784,321.772224,24.066349,0.999315,0.990438,0.004181,0.349865,-0.000018,-0.000023,0.000001,-0.000018,-0.000024,12.502962,0.000041,
2041,2488,-4.70555059082155,-3.42218501921076,-0.0121868722409317,0.001198,0.000178,-0.002679,0.062627,-0.004263,323.972932,24.515113,0.999426,0.989388,0.004278,0.376274,0.000001,-0.000019,-0.000003,0.000002,-0.000020,-8.562777,0.000022,
2161,2998,-2.18078203521314,7.67877994808975,-0.00124206830270168,0.000571,0.000427,-0.002865,0.035334,0.025887,315.186582,24.633777,0.999603,0.993837,0.003438,0.375099,-0.000015,-0.000014,0.000002,-0.000013,-0.000016,49.982215,0.000029,
2101,2713,-3.43814427043269,1.48319302700661,-0.0280982969582624,0.000845,0.000521,-0.002026,0.045014,0.019762,319.861004,24.434461,0.999256,0.991566,0.003826,0.380861,-0.000012,-0.000023,0.000005,-0.000010,-0.000025,19.681708,0.000036,
2311,2323,1.20070697518241,-7.0225722010754,-0.00860348194339622,0.001110,0.000302,-0.001478,0.056049,0.010415,325.774381,23.615430,0.999189,0.985340,0.004913,0.330739,-0.000031,-0.000035,-0.000005,-0.000027,-0.000038,-34.169837,0.000065,
2431,3013,3.68239822718284,8.02352729173959,-0.00319684848085444,0.000641,0.000375,-0.004082,0.044818,0.026394,314.639070,25.452519,0.999334,0.987953,0.004160,0.369045,-0.000025,-0.000004,0.000011,0.000001,-0.000029,67.608175,0.000033,
2086,2668,-3.75666424687466,0.502076109812108,-0.0227055322269507,0.000858,0.000014,0.000912,0.036883,0.008728,320.701842,24.392982,0.999396,0.991705,0.003704,0.412411,-0.000020,-0.000029,0.000003,-0.000019,-0.000030,14.917275,0.000049,
2071,2563,-4.06628718196555,-1.78448072651268,-0.0296406557683895,0.000913,0.000297,-0.003145,0.051090,0.018491,322.435215,24.439892,0.999203,0.990070,0.004159,0.399272,-0.000009,-0.000033,0.000003,-0.000009,-0.000034,7.399869,0.000045,
2401,2803,3.06895790156249,3.45526553337296,-0.0279762138828232,0.000804,0.000166,-0.002536,0.046227,0.005500,317.825504,24.689021,0.999575,0.991030,0.003938,0.391857,-0.000048,-0.000020,-0.000018,-0.000011,-0.000057,-63.951340,0.000072,
2281,2218,0.566133706289357,-9.32150960132687,0.00309753182796157,0.000641,0.001024,-0.006104,0.050099,0.020036,327.588959,23.553672,0.998746,0.982332,0.005396,0.306758,-0.000024,-0.000017,-0.000014,-0.000007,-0.000035,-52.278357,0.000045,
2266,2188,0.244959830665554,-9.97946081229174,0.0120586305409915,0.001080,0.000150,-0.001156,0.053367,-0.006577,328.171054,23.600480,0.999154,0.984857,0.005029,0.249515,-0.000027,-0.000008,-0.000011,-0.000002,-0.000032,-65.210313,0.000039,
2131,2848,-2.80854499303884,4.42097638425318,-0.0327381156329807,0.000915,0.000335,-0.005694,0.059358,0.007583,317.508578,24.496615,0.999637,0.993920,0.003288,0.358103,-0.000014,-0.000003,-0.000007,0.000001,-0.000017,-64.291734,0.000019,
2056,2563,-4.39140387956732,-1.78615839921855,-0.0209443516087049,0.001144,0.000330,-0.004792,0.066243,0.000458,322.605599,24.437134,0.999344,0.990185,0.004035,0.405090,-0.000008,-0.000035,-0.000001,-0.000008,-0.000035,-1.251493,0.000045,
2221,3298,-0.931309772881068,14.1879577613363,-0.00241435018205038,0.000642,0.000035,-0.001205,0.033578,0.008541,310.079486,25.133040,0.999395,0.994102,0.003145,0.382314,-0.000010,0.000014,-0.000012,0.000019,-0.000015,-67.723980,0.000020,
2326,2413,1.51097401802716,-5.05638833019403,-0.0114470405295037,0.000777,0.000684,-0.006026,0.056616,-0.015912,324.288919,23.614369,0.999480,0.988753,0.004449,0.464733,-0.000022,-0.000009,0.000004,-0.000008,-0.000023,74.744495,0.000033,
2461,3178,4.30391411566517,11.6076030487222,0.0230745456204886,0.000690,0.000471,-0.003100,0.043699,0.024664,312.208568,26.140508,0.999637,0.992484,0.003535,0.354984,0.000000,-0.000007,0.000009,0.000007,-0.000013,34.523188,0.000013,
2146,2923,-2.49384961861414,6.04891830759472,-0.00596908108798289,0.000707,0.000201,-0.004347,0.045833,-0.003596,316.437605,24.527124,0.999113,0.987782,0.004390,0.373748,-0.000010,-0.000017,-0.000001,-0.000010,-0.000017,-8.395076,0.000027,
2446,3028,4.00619577462878,8.35029152515584,0.000313106039357081,0.000806,0.000200,-0.004850,0.055230,-0.009690,314.458736,25.580988,0.999370,0.989569,0.003966,0.300215,-0.000019,-0.000001,0.000014,0.000006,-0.000027,61.669033,0.000028,
2026,2473,-5.03052188905168,-3.74768252717963,-0.025612425192719,0.001081,0.000363,0.000991,0.047140,0.023848,324.177621,24.580603,0.998989,0.986719,0.004613,0.380160,0.000016,-0.000027,0.000003,0.000016,-0.000027,4.136897,0.000027,
2011,2428,-5.34948510406587,-4.73142885789178,-0.00966917205505524,0.000339,0.000681,-0.003183,0.024432,0.016838,325.108704,24.636755,0.999003,0.988926,0.004352,0.383129,0.000003,-0.000009,0.000007,0.000006,-0.000013,25.665153,0.000013,
2416,2908,3.37548737419338,5.74021189649197,-0.0197698863283335,0.000828,0.000004,-0.001995,0.045311,-0.014578,316.196826,25.046903,0.999581,0.992219,0.003591,0.359416,-0.000044,-0.000010,-0.000008,-0.000008,-0.000046,-76.868773,0.000058,
2116,2788,-3.12441200399498,3.11479235510696,-0.0240161493013602,0.000750,0.000225,-0.000012,0.034648,0.015647,318.597965,24.431473,0.999526,0.993235,0.003461,0.397570,-0.000024,-0.000018,-0.000008,-0.000013,-0.000029,-54.930916,0.000043,
2431,3028,3.67990062303493,8.34913667033776,0.000805654040277659,0.000789,0.000239,-0.004114,0.051642,0.006860,314.434177,25.516649,0.999472,0.988903,0.004063,0.334305,-0.000023,-0.000006,0.000008,-0.000002,-0.000026,67.834231,0.000032,
2041,2503,-4.7085575261726,-3.09459498799777,-0.0175027398188377,0.000889,0.000379,-0.000906,0.043507,0.006986,323.667363,24.493434,0.999509,0.991035,0.003886,0.403032,0.000007,-0.000021,-0.000009,0.000010,-0.000024,-15.834178,0.000024,
2191,3133,-1.55049018579092,10.6080283595776,0.0269942463331745,0.001069,0.000205,-0.002946,0.058646,0.013604,313.139706,24.842974,0.999383,0.993792,0.003498,0.360223,-0.000024,-0.000007,-0.000008,-0.000003,-0.000027,-67.618056,0.000033,
2206,3238,-1.24359338207077,12.8852982878147,0.0227290840702494,0.001024,0.000348,-0.005127,0.063672,0.012642,311.345423,24.980196,0.999747,0.995652,0.002896,0.392157,-0.000013,-0.000001,-0.000008,0.000003,-0.000017,-62.856563,0.000018,
2251,2083,-0.0646006976631703,-12.280289759694,0.00982267439320594,0.000471,0.000434,-0.001951,0.028083,0.001214,329.841568,23.506216,0.999230,0.983345,0.005182,0.245030,-0.000028,-0.000004,-0.000008,-0.000001,-0.000030,-72.419029,0.000036,
2356,2578,2.13308856692236,-1.45089659693023,-0.0171010362224138,0.000643,0.000451,-0.004087,0.044065,0.009124,321.549751,24.074274,0.999210,0.988885,0.004333,0.381802,-0.000016,-0.000015,0.000004,-0.000012,-0.000019,50.183095,0.000031,
2341,2473,1.82651441190434,-3.74355577061937,-0.0125899675372239,0.000860,0.000383,-0.003196,0.050728,0.012637,323.296967,23.843848,0.999440,0.989178,0.004162,0.372038,-0.000025,-0.000023,0.000011,-0.000013,-0.000035,47.849393,0.000050,
2071,2578,-4.06909899336149,-1.45739477140597,-0.0306016608292907,0.000650,0.000277,-0.000594,0.031738,0.026764,322.165277,24.440631,0.998961,0.989741,0.004344,0.404434,-0.000013,-0.000028,0.000002,-0.000013,-0.000028,5.694481,0.000042,
2386,2698,2.76282842136919,1.16775023503509,-0.0289919257093061,0.000942,0.000156,-0.002838,0.053515,-0.002993,319.521951,24.392672,0.999416,0.990970,0.003807,0.362592,-0.000039,0.000008,-0.000003,0.000009,-0.000039,-85.817453,0.000041,
2161,3013,-2.18321686190295,8.00436790326884,-0.00159724231332348,0.000670,0.000557,-0.003191,0.040918,0.028450,314.944543,24.636488,0.999386,0.991871,0.003829,0.384298,-0.000013,-0.000012,0.000003,-0.000009,-0.000015,50.480906,0.000025,
2401,2818,3.06634221384151,3.78158603439881,-0.023421820420424,0.000710,0.000110,-0.003029,0.043726,0.020433,317.616489,24.734305,0.999503,0.990110,0.004136,0.407021,-0.000051,-0.000024,-0.000020,-0.000013,-0.000062,-62.031399,0.000080,
2101,2728,-3.44096220130159,1.809905874784,-0.0359553833824862,0.000801,0.000321,-0.004063,0.048869,0.004568,319.556076,24.416399,0.999302,0.990877,0.003911,0.385235,-0.000016,-0.000022,0.000002,-0.000016,-0.000023,18.051013,0.000039,
2371,2653,2.44452454121984,0.187079029735465,-0.0365611484694455,0.000889,0.000711,-0.007330,0.067137,0.002679,320.195449,24.270164,0.999208,0.988504,0.004401,0.368587,-0.000033,-0.000004,-0.000005,-0.000003,-0.000034,-81.124080,0.000041,
2236,1993,-0.3747104576894,-14.2584718447536,0.0305340611571978,0.000783,0.000120,-0.001100,0.039410,0.007092,331.500676,23.355830,0.999642,0.989582,0.004440,0.345284,-0.000022,-0.000025,-0.000033,0.000009,-0.000056,-43.418976,0.000060,
2086,2683,-3.75943948538542,0.82872914962676,-0.0285201045068106,0.000630,0.000008,-0.002093,0.035046,0.001763,320.408579,24.362080,0.999512,0.993147,0.003383,0.435877,-0.000017,-0.000028,0.000002,-0.000017,-0.000029,9.159527,0.000046,
2461,3193,4.3009937316072,11.9323552542928,0.0260561539647597,0.000630,0.000317,-0.002032,0.036839,0.023508,311.980841,26.140233,0.999583,0.991969,0.003581,0.407199,0.000002,-0.000001,0.000009,0.000010,-0.000009,41.069673,0.000011,
2176,3058,-1.86406453071776,8.97996610346362,0.0187077703691898,0.000725,0.000149,-0.001377,0.037782,0.011519,314.324296,24.676872,0.999706,0.995872,0.003013,0.405682,-0.000016,-0.000023,-0.000003,-0.000014,-0.000024,-20.993248,0.000039,
2296,2263,0.884518308592114,-8.33456225856003,-0.0110305455876869,0.000899,0.000928,-0.007102,0.065475,0.010248,326.744074,23.605077,0.999409,0.989034,0.004553,0.270190,-0.000038,-0.000041,-0.000018,-0.000021,-0.000057,-42.799358,0.000081,
2026,2488,-5.03235835878357,-3.42243455857355,-0.019545506213035,0.000939,0.000220,-0.001862,0.048395,0.000466,323.988304,24.478404,0.999338,0.989159,0.004123,0.450380,0.000004,-0.000020,0.000001,0.000004,-0.000020,1.326266,0.000021,
2056,2578,-4.39417775892969,-1.45844678231349,-0.0269540470440575,0.001012,0.000788,-0.005316,0.061787,0.015775,322.308218,24.443155,0.999043,0.990214,0.004128,0.409937,-0.000013,-0.000031,-0.000005,-0.000011,-0.000032,-14.562422,0.000045,
2011,2443,-5.35146840166518,-4.40311422841494,-0.0105843160017116,0.000533,0.000700,-0.004637,0.037311,0.014806,324.871626,24.713674,0.999229,0.991090,0.004013,0.293521,-0.000001,-0.000014,-0.000001,-0.000001,-0.000014,-4.256647,0.000017,
2326,2428,1.50715771886096,-4.72549543526853,-0.0248084660694872,0.000966,0.000548,-0.003429,0.056324,0.020922,323.932803,23.772342,0.999558,0.990740,0.004101,0.380253,-0.000019,-0.000024,0.000003,-0.000018,-0.000026,21.916991,0.000044,
2446,3043,4.00325496172287,8.67587348543875,0.00261976862032043,0.000686,0.000304,-0.004674,0.049150,0.003192,314.226452,25.602844,0.999276,0.989050,0.004026,0.342443,-0.000018,0.000005,0.000016,0.000013,-0.000026,63.139911,0.000026,
2131,2863,-2.81038402688787,4.7455467096019,-0.0170191571045848,0.000792,0.000013,-0.001408,0.040726,0.000437,317.377913,24.493781,0.999582,0.993369,0.003384,0.359041,-0.000011,-0.000003,-0.000007,0.000001,-0.000016,-59.806638,0.000018,
2311,2338,1.19797577599343,-6.69484904530053,-0.00726392697322353,0.001167,0.000228,0.000398,0.052276,0.022843,325.539453,23.616107,0.999287,0.984983,0.004710,0.376674,-0.000028,-0.000029,-0.000006,-0.000023,-0.000034,-43.201692,0.000057,
2041,2518,-4.71053023552352,-2.76717025831593,-0.0202568355733206,0.001278,0.000600,-0.002129,0.064904,0.020191,323.423318,24.483129,0.999316,0.991212,0.003980,0.420145,0.000008,-0.000024,-0.000002,0.000008,-0.000024,-2.670266,0.000024,
2146,2938,-2.49593659896719,6.37554036411479,-0.00812984526498894,0.001129,0.000364,-0.006415,0.071593,0.002493,316.200526,24.587762,0.999375,0.990914,0.003897,0.326669,-0.000011,-0.000012,0.000001,-0.000010,-0.000013,34.105676,0.000023,
2191,3148,-1.55346925537608,10.9332573170679,0.0288804644239349,0.000874,-0.000155,0.001718,0.034871,0.007410,312.886557,24.869804,0.999078,0.992611,0.003856,0.340299,-0.000023,-0.000002,-0.000009,0.000001,-0.000026,-70.442187,0.000030,
2206,3253,-1.24633568526982,13.2098481593114,0.0244723167397751,0.001057,0.000164,-0.001216,0.052660,0.005603,311.103517,24.970754,0.999773,0.995879,0.002792,0.409870,-0.000011,0.000003,-0.000003,0.000004,-0.000012,-79.070369,0.000012,
2356,2593,2.13026113138688,-1.12293162568258,-0.0245336233516582,0.001010,0.000323,-0.006977,0.071015,-0.019853,321.270933,24.145457,0.999151,0.988726,0.004375,0.321360,-0.000012,-0.000024,0.000004,-0.000011,-0.000025,14.993138,0.000037,
2266,2203,0.242272225934233,-9.65050899788488,0.00225505378017488,0.001455,0.000665,-0.005341,0.084575,-0.022618,327.879006,23.577306,0.998660,0.982738,0.005410,0.284940,-0.000030,-0.000008,-0.000014,-0.000001,-0.000037,-63.982232,0.000043,
2116,2803,-3.12612784962569,3.44086817638143,-0.0181408699946815,0.000856,0.000541,-0.003610,0.050273,0.008477,318.418938,24.477335,0.999478,0.993445,0.003428,0.348041,-0.000021,-0.000017,-0.000005,-0.000014,-0.000024,-55.912772,0.000039,
2281,2233,0.563604087370795,-8.99314374555472,0.00456064215092056,0.000677,0.000625,-0.006392,0.052555,0.006285,327.361767,23.603800,0.998817,0.982177,0.005330,0.272862,-0.000031,-0.000027,-0.000015,-0.000014,-0.000044,-48.674595,0.000061,
2071,2593,-4.07142448454734,-1.13057684128199,-0.0312095309236042,0.000638,0.000247,-0.001500,0.033732,0.006931,321.919696,24.452633,0.999029,0.990059,0.004141,0.370335,-0.000010,-0.000020,0.000007,-0.000007,-0.000023,27.696323,0.000031,
2431,3043,3.6768076165354,8.67487456568007,-0.00129840898034672,0.000934,0.000046,-0.002936,0.053828,-0.004735,314.173324,25.548169,0.999471,0.990233,0.003925,0.340501,-0.000020,0.000002,0.000011,0.000006,-0.000025,67.616514,0.000026,
2371,2668,2.44123561318053,0.513370634136713,-0.0346994311021263,0.000273,0.000314,-0.007963,0.040931,-0.019877,319.941305,24.286315,0.999322,0.989569,0.004313,0.371402,-0.000038,0.000005,-0.000009,0.000007,-0.000040,-78.750075,0.000042,
2236,2008,-0.378158412585943,-13.9289372633401,0.0266072816045835,0.000214,0.000068,-0.000953,0.012867,0.015916,331.200695,23.347022,0.999595,0.989335,0.004447,0.388237,-0.000031,-0.000035,-0.000030,-0.000003,-0.000063,-43.027092,0.000075,
2386,2713,2.76050574559315,1.49398057546117,-0.0258527139544071,0.000959,0.000389,-0.006718,0.068283,-0.021369,319.319204,24.422206,0.999587,0.992690,0.003438,0.358133,-0.000042,0.000003,-0.000006,0.000004,-0.000043,-82.484885,0.000048,
2026,2503,-5.03530466712263,-3.09247663270633,-0.0315715574727733,0.000953,0.000478,-0.002064,0.049692,0.027300,323.646061,24.597151,0.999670,0.993729,0.003445,0.350037,0.000009,-0.000023,-0.000006,0.000010,-0.000024,-10.121730,0.000024,
2416,2923,3.37276967313904,6.06682395520917,-0.0159059999913325,0.000727,0.000046,-0.002289,0.041805,-0.006828,315.980342,25.148937,0.999666,0.993113,0.003455,0.312295,-0.000039,-0.000018,-0.000005,-0.000017,-0.000040,-76.794354,0.000059,
2461,3208,4.29801583031907,12.2578416175581,0.0253493369151556,0.000655,0.000273,-0.002941,0.041393,0.014730,311.733212,26.197352,0.999498,0.990202,0.003894,0.394440,0.000003,-0.000007,0.000006,0.000006,-0.000010,26.330482,0.000010,
2161,3028,-2.18532329943434,8.32934520041767,0.00335480910155184,0.000804,0.000270,-0.002609,0.045176,0.009786,314.745836,24.643461,0.999323,0.990566,0.004195,0.367922,-0.000013,-0.000015,0.000002,-0.000011,-0.000016,32.719530,0.000028,
2251,2098,-0.0664315120789887,-11.9520704722441,0.0136568333271043,0.000927,0.000470,-0.002784,0.051698,0.012248,329.656005,23.496215,0.999189,0.982077,0.005482,0.292287,-0.000027,0.000000,-0.000007,0.000002,-0.000029,-76.082761,0.000032,
2056,2593,-4.39746605699058,-1.1302285346511,-0.0328205311576539,0.000655,0.000164,-0.001144,0.033410,0.001924,321.988029,24.531519,0.998808,0.989721,0.004166,0.303407,-0.000013,-0.000020,0.000000,-0.000013,-0.000020,-1.405877,0.000033,
2086,2698,-3.76205017412336,1.15535719385289,-0.0270112945433425,0.000523,-0.000348,0.001495,0.019671,-0.002133,320.162689,24.391012,0.999329,0.992609,0.003598,0.402288,-0.000015,-0.000030,0.000002,-0.000015,-0.000030,8.673438,0.000046,
2401,2833,3.0633304206702,4.10859378157816,-0.0273504763449637,0.001010,0.000055,-0.002065,0.053954,0.000132,317.349072,24.817733,0.999348,0.989724,0.004104,0.348547,-0.000051,-0.000017,-0.000017,-0.000010,-0.000059,-67.353759,0.000074,
2101,2743,-3.44319243501555,2.13611629295258,-0.0297203490521269,0.000692,0.000119,-0.002237,0.038453,-0.004962,319.354414,24.464301,0.999400,0.991249,0.003812,0.328891,-0.000025,-0.000027,-0.000002,-0.000023,-0.000028,-33.206034,0.000051,
2446,3058,4.00023573630103,9.00171165396629,0.00368485255563655,0.000733,0.000007,-0.002782,0.044077,-0.006749,313.984690,25.666791,0.999479,0.991451,0.003784,0.319818,-0.000015,0.000001,0.000016,0.000011,-0.000025,58.629771,0.000025,
2206,3268,-1.24977531045932,13.5359245552789,0.0066546824820648,0.001169,0.000298,-0.005703,0.072140,0.001793,310.727444,24.994575,0.999508,0.994157,0.003210,0.397530,-0.000008,0.000007,-0.000001,0.000007,-0.000008,-84.692991,0.000009,
2011,2458,-5.3530773386734,-4.07705505687112,-0.00862240490977229,0.000939,0.000873,-0.005789,0.059144,0.015994,324.668371,24.612846,0.999364,0.991054,0.003922,0.384796,0.000002,-0.000029,-0.000004,0.000002,-0.000030,-6.702144,0.000033,
2191,3163,-1.55649292124035,11.2597283776738,0.012956083898473,0.001152,0.000147,-0.003895,0.065358,-0.011560,312.537959,24.920477,0.999601,0.995496,0.003104,0.284041,-0.000022,-0.000002,-0.000009,0.000002,-0.000026,-69.163735,0.000029,
2326,2443,1.50475979350452,-4.399115584003,-0.0158668073668764,0.000758,0.000333,-0.002257,0.042678,0.015413,323.751406,23.774790,0.999412,0.989127,0.004347,0.407718,-0.000015,-0.000032,0.000007,-0.000012,-0.000034,20.354143,0.000048,
2041,2533,-4.7131709145509,-2.43967642770443,-0.0221731540507335,0.000960,0.000436,-0.003238,0.053315,0.006065,323.153443,24.519148,0.999216,0.990885,0.003897,0.363369,0.000006,-0.000023,0.000010,0.000009,-0.000026,17.450702,0.000026,
2296,2278,0.882268825101608,-8.00820807749457,0.000396281710607127,0.000842,0.000311,-0.002703,0.047850,0.010152,326.580266,23.575070,0.999378,0.987772,0.004552,0.331757,-0.000032,-0.000028,-0.000019,-0.000011,-0.000049,-47.745433,0.000064,
2026,2518,-5.03745934222474,-2.7674416361179,-0.0259807624772748,0.000828,0.000246,0.000133,0.037798,0.011611,323.439621,24.472764,0.999679,0.994586,0.003287,0.450012,0.000010,-0.000024,0.000003,0.000010,-0.000025,4.601931,0.000025,
2176,3073,-1.86670361711727,9.30481451430299,0.0180413037539893,0.000551,0.000652,-0.003429,0.036293,0.024279,314.072556,24.614547,0.999684,0.995910,0.002941,0.492070,-0.000014,-0.000020,-0.000004,-0.000012,-0.000022,-27.526247,0.000034,
2131,2878,-2.8123549872414,5.06976303990746,-0.00802122098275504,0.000572,0.000180,-0.003292,0.036236,-0.009940,317.205417,24.414444,0.999571,0.993041,0.003399,0.433171,-0.000013,0.000002,-0.000008,0.000005,-0.000016,-67.014141,0.000016,
2311,2353,1.19470961339901,-6.36635084407307,-0.00896179660566077,0.000595,0.000351,-0.002121,0.034628,0.008697,325.265039,23.689483,0.999407,0.987482,0.004346,0.323141,-0.000026,-0.000017,-0.000005,-0.000014,-0.000028,-66.372853,0.000043,
2461,3223,4.29499816549987,12.5839131846486,0.0218014201074084,0.000977,0.000485,-0.002617,0.055086,0.025866,311.470426,26.276228,0.999523,0.992364,0.003574,0.379955,0.000005,-0.000009,0.000007,0.000008,-0.000012,23.132707,0.000012,
2146,2953,-2.49895175941975,6.70094091021551,-0.00885438499329894,0.000866,0.000302,-0.003325,0.050074,0.003758,315.928878,24.555580,0.999569,0.992508,0.003521,0.367392,-0.000012,-0.000014,-0.000003,-0.000010,-0.000016,-37.912362,0.000027,
2341,2488,1.82397781007909,-3.41677197015076,-0.00962000356457793,0.000850,0.000586,-0.003872,0.052726,0.026363,323.080934,23.821570,0.999387,0.988805,0.004159,0.445732,-0.000020,-0.000026,0.000009,-0.000014,-0.000032,34.508983,0.000047,
2116,2818,-3.12859727001566,3.76709482148189,-0.0237156489639005,0.001098,0.000494,-0.004927,0.065340,0.008551,318.143750,24.446350,0.999400,0.993088,0.003588,0.382550,-0.000019,-0.000008,-0.000004,-0.000007,-0.000021,-70.980771,0.000029,
2356,2608,2.12795331630464,-0.79629121452831,-0.0210357133565253,0.001324,0.000462,-0.006274,0.083035,0.003455,321.068643,24.142585,0.999153,0.988357,0.004384,0.387228,-0.000014,-0.000027,0.000005,-0.000012,-0.000028,19.376726,0.000042,
2236,2023,-0.379528004466582,-13.5998880585499,0.0326783225788745,0.000718,0.000860,-0.004968,0.049204,0.032246,331.046372,23.405117,0.998965,0.983066,0.005392,0.370731,-0.000031,-0.000017,-0.000019,-0.000004,-0.000045,-55.369898,0.000054,
2071,2608,-4.07348274235161,-0.803095497896066,-0.0347983537232608,0.001139,0.000010,-0.001532,0.056823,0.000653,321.669819,24.491049,0.999273,0.991210,0.003835,0.323007,-0.000008,-0.000022,0.000006,-0.000006,-0.000024,19.468306,0.000032,
2056,2608,-4.39925048291638,-0.80494581584788,-0.0279047640760268,0.000746,0.000204,-0.003137,0.043232,-0.008477,321.796835,24.445407,0.999050,0.990533,0.004028,0.374159,-0.000011,-0.000023,-0.000001,-0.000011,-0.000023,-5.342865,0.000035,
2371,2683,2.4378693790388,0.84153848308236,-0.0424374361077184,0.000755,0.000164,-0.003180,0.046010,-0.008998,319.637138,24.366499,0.999390,0.990269,0.003985,0.343811,-0.000038,0.000009,-0.000006,0.000010,-0.000039,-82.793876,0.000040,
2431,3058,3.67390054655059,9.00118350825668,-0.000222135137676105,0.000903,0.000072,-0.003077,0.052976,0.003773,313.935578,25.637240,0.999548,0.991691,0.003817,0.308683,-0.000018,-0.000002,0.000011,0.000004,-0.000024,62.136023,0.000026,
2251,2113,-0.0693419765341119,-11.6236621467104,0.0153539045363118,0.000526,0.000326,-0.002682,0.032970,-0.004344,329.410397,23.512830,0.998982,0.982536,0.005361,0.285658,-0.000024,0.000001,-0.000008,0.000003,-0.000027,-73.438828,0.000029,
2281,2248,0.560947464764975,-8.66586538804796,0.00239240947678354,0.000757,0.000438,-0.007823,0.060932,-0.016536,327.110868,23.531396,0.998972,0.983052,0.005230,0.352573,-0.000033,-0.000041,-0.000013,-0.000024,-0.000050,-36.420427,0.000076,
2386,2728,2.7572641898609,1.82044248789521,-0.0219043349281947,0.000763,-0.000201,-0.000875,0.038101,-0.011753,319.077891,24.455820,0.999572,0.992040,0.003655,0.377677,-0.000045,-0.000007,-0.000005,-0.000006,-0.000046,-83.387902,0.000057,
2266,2218,0.239527954047599,-9.32249253747229,0.00605605843264811,0.001077,0.000516,-0.005601,0.068033,-0.009800,327.652441,23.588071,0.998724,0.981575,0.005440,0.315115,-0.000023,-0.000014,-0.000013,-0.000005,-0.000033,-53.964833,0.000041,
2041,2548,-4.71611619592317,-2.11207977674563,-0.0319994413330278,0.000822,0.000565,-0.004285,0.049880,-0.002355,322.825791,24.493900,0.999392,0.991492,0.003734,0.373891,0.000008,-0.000029,0.000007,0.000009,-0.000030,10.298389,0.000031,
2086,2713,-3.76386646206995,1.48167083906081,-0.0248976608340854,0.000959,-0.000077,0.001715,0.039176,0.006421,319.956546,24.387815,0.999331,0.992132,0.003675,0.413458,-0.000012,-0.000021,0.000004,-0.000011,-0.000022,21.463180,0.000034,
2446,3073,3.99725547292926,9.32741506574175,-0.00198721617914543,0.001145,0.000181,-0.003573,0.066080,-0.003779,313.713540,25.665955,0.999661,0.994140,0.003298,0.375081,-0.000014,0.000004,0.000013,0.000010,-0.000021,62.985681,0.000021,
2401,2848,3.06064238306022,4.43411028490397,-0.0216309537753432,0.000718,0.000179,-0.002928,0.043672,0.001318,317.142333,24.819601,0.999483,0.991816,0.003754,0.393187,-0.000050,-0.000011,-0.000018,-0.000004,-0.000057,-68.861417,0.000068,
2011,2473,-5.3558876885958,-3.74974661312392,-0.00899294269441953,0.000759,0.000103,0.000917,0.032462,0.011054,324.396859,24.615672,0.999090,0.988564,0.004319,0.366545,0.000002,-0.000034,-0.000002,0.000002,-0.000035,-3.882430,0.000039,
2161,3043,-2.18708592875821,8.65429563605421,0.015803844609195,0.000710,0.000250,-0.003097,0.042376,0.017888,314.602497,24.673815,0.999527,0.994052,0.003403,0.354480,-0.000015,-0.000021,-0.000002,-0.000014,-0.000022,-13.738908,0.000037,
2101,2758,-3.44516564386949,2.46111916507037,-0.0205050351101477,0.000607,0.000036,-0.001040,0.031045,0.010319,319.180963,24.403769,0.999448,0.991222,0.003738,0.405951,-0.000027,-0.000028,-0.000005,-0.000022,-0.000032,-43.057664,0.000055,
2026,2533,-5.03933160131665,-2.4396745003349,-0.0276362490975544,0.000983,0.000482,-0.005188,0.059623,0.005564,323.204981,24.528009,0.999357,0.991123,0.003886,0.380000,0.000010,-0.000027,0.000016,0.000016,-0.000033,20.351653,0.000033,
2326,2458,1.50178709049272,-4.07067591402187,-0.021890926610979,0.000866,0.000613,-0.004358,0.054983,0.006736,323.470251,23.833704,0.999416,0.989110,0.004280,0.376214,-0.000018,-0.000023,0.000011,-0.000009,-0.000031,38.927478,0.000042,
2416,2938,3.36993362919972,6.392350492341,-0.0119531613053709,0.000659,0.000083,-0.000539,0.032291,0.002225,315.759057,25.154077,0.999654,0.992700,0.003571,0.363540,-0.000034,-0.000015,-0.000003,-0.000014,-0.000035,-80.264832,0.000050,
2206,3283,-1.25274165819238,13.8612655482483,0.00620433651340591,0.001023,0.000055,-0.003397,0.058029,-0.000050,310.463492,25.049306,0.999259,0.993555,0.003355,0.355959,-0.000011,0.000005,0.000000,0.000005,-0.000011,-88.897530,0.000011,
2191,3178,-1.55860730348434,11.5840094864628,0.020401851122017,0.001211,0.000181,-0.002592,0.064031,0.000665,312.353856,24.882947,0.999800,0.996821,0.002822,0.347110,-0.000022,0.000003,-0.000007,0.000006,-0.000024,-74.826985,0.000025,
2131,2893,-2.81497566760737,5.39664056994676,-0.00943800368025904,0.000560,0.000244,-0.002630,0.033789,0.004705,316.946572,24.482148,0.999466,0.992042,0.003741,0.385218,-0.000015,-0.000002,-0.000005,0.000000,-0.000016,-71.045290,0.000019,
2296,2293,0.87942783075361,-7.67975832605652,0.00223291754161892,0.000670,0.000126,-0.001624,0.036246,0.000423,326.341677,23.653415,0.999379,0.986970,0.004596,0.275725,-0.000032,-0.000028,-0.000016,-0.000013,-0.000046,-48.744037,0.000063,
2071,2623,-4.07555220566877,-0.477699123391304,-0.0313067043097703,0.001075,0.000171,-0.003237,0.058809,0.010295,321.458713,24.388075,0.999201,0.990078,0.004054,0.433105,-0.000012,-0.000038,0.000003,-0.000012,-0.000039,7.300735,0.000053,
2236,2038,-0.382283236729155,-13.2701668372694,0.0250730340003429,0.001143,0.000733,-0.004297,0.066470,0.016499,330.759460,23.407834,0.998884,0.980592,0.005531,0.377169,-0.000029,-0.000016,-0.000018,-0.000003,-0.000042,-55.306964,0.000050,
2461,3238,4.29214884380058,12.9098524915953,0.0205716470048287,0.001096,0.000668,-0.004478,0.067688,0.030442,311.226003,26.366833,0.999711,0.994555,0.003139,0.346630,0.000008,-0.000009,0.000011,0.000013,-0.000014,26.090070,0.000015,
2341,2503,1.82037143973507,-3.08860354575523,-0.0191060111870911,0.000668,0.000426,-0.005356,0.049478,0.002530,322.755297,23.855117,0.999238,0.988082,0.004324,0.426409,-0.000021,-0.000029,0.000009,-0.000016,-0.000035,32.701358,0.000052,
2311,2368,1.19216294987769,-6.03894504824993,-0.0109974055861812,0.000937,0.000359,-0.002247,0.050787,0.008365,325.022022,23.651005,0.999594,0.990153,0.004016,0.395289,-0.000023,-0.000024,-0.000009,-0.000014,-0.000032,-44.273678,0.000048,
2146,2968,-2.50128905251979,7.02662997311479,-0.00626427914340866,0.000840,0.000355,-0.003632,0.049852,0.011733,315.705841,24.570330,0.999642,0.994230,0.003168,0.367720,-0.000011,-0.000013,-0.000005,-0.000007,-0.000018,-39.620405,0.000026,
2056,2623,-4.40113567104993,-0.47829834522372,-0.0257273449396962,0.000967,0.000384,-0.004255,0.056623,0.007268,321.585516,24.438942,0.999243,0.991536,0.003846,0.391564,-0.000015,-0.000041,-0.000004,-0.000015,-0.000042,-7.568587,0.000059,
2356,2623,2.12405877514564,-0.46892250761033,-0.0211777083905531,0.000519,0.000209,-0.003219,0.035234,0.002031,320.775837,24.204669,0.998950,0.988380,0.004471,0.363137,-0.000019,-0.000018,0.000002,-0.000016,-0.000020,52.682303,0.000037,
2116,2833,-3.13160513140516,4.09375223192536,-0.0273264289521649,0.000897,0.000008,-0.002898,0.049889,-0.007151,317.854321,24.490691,0.999622,0.993667,0.003448,0.325633,-0.000020,-0.000003,-0.000006,-0.000001,-0.000022,-71.316941,0.000025,
2041,2563,-4.71744391120469,-1.78550585277757,-0.027629771819818,0.001378,0.000793,-0.006325,0.081219,0.005799,322.650984,24.489211,0.999444,0.991423,0.003710,0.379923,0.000003,-0.000033,-0.000002,0.000003,-0.000033,-2.771692,0.000036,
2371,2698,2.43548120917612,1.16709974459523,-0.0342907337573592,0.000665,0.000090,-0.002285,0.038672,-0.011639,319.454430,24.356286,0.999361,0.991211,0.003715,0.392625,-0.000037,0.000007,-0.000005,0.000007,-0.000037,-83.916406,0.000039,
2011,2488,-5.35824126562363,-3.42195789064905,-0.0199572222481947,0.001112,0.000389,-0.001654,0.055782,0.012808,324.086731,24.563779,0.999334,0.989037,0.004177,0.409679,-0.000014,-0.000028,-0.000005,-0.000012,-0.000029,-17.659186,0.000042,
2026,2548,-5.0414631394717,-2.11259564426215,-0.0256794701780336,0.000848,0.001003,-0.007371,0.059559,0.021844,322.978740,24.535118,0.999410,0.991782,0.003649,0.380240,0.000014,-0.000031,0.000013,0.000017,-0.000035,14.827464,0.000035,
2431,3073,3.67073167635985,9.32613953339044,0.000260891587799961,0.000710,0.000233,-0.002500,0.041999,0.008785,313.683346,25.605202,0.999622,0.992900,0.003547,0.394761,-0.000018,0.000002,0.000007,0.000004,-0.000020,71.772933,0.000022,
2266,2233,0.236789366669147,-8.9935345182443,0.00138584615029913,0.001258,0.000714,-0.006713,0.080098,-0.003937,327.383576,23.608940,0.998811,0.981103,0.005357,0.328255,-0.000028,-0.000022,-0.000015,-0.000010,-0.000040,-50.190136,0.000053,
2101,2773,-3.4481461691009,2.78852031663523,-0.0278851078277285,0.000641,-0.000051,0.001046,0.026472,0.012480,318.870907,24.449899,0.999500,0.992249,0.003676,0.363465,-0.000024,-0.000021,-0.000003,-0.000019,-0.000026,-62.058632,0.000045,
2206,3298,-1.256163420419,14.1858886767758,-5.40810626716848E-05,0.000762,-0.000160,-0.001981,0.041378,-0.012359,310.148697,25.020841,0.999303,0.994395,0.003136,0.386992,-0.000009,0.000014,-0.000008,0.000016,-0.000011,-72.020221,0.000017,
2281,2263,0.556786667576041,-8.33391695949698,-0.0109347974968728,0.000475,0.000743,-0.005193,0.039349,0.001402,326.734635,23.737025,0.999396,0.987839,0.004625,0.195653,-0.000030,-0.000046,-0.000012,-0.000024,-0.000052,-28.823698,0.000078,
2251,2128,-0.0722883439909658,-11.2951858334119,0.0132676435472945,0.000329,0.000163,-0.003022,0.025012,-0.031610,329.144099,23.510522,0.998585,0.982229,0.005415,0.287164,-0.000024,0.000001,-0.000011,0.000005,-0.000029,-68.930725,0.000031,
2086,2728,-3.76604294141228,1.80842269599349,-0.0288388865272964,0.001126,0.000054,-0.002732,0.059797,0.003666,319.700864,24.391737,0.999315,0.991373,0.003813,0.405953,-0.000017,-0.000020,0.000001,-0.000017,-0.000020,21.575332,0.000037,
2161,3058,-2.18864630019301,8.97813927119967,0.0285818768280137,0.000776,0.000424,-0.003846,0.047711,0.005614,314.470601,24.626994,0.999654,0.995539,0.003209,0.398396,-0.000013,-0.000021,-0.000006,-0.000010,-0.000024,-26.498162,0.000035,
2386,2743,2.75447416614722,2.14668177138211,-0.0192629110853204,0.000547,-0.000147,-0.002291,0.033301,-0.008216,318.851136,24.468510,0.999620,0.992512,0.003614,0.411920,-0.000048,-0.000006,-0.000007,-0.000004,-0.000049,-80.823938,0.000059,
2071,2638,-4.07810314988644,-0.150939654595376,-0.0233511177737569,0.000518,0.000079,-0.000837,0.026281,0.018472,321.249631,24.453392,0.999026,0.988469,0.004345,0.373248,-0.000009,-0.000036,0.000003,-0.000009,-0.000036,6.824617,0.000048,
2446,3088,3.99537883889127,9.65321284051507,0.00917713985467117,0.001310,0.000215,-0.004133,0.075798,0.008258,313.570938,25.776498,0.999637,0.994141,0.003373,0.327524,-0.000008,0.000005,0.000009,0.000010,-0.000013,62.671185,0.000014,
2191,3193,-1.56060801369718,11.9079799070048,0.0295832512205152,0.001074,0.000136,-0.004088,0.062415,-0.004697,312.184163,24.847247,0.999700,0.996170,0.002970,0.390629,-0.000022,-0.000003,-0.000009,0.000001,-0.000025,-67.764346,0.000029,
2461,3253,4.28797119003429,13.2349808633888,0.0140202672170062,0.000618,0.000265,-0.002778,0.039085,0.017721,310.896065,26.374266,0.999719,0.994713,0.003018,0.379571,0.000010,-0.000007,0.000011,0.000016,-0.000012,25.385716,0.000017,
2401,2863,3.0578016864931,4.76118158377042,-0.0216238886317797,0.000882,0.000394,-0.001906,0.047618,0.017362,316.901136,24.910876,0.999436,0.991661,0.003715,0.363041,-0.000048,-0.000007,-0.000019,0.000000,-0.000056,-68.878716,0.000064,
2221,1993,-0.701962586914195,-14.2578032069276,0.0349276902269366,0.000587,0.000385,-0.003902,0.039447,0.004109,331.569406,23.537256,0.999630,0.989613,0.004387,0.266531,-0.000005,-0.000037,-0.000036,0.000018,-0.000060,-32.787762,0.000062,
2311,2383,1.18983002707983,-5.71148608993438,-0.00365739300769974,0.000597,0.000674,-0.005049,0.044853,0.001191,324.834804,23.719878,0.999355,0.988132,0.004515,0.352795,-0.000017,-0.000025,-0.000004,-0.000015,-0.000027,-24.546890,0.000043,
2041,2578,-4.72043693658339,-1.45850150923322,-0.0332457226826932,0.001045,0.000703,-0.005622,0.063946,0.008186,322.344604,24.446963,0.999059,0.991209,0.003966,0.417994,-0.000003,-0.000032,-0.000009,-0.000001,-0.000035,-15.083987,0.000040,
2026,2563,-5.04337860300673,-1.78644538389208,-0.0215247107448135,0.001083,0.000471,-0.004827,0.063255,0.021561,322.774967,24.497479,0.999418,0.991461,0.003745,0.408449,0.000011,-0.000030,0.000005,0.000011,-0.000031,6.914145,0.000031,
2176,3088,-1.86944451944867,9.63177170996477,0.0143156044171633,0.000860,0.000195,-0.000048,0.039936,0.020141,313.799340,24.747863,0.999526,0.993987,0.003303,0.365813,-0.000016,-0.000019,-0.000004,-0.000013,-0.000022,-32.860082,0.000035,
2056,2638,-4.40418376359309,-0.151286429697173,-0.0258453616666543,0.000501,0.000147,-0.000008,0.023111,0.006044,321.308289,24.467917,0.999116,0.990564,0.004087,0.356676,-0.000011,-0.000039,-0.000003,-0.000011,-0.000040,-6.550477,0.000053,
2116,2848,-3.13412110090573,4.41914993224494,-0.0232203398413162,0.000627,0.000177,-0.001743,0.034145,0.014075,317.629260,24.445008,0.999661,0.994039,0.003281,0.395831,-0.000017,-0.000002,-0.000011,0.000003,-0.000023,-62.794184,0.000025,
2296,2308,0.87624502738991,-7.35234916424039,-0.00445354560201849,0.000673,0.000020,-0.001927,0.037360,0.000476,326.045397,23.546683,0.999299,0.986093,0.004859,0.414982,-0.000035,-0.000036,-0.000013,-0.000023,-0.000048,-43.290881,0.000073,
2416,2953,3.36642510695874,6.7191756782169,-0.0153396338694733,0.000460,-0.000140,0.000544,0.019115,0.001878,315.472014,25.240626,0.999749,0.992615,0.003620,0.323791,-0.000032,-0.000014,-0.000001,-0.000014,-0.000032,-86.191184,0.000047,
2011,2503,-5.36106632586294,-3.09293914690392,-0.0285190359339254,0.000869,0.000556,-0.004105,0.051310,0.017463,323.768168,24.649773,0.999579,0.993492,0.003620,0.317549,-0.000009,-0.000032,-0.000013,-0.000003,-0.000038,-24.027895,0.000045,
2356,2638,2.12165848621934,-0.142250364922567,-0.0151963008659664,0.000561,0.000074,-0.002415,0.034246,-0.012890,320.581260,24.272539,0.999150,0.988533,0.004390,0.319543,-0.000023,-0.000012,0.000000,-0.000012,-0.000023,-87.696225,0.000035,
2236,2053,-0.385419829728797,-12.9399686919327,0.0209352354875705,0.000927,0.000297,-0.003969,0.055404,-0.023768,330.472732,23.523803,0.998808,0.978834,0.005646,0.245703,-0.000030,-0.000015,-0.000015,-0.000006,-0.000040,-57.627960,0.000049,
2146,2983,-2.5035938074819,7.35202947859373,-0.00713552832536379,0.001076,0.000364,-0.003939,0.061659,0.009370,315.466012,24.548837,0.999695,0.995297,0.002967,0.394053,-0.000012,-0.000018,-0.000006,-0.000009,-0.000022,-32.150502,0.000031,
2341,2518,1.81772958734776,-2.76055548809337,-0.0162317991860164,0.000716,0.000410,-0.004149,0.047437,-0.004648,322.533693,23.978469,0.998909,0.985182,0.004712,0.333554,-0.000018,-0.000035,0.000006,-0.000015,-0.000037,18.710551,0.000054,
2071,2653,-4.08057297805328,0.176296719175568,-0.0327779897838809,0.000874,0.000197,-0.002471,0.047368,0.015650,320.949041,24.431250,0.999185,0.990415,0.004040,0.390048,-0.000014,-0.000021,0.000001,-0.000014,-0.000021,8.328837,0.000035,
2326,2473,1.49966557005142,-3.74428941995656,-0.0122477379791235,0.000773,0.000656,-0.004638,0.051690,0.008942,323.304852,23.843818,0.999388,0.989017,0.004184,0.403561,-0.000014,-0.000022,0.000013,-0.000004,-0.000031,36.911811,0.000039,
2131,2908,-2.81683977715415,5.72145628832561,-0.00454916212265744,0.000895,-0.000031,-0.001872,0.046868,-0.002944,316.756838,24.432306,0.999415,0.990462,0.003959,0.432828,-0.000012,-0.000016,-0.000006,-0.000008,-0.000021,-35.301248,0.000030,
2431,3088,3.66936818765762,9.65094741881563,0.0173103808305655,0.000770,0.000270,-0.004578,0.052497,0.008136,313.591407,25.674177,0.999639,0.993587,0.003435,0.374203,-0.000014,0.000004,0.000005,0.000005,-0.000015,76.389076,0.000015,
2221,2008,-0.705641774754834,-13.9265048810781,0.0225300910626061,0.000460,0.000228,-0.002307,0.028508,0.002283,331.214039,23.602948,0.999588,0.988797,0.004571,0.222319,-0.000014,-0.000043,-0.000032,0.000006,-0.000064,-32.453443,0.000070,
2086,2743,-3.76855732263894,2.13435648710339,-0.0218518859235246,0.000730,-0.000040,0.000167,0.033114,-0.000369,319.489426,24.413995,0.999443,0.991481,0.003768,0.378770,-0.000027,-0.000024,-0.000004,-0.000022,-0.000030,-55.834931,0.000052,
2101,2788,-3.44999971592789,3.11421356214115,-0.0240628037486772,0.000811,0.000353,-0.001100,0.040697,0.019699,318.673604,24.426382,0.999424,0.992238,0.003787,0.395247,-0.000028,-0.000017,-0.000008,-0.000013,-0.000032,-61.770422,0.000046,
2266,2248,0.233160108606501,-8.66508897391817,-0.00156987255274998,0.000814,0.000093,-0.002474,0.045536,-0.011917,327.082622,23.620459,0.998845,0.983610,0.005212,0.336999,-0.000028,-0.000035,-0.000012,-0.000019,-0.000044,-36.708215,0.000064,
2461,3268,4.28333677598271,13.5612204515157,-0.00379605826748275,0.000711,0.000043,0.000115,0.032361,0.014953,310.492818,26.416943,0.999737,0.995191,0.002857,0.386846,0.000018,-0.000021,0.000020,0.000026,-0.000029,22.823803,0.000032,
2056,2653,-4.40655044935545,0.175937489385497,-0.0395219621390197,0.000900,0.000576,-0.006309,0.059365,-0.014337,320.987576,24.426346,0.999122,0.991497,0.004040,0.373174,-0.000015,-0.000023,-0.000006,-0.000012,-0.000026,-27.643175,0.000039,
2446,3103,3.9919968108564,9.97768912712339,0.015721634162901,0.000521,0.000218,-0.002470,0.033294,0.010109,313.337974,25.748961,0.999665,0.994134,0.003392,0.408078,-0.000002,0.000006,0.000015,0.000018,-0.000014,52.109180,0.000019,
2161,3073,-2.19135358201035,9.30401715638028,0.0242048141412852,0.000896,0.000565,-0.003922,0.053555,0.023330,314.194682,24.629675,0.999593,0.995162,0.003149,0.422522,-0.000011,-0.000020,-0.000007,-0.000007,-0.000024,-29.265347,0.000033,
2311,2398,1.18895227845169,-5.38600897006193,0.0115287472311252,0.001043,0.000891,-0.008831,0.078279,0.010798,324.753067,23.669426,0.999394,0.988970,0.004507,0.446068,-0.000016,-0.000016,0.000000,-0.000016,-0.000016,-18.711386,0.000032,
2371,2713,2.43314451015178,1.49484950254082,-0.0369120914243695,0.001130,0.000559,-0.005809,0.072727,-0.006911,319.222021,24.455773,0.999493,0.991979,0.003597,0.339133,-0.000040,-0.000001,-0.000006,0.000000,-0.000041,-81.133492,0.000047,
2026,2578,-5.04653415711914,-1.45908059001046,-0.0246117184020704,0.000603,0.000194,-0.000848,0.030198,0.024762,322.473784,24.508750,0.999009,0.990982,0.004067,0.391650,0.000006,-0.000029,-0.000001,0.000006,-0.000029,-2.142280,0.000030,
2386,2758,2.75109725703547,2.47445569711382,-0.0278179094005964,0.000880,0.000045,-0.000517,0.042307,0.003919,318.543786,24.529386,0.999342,0.990126,0.003967,0.406906,-0.000047,-0.000002,-0.000007,-0.000001,-0.000049,-81.538854,0.000057,
2191,3208,-1.56351338957601,12.2332792364524,0.0321229674120218,0.000847,0.000145,-0.000392,0.040377,0.011284,311.937718,24.876897,0.999466,0.994472,0.003419,0.390085,-0.000018,-0.000003,-0.000010,0.000002,-0.000023,-64.535393,0.000025,
2041,2593,-4.72280278838888,-1.13151272399292,-0.0283682167228676,0.000711,0.000485,-0.004859,0.046404,0.018276,322.125032,24.491832,0.998931,0.991023,0.004008,0.376261,-0.000007,-0.000017,-0.000005,-0.000005,-0.000018,-22.257741,0.000025,
2401,2878,3.05466053717227,5.08809483469973,-0.0259758868737094,0.001050,0.000339,-0.001413,0.053577,0.030519,316.625523,24.962874,0.999387,0.992712,0.003556,0.369550,-0.000051,-0.000006,-0.000015,-0.000002,-0.000055,-73.438585,0.000065,
2251,2143,-0.0748439406238361,-10.9662569371908,0.0152320270253199,0.000438,-0.000032,-0.000588,0.021964,0.001667,328.915685,23.538189,0.998696,0.983453,0.005233,0.318927,-0.000030,-0.000018,-0.000012,-0.000011,-0.000037,-58.427638,0.000050,
2176,3103,-1.87162326367631,9.95644662670015,0.0172918321273414,0.000874,0.000224,-0.002553,0.048265,-0.001771,313.587931,24.735307,0.999579,0.994653,0.003114,0.367767,-0.000018,-0.000017,-0.000003,-0.000014,-0.000021,-52.007437,0.000035,
2281,2278,0.554874591161123,-8.00800569028639,-0.0054528399409719,0.000945,0.000409,-0.003738,0.055961,0.003498,326.555904,23.603887,0.999607,0.989045,0.004416,0.360395,-0.000025,-0.000034,-0.000012,-0.000017,-0.000042,-34.985352,0.000061,
2011,2518,-5.36304055726392,-2.76794506745708,-0.021064665900667,0.000776,0.000333,-0.002142,0.041633,0.013837,323.579404,24.525835,0.999597,0.993967,0.003499,0.426815,-0.000006,-0.000031,-0.000003,-0.000006,-0.000032,-5.797038,0.000040,
2071,2668,-4.08286655892201,0.502994916495119,-0.034051914573979,0.000991,0.000360,-0.002629,0.053249,0.019853,320.701277,24.426424,0.999069,0.990811,0.004049,0.396156,-0.000017,-0.000030,0.000006,-0.000014,-0.000032,22.053289,0.000047,
2146,2998,-2.50557665129892,7.67676500244336,0.00500122628272948,0.000706,0.000493,-0.005262,0.048719,0.017926,315.310304,24.547717,0.999572,0.994018,0.003332,0.410808,-0.000015,-0.000013,-0.000003,-0.000012,-0.000017,-55.278140,0.000029,
2221,2023,-0.707649062043892,-13.5975540040101,0.019895581532694,0.001047,0.000446,-0.004402,0.062187,-0.010789,330.985197,23.583291,0.999066,0.983342,0.005244,0.251235,-0.000018,-0.000025,-0.000021,0.000000,-0.000043,-40.094791,0.000050,
2131,2923,-2.81936152422966,6.04803547783966,-0.0085157870980197,0.000943,0.000094,-0.004403,0.056721,0.001475,316.489004,24.473073,0.999271,0.990556,0.004007,0.401426,-0.000010,-0.000018,0.000000,-0.000010,-0.000018,-3.109360,0.000029,
2461,3283,4.28021690617792,13.8868924349842,-0.0072903516792735,0.000960,0.000323,0.000871,0.041057,0.022635,310.225318,26.480761,0.999537,0.992907,0.003445,0.383682,0.000030,-0.000038,0.000024,0.000037,-0.000045,17.667991,0.000048,
2116,2863,-3.13594910328126,4.74462585680776,-0.0168977923812008,0.000853,0.000077,-0.001402,0.043469,-0.004561,317.447731,24.466255,0.999606,0.993442,0.003411,0.358886,-0.000015,-0.000002,-0.000010,0.000003,-0.000020,-61.099194,0.000022,
2266,2263,0.230953837096184,-8.33701403108389,0.0144163490512597,0.000326,0.000400,0.000435,0.013651,0.011284,326.941570,23.765425,0.999596,0.990225,0.004302,0.242524,-0.000023,-0.000040,-0.000011,-0.000018,-0.000045,-25.599460,0.000065,
2431,3103,3.66547475839517,9.9771379855246,0.0122177558462795,0.000419,0.000086,-0.002650,0.029148,0.007858,313.279332,25.732968,0.999717,0.994724,0.003230,0.363850,-0.000007,0.000006,0.000010,0.000012,-0.000013,61.648776,0.000014,
2416,2968,3.36431390068961,7.04469419786621,-0.0106158717275093,0.000554,0.000097,-0.003965,0.040061,-0.002844,315.287596,25.271802,0.999819,0.994577,0.003230,0.334996,-0.000035,-0.000014,0.000002,-0.000014,-0.000035,83.383126,0.000050,
2236,2068,-0.387796527925804,-12.6114546441381,0.0272368204086888,0.000771,0.000431,-0.002893,0.044840,-0.005665,330.273534,23.549747,0.999026,0.981029,0.005402,0.262058,-0.000030,-0.000002,-0.000007,0.000000,-0.000032,-76.673905,0.000037,
2356,2653,2.11860797950598,0.18545920048841,-0.0254580659321277,0.000875,0.000496,-0.005878,0.061030,-0.009940,320.278286,24.285418,0.999288,0.988259,0.004474,0.349365,-0.000026,-0.000007,-0.000002,-0.000007,-0.000026,-84.165877,0.000035,
2086,2758,-3.771139533695,2.46119732788138,-0.0320600930246542,0.001115,-0.000102,-0.000730,0.053422,-0.001830,319.181018,24.384729,0.999467,0.991845,0.003734,0.405975,-0.000029,-0.000026,-0.000007,-0.000020,-0.000034,-50.289628,0.000055,
2296,2323,0.87380871020294,-7.02382392275376,-0.00341154286996925,0.000754,0.000365,-0.003675,0.047115,-0.002844,325.821294,23.627906,0.999112,0.984721,0.005118,0.362236,-0.000033,-0.000035,-0.000009,-0.000026,-0.000043,-41.052476,0.000069,
2191,3223,-1.56644803065138,12.5587073399229,0.032083343900581,0.000633,-0.000106,0.001311,0.025055,0.000616,311.676406,24.933650,0.999680,0.995597,0.002986,0.335329,-0.000016,0.000007,-0.000014,0.000014,-0.000023,-64.124362,0.000023,
2446,3118,3.98954728286659,10.3035727249484,0.0159296983502486,0.001011,0.000308,-0.002965,0.057698,0.007760,313.118185,25.818855,0.999611,0.992930,0.003523,0.386900,0.000003,0.000006,0.000014,0.000019,-0.000009,48.349616,0.000019,
2026,2593,-5.049049740349,-1.13160537346251,-0.0323238760281583,0.000800,0.000005,-0.000928,0.039440,0.017775,322.176105,24.505290,0.998908,0.990555,0.004257,0.379222,0.000001,-0.000007,0.000003,0.000002,-0.000009,18.338079,0.000009,
2326,2488,1.49704056483294,-3.41650354772436,-0.00994049178575551,0.000851,0.000801,-0.003410,0.051127,0.037563,323.080180,23.892208,0.999331,0.988935,0.004176,0.419505,-0.000012,-0.000022,0.000009,-0.000007,-0.000027,29.663521,0.000036,
2041,2608,-4.72506079116852,-0.805151565300903,-0.0295938297738303,0.000739,0.000482,-0.005952,0.050765,0.010378,321.876837,24.448719,0.998877,0.989665,0.004265,0.404550,-0.000008,-0.000018,-0.000006,-0.000005,-0.000021,-25.419469,0.000028,
2011,2533,-5.36475637459982,-2.44063097750546,-0.0215632484485013,0.001119,0.000518,-0.005331,0.066138,0.022912,323.357234,24.534187,0.999192,0.989585,0.004273,0.416653,-0.000003,-0.000033,0.000015,0.000003,-0.000039,22.822559,0.000044,
2056,2668,-4.40812853758971,0.50162395559007,-0.0263993911912621,0.000883,0.000537,-0.005419,0.056059,-0.005387,320.850944,24.443692,0.999180,0.991312,0.003995,0.359504,-0.000016,-0.000032,0.000003,-0.000016,-0.000033,11.189289,0.000050,
2341,2533,1.81487522379486,-2.433200614298,-0.0166705467004817,0.000813,0.000389,-0.002742,0.047029,0.011232,322.286296,23.990084,0.999045,0.986305,0.004641,0.375400,-0.000015,-0.000041,-0.000001,-0.000015,-0.000041,-1.535032,0.000058,
2101,2803,-3.45291642262204,3.4402964453618,-0.0266548827594875,0.000515,0.000011,-0.000387,0.024808,-0.016751,318.392851,24.436887,0.999326,0.992615,0.003682,0.349489,-0.000025,-0.000014,-0.000005,-0.000013,-0.000027,-69.969289,0.000040,
2161,3088,-2.19466949425655,9.63026075672965,0.0180962358843999,0.000742,-0.000027,-0.000776,0.036617,0.002466,313.881547,24.698168,0.999356,0.992468,0.003627,0.342190,-0.000012,-0.000021,-0.000008,-0.000007,-0.000026,-31.405607,0.000035,
2386,2773,2.74789053532478,2.80081212099563,-0.024693378636357,0.000458,-0.000083,0.001203,0.016702,0.007481,318.300017,24.565696,0.999261,0.990247,0.004009,0.417321,-0.000051,-0.000011,-0.000011,-0.000008,-0.000053,-75.586463,0.000067,
2461,3298,4.27759268761275,14.211956832903,-0.00750647000359095,0.001027,0.000478,-0.003308,0.060019,0.024339,309.995869,26.516159,0.999546,0.994039,0.003345,0.402941,0.000028,-0.000046,0.000021,0.000034,-0.000051,15.045636,0.000052,
2071,2683,-4.08523308369332,0.828830461369677,-0.0302207255081157,0.000666,0.000198,-0.003613,0.041062,0.016953,320.478399,24.396421,0.999299,0.992454,0.003675,0.420497,-0.000013,-0.000030,0.000007,-0.000010,-0.000033,19.878913,0.000045,
2371,2728,2.43057892968049,1.82155297196537,-0.0324545837520418,0.001152,0.000540,-0.004966,0.070795,0.003907,319.013122,24.514964,0.999497,0.991532,0.003707,0.331934,-0.000043,-0.000009,-0.000005,-0.000009,-0.000044,-82.005642,0.000056,
2401,2893,3.05237657753843,5.41362522495194,-0.0200270940351288,0.000971,0.000522,-0.004460,0.061044,0.018294,316.438298,24.992667,0.999472,0.992432,0.003610,0.372555,-0.000048,-0.000013,-0.000014,-0.000008,-0.000053,-70.911801,0.000067,
2311,2413,1.1846537280429,-5.0564073722261,-0.00362534084450772,0.000739,0.000857,-0.007479,0.059699,-0.003362,324.364881,23.735375,0.999471,0.989069,0.004379,0.400314,-0.000018,-0.000015,-0.000002,-0.000014,-0.000019,-62.341868,0.000033,
2176,3118,-1.87369996047686,10.2814629555773,0.0219887404481938,0.000938,0.000369,-0.004135,0.056157,-0.002991,313.390103,24.747767,0.999472,0.994241,0.003321,0.365156,-0.000021,-0.000014,-0.000004,-0.000012,-0.000023,-64.897204,0.000035,
2221,2038,-0.71058021913182,-13.2678651211501,0.0142625655109896,0.000981,0.000851,-0.005707,0.063435,0.004483,330.698554,23.574984,0.998865,0.979547,0.005581,0.297531,-0.000019,-0.000025,-0.000019,-0.000003,-0.000041,-41.067251,0.000049,
2251,2158,-0.0767166099169962,-10.6374169290039,0.0149033006733816,0.000740,0.000939,-0.007192,0.057733,0.006872,328.707088,23.566213,0.998279,0.982923,0.005295,0.322001,-0.000024,-0.000020,-0.000009,-0.000013,-0.000032,-51.391349,0.000046,
2356,2668,2.11533251942649,0.511999003694193,-0.0246251328165386,0.000565,0.000259,-0.003425,0.038078,0.000909,320.018575,24.281459,0.999430,0.990263,0.004134,0.403557,-0.000029,0.000002,-0.000006,0.000003,-0.000030,-79.162900,0.000033,
2431,3118,3.66258252038916,10.3038755843476,0.00260750624255479,0.001239,0.000253,-0.003140,0.068785,0.017264,312.992068,25.808955,0.999789,0.995814,0.002983,0.346473,-0.000002,0.000005,0.000010,0.000012,-0.000008,54.811234,0.000012,
2041,2623,-4.72684626765809,-0.478231431947421,-0.0321993422662104,0.001241,0.000949,-0.008475,0.080959,0.002033,321.642478,24.450258,0.998851,0.988974,0.004398,0.387733,-0.000014,-0.000037,-0.000010,-0.000010,-0.000041,-20.154389,0.000054,
2146,3013,-2.5077457757264,8.00303125080383,0.00377321478441672,0.001001,0.000625,-0.007172,0.068158,0.015616,315.074511,24.611045,0.999252,0.991895,0.003875,0.352114,-0.000013,-0.000011,-0.000001,-0.000011,-0.000014,-63.317073,0.000025,
2131,2938,-2.82121901826393,6.3740992734626,-0.00289475408305861,0.001111,0.000179,-0.005684,0.068308,0.000065,316.303078,24.544593,0.999583,0.993016,0.003603,0.333494,-0.000011,-0.000014,0.000002,-0.000010,-0.000015,28.123982,0.000025,
2236,2083,-0.391760265651552,-12.2809789825655,0.0197289995460892,0.000043,0.000355,-0.001491,0.006899,0.006064,329.931504,23.613551,0.999259,0.983204,0.005216,0.234860,-0.000029,-0.000005,-0.000008,-0.000002,-0.000031,-73.317774,0.000038,
2026,2608,-5.05128041370977,-0.803902693240317,-0.0384393921380024,0.001173,0.000212,-0.001265,0.057577,0.018838,321.900273,24.534090,0.998922,0.988814,0.004457,0.342486,-0.000003,-0.000009,0.000001,-0.000003,-0.000009,5.170750,0.000013,
2416,2983,3.36165120292033,7.36993575221303,-0.00875197460453592,0.000811,0.000251,-0.002390,0.046180,0.007808,315.064389,25.246097,0.999832,0.994743,0.003193,0.418498,-0.000032,-0.000010,0.000009,-0.000007,-0.000035,69.804397,0.000045,
2476,1993,4.87345438055094,-14.265407170796,0.0389183481514124,0.001261,0.000986,-0.003917,0.072801,0.044754,331.677008,21.718706,0.998264,0.973089,0.006396,0.317012,0.000064,-0.000157,0.000079,0.000090,-0.000183,17.810032,0.000183,
2191,3238,-1.56803450925493,12.8823433398085,0.039167889425471,0.000875,-0.000168,-0.002867,0.049309,-0.010447,311.514931,24.869450,0.999746,0.995499,0.002907,0.401844,-0.000013,0.000006,-0.000015,0.000014,-0.000021,-61.297110,0.000022,
2326,2503,1.49316018548156,-3.08820516903834,-0.0152482891069781,0.000486,0.000000,0.000866,0.019356,0.021066,322.760773,23.968188,0.999240,0.989148,0.004142,0.362771,-0.000015,-0.000025,0.000008,-0.000011,-0.000029,29.711359,0.000042,
2296,2338,0.871073196666256,-6.69519131025017,-0.00702618802444022,0.001119,0.000261,-0.002228,0.058941,0.013702,325.560326,23.658275,0.999305,0.986288,0.004659,0.380416,-0.000031,-0.000028,-0.000008,-0.000022,-0.000038,-50.588722,0.000061,
2446,3133,3.98607475225931,10.6296129161351,0.0149572977600201,0.000744,0.000061,-0.001404,0.039539,0.010652,312.845672,25.894786,0.999501,0.989920,0.004007,0.364885,0.000002,-0.000005,0.000014,0.000013,-0.000015,37.704164,0.000016,
2086,2773,-3.77302421430956,2.7879212358871,-0.0294522503151597,0.001273,0.000282,-0.003488,0.068842,0.017110,318.974319,24.430440,0.999519,0.992121,0.003798,0.378204,-0.000024,-0.000018,-0.000004,-0.000016,-0.000026,-63.722655,0.000042,
2101,2818,-3.454690295469,3.76664193112219,-0.0269703947460584,0.001026,0.000255,-0.002680,0.055176,-0.003465,318.176612,24.443866,0.999225,0.993234,0.003635,0.356840,-0.000025,-0.000006,-0.000004,-0.000005,-0.000026,-79.137761,0.000033,
2011,2548,-5.36706848162985,-2.11382611362137,-0.0223340078395609,0.001153,0.000689,-0.003924,0.063916,0.022503,323.106469,24.507918,0.999387,0.990270,0.003889,0.431247,0.000002,-0.000036,0.000012,0.000005,-0.000039,15.669514,0.000042,
2161,3103,-2.19670469940869,9.95519807176037,0.0196482379184886,0.000853,0.000445,-0.005097,0.055107,0.002332,313.668138,24.678536,0.999553,0.994644,0.003147,0.370706,-0.000013,-0.000020,-0.000007,-0.000008,-0.000024,-32.922127,0.000034,
2056,2683,-4.40993141289998,0.827756857113883,-0.0222590123628379,0.000992,0.000886,-0.007816,0.068009,0.014882,320.654413,24.419468,0.999293,0.992737,0.003726,0.398963,-0.000012,-0.000035,0.000007,-0.000010,-0.000037,14.765552,0.000049,
2281,2293,0.552029217388771,-7.6796336785025,-0.00540027004268495,0.000814,0.000314,-0.003420,0.048846,-0.007705,326.307064,23.658849,0.999410,0.986568,0.004753,0.324389,-0.000028,-0.000029,-0.000009,-0.000019,-0.000038,-42.764796,0.000058,
2266,2278,0.228205501683828,-8.00828237437377,-0.000740650446459767,0.000965,0.000680,-0.004684,0.059948,0.007120,326.619698,23.685461,0.999463,0.987783,0.004603,0.346264,-0.000019,-0.000031,-0.000011,-0.000012,-0.000038,-30.121670,0.000052,
2041,2638,-4.729506327982,-0.152087202566946,-0.0254368980018285,0.000804,0.000688,-0.002697,0.044748,0.016919,321.420174,24.441870,0.999074,0.990752,0.004116,0.403778,-0.000012,-0.000037,-0.000011,-0.000008,-0.000041,-20.371170,0.000053,
2116,2878,-3.13862881755993,5.07009561341662,-0.0170533646548847,0.000637,0.000000,-0.001216,0.032944,-0.009275,317.192283,24.429102,0.999538,0.993249,0.003537,0.394437,-0.000017,0.000005,-0.000010,0.000008,-0.000021,-69.206274,0.000021,
2341,2548,1.81218838448888,-2.10627414118898,-0.0157086334321548,0.000856,0.000220,-0.002847,0.049311,0.017049,322.053444,23.989734,0.998758,0.984695,0.004939,0.419239,-0.000017,-0.000027,0.000000,-0.000017,-0.000027,2.608172,0.000044,
2176,3133,-1.87590171212532,10.6069312090045,0.0258043911757113,0.000887,0.000426,-0.006487,0.061280,0.018490,313.181721,24.777090,0.999355,0.994031,0.003520,0.368483,-0.000022,-0.000008,-0.000005,-0.000006,-0.000024,-72.034435,0.000031,
2221,2053,-0.714063242239018,-12.938618436751,0.011342626328144,0.000425,0.000285,-0.003486,0.030694,-0.014790,330.400751,23.597514,0.998836,0.978870,0.005640,0.278507,-0.000023,-0.000027,-0.000016,-0.000010,-0.000041,-41.478016,0.000054,
2071,2698,-4.08758738909041,1.15508632228396,-0.0287916087571602,0.000653,0.000158,-0.002217,0.036484,0.008877,320.242836,24.394499,0.999321,0.993120,0.003542,0.411614,-0.000009,-0.000030,0.000009,-0.000005,-0.000034,20.410650,0.000042,
2476,2008,4.86900735485129,-13.9342095610032,0.0225194474457453,0.001010,0.001302,-0.006856,0.072614,0.026470,331.298242,21.748942,0.998947,0.977416,0.005813,0.329393,0.000057,-0.000123,0.000056,0.000073,-0.000138,15.862860,0.000138,
2026,2623,-5.05276654519818,-0.478199014845252,-0.0338711151464395,0.001336,0.000754,-0.006728,0.080206,0.000911,321.718717,24.495070,0.998969,0.988814,0.004483,0.354170,-0.000012,-0.000030,-0.000007,-0.000010,-0.000032,-18.643852,0.000044,
2356,2683,2.11232361277464,0.840317730052696,-0.0300842559402099,0.000802,0.000530,-0.003704,0.050098,0.012015,319.740343,24.393103,0.999500,0.990900,0.003887,0.342167,-0.000029,0.000006,-0.000004,0.000007,-0.000030,-83.784057,0.000031,
2401,2908,3.0489264831845,5.73991905325921,-0.0164596304251745,0.000532,-0.000090,0.000190,0.023730,-0.006788,316.185938,25.092046,0.999546,0.992031,0.003668,0.293131,-0.000047,-0.000014,-0.000010,-0.000011,-0.000050,-74.206192,0.000065,
2146,3028,-2.51026130626713,8.32796592480673,0.00602167813866572,0.001034,0.000302,-0.004326,0.060879,0.002923,314.841757,24.589591,0.999353,0.992308,0.003721,0.367848,-0.000012,-0.000014,0.000000,-0.000012,-0.000014,-3.391730,0.000026,
2386,2788,2.74490752200112,3.12851992289031,-0.0298677177827926,0.000621,0.000096,-0.000847,0.031588,-0.002863,318.026746,24.679674,0.999614,0.992604,0.003626,0.336216,-0.000047,-0.000012,-0.000014,-0.000008,-0.000052,-71.061767,0.000065,
2431,3133,3.65994713135722,10.6286998190366,0.00708122871998285,0.001095,0.000378,-0.004581,0.067547,0.021935,312.782770,25.805096,0.999676,0.993911,0.003269,0.403948,-0.000002,-0.000003,0.000010,0.000007,-0.000013,42.921220,0.000013,
2251,2173,-0.0800740603912438,-10.3088015015363,0.00947730564269023,0.000546,0.000285,-0.005182,0.042044,-0.000848,328.404934,23.538233,0.999026,0.985835,0.004883,0.368628,-0.000021,-0.000016,-0.000004,-0.000013,-0.000023,-60.130005,0.000037,
2311,2428,1.18106998898714,-4.7270828370313,-0.0119933932480762,0.000860,0.000515,-0.003251,0.050737,0.013374,324.042636,23.816128,0.999616,0.990697,0.004024,0.370474,-0.000017,-0.000031,-0.000005,-0.000016,-0.000033,-17.539219,0.000050,
2086,2788,-3.77524904677703,3.11333236569126,-0.0273155960210829,0.001174,0.000506,-0.005359,0.069735,0.014572,318.749934,24.377535,0.999336,0.991537,0.003874,0.427375,-0.000027,-0.000016,-0.000009,-0.000010,-0.000032,-60.221187,0.000044,
2101,2833,-3.45705758671119,4.09240731332171,-0.0243670381109951,0.001056,-0.000132,-0.000334,0.049579,-0.004483,317.949183,24.438355,0.999582,0.994415,0.003249,0.362365,-0.000026,-0.000002,-0.000006,-0.000001,-0.000027,-76.466333,0.000032,
2296,2353,0.86891158958802,-6.36842658516237,0.00339365805893976,0.000912,0.000247,-0.002133,0.049126,0.004949,325.395402,23.685772,0.999596,0.989926,0.004010,0.375690,-0.000032,-0.000015,-0.000007,-0.000012,-0.000034,-69.652350,0.000048,
2371,2743,2.42752159274326,2.14763193138185,-0.0328218454327498,0.001053,0.000138,-0.004171,0.063224,-0.018662,318.758716,24.515629,0.999438,0.991175,0.003735,0.350087,-0.000045,-0.000008,-0.000007,-0.000007,-0.000046,-80.250569,0.000058,
2236,2098,-0.39374393681037,-11.9530462431915,0.0214272868433909,0.000502,0.000229,-0.001858,0.029083,0.000807,329.727084,23.569394,0.999129,0.982258,0.005383,0.297818,-0.000029,0.000003,-0.000005,0.000004,-0.000029,-81.026675,0.000032,
2056,2698,-4.41262908514741,1.15458948395604,-0.0272764305523197,0.001030,0.000740,-0.006095,0.064839,0.016179,320.366324,24.407606,0.999286,0.992388,0.003679,0.407179,-0.000005,-0.000032,0.000010,-0.000002,-0.000035,18.440453,0.000042,
2041,2653,-4.7321533765368,0.175503466648884,-0.0398537428013697,0.001146,0.000628,-0.005606,0.068553,-0.002424,321.080787,24.426357,0.999203,0.991214,0.003993,0.393311,-0.000017,-0.000023,-0.000015,-0.000005,-0.000035,-40.160382,0.000044,
2191,3253,-1.57159681110079,13.2081480276262,0.0316676415637858,0.000743,0.000045,0.001710,0.028935,0.010256,311.185625,24.895098,0.999675,0.994896,0.003042,0.409998,-0.000011,0.000010,-0.000011,0.000014,-0.000016,-66.867009,0.000017,
2131,2953,-2.82406015479779,6.69934049387542,4.03035206772984E-05,0.000834,0.000291,-0.001370,0.042673,0.016655,316.057908,24.507359,0.999604,0.993265,0.003402,0.392564,-0.000013,-0.000016,-0.000002,-0.000012,-0.000017,-25.087143,0.000029,
2446,3148,3.98342141772994,10.9551442475563,0.0189994961939419,0.000580,0.000536,-0.003545,0.040222,0.025650,312.634171,25.946099,0.999513,0.991734,0.003673,0.379663,-0.000001,-0.000014,0.000011,0.000005,-0.000020,28.767075,0.000021,
2161,3118,-2.19888179504332,10.2808010989723,0.0204223803478953,0.001018,0.000539,-0.007327,0.069647,0.008085,313.443854,24.713248,0.999518,0.994316,0.003255,0.350862,-0.000014,-0.000015,-0.000008,-0.000007,-0.000023,-43.371008,0.000031,
2416,2998,3.35909233463929,7.69577128454256,-0.00546917588940232,0.001030,-0.000210,-0.001261,0.051838,-0.022745,314.852427,25.329749,0.999538,0.990124,0.003888,0.351070,-0.000030,-0.000008,0.000011,-0.000003,-0.000034,67.205296,0.000041,
2476,2023,4.86572573731802,-13.6037463078406,0.0228153421292063,0.000781,0.001529,-0.006864,0.062304,0.036135,331.048029,21.880795,0.999317,0.982431,0.005235,0.267575,0.000046,-0.000091,0.000051,0.000063,-0.000107,18.343936,0.000108,
2266,2293,0.225578759439657,-7.67973848801901,-0.00446943612428186,0.001161,0.000767,-0.006237,0.074110,0.015585,326.360568,23.697891,0.999344,0.985598,0.004933,0.370204,-0.000023,-0.000030,-0.000010,-0.000016,-0.000037,-36.097737,0.000054,
2011,2563,-5.36938803935216,-1.78732292849677,-0.0197721059819287,0.001039,0.000028,-0.001648,0.052329,0.014578,322.874178,24.495672,0.999242,0.989483,0.004099,0.424748,0.000001,-0.000032,-0.000001,0.000001,-0.000032,-1.245415,0.000037,
2116,2893,-3.14156643735191,5.39686288870303,-0.0215589217125967,0.000555,0.000149,0.000594,0.023878,0.013161,316.901135,24.456862,0.999415,0.993109,0.003783,0.392158,-0.000018,0.000001,-0.000007,0.000003,-0.000021,-72.603131,0.000022,
2281,2308,0.549771514747079,-7.35187910363441,0.000653539086954424,0.000716,0.000556,-0.004626,0.048496,0.015563,326.114916,23.687919,0.999312,0.984657,0.005069,0.348021,-0.000032,-0.000037,-0.000005,-0.000028,-0.000041,-32.067449,0.000069,
2146,3043,-2.51295369859851,8.65353961194536,0.0040713524257967,0.000977,0.000129,-0.004400,0.058465,0.002615,314.578322,24.590792,0.999437,0.994120,0.003200,0.373445,-0.000013,-0.000022,-0.000003,-0.000012,-0.000023,-17.549696,0.000036,
2326,2518,1.49036428630557,-2.76043676271778,-0.02133335296719,0.000630,0.000306,-0.003150,0.039897,0.002054,322.487375,23.996501,0.999191,0.987711,0.004336,0.351115,-0.000013,-0.000031,0.000008,-0.000010,-0.000034,20.672062,0.000046,
2026,2638,-5.05512888114313,-0.153090053644917,-0.0220869817426887,0.000671,0.000672,-0.004218,0.042659,0.008582,321.537431,24.441163,0.999202,0.991552,0.003928,0.406435,-0.000016,-0.000033,-0.000009,-0.000012,-0.000037,-24.529392,0.000051,
2176,3148,-1.87915035032084,10.9321231241384,0.0229770023328797,0.000734,0.000075,-0.001555,0.038685,0.000218,312.890468,24.783740,0.999392,0.994186,0.003451,0.354540,-0.000022,-0.000003,-0.000006,-0.000002,-0.000023,-73.623101,0.000028,
2401,2923,3.0462968690394,6.06504482034921,-0.0113763623216983,0.000385,0.000051,-0.000209,0.018480,0.003759,315.978685,25.062745,0.999496,0.992111,0.003696,0.377907,-0.000043,-0.000022,-0.000008,-0.000019,-0.000046,-71.423691,0.000067,
2221,2068,-0.716346627509946,-12.6088527871877,0.012204732777036,0.000645,0.000868,-0.003515,0.041086,0.024023,330.176679,23.656973,0.998861,0.979222,0.005635,0.280169,-0.000026,-0.000017,-0.000008,-0.000012,-0.000031,-59.453647,0.000044,
2041,2668,-4.73387582083349,0.500887357098669,-0.0306016571046257,0.001173,0.000247,-0.005200,0.068548,-0.015178,320.915537,24.405137,0.999237,0.990202,0.004164,0.394259,-0.000019,-0.000034,-0.000005,-0.000017,-0.000035,-17.992290,0.000053,
2251,2188,-0.0828650399616393,-9.97752170077959,0.00131280572867354,0.000919,0.000599,-0.006121,0.062335,-0.000309,328.114424,23.722291,0.999501,0.990100,0.004306,0.211418,-0.000028,-0.000007,-0.000006,-0.000006,-0.000030,-74.042697,0.000038,
2056,2713,-4.41534095012304,1.48165456886429,-0.032384771075499,0.000997,0.000561,-0.005434,0.061387,0.005042,320.077046,24.433954,0.999154,0.991343,0.003783,0.364579,-0.000002,-0.000019,0.000012,0.000005,-0.000025,27.253393,0.000027,
2071,2713,-4.090187440963,1.48270602737857,-0.0362408140160255,0.000921,0.000443,-0.001349,0.046430,0.020189,319.946956,24.430815,0.999248,0.991899,0.003725,0.383819,-0.000005,-0.000019,0.000011,0.000001,-0.000025,28.785942,0.000028,
2386,2803,2.74181501306404,3.45485489270516,-0.0351412094436228,0.000806,0.000043,-0.001239,0.041497,0.001126,317.748204,24.657557,0.999852,0.995569,0.003209,0.405725,-0.000048,-0.000020,-0.000013,-0.000015,-0.000053,-68.056158,0.000071,
2431,3148,3.65674925780183,10.9545347944241,0.00265066877312847,0.001084,0.000205,-0.006369,0.073510,-0.013244,312.505694,25.883510,0.999600,0.993988,0.003250,0.338869,-0.000004,-0.000012,0.000006,-0.000001,-0.000015,29.173652,0.000018,
2476,2038,4.86287232140776,-13.2755979500762,0.0248555911236394,0.000910,0.001253,-0.005755,0.063901,0.021250,330.825490,21.851078,0.999326,0.980644,0.005530,0.342263,0.000031,-0.000073,0.000058,0.000056,-0.000099,24.110373,0.000099,
2311,2443,1.1785854906792,-4.40140964549627,-0.00288746790056393,0.000588,-0.000110,-0.001292,0.031363,-0.007161,323.857367,23.769309,0.999507,0.989705,0.004220,0.430152,-0.000017,-0.000036,-0.000001,-0.000017,-0.000036,-2.858655,0.000054,
2191,3268,-1.57501598065054,13.5337506193826,0.0149824677691868,0.000776,0.000216,-0.002589,0.043967,-0.006822,310.814964,24.893888,0.999479,0.992820,0.003470,0.407044,-0.000007,0.000011,-0.000010,0.000015,-0.000011,-66.340443,0.000016,
2341,2563,1.80877859099319,-1.77847527629359,-0.0162066306183419,0.000468,-0.000094,-0.000657,0.023770,0.001654,321.780172,24.082463,0.998934,0.986841,0.004622,0.348559,-0.000020,-0.000018,0.000000,-0.000018,-0.000020,-89.617879,0.000038,
2101,2848,-3.45964137469841,4.41858713821846,-0.0270486179708769,0.000896,0.000753,-0.002822,0.049862,0.044036,317.683004,24.386085,0.999778,0.995126,0.002975,0.464197,-0.000023,-0.000003,-0.000010,0.000002,-0.000027,-67.131604,0.000031,
2296,2368,0.866192333318192,-6.04092877596899,0.00442700709868404,0.000656,0.000565,-0.004573,0.045701,-0.000285,325.158361,23.689352,0.999302,0.987156,0.004553,0.398466,-0.000030,-0.000022,-0.000012,-0.000013,-0.000039,-54.933510,0.000054,
2086,2803,-3.77789720212943,3.43959478507127,-0.0239182557453432,0.000749,0.000279,-0.004538,0.047712,0.005979,318.512772,24.422651,0.999179,0.991540,0.003880,0.372651,-0.000025,-0.000012,-0.000006,-0.000010,-0.000028,-69.024091,0.000039,
2356,2698,2.10982037138939,1.16547413703293,-0.0255695087268464,0.000878,0.000028,-0.002525,0.049225,-0.004997,319.534119,24.329307,0.999518,0.991992,0.003680,0.428120,-0.000026,0.000003,-0.000002,0.000003,-0.000026,-86.400790,0.000029,
2026,2653,-5.05782387172216,0.17435935846769,-0.0336761000609158,0.000860,0.000531,-0.005463,0.054758,0.006061,321.209963,24.419077,0.999270,0.992344,0.003707,0.416900,-0.000027,-0.000021,-0.000016,-0.000008,-0.000040,-50.345130,0.000051,
2011,2578,-5.37241818245932,-1.45994620683661,-0.0268495548655778,0.000436,0.000320,-0.005297,0.034539,0.012154,322.555094,24.478331,0.998930,0.988271,0.004579,0.428621,-0.000002,-0.000035,-0.000007,-0.000001,-0.000037,-12.155818,0.000043,
2236,2113,-0.396422131836285,-11.6257764991042,0.0217950010720642,0.000444,-0.000260,-0.001027,0.023553,-0.027243,329.484348,23.478317,0.999200,0.982834,0.005267,0.385261,-0.000027,0.000002,-0.000005,0.000003,-0.000028,-79.957463,0.000030,
2446,3163,3.98092665412719,11.280761610803,0.0239024008808428,0.000747,0.000507,-0.002750,0.044907,0.023450,312.433867,26.031007,0.999551,0.992294,0.003710,0.343489,0.000004,-0.000006,0.000006,0.000007,-0.000009,25.403203,0.000010,
2371,2758,2.42434127007063,2.47512857785441,-0.0344181666393411,0.000906,0.000446,-0.003700,0.054886,-0.008767,318.492302,24.609002,0.999063,0.988138,0.004139,0.307936,-0.000044,-0.000004,-0.000006,-0.000003,-0.000045,-81.966636,0.000054,
2116,2908,-3.14294956747809,5.72227966772186,-0.0117365974054451,0.000853,0.000300,-0.001421,0.043650,0.021803,316.758834,24.482001,0.999279,0.991875,0.003901,0.378584,-0.000016,-0.000013,-0.000008,-0.000007,-0.000023,-50.131111,0.000031,
2131,2968,-2.8263268859605,7.02551631989983,-0.00164404121306916,0.000979,0.000503,-0.004084,0.057569,0.016068,315.814104,24.544896,0.999743,0.995120,0.002919,0.359446,-0.000013,-0.000015,-0.000005,-0.000009,-0.000019,-37.522633,0.000029,
2416,3013,3.35589304138766,8.02230626990379,-0.00384159842838017,0.000659,0.000107,-0.001142,0.034553,0.007173,314.602888,25.410093,0.999441,0.988256,0.004078,0.347521,-0.000029,-0.000008,0.000009,-0.000005,-0.000032,69.770301,0.000040,
2266,2308,0.223035534590654,-7.3517904575311,-0.00128137154331398,0.000858,0.001110,-0.008899,0.069117,0.031678,326.139948,23.722958,0.999028,0.983648,0.005212,0.388802,-0.000027,-0.000038,-0.000007,-0.000024,-0.000041,-25.857120,0.000066,
2071,2728,-4.09180964555644,1.80860417128537,-0.0329354200267176,0.001293,0.000546,-0.003714,0.070332,0.017770,319.755309,24.414687,0.999185,0.991002,0.003900,0.394419,-0.000011,-0.000018,0.000008,-0.000005,-0.000023,33.236147,0.000030,
2161,3133,-2.20157458414867,10.6056172118421,0.0223040574235256,0.000934,0.000293,-0.004482,0.056935,0.005748,313.202020,24.694250,0.999414,0.993977,0.003464,0.376543,-0.000017,-0.000009,-0.000009,-0.000003,-0.000023,-55.888176,0.000029,
2281,2323,0.547086991450005,-7.02379508681698,-0.000259811057730985,0.000776,0.000445,-0.004862,0.051970,-0.003841,325.868647,23.724943,0.999108,0.984203,0.005130,0.321587,-0.000031,-0.000036,-0.000002,-0.000030,-0.000037,-19.870042,0.000067,
2476,2053,4.85933741471807,-12.9467241967301,0.0258330416542663,0.000777,0.000012,-0.000847,0.038756,-0.026568,330.566990,21.913921,0.999388,0.983361,0.005198,0.291674,0.000024,-0.000068,0.000052,0.000048,-0.000092,24.385220,0.000092,
2146,3058,-2.51509285360578,8.97853465647631,0.00886113527178622,0.000962,0.000234,-0.005465,0.060963,-0.009756,314.376335,24.598766,0.999537,0.994952,0.003189,0.360026,-0.000011,-0.000021,-0.000007,-0.000007,-0.000025,-27.454522,0.000034,
2011,2593,-5.37451408592452,-1.1329344951217,-0.0243593934872592,0.000655,0.000218,-0.001311,0.033806,0.018584,322.332481,24.507095,0.998950,0.988197,0.004747,0.394893,-0.000007,-0.000013,-0.000003,-0.000006,-0.000014,-25.148450,0.000021,
2191,3283,-1.57723483025623,13.8586360443202,0.0171260739338095,0.000899,0.000081,-0.004316,0.055046,-0.007433,310.598090,24.918504,0.999589,0.995332,0.002983,0.394845,-0.000009,0.000008,-0.000006,0.000010,-0.000011,-71.679235,0.000013,
2041,2683,-4.73681823764821,0.828131740904723,-0.0347669506030002,0.000913,0.000262,-0.002956,0.050366,-0.000704,320.619467,24.420296,0.999335,0.992054,0.003834,0.386600,-0.000013,-0.000042,-0.000001,-0.000013,-0.000042,-1.106277,0.000057,
2431,3163,3.65418631787741,11.2797737661327,0.0136437615699379,0.000930,0.000201,-0.002340,0.051566,0.007220,312.329844,25.948467,0.999609,0.993422,0.003369,0.343046,-0.000001,-0.000006,0.000002,0.000000,-0.000006,18.406091,0.000008,
2386,2818,2.73940998709819,3.78139231741712,-0.0327435092522705,0.001095,0.000064,-0.001413,0.055434,-0.001085,317.537619,24.723758,0.999692,0.992516,0.003691,0.380440,-0.000051,-0.000023,-0.000016,-0.000016,-0.000058,-66.020913,0.000079,
2326,2533,1.48761587708654,-2.43313294824699,-0.02302965370518,0.000743,0.000491,-0.003803,0.047417,0.016016,322.237500,23.994245,0.999260,0.988011,0.004306,0.402815,-0.000012,-0.000038,0.000001,-0.000012,-0.000038,2.694957,0.000052,
2446,3178,3.97799668794901,11.6067651870051,0.0215669489688821,0.000988,0.000543,-0.002972,0.056826,0.028063,312.179829,26.105008,0.999615,0.992603,0.003518,0.324905,0.000004,-0.000007,0.000003,0.000005,-0.000008,15.637448,0.000008,
2251,2203,-0.085141887948943,-9.65071808863287,-0.0010544598086426,0.001306,0.000929,-0.007786,0.085635,0.003373,327.877266,23.561647,0.999072,0.985657,0.004911,0.401790,-0.000030,-0.000008,-0.000008,-0.000005,-0.000033,-71.691658,0.000041,
2221,2083,-0.718997845017704,-12.2804841922256,0.0115342951121988,0.000552,0.000404,-0.004269,0.039073,0.001244,329.928461,23.639065,0.998977,0.981034,0.005482,0.297358,-0.000027,-0.000017,-0.000009,-0.000012,-0.000032,-59.017653,0.000046,
2071,2743,-4.09408659059615,2.13399680385891,-0.0266935651503104,0.001059,0.000297,-0.002374,0.055642,0.004442,319.549952,24.390557,0.999381,0.991796,0.003741,0.402098,-0.000022,-0.000022,0.000003,-0.000018,-0.000025,44.903602,0.000043,
2056,2728,-4.41752449547415,1.80818780084481,-0.0364330983949799,0.001375,0.000360,-0.005622,0.079252,-0.009004,319.817972,24.428093,0.999273,0.991660,0.003737,0.351536,-0.000008,-0.000016,0.000009,-0.000002,-0.000021,32.783930,0.000026,
2296,2383,0.86299553591958,-5.71087926414441,-0.009102157738198,0.000890,0.000719,-0.008703,0.070436,-0.012844,324.826979,23.798294,0.998953,0.984218,0.005156,0.309181,-0.000026,-0.000025,-0.000008,-0.000017,-0.000033,-46.791975,0.000051,
2086,2818,-3.78004167596086,3.76603126782463,-0.0224295464263378,0.000956,0.000612,-0.003589,0.054655,0.030170,318.288186,24.440411,0.999345,0.993079,0.003602,0.377902,-0.000027,-0.000004,-0.000004,-0.000004,-0.000028,-79.270629,0.000034,
2026,2668,-5.05977664587985,0.500032144315256,-0.0321512326724473,0.001146,0.000129,-0.004300,0.064610,-0.012252,320.990173,24.364941,0.999279,0.991684,0.003768,0.443504,-0.000024,-0.000032,-0.000010,-0.000018,-0.000039,-34.462520,0.000058,
2176,3163,-1.88134232785622,11.2568589088522,0.0315173250441489,0.000586,-0.000147,-0.000788,0.029450,-0.003579,312.707617,24.806326,0.999796,0.996905,0.002743,0.339135,-0.000019,-0.000002,-0.000006,0.000000,-0.000021,-71.527000,0.000024,
2116,2923,-3.14507548821701,6.04752716835809,-0.00849035153623845,0.000773,0.000407,-0.004366,0.048745,0.014466,316.547178,24.463619,0.998973,0.990964,0.004077,0.392497,-0.000014,-0.000015,-0.000002,-0.000013,-0.000017,-33.434345,0.000030,
2101,2863,-3.46122722790284,4.74416516307417,-0.0178969144058101,0.001132,0.000414,-0.003000,0.061094,0.015994,317.526977,24.446941,0.999587,0.993541,0.003428,0.376164,-0.000019,-0.000003,-0.000009,0.000001,-0.000024,-65.617760,0.000027,
2401,2938,3.04370323659287,6.39059819849338,-0.00608450601345112,0.000385,0.000149,0.000971,0.014264,0.018247,315.773899,25.073843,0.999523,0.992277,0.003670,0.426154,-0.000037,-0.000017,-0.000006,-0.000015,-0.000039,-73.800197,0.000056,
2236,2128,-0.399047198226004,-11.2940914802328,0.0144202633702548,0.000656,0.000768,-0.005215,0.047182,0.004768,329.203822,23.651564,0.998736,0.982346,0.005339,0.268259,-0.000026,-0.000002,-0.000007,0.000000,-0.000028,-75.260217,0.000032,
2191,3298,-1.58113284997252,14.1852269775926,-0.00274735189123021,0.000997,-0.000006,-0.003933,0.058325,-0.015226,310.188269,24.992886,0.999770,0.996888,0.002577,0.325380,-0.000008,0.000022,-0.000013,0.000027,-0.000013,-69.231746,0.000027,
2341,2578,1.80596286454533,-1.45095317517414,-0.0197754345166459,0.000495,0.000624,-0.003795,0.036220,0.025344,321.519163,24.088685,0.999039,0.987268,0.004410,0.403532,-0.000018,-0.000013,0.000001,-0.000012,-0.000019,76.382412,0.000031,
2356,2713,2.10678098345734,1.4934907688702,-0.0258756605696817,0.000838,0.000230,-0.000863,0.041651,0.010696,319.279243,24.460442,0.999528,0.992482,0.003528,0.351948,-0.000027,-0.000003,-0.000003,-0.000003,-0.000028,-82.321201,0.000034,
2266,2323,0.220252031644112,-7.02314911424766,0.00163000201592922,0.000915,0.000645,-0.003664,0.054307,0.024367,325.906888,23.836732,0.998786,0.981910,0.005533,0.295252,-0.000027,-0.000036,-0.000005,-0.000024,-0.000038,-24.257645,0.000063,
2371,2773,2.42185116564606,2.80094432702071,-0.0273721941750864,0.000862,0.000345,-0.002060,0.047063,0.013720,318.299285,24.607603,0.999420,0.991328,0.003714,0.372631,-0.000046,-0.000011,-0.000010,-0.000009,-0.000048,-75.316693,0.000061,
2041,2698,-4.7392082396748,1.15488705392188,-0.0334133103411887,0.000781,0.000392,-0.002192,0.042222,0.013717,320.379435,24.440819,0.999375,0.992351,0.003665,0.373268,-0.000006,-0.000036,0.000003,-0.000006,-0.000036,5.707937,0.000046,
2416,3028,3.3525505572451,8.34835041367245,-0.005146298124032,0.000449,0.000187,-0.000145,0.021295,0.019967,314.333094,25.446749,0.999524,0.989803,0.003942,0.370569,-0.000027,-0.000010,0.000007,-0.000007,-0.000029,71.038695,0.000039,
2311,2458,1.17515709629765,-4.07242988806142,-0.0136827686276888,0.000621,0.000097,-0.002704,0.037764,0.000273,323.530310,23.816204,0.999419,0.989019,0.004366,0.424424,-0.000020,-0.000026,0.000003,-0.000019,-0.000028,23.579654,0.000047,
2476,2068,4.85678140699498,-12.6175851733309,0.0282831414156135,0.000944,0.000146,-0.002553,0.052864,-0.015076,330.359583,21.963163,0.999321,0.980846,0.005531,0.313736,0.000019,-0.000058,0.000045,0.000040,-0.000079,24.799341,0.000079,
2011,2608,-5.37772797424301,-0.803997262767354,-0.0410154980137918,0.000667,0.000375,-0.001216,0.034127,0.006274,321.950857,24.571040,0.999537,0.992285,0.003795,0.307712,-0.000013,-0.000017,-0.000005,-0.000010,-0.000020,-32.330885,0.000031,
2431,3178,3.65170135293569,11.6042992534779,0.022507098276435,0.000799,0.000041,-0.001095,0.040871,0.002282,312.147843,25.962627,0.999629,0.993055,0.003365,0.372586,0.000001,-0.000006,0.000000,0.000001,-0.000006,-0.728482,0.000006,
2161,3148,-2.20481428503569,10.9311825826671,0.0174810158282526,0.000584,0.000311,-0.004165,0.039828,0.000520,312.899335,24.710123,0.999339,0.993199,0.003684,0.364149,-0.000017,-0.000006,-0.000010,0.000000,-0.000023,-59.668759,0.000026,
2131,2983,-2.82878237087436,7.35100152977618,-0.00335211396145496,0.001121,0.000657,-0.003984,0.063846,0.023021,315.561728,24.515673,0.999722,0.995088,0.002982,0.400526,-0.000015,-0.000019,-0.000005,-0.000011,-0.000023,-34.885993,0.000034,
2386,2833,2.73629003100385,4.10858787966778,-0.034738546186702,0.000821,0.000429,-0.004082,0.052545,0.002608,317.273044,24.815595,0.999567,0.989055,0.004136,0.335466,-0.000052,-0.000016,-0.000014,-0.000011,-0.000057,-71.208727,0.000073,
2071,2758,-4.09658563159885,2.46065131877974,-0.0315915405797682,0.001130,0.000239,-0.003799,0.063000,0.003244,319.273006,24.385842,0.999459,0.992558,0.003633,0.402604,-0.000021,-0.000024,-0.000001,-0.000021,-0.000024,-15.458638,0.000045,
2026,2683,-5.06322634050074,0.829014707129488,-0.0468246180042229,0.001059,-0.000046,-0.000821,0.051013,-0.001593,320.610458,24.456505,0.999770,0.996258,0.002885,0.353528,-0.000017,-0.000047,-0.000005,-0.000016,-0.000048,-9.182117,0.000067,
2146,3073,-2.5179114901662,9.30441468165406,0.00336484644469692,0.001187,0.000109,-0.002969,0.063759,-0.004499,314.088117,24.607979,0.999677,0.996731,0.002821,0.363009,-0.000010,-0.000019,-0.000009,-0.000005,-0.000024,-32.426897,0.000031,
2206,1993,-1.02983602250771,-14.2555183621247,0.018765041177403,0.001093,0.001333,-0.007670,0.074752,0.015755,331.506605,23.616456,0.999367,0.985119,0.004872,0.305369,-0.000006,-0.000051,-0.000033,0.000011,-0.000068,-27.791297,0.000073,
2056,2743,-4.42080805193207,2.13379153166031,-0.0332156279912965,0.000509,-0.000030,-0.000862,0.025873,-0.006132,319.548812,24.383206,0.999436,0.992144,0.003662,0.393877,-0.000019,-0.000018,0.000004,-0.000015,-0.000023,49.800415,0.000038,
2446,3193,3.97525558639304,11.9315104871442,0.0262162446014713,0.000787,0.000419,-0.003884,0.050935,0.017242,311.967138,26.123465,0.999645,0.992580,0.003461,0.346542,0.000005,-0.000001,0.000003,0.000006,-0.000002,20.808882,0.000006,
2281,2338,0.544456155735386,-6.69505000136085,-0.00462335453039486,0.000991,0.000972,-0.007170,0.069719,0.007786,325.607383,23.762683,0.999224,0.985522,0.004798,0.325083,-0.000028,-0.000027,-0.000001,-0.000026,-0.000029,-50.759878,0.000056,
2086,2833,-3.78239451010462,4.09138853514217,-0.0165285334852001,0.000836,-0.000050,-0.000138,0.038985,0.020241,318.078503,24.430535,0.999701,0.995631,0.002938,0.376412,-0.000028,-0.000003,-0.000007,-0.000001,-0.000030,-76.052688,0.000035,
2221,2098,-0.721318004980194,-11.9529114985475,0.0187469015946249,0.000554,-0.000395,-0.000504,0.026858,-0.010870,329.735664,23.629721,0.998867,0.980918,0.005568,0.316270,-0.000028,-0.000008,-0.000005,-0.000007,-0.000029,-77.932293,0.000038,
2296,2398,0.860244888452709,-5.38273394239789,-0.0122707878510369,0.000890,0.001267,-0.011503,0.080093,0.012603,324.567393,23.801072,0.999196,0.986867,0.004791,0.363469,-0.000024,-0.000019,-0.000005,-0.000016,-0.000027,-58.208795,0.000043,
2401,2953,3.04035929834777,6.71734934246688,-0.0102430184462037,0.000382,-0.000034,0.002046,0.010161,0.011163,315.489600,25.154272,0.999571,0.992597,0.003629,0.383800,-0.000033,-0.000016,-0.000004,-0.000016,-0.000034,-77.622552,0.000050,
2251,2218,-0.0872404681440706,-9.32237025498984,0.00623258240312907,0.001286,0.000854,-0.008282,0.086282,-0.007913,327.696758,23.662854,0.998679,0.980126,0.005597,0.314647,-0.000024,-0.000015,-0.000006,-0.000012,-0.000027,-62.290171,0.000040,
2476,2083,4.8529359793,-12.2868637524326,0.0184319419127519,0.000913,0.000670,-0.003493,0.055233,0.003416,330.037293,22.019420,0.999454,0.981346,0.005302,0.336418,0.000017,-0.000057,0.000041,0.000036,-0.000075,24.105540,0.000075,
2101,2878,-3.4638997039263,5.0694641857157,-0.0210664408104435,0.001018,0.000093,-0.003955,0.058482,-0.012112,317.254530,24.395058,0.999559,0.993403,0.003556,0.400752,-0.000022,0.000004,-0.000008,0.000006,-0.000024,-74.076342,0.000025,
2236,2143,-0.401636926274509,-10.9654298399185,0.0131074930044974,0.000728,0.001128,-0.005578,0.051767,0.034927,328.956059,23.622466,0.998515,0.982430,0.005321,0.351601,-0.000031,-0.000020,-0.000006,-0.000018,-0.000034,-66.152394,0.000052,
2041,2713,-4.74173069683845,1.48153342793593,-0.0379513664982483,0.000817,0.000086,-0.002436,0.044433,0.000864,320.100791,24.435170,0.999197,0.991003,0.003976,0.358814,-0.000002,-0.000021,0.000005,-0.000001,-0.000022,14.355796,0.000026,
2431,3193,3.64917498310448,11.9291514295636,0.0298270310398152,0.000712,-0.000252,-0.000370,0.034024,-0.012454,311.956578,26.010249,0.999590,0.992365,0.003502,0.358642,0.000002,0.000000,-0.000001,0.000002,-0.000001,-25.890016,0.000002,
2341,2593,1.80320484053874,-1.12306344291488,-0.023269840272178,0.000884,0.000360,-0.002982,0.051131,0.007240,321.261155,24.176233,0.999294,0.989148,0.004177,0.335537,-0.000015,-0.000024,0.000001,-0.000015,-0.000024,8.507242,0.000039,
2416,3043,3.35051662212857,8.67381037938683,0.00176526020391066,0.000529,0.000561,-0.003621,0.037850,0.023229,314.162200,25.497135,0.999587,0.991287,0.003792,0.370270,-0.000024,-0.000003,0.000009,0.000001,-0.000027,69.198861,0.000031,
2116,2938,-3.14745416496906,6.37394145662149,-0.0149409567258658,0.001017,0.000665,-0.008173,0.071335,0.015399,316.271348,24.479636,0.999315,0.992033,0.003789,0.380324,-0.000013,-0.000012,0.000001,-0.000011,-0.000014,53.978107,0.000026,
2176,3178,-1.8834351475598,11.5806769160084,0.041369924750029,0.000490,-0.000159,0.000594,0.020681,-0.004100,312.536557,24.751508,0.999721,0.995773,0.002963,0.404380,-0.000020,0.000003,-0.000005,0.000004,-0.000021,-78.370008,0.000022,
2161,3163,-2.20651387007438,11.2561122151364,0.0254894795853033,0.001035,0.000218,-0.002088,0.054304,0.019666,312.735455,24.724533,0.999549,0.993965,0.003338,0.377597,-0.000014,-0.000002,-0.000011,0.000005,-0.000020,-59.272938,0.000021,
2206,2008,-1.0318903852911,-13.9275580617968,0.0240402929592847,0.001207,0.001115,-0.007531,0.079452,0.002627,331.314994,23.590862,0.999212,0.982192,0.005250,0.337854,-0.000012,-0.000052,-0.000029,0.000003,-0.000067,-28.117863,0.000076,
2056,2758,-4.42246756579052,2.45959358400857,-0.0251157383798954,0.000638,0.000144,-0.001490,0.033629,-0.004357,319.380908,24.399875,0.999345,0.991710,0.003812,0.373566,-0.000020,-0.000022,-0.000001,-0.000020,-0.000022,-12.772007,0.000042,
2071,2773,-4.09850670122238,2.78667533711958,-0.0267609693016198,0.001157,0.000377,-0.005485,0.069110,0.006292,319.076022,24.400186,0.999348,0.991310,0.003870,0.387961,-0.000015,-0.000015,0.000002,-0.000013,-0.000017,39.247045,0.000030,
2326,2548,1.48474271889246,-2.10594858083429,-0.0228591171215271,0.000885,0.000176,-0.000585,0.042774,0.031259,321.990985,24.001388,0.998970,0.986100,0.004697,0.446291,-0.000015,-0.000023,0.000002,-0.000014,-0.000023,16.502315,0.000038,
2011,2623,-5.37886269115067,-0.479103591755489,-0.030631900455262,0.001087,0.000404,-0.002131,0.055978,0.021843,321.817122,24.473788,0.999519,0.992583,0.003669,0.409136,-0.000016,-0.000040,-0.000010,-0.000013,-0.000043,-19.889363,0.000059,
2476,2098,4.85007496613746,-11.9570565977883,0.0182873390132841,0.001011,0.000678,-0.005027,0.065544,0.000647,329.804057,22.126616,0.999459,0.979663,0.005466,0.286034,0.000007,-0.000067,0.000020,0.000013,-0.000072,14.315477,0.000077,
2026,2698,-5.06554383157543,1.15498379021142,-0.0490832297691668,0.000877,0.000422,-0.005203,0.054835,0.004871,320.352738,24.383872,0.999811,0.996073,0.002871,0.422969,-0.000011,-0.000038,-0.000001,-0.000011,-0.000038,-2.563777,0.000052,
2356,2728,2.10415285336729,1.81973178654339,-0.0184457616222176,0.000579,0.000231,0.000438,0.025191,0.019716,319.080911,24.501885,0.999483,0.991741,0.003669,0.358357,-0.000031,-0.000010,-0.000002,-0.000010,-0.000032,-83.591924,0.000044,
2386,2848,2.73400083899909,4.43421059996921,-0.028664972818035,0.000836,0.000482,-0.005509,0.058394,0.006488,317.085362,24.827473,0.999525,0.990773,0.003858,0.370499,-0.000050,-0.000010,-0.000014,-0.000006,-0.000055,-72.882455,0.000067,
2401,2968,3.03866657513684,7.04287713635207,0.00105736131109779,0.000511,0.000009,-0.000526,0.025460,0.009047,315.354559,25.228613,0.999858,0.995369,0.003108,0.352041,-0.000034,-0.000016,0.000000,-0.000016,-0.000034,89.085476,0.000052,
2131,2998,-2.83111809818073,7.6753889317215,0.00237261274304501,0.000950,0.000364,-0.003061,0.053142,0.018679,315.354998,24.451426,0.999739,0.995044,0.003049,0.465322,-0.000018,-0.000014,-0.000001,-0.000013,-0.000018,-75.135026,0.000032,
2446,3208,3.97212776481779,12.2566141444595,0.0274655162154431,0.000670,0.000375,-0.002433,0.040116,0.014187,311.720704,26.150740,0.999564,0.991438,0.003721,0.367070,0.000004,-0.000008,-0.000001,0.000004,-0.000008,-6.522273,0.000008,
2146,3088,-2.52014355842682,9.6302835859636,0.00453738577147078,0.001279,0.000148,-0.004715,0.073356,0.001181,313.862292,24.662815,0.999647,0.995550,0.003019,0.320726,-0.000013,-0.000019,-0.000009,-0.000007,-0.000025,-35.675504,0.000034,
2086,2848,-3.78453080237612,4.41657450258833,-0.0127364872769249,0.000750,0.000460,-0.001655,0.039558,0.034435,317.867284,24.368620,0.999634,0.994361,0.003211,0.451289,-0.000024,-0.000004,-0.000011,0.000001,-0.000029,-65.769548,0.000033,
2266,2338,0.216913111427093,-6.69422463162649,-0.00871046418001242,0.000798,0.001169,-0.006329,0.057927,0.024512,325.581859,23.843273,0.999025,0.984802,0.005048,0.316574,-0.000023,-0.000025,-0.000003,-0.000021,-0.000028,-36.437337,0.000049,
2311,2473,1.17255723471309,-3.74457234520359,-0.0105000251083425,0.000492,0.000315,-0.003358,0.034141,-0.001104,323.310093,23.904340,0.999245,0.987828,0.004457,0.368325,-0.000015,-0.000022,0.000007,-0.000010,-0.000026,32.736177,0.000038,
2221,2113,-0.723870697015343,-11.624192500776,0.0174986386206797,0.000596,-0.000096,-0.001308,0.031471,-0.024039,329.488861,23.638295,0.998840,0.982496,0.005321,0.316532,-0.000027,-0.000008,-0.000004,-0.000007,-0.000027,-77.793050,0.000037,
2041,2728,-4.74345721219796,1.80748021047914,-0.0333520237159064,0.001024,0.000398,-0.003780,0.057803,0.003348,319.909447,24.428486,0.999317,0.992152,0.003605,0.360424,-0.000005,-0.000015,0.000003,-0.000004,-0.000016,14.208829,0.000022,
2206,2023,-1.03387944269801,-13.5995187705904,0.0322283545908135,0.001353,0.000614,-0.005028,0.078073,-0.000465,331.141262,23.600104,0.998846,0.981958,0.005433,0.345423,-0.000016,-0.000035,-0.000022,-0.000002,-0.000050,-33.666397,0.000059,
2431,3208,3.6458962608495,12.2548749244753,0.0259827404473754,0.000778,-0.000020,0.000390,0.034334,-0.002296,311.678242,26.051582,0.999547,0.990924,0.003836,0.376094,0.000001,-0.000008,-0.000005,0.000003,-0.000010,-24.528785,0.000011,
2281,2353,0.541426018350634,-6.36853008259575,-0.000147870864168453,0.000756,0.000152,-0.001243,0.038900,-0.009438,325.372281,23.717899,0.999257,0.986351,0.004694,0.382272,-0.000029,-0.000013,-0.000001,-0.000013,-0.000029,-86.947800,0.000043,
2371,2788,2.41930729700706,3.12839556867339,-0.0220071682315393,0.000778,0.000454,-0.002037,0.043164,0.017100,318.095345,24.766035,0.999848,0.995144,0.003150,0.258489,-0.000042,-0.000012,-0.000011,-0.000009,-0.000046,-72.084493,0.000059,
2296,2413,0.857038573574844,-5.05537358035093,-0.00753363954180486,0.000587,0.000413,-0.004394,0.041899,-0.004221,324.326274,23.854833,0.999392,0.987857,0.004537,0.324396,-0.000026,-0.000021,-0.000009,-0.000014,-0.000032,-53.358003,0.000048,
2101,2893,-3.46610110899777,5.39493884915447,-0.0131132195637633,0.000848,0.000314,-0.002054,0.045185,0.001774,317.063773,24.402919,0.999423,0.993420,0.003662,0.407660,-0.000023,0.000002,-0.000006,0.000003,-0.000024,-77.701752,0.000026,
2251,2233,-0.0909695015246825,-8.99361002429106,0.000287973901890837,0.000863,0.000365,-0.004856,0.055543,-0.023246,327.374838,23.673601,0.998619,0.981696,0.005428,0.314833,-0.000028,-0.000022,-0.000007,-0.000018,-0.000032,-55.645813,0.000051,
2011,2638,-5.38169323197272,-0.152085827753126,-0.0363992399842346,0.000806,0.000157,-0.002566,0.044126,-0.005277,321.514735,24.480652,0.999040,0.988188,0.004379,0.363652,-0.000019,-0.000040,-0.000006,-0.000017,-0.000041,-15.412201,0.000060,
2026,2713,-5.06759790878493,1.48130072736274,-0.0431218425698603,0.000868,0.000255,-0.002995,0.048326,0.015733,320.152841,24.410121,0.999709,0.994952,0.003235,0.397982,-0.000008,-0.000021,0.000004,-0.000006,-0.000022,15.825945,0.000029,
2401,2983,3.03569519297512,7.36920451163322,-0.00307977224082379,0.000680,0.000404,-0.001914,0.038447,0.027648,315.087461,25.252904,0.999690,0.992954,0.003548,0.391387,-0.000031,-0.000011,0.000007,-0.000009,-0.000033,72.171090,0.000045,
2341,2608,1.79989455678107,-0.795079291687593,-0.0353810918334148,0.001331,0.000268,-0.002761,0.070857,0.016579,320.935852,24.176262,0.999374,0.988088,0.004334,0.382342,-0.000018,-0.000027,0.000003,-0.000017,-0.000028,15.826356,0.000046,
2386,2863,2.73148880332907,4.76026198186181,-0.0195619258165038,0.000761,0.000471,-0.002251,0.043290,0.030833,316.901637,24.884322,0.999444,0.991028,0.003785,0.380965,-0.000049,-0.000006,-0.000016,-0.000001,-0.000054,-72.034895,0.000064,
2476,2113,4.84597453417992,-11.6274508570927,0.0133932059929975,0.000707,0.000290,-0.001211,0.037034,0.004820,329.492431,22.162416,0.999380,0.977185,0.005814,0.314551,0.000002,-0.000066,0.000013,0.000004,-0.000069,10.310252,0.000077,
2071,2788,-4.10079331710347,3.11207246346197,-0.0241113609487229,0.001033,0.000391,-0.005901,0.064604,0.008429,318.850558,24.344814,0.999222,0.990250,0.004031,0.442340,-0.000018,-0.000013,-0.000004,-0.000010,-0.000021,-60.308444,0.000031,
2416,3058,3.34760995832402,8.99928590515685,0.00392603854203344,0.000632,0.000147,-0.000695,0.031672,0.007844,313.928789,25.539919,0.999594,0.992131,0.003686,0.359026,-0.000020,-0.000006,0.000010,-0.000001,-0.000025,61.328432,0.000029,
2236,2158,-0.404974879481063,-10.6354866094481,0.00411006145037618,0.000724,0.000854,-0.004320,0.047426,0.017872,328.635100,23.681027,0.998599,0.983871,0.005200,0.300424,-0.000026,-0.000022,-0.000003,-0.000020,-0.000027,-63.588293,0.000048,
2176,3193,-1.8850649170781,11.9038716231908,0.0524970900879111,0.000498,-0.000233,-0.002042,0.029232,-0.016817,312.393721,24.661239,0.999781,0.996833,0.002780,0.493284,-0.000020,-0.000003,-0.000006,-0.000001,-0.000022,-72.675473,0.000026,
2326,2563,1.48203451692701,-1.77860669381396,-0.0189511592294025,0.000706,0.000007,-0.000110,0.032838,0.015081,321.770300,24.091981,0.998625,0.984962,0.004956,0.374659,-0.000019,-0.000013,0.000001,-0.000013,-0.000019,80.116236,0.000032,
2056,2773,-4.42456324792202,2.78536123130136,-0.0192777021627535,0.000486,0.000306,-0.001888,0.027778,-0.005021,319.180602,24.401510,0.999193,0.990310,0.004017,0.365626,-0.000014,-0.000013,0.000003,-0.000011,-0.000016,50.470211,0.000027,
2041,2743,-4.74599605600104,2.1334214464411,-0.0332385212400368,0.000879,0.000138,-0.002091,0.046363,-0.002418,319.656074,24.397781,0.999409,0.992469,0.003651,0.377926,-0.000017,-0.000017,-0.000001,-0.000016,-0.000018,-40.512651,0.000034,
2281,2368,0.538900097856761,-6.041339839504,0.00401869010335076,0.000643,-0.000116,-0.000929,0.032530,-0.024150,325.158586,23.733220,0.999064,0.984327,0.005028,0.381477,-0.000029,-0.000017,-0.000006,-0.000015,-0.000031,-67.595599,0.000047,
2026,2728,-5.06932759664426,1.80646898029288,-0.0306650168419083,0.000717,0.000406,-0.002020,0.038713,0.017107,320.004449,24.396257,0.999558,0.993141,0.003523,0.403350,-0.000010,-0.000010,0.000004,-0.000006,-0.000014,45.496614,0.000021,
2431,3223,3.64280837681837,12.5806208439407,0.0274148124124167,0.000541,0.000065,0.000301,0.023848,0.011223,311.433213,26.126171,0.999509,0.991959,0.003682,0.363592,-0.000001,-0.000008,-0.000005,0.000002,-0.000011,-26.684163,0.000011,
2146,3103,-2.52263729928036,9.95432288137443,0.0120425275321168,0.000994,0.000299,-0.001812,0.051507,0.020185,313.658780,24.579581,0.999760,0.997140,0.002592,0.429626,-0.000013,-0.000018,-0.000007,-0.000008,-0.000023,-36.089711,0.000032,
2476,2128,4.84336817742529,-11.2996799998048,0.0214495499619147,0.000741,-0.000443,0.001748,0.027090,-0.026585,329.308055,22.212298,0.999134,0.976063,0.006009,0.292506,0.000003,-0.000056,0.000010,0.000005,-0.000058,9.713177,0.000064,
2011,2653,-5.38395385762716,0.174398685016151,-0.043779547031761,0.000996,0.000274,-0.006262,0.062940,-0.017026,321.229495,24.415190,0.998944,0.988397,0.004392,0.406180,-0.000029,-0.000026,-0.000010,-0.000017,-0.000038,-48.237940,0.000056,
2266,2353,0.214059932557301,-6.36672343037439,-0.00992101606976803,0.000837,0.000822,-0.004399,0.053225,0.006172,325.325115,23.833799,0.999142,0.985630,0.004939,0.335117,-0.000026,-0.000012,-0.000003,-0.000012,-0.000027,-79.030528,0.000039,
2131,3013,-2.83318876495779,8.00186259120179,0.00401181740005541,0.001163,0.000445,-0.004529,0.067393,0.024279,315.137853,24.545032,0.999322,0.992578,0.003632,0.382266,-0.000015,-0.000010,-0.000001,-0.000010,-0.000015,-82.236043,0.000025,
2311,2488,1.17005634881716,-3.41734357828329,-0.00403611910269319,0.000406,0.000436,-0.001444,0.023728,0.024240,323.110525,23.942667,0.999309,0.988769,0.004221,0.388533,-0.000015,-0.000021,0.000002,-0.000014,-0.000022,18.610073,0.000037,
2251,2248,-0.0941066701340496,-8.66331477139151,-0.00268158258023732,0.000648,0.000544,-0.003963,0.042854,0.023090,327.094436,23.799501,0.998000,0.980061,0.005959,0.261287,-0.000029,-0.000035,-0.000004,-0.000027,-0.000037,-25.947649,0.000064,
2086,2863,-3.78684668922141,4.74334619380245,-0.0153247584169662,0.000950,0.000354,-0.002315,0.050632,0.018475,317.612637,24.438944,0.999406,0.992194,0.003770,0.363895,-0.000019,-0.000004,-0.000011,0.000002,-0.000025,-62.437469,0.000028,
2161,3178,-2.20910112815526,11.5808060448303,0.0293148334135935,0.000798,0.000024,-0.001230,0.040637,0.008996,312.508781,24.724954,0.999505,0.992532,0.003507,0.375226,-0.000014,0.000003,-0.000010,0.000008,-0.000019,-64.943793,0.000019,
2446,3223,3.96877100841148,12.5822404082896,0.0260478491146046,0.000551,0.000284,-0.000907,0.028911,0.020255,311.451127,26.205520,0.999568,0.992046,0.003693,0.369146,0.000005,-0.000009,-0.000001,0.000005,-0.000009,-4.496479,0.000009,
2221,2128,-0.72630212551714,-11.2946490017515,0.0168428508650891,0.000548,0.000785,-0.004603,0.040112,0.008230,329.250253,23.688673,0.998645,0.981890,0.005352,0.320602,-0.000027,-0.000013,-0.000004,-0.000012,-0.000028,-73.222010,0.000041,
2056,2788,-4.42714971732521,3.11245261559417,-0.0263481494861253,0.000686,0.000178,-0.001610,0.036192,-0.001010,318.886240,24.423602,0.999236,0.990609,0.003943,0.342255,-0.000019,-0.000009,-0.000005,-0.000007,-0.000021,-68.753017,0.000029,
2356,2743,2.10134440139339,2.14565720417533,-0.0171135771777813,0.000426,-0.000061,-0.000648,0.021802,-0.007508,318.845030,24.505413,0.999572,0.992519,0.003479,0.366541,-0.000033,-0.000008,-0.000003,-0.000007,-0.000033,-82.938056,0.000043,
2371,2803,2.41646571316776,3.45306580609247,-0.0193620068136511,0.000689,0.000064,-0.000794,0.034536,0.007779,317.865370,24.664309,0.999842,0.995313,0.003202,0.391936,-0.000044,-0.000021,-0.000012,-0.000016,-0.000049,-66.749006,0.000068,
2116,2953,-3.15006825354563,6.6996628308211,-0.00926104977691011,0.000846,0.000512,-0.002631,0.047023,0.026919,316.050215,24.511277,0.999522,0.992418,0.003566,0.363142,-0.000012,-0.000015,-0.000002,-0.000011,-0.000016,-26.998482,0.000028,
2206,2038,-1.03759099223156,-13.2687455526563,0.0226118214362145,0.000880,0.000851,-0.004560,0.054977,0.029996,330.796787,23.629745,0.998916,0.981500,0.005362,0.367171,-0.000017,-0.000038,-0.000021,-0.000004,-0.000052,-31.784510,0.000062,
2401,2998,3.03279796712127,7.69590930169976,-0.00858010870030057,0.000896,0.000354,-0.005062,0.059727,0.003101,314.817203,25.350534,0.999569,0.990770,0.003900,0.313868,-0.000027,-0.000009,0.000007,-0.000006,-0.000030,70.620391,0.000038,
2296,2428,0.854554263497391,-4.72776704868575,-0.00552804226401804,0.000825,0.000323,-0.002445,0.046205,0.005661,324.104560,23.882871,0.999527,0.989579,0.004232,0.337698,-0.000027,-0.000040,-0.000013,-0.000019,-0.000048,-31.924441,0.000069,
2341,2623,1.7972095443335,-0.469022862089965,-0.0276033922166334,0.000911,0.000136,-0.002129,0.049316,0.003345,320.736110,24.197885,0.999261,0.988930,0.004250,0.384527,-0.000022,-0.000018,0.000000,-0.000018,-0.000022,86.382402,0.000040,
2101,2908,-3.46828180506089,5.72062474427864,-0.00626493677953022,0.000636,0.000128,-0.002327,0.036172,0.004819,316.867950,24.436172,0.999314,0.992967,0.003786,0.377929,-0.000021,-0.000013,-0.000008,-0.000008,-0.000026,-59.787751,0.000036,
2071,2803,-4.10341540288762,3.43885972114711,-0.0291816955713102,0.001156,0.000114,-0.004825,0.067078,-0.001428,318.567024,24.373754,0.999227,0.991303,0.003937,0.400275,-0.000016,-0.000009,-0.000003,-0.000008,-0.000017,-70.919959,0.000026,
2431,3238,3.63897619883261,12.9063949453145,0.0171155381748918,0.000469,0.000225,-0.000261,0.022638,0.010440,311.099084,26.154979,0.999516,0.993070,0.003504,0.382690,-0.000001,-0.000010,-0.000004,0.000001,-0.000012,-19.061891,0.000013,
2386,2878,2.72868050879362,5.08731889295307,-0.0218063276357725,0.000782,0.000738,-0.005386,0.055642,0.033610,316.650062,24.974996,0.999431,0.992734,0.003590,0.335994,-0.000052,-0.000007,-0.000012,-0.000004,-0.000055,-75.889717,0.000065,
2011,2668,-5.38575823180761,0.500256813802444,-0.0361688285680088,0.001051,0.000189,-0.004994,0.062045,-0.002730,321.049388,24.396479,0.998999,0.989015,0.004214,0.427339,-0.000029,-0.000036,-0.000003,-0.000028,-0.000037,-23.978938,0.000065,
2236,2173,-0.407579683991866,-10.3074173911091,0.00972719955956336,0.000390,0.000821,-0.003316,0.028894,0.021093,328.421975,23.709824,0.998839,0.984579,0.005036,0.298574,-0.000025,-0.000016,0.000001,-0.000016,-0.000025,84.180211,0.000042,
2176,3208,-1.88868421297199,12.2321013948445,0.0315022933068576,0.000707,0.000321,-0.004611,0.047058,0.006262,311.988779,24.815683,0.999617,0.995524,0.003035,0.372895,-0.000017,-0.000003,-0.000007,-0.000001,-0.000020,-68.421234,0.000024,
2326,2578,1.4790992143047,-1.45131334649052,-0.0188261235941241,0.000422,0.000281,-0.001764,0.025567,0.009183,321.520659,24.139059,0.999176,0.989150,0.004184,0.356923,-0.000017,-0.000008,0.000004,-0.000007,-0.000018,69.951836,0.000026,
2416,3073,3.34495502897865,9.32469719499189,0.00756304911988082,0.000601,0.000280,-0.001076,0.031704,0.005821,313.713838,25.576607,0.999638,0.992182,0.003636,0.366898,-0.000018,-0.000001,0.000006,0.000001,-0.000020,72.473980,0.000023,
2041,2758,-4.74779099593985,2.45850933002246,-0.0272023554426823,0.001076,0.000169,-0.001088,0.052660,0.013736,319.469853,24.318033,0.999292,0.991829,0.003939,0.466244,-0.000019,-0.000024,-0.000006,-0.000015,-0.000027,-33.937803,0.000043,
2026,2743,-5.07124820589982,2.13258672790013,-0.0305515591521726,0.001025,0.000277,-0.002653,0.054582,0.002166,319.778221,24.390238,0.999373,0.991435,0.003879,0.384999,-0.000024,-0.000015,0.000001,-0.000015,-0.000024,83.158798,0.000040,
2476,2143,4.83992441394414,-10.9686896589303,0.0136469040338625,0.000615,0.000443,-0.003146,0.040237,-0.009553,329.013051,22.341523,0.998716,0.978264,0.005585,0.240177,0.000001,-0.000037,0.000017,0.000007,-0.000043,20.579966,0.000046,
2131,3028,-2.8359065625568,8.32717447423742,0.00534583162146873,0.001007,0.000410,-0.001997,0.052641,0.028785,314.889776,24.534789,0.999401,0.992649,0.003613,0.401871,-0.000013,-0.000013,0.000001,-0.000013,-0.000014,43.342572,0.000027,
2266,2368,0.210934783752872,-6.03852290179926,-0.0119876875306204,0.000840,0.000307,-0.000160,0.039172,-0.004888,325.051425,23.877972,0.998980,0.985671,0.004944,0.307318,-0.000030,-0.000016,-0.000008,-0.000013,-0.000033,-65.999551,0.000047,
2086,2878,-3.78915154999512,5.06838417141925,-0.0128647903514434,0.000878,0.000276,-0.002363,0.047411,0.015806,317.386540,24.378478,0.999390,0.992456,0.003764,0.420563,-0.000021,0.000004,-0.000010,0.000007,-0.000025,-70.459617,0.000025,
2251,2263,-0.0966308095725701,-8.33625006971202,0.00122339753244205,0.000355,0.000721,-0.005567,0.034709,0.024913,326.877453,23.750293,0.998981,0.985193,0.005057,0.337789,-0.000026,-0.000041,-0.000003,-0.000025,-0.000042,-10.867613,0.000068,
2161,3193,-2.2117522586394,11.9052118369691,0.0287475617134874,0.000641,-0.000102,-0.002614,0.037589,-0.006570,312.256049,24.681247,0.999572,0.994568,0.003144,0.412257,-0.000014,-0.000002,-0.000011,0.000005,-0.000021,-59.222624,0.000022,
2446,3238,3.96527889950778,12.9081938997567,0.0186755904307461,0.000668,0.000340,-0.000782,0.033836,0.019532,311.147554,26.267609,0.999633,0.993643,0.003327,0.357153,0.000007,-0.000011,0.000001,0.000007,-0.000011,3.285840,0.000011,
2011,2683,-5.38787904772657,0.825735157339835,-0.0224539366145109,0.000490,0.000154,-0.002717,0.029929,-0.019254,320.889294,24.427462,0.999777,0.996524,0.002776,0.367883,-0.000017,-0.000055,0.000003,-0.000017,-0.000056,4.292689,0.000076,
2431,3253,3.63544553964679,13.2325273510405,0.00405527223495028,0.000724,0.000039,-0.003298,0.045560,-0.002866,310.765749,26.219116,0.999506,0.993310,0.003396,0.353773,-0.000001,-0.000010,-0.000005,0.000001,-0.000012,-22.911418,0.000014,
2146,3118,-2.52470812528684,10.2795676145365,0.0202370532114173,0.000842,0.000265,-0.002702,0.047202,0.021327,313.477948,24.632226,0.999600,0.995503,0.003044,0.384934,-0.000015,-0.000013,-0.000009,-0.000005,-0.000023,-48.310259,0.000030,
2371,2818,2.41362935575705,3.77932533296873,-0.0262999967192741,0.001108,0.000086,-0.002760,0.060754,-0.003399,317.589320,24.641514,0.999846,0.995329,0.003281,0.444765,-0.000048,-0.000023,-0.000014,-0.000016,-0.000055,-65.406367,0.000074,
2041,2773,-4.75039964017543,2.78591777592364,-0.0299624118477482,0.001034,0.000131,0.000420,0.046532,0.013441,319.196908,24.402487,0.999105,0.990981,0.003986,0.373975,-0.000014,-0.000014,-0.000001,-0.000013,-0.000016,-43.938264,0.000028,
2281,2383,0.535653406309503,-5.71213576431068,-0.00747280768030123,0.000717,-0.000001,-0.003965,0.046126,-0.027144,324.833471,23.774719,0.998844,0.984469,0.005129,0.366952,-0.000027,-0.000020,-0.000002,-0.000019,-0.000028,-72.508825,0.000047,
2221,2143,-0.72853832827478,-10.9654421198523,0.0140846396647589,0.001105,0.000967,-0.004191,0.064345,0.038624,329.009869,23.693068,0.998768,0.983811,0.005184,0.368466,-0.000031,-0.000031,-0.000002,-0.000029,-0.000033,-40.238751,0.000062,
2101,2923,-3.47072834282608,6.04634898096405,-0.00548973408098163,0.000603,0.000044,-0.001706,0.032809,-0.001187,316.627063,24.442017,0.999207,0.992018,0.003851,0.366939,-0.000021,-0.000017,-0.000002,-0.000016,-0.000021,-68.596783,0.000037,
2071,2818,-4.10564210984129,3.76466988176493,-0.022063499981698,0.000944,0.000424,-0.003215,0.052870,0.020364,318.368646,24.379311,0.999273,0.991908,0.003957,0.413135,-0.000019,-0.000003,-0.000001,-0.000003,-0.000019,-85.273298,0.000023,
2056,2803,-4.42957437769263,3.43877383416095,-0.029681127251024,0.000805,0.000001,-0.001530,0.041453,0.004638,318.620137,24.407482,0.999234,0.991511,0.003880,0.358817,-0.000016,-0.000004,-0.000005,-0.000002,-0.000017,-70.104982,0.000022,
2311,2503,1.16725122629341,-3.09028165312817,-0.00863913124510418,0.000678,0.000020,-0.001742,0.037038,-0.009972,322.842832,23.928614,0.999394,0.989946,0.004028,0.401766,-0.000019,-0.000024,0.000001,-0.000019,-0.000025,12.794683,0.000044,
2341,2638,1.79465414343924,-0.142631462732723,-0.0212748020720142,0.000608,0.000320,-0.003131,0.038932,-0.001676,320.535155,24.233326,0.999233,0.988848,0.004297,0.381073,-0.000025,-0.000014,-0.000002,-0.000014,-0.000025,-80.523672,0.000039,
2206,2053,-1.04106989535044,-12.938071992008,0.012038371354663,0.000684,0.000458,-0.004491,0.045657,0.000888,330.458315,23.705863,0.998810,0.977878,0.005698,0.282615,-0.000020,-0.000040,-0.000016,-0.000011,-0.000048,-28.972700,0.000063,
2326,2593,1.47652645959326,-1.12360994172219,-0.0261239605432593,0.000958,0.000654,-0.004794,0.060730,0.001583,321.251284,24.165753,0.999610,0.992509,0.003587,0.357774,-0.000016,-0.000020,0.000004,-0.000013,-0.000023,34.264283,0.000037,
2026,2758,-5.07336868338842,2.45811648232926,-0.0279746785037673,0.001052,-0.000007,-0.002179,0.054476,-0.003780,319.556775,24.345252,0.999036,0.990626,0.004165,0.414214,-0.000026,-0.000024,-0.000004,-0.000021,-0.000029,-51.709875,0.000050,
2116,2968,-3.15199196832278,7.02484654631557,-0.00375710980028998,0.000866,0.000610,-0.005010,0.054980,0.020408,315.860025,24.513495,0.999621,0.993711,0.003250,0.357023,-0.000012,-0.000016,-0.000006,-0.000007,-0.000021,-34.407280,0.000029,
2401,3013,3.02994690073157,8.02140610207739,-0.0060045166086411,0.000886,0.000251,-0.003504,0.053594,0.005982,314.587466,25.368595,0.999553,0.990431,0.003864,0.343321,-0.000026,-0.000011,0.000005,-0.000009,-0.000027,74.178539,0.000038,
2131,3043,-2.8382550240425,8.6520234967141,0.0130691277296364,0.000733,-0.000197,-0.000587,0.035572,0.006533,314.693035,24.554367,0.999449,0.993618,0.003396,0.364404,-0.000015,-0.000020,-0.000002,-0.000014,-0.000020,-18.154285,0.000035,
2011,2698,-5.3903073572409,1.15227714620731,-0.0239825783253877,0.000357,0.000456,-0.003300,0.025559,0.010374,320.629165,24.388201,0.999818,0.996351,0.002762,0.425073,-0.000009,-0.000039,0.000005,-0.000008,-0.000040,9.973320,0.000051,
2446,3253,3.96205632204528,13.2331581099946,0.0199680565611402,0.000093,0.000241,-0.003754,0.018428,0.006823,310.896758,26.303512,0.999738,0.994900,0.002974,0.358896,0.000008,-0.000011,0.000001,0.000008,-0.000011,2.181209,0.000011,
2236,2188,-0.409998853496202,-9.97858651990917,0.0103482174176861,0.000598,0.000230,-0.002430,0.035344,0.003862,328.191952,23.780361,0.999173,0.986869,0.004721,0.234409,-0.000032,-0.000007,-0.000001,-0.000007,-0.000032,-87.892399,0.000041,
2386,2893,2.72607867586863,5.41292761965669,-0.0206463937894341,0.000881,0.000962,-0.006664,0.064907,0.042032,316.424482,24.956128,0.999476,0.993270,0.003519,0.406298,-0.000049,-0.000014,-0.000011,-0.000011,-0.000052,-73.864761,0.000067,
2041,2788,-4.75238527924519,3.1124399565027,-0.0292920991816459,0.001162,0.000348,-0.002082,0.059486,0.020838,318.971800,24.429296,0.999297,0.990365,0.003844,0.346741,-0.000018,-0.000007,-0.000007,-0.000003,-0.000022,-63.942391,0.000027,
2416,3088,3.34273495821114,9.65053772440568,0.0102754385933963,0.001021,0.000255,-0.002229,0.055256,0.007589,313.514380,25.646618,0.999638,0.993323,0.003459,0.345430,-0.000014,0.000001,0.000003,0.000002,-0.000014,78.118615,0.000016,
2176,3223,-1.890632087411,12.5573537115903,0.0366047047096458,0.000990,0.000324,-0.004636,0.060213,0.012974,311.798876,24.867955,0.999712,0.995916,0.002846,0.338208,-0.000014,0.000005,-0.000011,0.000010,-0.000019,-66.153313,0.000019,
2431,3268,3.63179404221635,13.5585430060493,-0.0035600566986318,0.000641,-0.000004,-0.003567,0.042801,0.007395,310.452183,26.284581,0.999607,0.993989,0.003281,0.346905,0.000002,-0.000016,0.000001,0.000002,-0.000016,3.621040,0.000017,
2296,2443,0.850958212344338,-4.40080942742982,-0.0173360785701107,0.000966,-0.000219,-0.000508,0.045940,-0.010721,323.763741,23.753236,0.999581,0.989980,0.004143,0.482661,-0.000028,-0.000043,-0.000009,-0.000024,-0.000048,-24.685921,0.000073,
2161,3208,-2.21391671618279,12.2303704670677,0.033752464008785,0.000671,0.000111,-0.002962,0.040055,-0.005049,312.054855,24.725981,0.999508,0.994876,0.003095,0.377811,-0.000012,-0.000003,-0.000012,0.000005,-0.000021,-55.594322,0.000021,
2086,2893,-3.79117998048912,5.39411678080955,-0.0126319381503777,0.001149,0.000070,-0.003653,0.063567,0.003250,317.160785,24.379371,0.999403,0.994203,0.003522,0.405447,-0.000023,0.000002,-0.000008,0.000004,-0.000025,-74.123928,0.000027,
2251,2278,-0.0989465018781068,-8.00877343239022,0.00503475302400602,0.000750,0.000192,-0.000670,0.036640,0.007160,326.669541,23.761865,0.999306,0.986264,0.004761,0.333789,-0.000023,-0.000035,-0.000005,-0.000020,-0.000037,-21.268896,0.000058,
2476,2158,4.8371286669242,-10.6408344923795,0.0183866059477964,0.000794,-0.000047,0.000553,0.034200,-0.009622,328.804687,22.341923,0.998596,0.975505,0.006040,0.298918,-0.000013,-0.000047,0.000004,-0.000012,-0.000048,5.944245,0.000064,
2356,2758,2.09763269212528,2.4741071375863,-0.032530227710879,0.000643,0.000486,-0.002022,0.036877,0.020142,318.486133,24.558225,0.999415,0.991012,0.003743,0.380617,-0.000030,-0.000005,-0.000002,-0.000005,-0.000030,-86.460036,0.000038,
2056,2818,-4.4319249818823,3.76442181774352,-0.0252424264587603,0.000613,-0.000046,0.000054,0.028092,0.003030,318.400526,24.400783,0.999149,0.990829,0.004007,0.358396,-0.000021,0.000001,-0.000004,0.000002,-0.000022,-80.005118,0.000024,
2371,2833,2.41042972362057,4.10723659615591,-0.0311378153479041,0.000991,0.000376,-0.004944,0.063281,-0.001118,317.306096,24.778461,0.999682,0.991776,0.003735,0.350967,-0.000048,-0.000015,-0.000013,-0.000010,-0.000053,-70.935697,0.000068,
2446,3268,3.95785371895046,13.5592250466547,-0.000142238040950815,0.000570,0.000159,-0.003248,0.038484,0.008697,310.501222,26.312285,0.999694,0.994496,0.003078,0.402993,0.000014,-0.000019,0.000008,0.000016,-0.000021,12.681929,0.000022,
2266,2383,0.208119118098761,-5.71082060290549,-0.0180894054049077,0.000936,0.000115,-0.002893,0.052539,-0.008594,324.771705,23.835593,0.998313,0.982905,0.005366,0.373368,-0.000029,-0.000018,-0.000005,-0.000016,-0.000031,-70.353252,0.000048,
2026,2773,-5.07584938891224,2.78614818405613,-0.0380188921307081,0.001239,0.000337,-0.005805,0.073179,0.000949,319.247589,24.424613,0.999381,0.992397,0.003847,0.329812,-0.000019,-0.000015,0.000001,-0.000015,-0.000019,82.002494,0.000033,
2146,3133,-2.52715988388783,10.6038064421684,0.0233630695565807,0.000811,-0.000197,-0.001067,0.040623,0.000221,313.253044,24.586087,0.999446,0.994364,0.003395,0.416686,-0.000018,-0.000008,-0.000011,-0.000001,-0.000025,-57.075590,0.000029,
2101,2938,-3.47286897229357,6.37242559727719,-0.00678022317720206,0.000914,0.000201,-0.002590,0.049814,0.006643,316.388883,24.455959,0.999183,0.991733,0.003909,0.361637,-0.000020,-0.000014,0.000001,-0.000013,-0.000020,78.620869,0.000033,
2011,2713,-5.39297616384608,1.4796291659389,-0.0310856098473664,0.000486,0.000360,-0.001099,0.025494,0.018774,320.326561,24.403980,0.999688,0.994935,0.003248,0.406201,-0.000006,-0.000017,0.000012,0.000002,-0.000025,32.229324,0.000028,
2326,2608,1.47372144194461,-0.796131727954133,-0.0292696210754002,0.001160,0.000464,-0.005051,0.070888,0.007271,320.991471,24.200018,0.999508,0.990850,0.003849,0.364660,-0.000020,-0.000022,0.000005,-0.000016,-0.000026,40.196649,0.000043,
2221,2158,-0.73100781221823,-10.6359899695701,0.00766661642666122,0.001389,0.001247,-0.008025,0.089757,0.016133,328.740323,23.739307,0.998762,0.985554,0.005149,0.321511,-0.000025,-0.000030,0.000002,-0.000025,-0.000031,18.947853,0.000056,
2401,3028,3.02696744318255,8.34680713498625,-0.000239901453426228,0.000586,0.000212,-0.000803,0.029980,0.017663,314.366846,25.393975,0.999595,0.990766,0.003833,0.374322,-0.000024,-0.000012,0.000003,-0.000011,-0.000024,77.768137,0.000036,
2176,3238,-1.89350127306198,12.8821470958597,0.0321684362922383,0.001000,0.000365,-0.004619,0.060594,0.007718,311.516662,24.839099,0.999709,0.995498,0.002925,0.372731,-0.000010,0.000004,-0.000010,0.000009,-0.000015,-63.344314,0.000015,
2311,2518,1.16414146456679,-2.76153410692469,-0.0162212137889242,0.000703,0.000470,-0.004323,0.047187,0.002133,322.545974,24.001468,0.999354,0.988501,0.004183,0.374410,-0.000017,-0.000029,0.000002,-0.000017,-0.000029,7.660011,0.000047,
2431,3283,3.62876989144806,13.883662424099,-0.00666002443790603,0.000797,0.000192,-0.004089,0.051948,0.007931,310.188828,26.306284,0.999722,0.994758,0.003050,0.374289,0.000008,-0.000028,0.000003,0.000008,-0.000028,4.409450,0.000029,
2131,3058,-2.84042214767863,8.97744485389018,0.01261999888834,0.000828,0.000135,-0.004488,0.051675,-0.006123,314.460676,24.566892,0.999381,0.993420,0.003526,0.344152,-0.000011,-0.000019,-0.000006,-0.000008,-0.000022,-28.304582,0.000031,
2116,2983,-3.15371786275698,7.34899492084767,0.00618610381513918,0.000970,0.000514,-0.004685,0.058792,0.015559,315.703174,24.452572,0.999712,0.994890,0.002993,0.415993,-0.000013,-0.000021,-0.000007,-0.000009,-0.000024,-30.345545,0.000035,
2446,3283,3.95421677360915,13.8851927788746,-0.00842523538256046,0.000693,0.000234,-0.002185,0.040128,0.001367,310.186448,26.391985,0.999693,0.993905,0.003201,0.366589,0.000027,-0.000033,0.000011,0.000029,-0.000035,9.759601,0.000037,
2071,2833,-4.1078399437486,4.09029561914995,-0.0135537270811596,0.000797,-0.000309,0.000251,0.035898,-0.008169,318.179404,24.431899,0.999360,0.992647,0.003613,0.328452,-0.000020,-0.000003,-0.000004,-0.000002,-0.000021,-76.839860,0.000025,
2281,2398,0.532649223048086,-5.38312921094109,-0.0109148695405565,0.000781,-0.000003,-0.002438,0.043976,0.004833,324.559383,23.846882,0.999045,0.986424,0.004965,0.356320,-0.000026,-0.000014,0.000000,-0.000014,-0.000026,-88.766587,0.000040,
2341,2653,1.79099946624455,0.185399189601512,-0.0312789948814043,0.000600,0.000214,-0.002277,0.035590,0.001253,320.204076,24.278198,0.999363,0.990083,0.004142,0.376633,-0.000027,-0.000011,-0.000002,-0.000011,-0.000027,-81.377202,0.000039,
2296,2458,0.848138939199369,-4.07088875741595,-0.0195159626250643,0.000908,0.000567,-0.002370,0.049889,0.014071,323.505377,23.949740,0.999401,0.988742,0.004366,0.342343,-0.000031,-0.000038,-0.000005,-0.000029,-0.000041,-28.539587,0.000069,
2011,2728,-5.39510960002743,1.80546949070613,-0.0285881577535747,0.000536,0.000297,0.000382,0.023751,0.013412,320.102877,24.377359,0.999518,0.993234,0.003595,0.415676,-0.000006,-0.000003,0.000012,0.000007,-0.000016,48.567214,0.000016,
2086,2908,-3.79372362196973,5.72030136645811,-0.0124321528834912,0.001016,0.000166,-0.003240,0.056280,0.000673,316.911067,24.415918,0.999389,0.993279,0.003596,0.364929,-0.000024,-0.000013,-0.000010,-0.000007,-0.000030,-59.196414,0.000039,
2161,3223,-2.21614249947334,12.5551613951295,0.0387438437231253,0.000756,0.000030,-0.001597,0.039837,0.007558,311.850909,24.728795,0.999595,0.995258,0.002977,0.396186,-0.000009,0.000004,-0.000016,0.000015,-0.000020,-56.227930,0.000021,
2056,2833,-4.43387375968259,4.09032997021027,-0.0220405372686514,0.000734,0.000065,-0.001076,0.036877,-0.003773,318.192454,24.417488,0.998812,0.988553,0.004397,0.329247,-0.000024,0.000001,-0.000008,0.000004,-0.000027,-74.167305,0.000029,
2026,2788,-5.07795278248372,3.11177089194932,-0.0351102662348808,0.001245,0.000421,-0.005714,0.073226,0.009490,319.028753,24.385346,0.999542,0.993268,0.003460,0.367822,-0.000024,-0.000006,-0.000007,-0.000003,-0.000026,-72.274413,0.000033,
2476,2173,4.83418036970786,-10.3112310353457,0.0170817383756798,0.000934,0.000099,-0.000540,0.044832,0.002016,328.561734,22.430823,0.997993,0.968794,0.006734,0.281148,-0.000017,-0.000018,-0.000003,-0.000015,-0.000021,-40.814997,0.000036,
2386,2908,2.72220042295553,5.73924350629976,-0.0236038339820652,0.000719,0.000016,0.000749,0.030387,0.013289,316.120412,25.014123,0.999412,0.991910,0.003749,0.362323,-0.000049,-0.000016,-0.000009,-0.000014,-0.000051,-76.116604,0.000068,
2251,2293,-0.10155702115539,-7.68004979925061,-0.00245794724759207,0.001002,0.000660,-0.004989,0.062468,0.000981,326.390824,23.766854,0.999138,0.985248,0.004887,0.348143,-0.000025,-0.000033,-0.000005,-0.000023,-0.000036,-25.047027,0.000059,
2206,2068,-1.0427760479698,-12.6103941387812,0.0225031587946205,0.000863,0.000697,-0.003269,0.050123,0.013044,330.309137,23.707730,0.999005,0.980824,0.005450,0.312525,-0.000022,-0.000029,-0.000007,-0.000017,-0.000034,-31.088930,0.000052,
2041,2803,-4.7546904354776,3.43785647818066,-0.0292749941225452,0.001142,0.000101,-0.002409,0.059369,0.002893,318.728861,24.379221,0.999355,0.991859,0.003613,0.371303,-0.000011,-0.000002,-0.000006,0.000001,-0.000014,-63.408446,0.000016,
2371,2848,2.40728915809142,4.43341327015504,-0.0278532004487602,0.000568,0.000504,-0.003613,0.039192,0.018586,317.064826,24.804321,0.999608,0.991192,0.003756,0.385708,-0.000046,-0.000009,-0.000013,-0.000005,-0.000050,-72.739310,0.000061,
2416,3103,3.33981086311986,9.97626786448849,0.0130562692966123,0.000772,0.000216,-0.002872,0.046149,0.006319,313.282790,25.713643,0.999777,0.995362,0.003111,0.323720,-0.000008,0.000005,0.000009,0.000009,-0.000012,62.413159,0.000013,
2236,2203,-0.412080050712134,-9.65218827165089,0.011352003287584,0.000881,0.000895,-0.004479,0.055188,0.015559,327.979545,23.609118,0.999450,0.989662,0.004331,0.440981,-0.000032,-0.000007,-0.000001,-0.000007,-0.000032,-86.862161,0.000042,
2431,3298,3.62517610299136,14.2084162187478,-0.0135007554155209,0.000754,0.000029,-0.003752,0.048611,-0.012147,309.881791,26.298907,0.999730,0.994810,0.002988,0.409932,0.000010,-0.000039,0.000000,0.000010,-0.000039,0.451102,0.000041,
2146,3148,-2.53027113034208,10.9298932724819,0.0169044194028061,0.000578,0.000352,-0.002153,0.033324,0.014006,312.946141,24.620701,0.999494,0.993843,0.003388,0.402400,-0.000018,-0.000005,-0.000012,0.000002,-0.000026,-58.992735,0.000028,
2101,2953,-3.47576467744952,6.69845274919191,-0.00939999762402977,0.000762,0.000157,-0.000270,0.036009,0.014814,316.108886,24.460226,0.999373,0.992440,0.003646,0.366135,-0.000018,-0.000017,-0.000001,-0.000016,-0.000019,-59.731480,0.000035,
2446,3298,3.95108631427999,14.2099006577584,-0.0127174403521053,0.000802,0.000323,-0.003455,0.049976,0.004116,309.913862,26.371485,0.999726,0.994381,0.003119,0.440610,0.000030,-0.000043,0.000008,0.000031,-0.000044,6.523195,0.000045,
2176,3253,-1.89708816773415,13.2073411142893,0.0291133738295457,0.000616,0.000105,0.001531,0.023716,0.010137,311.208541,24.851698,0.999701,0.995388,0.002999,0.372927,-0.000007,0.000007,-0.000006,0.000009,-0.000009,-71.074863,0.000011,
2356,2773,2.09557922005527,2.80113099160829,-0.0302568877848444,0.000939,0.000930,-0.006181,0.065340,0.038200,318.288993,24.634498,0.999509,0.991784,0.003557,0.361416,-0.000031,-0.000012,-0.000007,-0.000010,-0.000034,-72.550044,0.000046,
2221,2173,-0.733644655738782,-10.307816229708,0.00810667285998079,0.001141,0.001630,-0.010117,0.085183,0.025354,328.498163,23.716263,0.998955,0.985251,0.004982,0.375559,-0.000027,-0.000021,0.000004,-0.000019,-0.000029,64.248177,0.000049,
2116,2998,-3.15683898105813,7.67513507668087,-0.00131644072064319,0.000738,0.000255,-0.005543,0.050519,-0.001318,315.387727,24.471537,0.999478,0.993800,0.003299,0.382788,-0.000015,-0.000015,-0.000002,-0.000013,-0.000017,-45.925985,0.000030,
2266,2398,0.205329028995919,-5.38247852402502,-0.0158906075887444,0.000629,0.000390,-0.003304,0.039937,0.009188,324.534529,23.915598,0.998910,0.987001,0.004774,0.338494,-0.000029,-0.000011,-0.000002,-0.000011,-0.000030,-83.299018,0.000042,
2401,3043,3.0250287946469,8.67224595786537,0.00762495331940727,0.000809,0.000446,-0.002525,0.046581,0.022461,314.204007,25.446600,0.999596,0.992087,0.003675,0.371168,-0.000020,-0.000006,0.000005,-0.000004,-0.000022,71.970273,0.000028,
2026,2803,-5.08048429102692,3.43703989998781,-0.0313706152595614,0.001029,0.000017,-0.001388,0.051230,-0.003502,318.795141,24.345491,0.999517,0.993587,0.003373,0.384761,-0.000017,0.000000,-0.000005,0.000001,-0.000018,-73.598202,0.000020,
2071,2848,-4.11090027867441,4.41789084221314,-0.0272612854067802,0.000714,0.000379,-0.003649,0.043482,0.020342,317.828117,24.445814,0.999651,0.994495,0.003160,0.339976,-0.000017,-0.000005,-0.000010,0.000000,-0.000022,-60.197977,0.000025,
2446,1993,4.21482269002513,-14.262248295842,0.0195792919500946,0.000717,0.000405,-0.003793,0.047003,-0.002605,331.419313,21.964352,0.999365,0.978491,0.005577,0.238687,-0.000009,-0.000103,0.000040,0.000006,-0.000118,20.295318,0.000133,
2011,2743,-5.39756630457318,2.13383286677043,-0.0439919199029646,0.001006,0.000422,-0.003665,0.056386,-0.004458,319.763139,24.456292,0.999529,0.993752,0.003354,0.307253,-0.000021,-0.000013,0.000007,-0.000009,-0.000025,60.644809,0.000035,
2326,2623,1.47127372257672,-0.470399741304597,-0.0217225881207241,0.000789,0.000582,-0.006830,0.060014,-0.001284,320.800655,24.184557,0.999487,0.990406,0.003897,0.406332,-0.000020,-0.000010,0.000002,-0.000009,-0.000021,79.531540,0.000031,
2281,2413,0.529949086935158,-5.05599542133098,-0.00675742200837703,0.000611,-0.000098,-0.000532,0.029775,-0.000891,324.337520,23.862911,0.999256,0.988128,0.004549,0.363755,-0.000025,-0.000018,-0.000004,-0.000017,-0.000027,-67.854351,0.000044,
2341,2668,1.7882096466006,0.512131913248759,-0.0244650066286454,0.000369,-0.000292,0.001132,0.012913,-0.000068,319.994525,24.353998,0.999610,0.992325,0.003860,0.336397,-0.000028,-0.000003,-0.000007,-0.000001,-0.000030,-74.835430,0.000035,
2056,2848,-4.43600157818043,4.41627756134476,-0.0241288246637623,0.000913,0.000387,-0.003664,0.052561,0.008834,317.946963,24.382890,0.999214,0.991593,0.003822,0.370677,-0.000020,-0.000002,-0.000014,0.000006,-0.000028,-60.918991,0.000030,
2161,3238,-2.21919460876085,12.8805749825379,0.0310850851811324,0.000714,-0.000082,-0.002463,0.040476,-0.012074,311.541828,24.752776,0.999679,0.995190,0.002948,0.361117,-0.000007,0.000003,-0.000015,0.000013,-0.000018,-53.897109,0.000019,
2086,2923,-3.79627936107748,6.04597459792301,-0.0133827209042465,0.000979,-0.000165,-0.002307,0.051745,-0.011924,316.654716,24.411476,0.999360,0.992408,0.003630,0.355395,-0.000025,-0.000018,-0.000004,-0.000016,-0.000027,-64.401412,0.000044,
2251,2308,-0.104104854185852,-7.35206067308228,-0.000856334299555783,0.000816,0.000701,-0.007222,0.061269,-0.010184,326.160963,23.806664,0.998672,0.982428,0.005315,0.322688,-0.000026,-0.000043,-0.000002,-0.000025,-0.000043,-7.899389,0.000070,
2206,2083,-1.04604771289706,-12.2809325178364,0.0131651464923266,0.000707,0.000603,-0.004254,0.046041,0.000092,329.986496,23.683283,0.998918,0.980793,0.005507,0.344372,-0.000022,-0.000027,-0.000006,-0.000018,-0.000031,-34.700984,0.000050,
2476,2188,4.831289903976,-9.98207157495813,0.0175083239186051,0.000721,0.000604,-0.004795,0.051372,0.004254,328.329262,22.512332,0.998348,0.971348,0.006645,0.260965,-0.000005,-0.000006,-0.000009,0.000003,-0.000014,-43.602456,0.000015,
2041,2818,-4.75726717573557,3.76358072180373,-0.0251917242634931,0.000685,0.000210,-0.001430,0.035642,0.017980,318.495893,24.359866,0.999278,0.991343,0.003795,0.397844,-0.000015,0.000000,-0.000005,0.000002,-0.000017,-72.953828,0.000018,
2131,3073,-2.84299243779373,9.30266175296485,0.0181211174554505,0.000688,0.000233,0.000117,0.031518,0.020600,314.241690,24.563734,0.999628,0.994891,0.003256,0.378634,-0.000009,-0.000017,-0.000008,-0.000004,-0.000022,-32.253729,0.000028,
2311,2533,1.16165087912299,-2.4344387010607,-0.0178625172022748,0.001030,0.000302,-0.005155,0.064944,-0.015453,322.307094,24.011475,0.999383,0.989334,0.004114,0.380140,-0.000016,-0.000035,-0.000004,-0.000016,-0.000036,-11.741490,0.000053,
2026,2818,-5.08299637963316,3.76229976530889,-0.0254760951294202,0.000656,-0.000339,0.002115,0.024323,-0.006145,318.574458,24.314736,0.999391,0.992926,0.003491,0.402968,-0.000021,-0.000001,-0.000006,0.000000,-0.000022,-75.040707,0.000025,
2386,2923,2.71980483016293,6.06461752199225,-0.0162427873045203,0.000503,-0.000009,-0.000986,0.026692,-0.000678,315.933788,25.048688,0.999249,0.991022,0.003994,0.356319,-0.000047,-0.000023,-0.000008,-0.000020,-0.000049,-73.233720,0.000072,
2371,2863,2.40483711123219,4.75939471461673,-0.022371895905394,0.000676,0.000378,-0.002124,0.038837,0.021691,316.865763,24.848843,0.999488,0.992016,0.003689,0.384929,-0.000046,-0.000007,-0.000015,-0.000002,-0.000051,-70.651515,0.000060,
2416,3118,3.33690928044012,10.3016838064791,0.0140953960341221,0.000755,-0.000094,-0.002633,0.044379,-0.006498,313.044100,25.755965,0.999802,0.995822,0.002919,0.315168,-0.000003,0.000003,0.000009,0.000010,-0.000009,54.775393,0.000011,
2176,3268,-1.90062586651291,13.532906420755,0.0111612885206682,0.000677,-0.000046,-0.001405,0.035594,-0.004141,310.824182,24.837177,0.999614,0.994714,0.003118,0.384342,-0.000002,0.000007,-0.000004,0.000009,-0.000003,-69.073889,0.000009,
2146,3163,-2.53169046508139,11.2544005971716,0.0312179154229284,0.000909,0.000077,0.000478,0.040572,0.015938,312.828084,24.650915,0.999557,0.993223,0.003416,0.380774,-0.000015,0.000000,-0.000014,0.000009,-0.000024,-59.276321,0.000024,
2461,1993,4.5438837538873,-14.2628874148402,0.0225399432008544,0.000998,0.001232,-0.007758,0.075181,0.017766,331.505124,21.853725,0.998748,0.971007,0.006426,0.262540,0.000008,-0.000120,0.000049,0.000025,-0.000136,18.723852,0.000145,
2446,2008,4.21266757476885,-13.9353695294534,0.031157444968585,0.000718,0.000136,-0.002447,0.041979,-0.013229,331.270182,21.912267,0.999269,0.978907,0.005700,0.335443,-0.000012,-0.000086,0.000027,-0.000003,-0.000095,18.099036,0.000111,
2116,3013,-3.15872452416371,7.99991759375257,0.00543437305037742,0.000940,0.000078,-0.004520,0.056774,0.000958,315.206160,24.447090,0.998894,0.990724,0.003992,0.412197,-0.000012,-0.000011,-0.000002,-0.000010,-0.000013,-49.448805,0.000023,
2161,3253,-2.22273136824406,13.2062435630257,0.0198141330453723,0.000587,0.000204,-0.000997,0.030215,0.005654,311.191220,24.747759,0.999635,0.995035,0.003037,0.392405,-0.000005,0.000006,-0.000011,0.000013,-0.000012,-57.876524,0.000014,
2101,2968,-3.47773205908598,7.02365108037984,-0.00214884215876054,0.000588,0.000195,-0.002969,0.035864,0.003226,315.925258,24.480619,0.999507,0.992418,0.003521,0.334692,-0.000016,-0.000019,-0.000006,-0.000011,-0.000024,-39.786599,0.000036,
2236,2218,-0.414816984162059,-9.32213986589966,0.00212598196037561,0.001366,0.000372,-0.005165,0.079435,-0.015868,327.684820,23.712957,0.998998,0.984952,0.004932,0.329719,-0.000027,-0.000015,0.000001,-0.000015,-0.000027,87.149002,0.000042,
2401,3058,3.02219131310962,8.99785327111096,0.0100888899375491,0.001006,-0.000065,0.001329,0.041521,0.017402,313.974168,25.492576,0.999601,0.993365,0.003497,0.364765,-0.000015,-0.000008,0.000007,-0.000004,-0.000020,59.163157,0.000025,
2356,2788,2.09304191111821,3.12711819595035,-0.0288322065363218,0.000965,0.000933,-0.008379,0.074237,0.027281,318.065798,24.642061,0.999691,0.994081,0.003304,0.381678,-0.000031,-0.000011,-0.000008,-0.000008,-0.000033,-71.296194,0.000044,
2071,2863,-4.11248716165845,4.7425166361519,-0.0208711066337628,0.001047,0.000273,-0.004361,0.060793,0.002428,317.655588,24.388061,0.999377,0.992162,0.003731,0.376290,-0.000015,-0.000006,-0.000011,0.000001,-0.000022,-56.625427,0.000025,
2086,2938,-3.79751701552425,6.37115163399675,-0.00499491796483653,0.001418,0.000338,-0.005361,0.080999,0.007147,316.509834,24.399909,0.999299,0.992495,0.003665,0.384433,-0.000024,-0.000015,0.000001,-0.000015,-0.000024,86.733445,0.000040,
2011,2758,-5.39975904165849,2.4588609616465,-0.0396090160068638,0.000821,0.000185,-0.003314,0.046856,-0.008747,319.547622,24.378515,0.999440,0.993203,0.003508,0.368886,-0.000025,-0.000022,0.000001,-0.000021,-0.000025,71.183990,0.000046,
2281,2428,0.527404493577123,-4.72822480169342,-0.00611217186786916,0.000698,0.000169,-0.000782,0.034723,0.009455,324.105084,23.892413,0.999518,0.989784,0.004225,0.373763,-0.000025,-0.000037,-0.000008,-0.000021,-0.000041,-26.257328,0.000064,
2266,2413,0.203395729675009,-5.056383509914,-0.002069978409736,0.000619,0.000246,0.000295,0.027542,0.027665,324.395283,23.904209,0.999070,0.988446,0.004472,0.394864,-0.000027,-0.000014,-0.000005,-0.000013,-0.000029,-70.349353,0.000043,
2341,2683,1.78530803824455,0.839075385635553,-0.0278713323543798,0.000595,-0.000240,0.001831,0.020874,0.001133,319.730161,24.365975,0.999636,0.992326,0.003735,0.362815,-0.000029,0.000002,-0.000006,0.000003,-0.000030,-79.884329,0.000033,
2206,2098,-1.04875882441437,-11.9520432766076,0.0136714523604269,0.000589,0.000318,-0.002959,0.036472,-0.005055,329.740091,23.713289,0.998935,0.983433,0.005263,0.329118,-0.000023,-0.000017,0.000000,-0.000017,-0.000023,-87.648738,0.000041,
2026,2833,-5.08479570839218,4.08930996332489,-0.0301400898195539,0.001036,0.000315,-0.004361,0.059869,0.009076,318.326874,24.350665,0.999645,0.994757,0.003315,0.372345,-0.000028,-0.000001,-0.000011,0.000003,-0.000032,-70.824005,0.000035,
2251,2323,-0.107338624397382,-7.02369700633841,-0.0051990457127431,0.000836,0.000007,-0.003020,0.048202,-0.030793,325.869643,23.836209,0.998819,0.984700,0.005063,0.297971,-0.000024,-0.000042,-0.000002,-0.000024,-0.000042,-4.981736,0.000067,
2476,2203,4.82803279474625,-9.65294392183844,0.0116357575687402,0.001038,0.000675,-0.004536,0.064964,0.005264,328.051422,22.531438,0.998172,0.972796,0.006429,0.302500,-0.000011,-0.000026,-0.000015,-0.000002,-0.000035,-31.663451,0.000041,
2221,2188,-0.736700871578062,-9.97876934713198,0.0068129784277744,0.001000,0.001186,-0.006597,0.067315,0.029611,328.227829,23.764897,0.998902,0.983135,0.005210,0.352812,-0.000033,-0.000007,0.000004,-0.000007,-0.000034,81.778725,0.000043,
2056,2863,-4.43773536617819,4.74166758224759,-0.017714078413178,0.000997,0.000579,-0.005727,0.062304,0.009530,317.766660,24.376436,0.999261,0.991934,0.003784,0.372039,-0.000024,-0.000005,-0.000016,0.000004,-0.000033,-60.345810,0.000036,
2296,2473,0.845401551687026,-3.74312095663477,-0.0225747771089004,0.000943,0.000934,-0.004815,0.059860,0.009554,323.246894,23.975459,0.998865,0.984508,0.005057,0.343357,-0.000025,-0.000030,0.000000,-0.000025,-0.000030,-5.076914,0.000055,
2176,3283,-1.90316449332126,13.8580093969638,0.00662281366288653,0.000857,-0.000090,-0.003942,0.051820,-0.003974,310.556426,24.844728,0.999684,0.995631,0.002877,0.387619,-0.000002,0.000005,0.000001,0.000006,-0.000002,82.984995,0.000006,
2041,2833,-4.75967823505799,4.08976991588135,-0.0237210253580429,0.000429,0.000500,-0.002527,0.027019,0.027769,318.255898,24.372526,0.998947,0.989329,0.004186,0.387394,-0.000020,0.000000,-0.000010,0.000004,-0.000024,-67.561073,0.000026,
2131,3088,-2.84452781169371,9.6273096726966,0.020562534488306,0.001105,0.000204,-0.005680,0.068066,-0.001878,314.054098,24.540839,0.999796,0.995863,0.003038,0.383798,-0.000012,-0.000016,-0.000008,-0.000006,-0.000022,-36.206078,0.000030,
2461,2008,4.54051071972919,-13.9337643329025,0.0256338708446151,0.000668,0.000853,-0.004635,0.048238,0.011987,331.262376,21.905019,0.998884,0.975161,0.006059,0.263582,0.000009,-0.000097,0.000035,0.000020,-0.000108,16.869505,0.000115,
2446,2023,4.20949586411716,-13.6045751550822,0.0286666910030817,0.000788,0.000273,-0.002244,0.044456,-0.003054,331.009587,22.041366,0.999152,0.980564,0.005400,0.272375,-0.000018,-0.000059,0.000026,-0.000006,-0.000071,25.650044,0.000086,
2326,2638,1.46812592541008,-0.142405119214828,-0.0278881938421591,0.000919,0.000705,-0.006558,0.065098,0.008938,320.510130,24.245688,0.999328,0.990064,0.004010,0.390539,-0.000023,-0.000007,0.000001,-0.000007,-0.000023,88.115792,0.000032,
2161,3268,-2.22549248805804,13.5310461597172,0.016839291236181,0.000588,-0.000034,-0.000928,0.030026,0.004193,310.920479,24.732961,0.999593,0.995018,0.003125,0.414597,-0.000001,0.000007,-0.000009,0.000013,-0.000007,-57.053765,0.000013,
2116,3028,-3.16118680129066,8.32575354073153,0.00546277758650149,0.001015,0.000134,-0.003311,0.056742,0.017027,314.961555,24.464417,0.999224,0.992559,0.003634,0.413319,-0.000009,-0.000014,0.000000,-0.000009,-0.000014,-5.711074,0.000024,
2101,2983,-3.480135619898,7.34886714581035,-0.00213720641414739,0.000605,0.000041,-0.003101,0.037037,0.003512,315.682390,24.444460,0.999564,0.993989,0.003241,0.371426,-0.000018,-0.000023,-0.000006,-0.000014,-0.000027,-33.881505,0.000041,
2371,2878,2.40254721117536,5.08587153320985,-0.0196890604327109,0.000958,0.000191,-0.003334,0.055973,-0.000506,316.660617,24.947179,0.999416,0.993927,0.003501,0.305031,-0.000047,-0.000008,-0.000013,-0.000005,-0.000051,-73.521537,0.000062,
2311,2548,1.15843480780764,-2.10694185497564,-0.0198851551940038,0.001026,0.000007,-0.001118,0.050909,-0.004925,322.032833,24.031988,0.999236,0.986734,0.004586,0.403415,-0.000019,-0.000018,-0.000001,-0.000017,-0.000020,-51.280424,0.000037,
2071,2878,-4.11520117630811,5.06843306294586,-0.0234329135025746,0.000835,0.000177,-0.004768,0.052176,-0.004855,317.381892,24.376179,0.999191,0.990024,0.004210,0.377242,-0.000019,0.000002,-0.000012,0.000008,-0.000024,-65.887193,0.000024,
2416,3133,3.33413357429189,10.6260771576827,0.0129459405345642,0.000914,0.000081,-0.003882,0.056383,0.002922,312.801182,25.672075,0.999814,0.995922,0.002838,0.455520,-0.000003,-0.000002,0.000010,0.000008,-0.000013,45.275964,0.000013,
2356,2803,2.09037922712623,3.45234991772384,-0.0187462407927228,0.000639,0.000382,-0.004842,0.046604,0.007762,317.878753,24.659626,0.999823,0.995208,0.003169,0.383150,-0.000034,-0.000018,-0.000009,-0.000014,-0.000038,-65.609453,0.000053,
2086,2953,-3.80047389384759,6.69691568869882,-0.0041230425791241,0.001070,0.000060,-0.001228,0.052989,0.019709,316.244974,24.399558,0.999280,0.993191,0.003587,0.395712,-0.000020,-0.000019,-0.000001,-0.000019,-0.000021,-61.862762,0.000040,
2026,2848,-5.08775164450985,4.41455323322116,-0.0489233502906927,0.001059,0.001192,-0.011512,0.080807,-0.001700,317.948100,24.149966,0.999617,0.995859,0.003152,0.552576,-0.000024,-0.000008,-0.000018,0.000004,-0.000036,-56.928425,0.000040,
2011,2773,-5.40143717054798,2.78563865749464,-0.0394178557718874,0.001117,0.000750,-0.007826,0.072980,0.018979,319.331520,24.400330,0.999494,0.992741,0.003634,0.362909,-0.000017,-0.000009,0.000006,-0.000006,-0.000020,61.965383,0.000028,
2176,3298,-1.90643572867425,14.1835198056307,-0.00139545183282053,0.000707,0.000165,-0.004043,0.045157,-0.012643,310.236497,24.884376,0.999792,0.997033,0.002426,0.349960,0.000004,0.000019,-0.000004,0.000020,0.000003,-74.634111,0.000025,
2281,2443,0.524371609467206,-4.40081395376746,-0.0122698925078453,0.000733,-0.000139,-0.001884,0.039892,-0.012323,323.816535,23.862286,0.999596,0.990403,0.004096,0.411557,-0.000027,-0.000040,-0.000006,-0.000025,-0.000042,-21.327712,0.000068,
2236,2233,-0.418262645582054,-8.99304141832449,-0.0040035345450633,0.001188,0.000200,-0.001959,0.060885,-0.021160,327.373361,23.742667,0.998988,0.985492,0.004798,0.318702,-0.000029,-0.000021,0.000001,-0.000021,-0.000029,81.257268,0.000050,
2476,2218,4.82487873807073,-9.32321775701436,0.00907413650082844,0.001103,0.000794,-0.005341,0.071009,0.025319,327.793044,22.626780,0.999000,0.980961,0.005667,0.286425,-0.000019,-0.000028,-0.000014,-0.000009,-0.000039,-36.340358,0.000051,
2341,2698,1.78338239104749,1.16476513983869,-0.022792274269591,0.000780,0.000042,-0.002255,0.043736,0.006169,319.552024,24.333304,0.999683,0.993376,0.003592,0.437301,-0.000026,-0.000002,-0.000002,-0.000002,-0.000026,-84.410156,0.000032,
2251,2338,-0.110206989271301,-6.69470645237821,-0.00916555650849205,0.000713,0.000704,-0.005515,0.050958,-0.018750,325.596662,23.899835,0.998948,0.986146,0.004921,0.271899,-0.000021,-0.000033,0.000000,-0.000021,-0.000033,0.866423,0.000054,
2041,2848,-4.76163403018621,4.41580325865966,-0.0314512721074038,0.001112,0.000581,-0.004895,0.065116,0.019831,317.985796,24.323855,0.999130,0.991390,0.003948,0.420568,-0.000016,-0.000004,-0.000017,0.000009,-0.000028,-54.733501,0.000029,
2386,2938,2.71720068377017,6.39071036745811,-0.0158151979882746,0.000647,0.000095,-0.002460,0.038601,-0.010444,315.704336,25.099484,0.999289,0.991063,0.003923,0.338517,-0.000042,-0.000017,-0.000007,-0.000015,-0.000043,-74.922545,0.000061,
2206,2113,-1.0505758984194,-11.6234001853583,0.0107915129638059,0.001244,0.000571,-0.006754,0.078537,-0.020301,329.517214,23.699232,0.998647,0.984343,0.005098,0.347524,-0.000021,-0.000017,0.000001,-0.000017,-0.000021,78.453829,0.000038,
2401,3073,3.0189116153121,9.32365640593822,0.0087608674580224,0.000645,0.000126,-0.000065,0.029979,0.010820,313.705924,25.537491,0.999591,0.992620,0.003572,0.357764,-0.000015,-0.000002,0.000004,-0.000001,-0.000016,75.329565,0.000019,
2446,2038,4.20641961428506,-13.2754248477702,0.031088470436373,0.000589,0.000374,-0.001411,0.032337,0.001683,330.775940,22.087083,0.999142,0.979882,0.005547,0.287178,-0.000026,-0.000051,0.000032,-0.000004,-0.000073,34.616721,0.000086,
2056,2878,-4.44014968011331,5.06711727361006,-0.0143921150726101,0.001007,0.000173,-0.001082,0.049532,0.005003,317.538122,24.361482,0.999197,0.990917,0.004015,0.376888,-0.000027,0.000004,-0.000016,0.000011,-0.000034,-66.728726,0.000035,
2461,2023,4.53715734110877,-13.6037694325026,0.024501739948505,0.000635,0.000471,-0.002455,0.038415,0.009837,331.001155,21.989487,0.999159,0.979709,0.005549,0.235038,0.000003,-0.000069,0.000036,0.000018,-0.000084,22.713316,0.000089,
2221,2203,-0.739496658284832,-9.65039941475164,0.00491261381114327,0.001016,0.001087,-0.005059,0.063134,0.029834,327.966404,23.754834,0.999013,0.985053,0.004964,0.384672,-0.000032,-0.000006,0.000004,-0.000005,-0.000032,81.451018,0.000040,
2266,2428,0.200665672865643,-4.72787977575771,-0.00839386093213079,0.000909,0.000351,-0.001258,0.045994,0.011018,324.118165,23.961506,0.999237,0.988941,0.004336,0.348017,-0.000026,-0.000034,-0.000010,-0.000019,-0.000041,-33.606372,0.000061,
2296,2488,0.842637191654429,-3.4165219252525,-0.0177281672266645,0.000691,0.000601,-0.002854,0.041566,0.015212,323.026441,23.961643,0.999371,0.989628,0.004185,0.393994,-0.000025,-0.000027,-0.000005,-0.000021,-0.000031,-40.675658,0.000052,
2161,3283,-2.22774054094675,13.8562267273611,0.015871115172672,0.000795,0.000282,-0.003465,0.047525,0.018612,310.683783,24.752154,0.999702,0.995629,0.002850,0.418325,-0.000001,0.000008,-0.000004,0.000009,-0.000002,-69.714088,0.000009,
2071,2893,-4.11762211191418,5.39448745352923,-0.0186078242663825,0.000778,-0.000012,-0.000070,0.036072,0.005145,317.162066,24.418005,0.999375,0.992821,0.003692,0.341654,-0.000021,0.000001,-0.000011,0.000005,-0.000026,-67.708788,0.000027,
2191,1993,-1.35728466566411,-14.2562085002169,0.026619900212097,0.000910,0.000519,-0.002786,0.050578,-0.007748,331.589325,23.734474,0.999420,0.985944,0.004902,0.269265,0.000033,-0.000064,-0.000021,0.000037,-0.000068,-11.729284,0.000068,
2131,3103,-2.84721160988139,9.95243988874119,0.0265705125545423,0.000861,0.000041,-0.000484,0.041258,0.014191,313.832671,24.550134,0.999757,0.996319,0.002866,0.395031,-0.000012,-0.000016,-0.000006,-0.000007,-0.000020,-35.420421,0.000028,
2116,3043,-3.1634656571557,8.65127268574132,0.0195238422487591,0.000661,-0.000692,0.002383,0.023243,-0.011878,314.801111,24.593538,0.999578,0.994284,0.003246,0.257500,-0.000010,-0.000020,-0.000003,-0.000009,-0.000021,-15.902911,0.000031,
2101,2998,-3.48249383001325,7.67522106969156,-0.00848826335294461,0.000825,0.000478,-0.007184,0.059235,-0.001456,315.406742,24.479179,0.999565,0.994542,0.003163,0.332489,-0.000019,-0.000016,-0.000001,-0.000016,-0.000019,-71.037777,0.000035,
2326,2653,1.46457005530478,0.185615494537174,-0.037382938504436,0.000980,0.000479,-0.005143,0.062985,0.021120,320.184529,24.284926,0.999320,0.990901,0.003938,0.398614,-0.000025,-0.000007,0.000000,-0.000007,-0.000025,89.841106,0.000034,
2011,2788,-5.40348040278498,3.11109433774224,-0.0316942417572932,0.000943,0.000739,-0.006569,0.061593,0.029072,319.141508,24.381248,0.999537,0.992661,0.003598,0.379959,-0.000024,0.000003,-0.000003,0.000003,-0.000024,-84.121986,0.000026,
2416,3148,3.33176684772032,10.9513608971604,0.0242484990715752,0.000753,-0.000127,-0.001873,0.041440,-0.014495,312.635221,25.776814,0.999695,0.994976,0.003035,0.379588,-0.000004,-0.000009,0.000006,0.000000,-0.000014,34.016011,0.000016,
2026,2863,-5.08909759945422,4.74157522712736,-0.0323699790030787,0.001332,0.000631,-0.006282,0.078887,0.008380,317.839828,24.360039,0.999245,0.993048,0.003813,0.342155,-0.000029,-0.000015,-0.000017,-0.000004,-0.000041,-56.270094,0.000050,
2086,2968,-3.80312685992105,7.02219925334488,0.000715944540331748,0.000540,0.000049,-0.000850,0.027403,0.011623,316.015883,24.407024,0.999285,0.992894,0.003575,0.378470,-0.000017,-0.000022,-0.000007,-0.000012,-0.000027,-34.864270,0.000039,
2146,3178,-2.53437025978452,11.5791501038964,0.0333745996946391,0.000524,0.000096,-0.000841,0.026792,0.006096,312.587354,24.645040,0.999446,0.992498,0.003481,0.383374,-0.000015,0.000003,-0.000014,0.000011,-0.000023,-61.524262,0.000023,
2371,2893,2.39980957077081,5.41131054003803,-0.0176415747578744,0.000737,0.000740,-0.005774,0.054727,0.021484,316.431990,24.905284,0.999416,0.992813,0.003614,0.409727,-0.000046,-0.000016,-0.000011,-0.000013,-0.000050,-71.562160,0.000066,
2476,2233,4.82141775115868,-8.99605164140647,0.0138789567399726,0.000488,0.000253,-0.003066,0.034030,-0.001138,327.554272,22.616467,0.999186,0.983099,0.005376,0.329392,-0.000016,0.000001,-0.000006,0.000003,-0.000018,-71.484624,0.000020,
2236,2248,-0.420582632565271,-8.66483642234432,0.00137416023136439,0.001088,0.000723,-0.001978,0.056540,0.027286,327.171705,23.761113,0.998704,0.983565,0.005265,0.371914,-0.000030,-0.000032,0.000005,-0.000026,-0.000036,37.800342,0.000062,
2056,2893,-4.44283990540561,5.39335322083543,-0.0110218914304596,0.000603,0.000148,0.001296,0.024203,0.019734,317.296926,24.403774,0.999428,0.993521,0.003592,0.343265,-0.000029,0.000002,-0.000017,0.000009,-0.000036,-66.637619,0.000038,
2386,2953,2.71452730430726,6.71654720367539,-0.0132498236191623,0.000745,0.000112,-0.001488,0.039656,-0.001868,315.481854,25.127503,0.999155,0.990126,0.004119,0.361817,-0.000037,-0.000017,-0.000004,-0.000016,-0.000038,-78.485771,0.000056,
2281,2458,0.5218570433595,-4.07179690711038,-0.0125042018612476,0.000928,0.000690,-0.002052,0.049721,0.045674,323.580598,23.960356,0.999738,0.991461,0.003896,0.400623,-0.000031,-0.000036,-0.000003,-0.000029,-0.000037,-23.008145,0.000067,
2341,2713,1.77998427600455,1.49283849867972,-0.0289809849417111,0.000757,0.000276,-0.001179,0.038987,0.006550,319.250981,24.436885,0.999437,0.991155,0.003848,0.371223,-0.000027,-0.000008,-0.000003,-0.000007,-0.000028,-81.041703,0.000037,
2251,2353,-0.112645815200086,-6.36821621154495,0.00232505999161958,0.000421,0.000230,-0.000832,0.022104,-0.004975,325.421767,23.889770,0.999077,0.987019,0.004785,0.320561,-0.000024,-0.000020,0.000001,-0.000020,-0.000024,81.242132,0.000044,
2161,3298,-2.23059566941914,14.1812122247136,0.0140464216789837,0.000656,0.000482,-0.002977,0.039563,0.007861,310.414712,24.777725,0.999791,0.996908,0.002466,0.390528,0.000005,0.000021,-0.000008,0.000024,0.000002,-68.365915,0.000029,
2401,3088,3.01673700040489,9.64922045605414,0.0137203799741883,0.000999,0.000061,-0.000093,0.046350,0.007303,313.518288,25.601315,0.999499,0.992161,0.003655,0.334777,-0.000012,0.000000,0.000001,0.000000,-0.000013,86.445648,0.000015,
2446,2053,4.20329316146665,-12.9464211375464,0.0303237306301867,0.000514,0.000516,-0.001597,0.029694,-0.008081,330.525399,22.103491,0.999179,0.979981,0.005492,0.316500,-0.000025,-0.000050,0.000029,-0.000006,-0.000068,33.159370,0.000083,
2461,2038,4.53416907989627,-13.2746936398095,0.0241151058738751,0.000749,0.000446,-0.002035,0.042071,0.004433,330.760043,22.007384,0.999282,0.980678,0.005502,0.269751,-0.000008,-0.000056,0.000044,0.000018,-0.000082,30.632068,0.000086,
2266,2443,0.198259987998462,-4.39958497232983,-0.00884400048380485,0.000987,0.000348,-0.004372,0.059880,-0.017883,323.885411,24.072675,0.999545,0.990387,0.004119,0.234924,-0.000029,-0.000035,-0.000009,-0.000023,-0.000041,-35.990635,0.000065,
2041,2863,-4.76358957503075,4.74117734730449,-0.0220006175593426,0.000978,0.000384,-0.003572,0.055135,-0.003770,317.811339,24.362800,0.999190,0.991438,0.004051,0.349889,-0.000020,-0.000008,-0.000017,0.000004,-0.000032,-54.057740,0.000035,
2101,3013,-3.48448814413336,7.99988940458361,-0.00412647834025393,0.001108,0.000567,-0.005244,0.066605,0.000729,315.206422,24.428518,0.999273,0.993153,0.003459,0.385810,-0.000015,-0.000012,-0.000001,-0.000012,-0.000016,-77.385661,0.000027,
2416,3163,3.32888281662025,11.2771379287749,0.0255697201826024,0.000742,0.000158,-0.001498,0.039711,0.005214,312.398340,25.832372,0.999656,0.994351,0.003150,0.390237,-0.000001,-0.000005,0.000002,0.000000,-0.000006,21.289454,0.000007,
2116,3058,-3.1657303687322,8.9752304587057,0.0152884446761732,0.000965,-0.000203,-0.000151,0.044862,-0.011308,314.543301,24.432880,0.999553,0.994030,0.003392,0.421571,-0.000005,-0.000020,-0.000008,-0.000001,-0.000023,-23.145814,0.000028,
2086,2983,-3.80571367866717,7.34720713602043,0.00047444595224988,0.000449,-0.000468,0.000329,0.019634,-0.005365,315.762245,24.366689,0.999472,0.994106,0.003286,0.400074,-0.000018,-0.000025,-0.000007,-0.000014,-0.000029,-33.239942,0.000044,
2356,2818,2.08780065073136,3.77845063749038,-0.0176079146556276,0.000941,0.000166,-0.003231,0.054702,-0.003659,317.652157,24.683756,0.999654,0.993050,0.003531,0.386271,-0.000037,-0.000019,-0.000012,-0.000013,-0.000043,-63.033878,0.000059,
2026,2878,-5.09096677698523,5.06666202247426,-0.0240871475035078,0.001465,0.000334,-0.002832,0.075387,-0.005633,317.662123,24.357837,0.998936,0.989631,0.004262,0.320251,-0.000027,-0.000007,-0.000014,0.000000,-0.000034,-63.082199,0.000039,
2071,2908,-4.12002087377029,5.71997059462549,-0.0165891073370972,0.000662,0.000099,0.000534,0.029038,0.014331,316.928074,24.391555,0.999481,0.993538,0.003445,0.373688,-0.000022,-0.000014,-0.000014,-0.000004,-0.000032,-53.164121,0.000039,
2221,2218,-0.742315739552357,-9.32182227175917,0.00655434686478884,0.000722,0.000377,-0.004221,0.046733,-0.007873,327.722134,23.843872,0.998874,0.984527,0.005001,0.279355,-0.000028,-0.000011,0.000005,-0.000009,-0.000030,73.817171,0.000041,
2296,2503,0.839325580664909,-3.08729474234291,-0.0286803621804665,0.000874,0.000568,-0.003572,0.052412,0.014280,322.702166,24.055931,0.999675,0.993365,0.003567,0.330357,-0.000029,-0.000028,-0.000007,-0.000022,-0.000035,-46.927318,0.000058,
2191,2008,-1.36001764798733,-13.9269136977762,0.0189081791466492,0.001023,0.000734,-0.005396,0.063939,0.001940,331.298116,23.659410,0.999276,0.985505,0.004979,0.372476,0.000015,-0.000064,-0.000022,0.000021,-0.000069,-14.676970,0.000071,
2206,2128,-1.05338020390056,-11.2944009314013,0.0134700617328463,0.000958,0.000723,-0.004380,0.058013,0.001898,329.277520,23.746381,0.998706,0.983652,0.005200,0.342284,-0.000022,-0.000023,0.000001,-0.000021,-0.000023,38.672579,0.000045,
2056,2908,-4.44499142539331,5.71892053300313,-0.0121764557449637,0.000754,0.000377,-0.000553,0.036505,0.031586,317.055698,24.358677,0.999443,0.993528,0.003471,0.394325,-0.000029,-0.000013,-0.000019,-0.000001,-0.000042,-56.546388,0.000049,
2176,1993,-1.68402111591748,-14.2570715740408,0.0393236312656313,0.000952,0.000128,0.000328,0.042694,-0.010648,331.732727,23.871588,0.999249,0.983989,0.005066,0.234253,0.000047,-0.000055,-0.000014,0.000049,-0.000057,-7.943733,0.000061,
2446,2068,4.19991549330564,-12.6164637628734,0.0269824506293617,0.000513,0.000351,-0.000527,0.025539,0.016403,330.251206,22.149690,0.998970,0.978546,0.005817,0.350580,-0.000023,-0.000032,0.000029,0.000002,-0.000056,40.283444,0.000064,
2251,2368,-0.116303539421555,-6.03891021397774,-0.00778065267132888,0.000514,-0.000516,0.004435,0.008909,-0.012506,325.081598,23.952494,0.999402,0.989822,0.004443,0.275797,-0.000028,-0.000021,-0.000003,-0.000020,-0.000030,-68.591968,0.000050,
2131,3118,-2.85011454183043,10.2781344282538,0.0212072382400947,0.000754,0.000090,-0.001262,0.038624,0.005960,313.540115,24.568058,0.999676,0.996190,0.002934,0.373488,-0.000014,-0.000011,-0.000008,-0.000005,-0.000020,-50.049759,0.000026,
2311,2563,1.15563867320978,-1.77992119276166,-0.0150230171750536,0.000759,-0.000138,0.000668,0.032500,-0.009810,321.811783,24.089849,0.999067,0.988010,0.004503,0.373738,-0.000023,-0.000008,-0.000002,-0.000008,-0.000023,-81.158931,0.000032,
2476,2248,4.81870310495906,-8.66901328998352,0.0186736817690303,0.000675,0.000048,-0.000079,0.031191,-0.005841,327.349539,22.576992,0.999255,0.983299,0.005141,0.422829,-0.000014,0.000002,-0.000010,0.000007,-0.000019,-65.294831,0.000019,
2326,2668,1.4618928992541,0.513126400288712,-0.0334323782766432,0.000842,0.000413,-0.004570,0.054626,0.016673,319.965056,24.411668,0.999612,0.992282,0.003715,0.302215,-0.000026,-0.000001,-0.000007,0.000001,-0.000027,-75.971451,0.000031,
2386,2968,2.7111647547342,7.04305365430134,-0.0161111293141403,0.000515,-0.000201,-0.001418,0.028653,-0.018189,315.201625,25.208422,0.999498,0.991880,0.003807,0.307166,-0.000038,-0.000017,0.000000,-0.000017,-0.000038,89.974746,0.000056,
2011,2803,-5.40618317214066,3.43625539545744,-0.03201854555914,0.000833,-0.000019,-0.001199,0.041659,-0.002147,318.876312,24.317855,0.999473,0.993308,0.003495,0.399901,-0.000014,0.000007,-0.000002,0.000008,-0.000015,-83.857212,0.000015,
2341,2728,1.77739965511729,1.82055321356529,-0.0334278064580076,0.001144,0.000273,-0.003670,0.065422,-0.006244,318.995810,24.539983,0.999333,0.990433,0.003963,0.292167,-0.000030,-0.000014,-0.000003,-0.000014,-0.000031,-80.684771,0.000046,
2041,2878,-4.76621731368585,5.06752750421653,-0.0238594295313987,0.000963,0.000120,-0.000616,0.046120,-0.007234,317.542957,24.391495,0.998908,0.988189,0.004474,0.309750,-0.000019,0.000002,-0.000016,0.000011,-0.000028,-61.408811,0.000028,
2461,2053,4.53150806532095,-12.946303643602,0.0294519241468834,0.000679,0.000145,-0.002095,0.038986,-0.017910,330.560037,22.049102,0.999287,0.981450,0.005383,0.263117,-0.000009,-0.000054,0.000040,0.000015,-0.000078,30.091977,0.000083,
2146,3193,-2.53670523654216,11.9041594426684,0.0321177908168124,0.000701,-0.000229,-0.002338,0.039365,-0.015578,312.344199,24.658345,0.999493,0.994031,0.003195,0.354955,-0.000016,-0.000002,-0.000016,0.000008,-0.000027,-57.283316,0.000027,
2371,2908,2.396538188827,5.73766803349884,-0.0168133737919902,0.000686,0.000454,-0.000485,0.033514,0.036485,316.172682,24.950175,0.999376,0.991318,0.003815,0.420450,-0.000046,-0.000018,-0.000009,-0.000016,-0.000049,-74.172070,0.000068,
2071,2923,-4.12168578705542,6.04482274665627,-0.00948582416651789,0.000794,-0.000011,-0.001596,0.041186,0.006291,316.755874,24.364326,0.999422,0.993127,0.003495,0.389116,-0.000025,-0.000020,-0.000008,-0.000014,-0.000030,-54.802362,0.000046,
2056,2923,-4.44709710051054,6.04443834599068,-0.0106325452230749,0.000738,0.000560,-0.003215,0.043293,0.022504,316.831534,24.353473,0.999473,0.993915,0.003371,0.384802,-0.000032,-0.000019,-0.000012,-0.000012,-0.000039,-59.291838,0.000054,
2401,3103,3.01412714281523,9.97420584005245,0.0194483440350268,0.000767,0.000186,-0.001226,0.039806,0.004094,313.314366,25.619673,0.999559,0.993546,0.003359,0.357679,-0.000007,0.000004,0.000006,0.000007,-0.000010,65.013221,0.000010,
2086,2998,-3.80756840972366,7.67329239707013,0.00244265699598145,0.000673,-0.000077,-0.002936,0.039516,-0.006139,315.553848,24.428283,0.999538,0.994276,0.003173,0.336108,-0.000019,-0.000016,-0.000003,-0.000014,-0.000021,-57.243075,0.000035,
2281,2473,0.518542435979366,-3.74442130854281,-0.0145670099254289,0.000555,0.000619,-0.000789,0.028383,0.043838,323.299375,23.956058,0.999493,0.990148,0.004144,0.432081,-0.000024,-0.000028,0.000002,-0.000023,-0.000029,21.716631,0.000052,
2416,3178,3.32600583093631,11.6027835568899,0.023619775919542,0.000824,0.000370,-0.003315,0.050272,0.012975,312.146403,25.872004,0.999583,0.993480,0.003309,0.404888,0.000002,-0.000004,0.000001,0.000002,-0.000004,7.173134,0.000004,
2191,2023,-1.3623349722927,-13.5968980087991,0.0194191751140806,0.001153,0.001021,-0.005752,0.071137,0.012681,331.068310,23.748325,0.999026,0.985008,0.005012,0.312268,0.000002,-0.000049,-0.000017,0.000007,-0.000054,-16.468927,0.000059,
2296,2518,0.836660159102617,-2.75986049942381,-0.0348631557832277,0.001315,0.000721,-0.004631,0.076288,0.016542,322.431424,24.032022,0.999605,0.992198,0.003712,0.387579,-0.000026,-0.000032,-0.000006,-0.000022,-0.000036,-32.485174,0.000058,
2116,3073,-3.16873191442173,9.3020321332598,0.00702436405049411,0.000840,0.000224,-0.002091,0.045012,0.001159,314.228936,24.500884,0.999657,0.993549,0.003638,0.368472,-0.000004,-0.000018,-0.000009,0.000001,-0.000022,-26.819063,0.000025,
2266,2458,0.194869170089913,-4.06991948577898,-0.0253411380680859,0.001433,0.000711,-0.004875,0.082180,0.015507,323.526464,24.103279,0.999681,0.991589,0.003926,0.265327,-0.000032,-0.000033,-0.000005,-0.000027,-0.000038,-40.630709,0.000065,
2176,2008,-1.68795265787643,-13.9260329117932,0.0211339649301294,0.000666,0.000414,-0.000569,0.032411,0.025433,331.330281,23.809050,0.999195,0.985887,0.004845,0.349848,0.000025,-0.000058,-0.000016,0.000028,-0.000062,-10.701340,0.000062,
2101,3028,-3.48672278968284,8.32499640481011,0.000434491214832633,0.001163,0.000348,-0.002984,0.062509,0.013064,314.996004,24.412906,0.999022,0.992580,0.003687,0.414325,-0.000011,-0.000015,0.000001,-0.000010,-0.000015,13.474572,0.000025,
2446,2083,4.19612480343197,-12.285823872308,0.0215205082890293,0.000347,0.000034,0.001387,0.010712,0.018178,329.948352,22.263502,0.998818,0.976285,0.006220,0.294313,-0.000020,-0.000032,0.000026,0.000001,-0.000052,38.074824,0.000060,
2221,2233,-0.744769505036327,-8.99392155847729,0.00623258130718796,0.000823,0.000691,-0.004748,0.053157,-0.008048,327.484450,23.818370,0.998920,0.984705,0.005044,0.326049,-0.000030,-0.000017,0.000006,-0.000015,-0.000033,69.988761,0.000048,
2236,2263,-0.423327626907305,-8.33618998255022,0.00348215575354516,0.000695,0.000871,-0.003494,0.043485,0.044344,326.934047,23.822399,0.999023,0.984223,0.005204,0.350943,-0.000027,-0.000038,0.000006,-0.000024,-0.000041,25.095232,0.000066,
2356,2833,2.08474629628933,4.10568379667606,-0.0234689811401836,0.001030,0.000369,-0.005262,0.066005,-0.001069,317.369563,24.749472,0.999705,0.991526,0.003768,0.362016,-0.000038,-0.000011,-0.000012,-0.000007,-0.000042,-69.397504,0.000053,
2026,2893,-5.0936294884597,5.39190380196592,-0.0165580555390079,0.000691,0.000204,-0.002067,0.037603,0.003286,317.443789,24.344796,0.999304,0.993365,0.003472,0.331817,-0.000025,-0.000012,-0.000013,-0.000004,-0.000033,-58.564832,0.000041,
2131,3133,-2.85236623150758,10.6027179587838,0.0272983470388226,0.000767,-0.000362,0.001274,0.031450,-0.005717,313.339202,24.562078,0.999649,0.995683,0.002959,0.372208,-0.000016,-0.000007,-0.000010,0.000000,-0.000023,-56.375078,0.000027,
2476,2263,4.81550481128714,-8.33871350243877,0.0106340515928309,0.000638,0.000843,-0.007037,0.056215,-0.001549,327.064123,22.700416,0.999039,0.981729,0.005152,0.362952,-0.000018,-0.000007,-0.000016,0.000005,-0.000029,-54.436254,0.000032,
2011,2818,-5.40873965096343,3.76149297971793,-0.0298032052280632,0.000655,-0.000428,0.003062,0.021756,-0.008600,318.632027,24.260551,0.999209,0.992072,0.003681,0.438635,-0.000017,0.000003,-0.000002,0.000003,-0.000018,-84.677059,0.000019,
2041,2893,-4.76804098873714,5.39220757973296,-0.0133160376959722,0.000809,0.000010,-0.000739,0.039386,0.003013,317.380835,24.347634,0.999220,0.992602,0.003667,0.355773,-0.000018,0.000000,-0.000016,0.000009,-0.000027,-59.263481,0.000027,
2461,2068,4.52910659592787,-12.6179276507932,0.0347224165877833,0.000856,0.000291,-0.002322,0.047977,0.001657,330.371329,22.051568,0.999297,0.981781,0.005341,0.337651,-0.000009,-0.000041,0.000037,0.000015,-0.000065,33.185072,0.000068,
2311,2578,1.15193995553668,-1.45045401967294,-0.0292838198770937,0.000663,0.000327,-0.002410,0.038813,0.009651,321.454655,24.184902,0.999430,0.991859,0.003783,0.331415,-0.000020,-0.000003,0.000002,-0.000003,-0.000020,82.925700,0.000025,
2146,3208,-2.53898438133332,12.2294290777711,0.0332820551270743,0.000761,0.000392,-0.004030,0.047565,0.021114,312.116371,24.655491,0.999527,0.994767,0.003081,0.401147,-0.000016,-0.000002,-0.000017,0.000009,-0.000027,-56.360985,0.000027,
2056,2938,-4.44932376865968,6.36950887662095,-0.00680191959196463,0.000731,0.000177,-0.001508,0.038020,0.003330,316.614633,24.337348,0.999298,0.993136,0.003528,0.375616,-0.000031,-0.000016,-0.000004,-0.000015,-0.000031,-76.582134,0.000047,
2326,2683,1.45904823669132,0.839211886661488,-0.0336946843758028,0.000934,0.000357,-0.002815,0.052747,0.006239,319.717610,24.382861,0.999754,0.992704,0.003600,0.355401,-0.000027,0.000001,-0.000005,0.000002,-0.000028,-79.261168,0.000031,
2071,2938,-4.12344048389317,6.37041588204701,-0.00622505210179725,0.001097,0.000142,-0.003433,0.060469,0.008382,316.558238,24.371218,0.999375,0.992646,0.003532,0.380638,-0.000023,-0.000016,-0.000001,-0.000016,-0.000023,-82.532127,0.000039,
2386,2983,2.7090130602515,7.36825524764478,-0.00700014705034846,0.000725,-0.000108,0.000909,0.030030,-0.002599,315.034349,25.223718,0.999500,0.990933,0.003992,0.350096,-0.000035,-0.000011,0.000006,-0.000010,-0.000036,75.642425,0.000049,
2206,2143,-1.05593200740156,-10.9643965070296,0.0113050757279893,0.001092,0.000808,-0.004584,0.064806,0.003226,329.024401,23.858940,0.999150,0.985370,0.004916,0.250797,-0.000027,-0.000039,0.000003,-0.000026,-0.000039,11.256000,0.000066,
2446,2098,4.19298128349307,-11.9558987496591,0.0135492005284163,0.000330,0.000622,-0.005159,0.034488,0.000094,329.663709,22.310525,0.999350,0.980029,0.005676,0.284768,-0.000025,-0.000043,0.000010,-0.000020,-0.000048,24.429392,0.000070,
2176,2023,-1.6896241772926,-13.5963138089,0.0199320610288964,0.001089,0.001437,-0.007331,0.072991,0.045010,331.119747,23.842270,0.998840,0.985950,0.004901,0.351867,0.000008,-0.000051,-0.000012,0.000010,-0.000053,-11.303594,0.000056,
2251,2383,-0.118698899286084,-5.71311688219541,-0.00893874301078768,0.000569,-0.000475,0.000817,0.023267,-0.014656,324.845006,23.780983,0.999082,0.987975,0.004632,0.470047,-0.000028,-0.000019,0.000000,-0.000019,-0.000028,-87.269672,0.000048,
2086,3013,-3.80977348996008,7.99816810596774,0.00355115793695404,0.000917,0.000110,-0.001176,0.045671,-0.007100,315.325127,24.376951,0.999610,0.994767,0.002993,0.384799,-0.000016,-0.000012,-0.000003,-0.000010,-0.000018,-61.176856,0.000028,
2416,3193,3.32342338390724,11.9280027997344,0.0279588633697472,0.000832,0.000161,-0.003470,0.051098,0.005013,311.937643,25.928988,0.999539,0.992900,0.003348,0.386280,0.000003,0.000001,0.000000,0.000003,0.000001,-7.417319,0.000003,
2281,2488,0.51522403675531,-3.41782484373195,-0.0199792778715846,0.000459,0.000393,0.001015,0.017848,0.028399,323.001454,23.868466,0.999636,0.991871,0.003894,0.533635,-0.000025,-0.000023,-0.000003,-0.000021,-0.000027,-53.874744,0.000048,
2026,2908,-5.09524029865668,5.71658304982988,-0.00613757603650811,0.000713,0.000006,-0.002697,0.040333,0.005286,317.290047,24.310793,0.999305,0.993172,0.003497,0.357397,-0.000024,-0.000019,-0.000013,-0.000008,-0.000034,-50.295112,0.000045,
2371,2923,2.39371827795737,6.06400425219527,-0.0139815471051747,0.000480,0.000486,-0.000991,0.025875,0.038129,315.943705,25.024806,0.999278,0.991238,0.003876,0.387870,-0.000046,-0.000022,-0.000008,-0.000020,-0.000049,-73.980768,0.000071,
2116,3088,-3.17067064887898,9.62723274915536,0.010770342944852,0.000970,0.000204,-0.004534,0.058243,0.000630,314.028643,24.515812,0.999618,0.993436,0.003469,0.355522,-0.000009,-0.000016,-0.000009,-0.000003,-0.000022,-32.894076,0.000027,
2191,2038,-1.36559589602314,-13.2658909839895,0.0111916796944911,0.001007,0.000890,-0.005240,0.062794,0.011049,330.750102,23.847449,0.999144,0.986618,0.004735,0.229901,-0.000004,-0.000051,-0.000016,0.000001,-0.000055,-16.928460,0.000064,
2221,2248,-0.747999057212255,-8.66542031578088,-0.0028949549881645,0.000738,0.000818,-0.005719,0.052404,0.001021,327.166089,23.753538,0.998806,0.984482,0.005098,0.421554,-0.000032,-0.000028,0.000007,-0.000023,-0.000037,51.967769,0.000061,
2266,2473,0.1922305709959,-3.74498206081458,-0.0137405563913262,0.000755,0.000457,-0.002943,0.044569,0.013076,323.343979,24.002876,0.999734,0.992751,0.003728,0.389756,-0.000024,-0.000026,0.000001,-0.000024,-0.000026,25.687471,0.000050,
2041,2908,-4.76973129277376,5.71785194729853,-0.0120101911288089,0.001169,0.000338,-0.003897,0.064926,0.021619,317.173226,24.320336,0.999392,0.993136,0.003477,0.393800,-0.000017,-0.000014,-0.000016,0.000001,-0.000031,-47.556194,0.000036,
2101,3043,-3.48926377004113,8.65026332553817,0.0111268948011798,0.000603,-0.000192,0.000523,0.026269,0.003322,314.804749,24.477692,0.999423,0.993798,0.003370,0.339784,-0.000010,-0.000021,-0.000002,-0.000009,-0.000021,-11.269038,0.000031,
2401,3118,3.01160923186106,10.299893426196,0.0262012279027317,0.000533,0.000343,-0.002563,0.033934,0.006289,313.119245,25.706885,0.999829,0.996190,0.002743,0.316826,-0.000003,0.000002,0.000007,0.000007,-0.000007,55.594318,0.000008,
2011,2833,-5.40976403645246,4.08851865505309,-0.0224964616029979,0.000964,0.000439,-0.005332,0.059075,0.004835,318.485905,24.389757,0.999666,0.995051,0.003275,0.310485,-0.000023,0.000003,-0.000005,0.000003,-0.000024,-79.320640,0.000026,
2476,2278,4.81169442565443,-8.00795191119195,0.000167589268244228,0.000803,0.000922,-0.006729,0.062612,0.008281,326.739466,22.842428,0.999407,0.982722,0.005010,0.289907,-0.000024,-0.000013,-0.000014,-0.000003,-0.000034,-55.234503,0.000041,
2236,2278,-0.426234296857277,-8.00831782119864,-0.00123693207763154,0.000935,0.000008,-0.000595,0.044835,-0.007715,326.654730,23.817705,0.999078,0.985348,0.004907,0.327113,-0.000025,-0.000033,0.000004,-0.000023,-0.000034,20.583823,0.000058,
2341,2743,1.77504943672697,2.14556313749532,-0.0262410273039677,0.001078,-0.000071,-0.003382,0.061294,-0.017920,318.808468,24.491336,0.999495,0.991636,0.003734,0.365858,-0.000030,-0.000011,-0.000002,-0.000011,-0.000030,-82.866838,0.000042,
2356,2848,2.08112279610221,4.43249917810871,-0.0308301216796849,0.000844,0.000320,-0.004945,0.056347,-0.003766,317.053617,24.776125,0.999617,0.991778,0.003689,0.371360,-0.000037,-0.000005,-0.000011,-0.000001,-0.000041,-72.571871,0.000048,
2131,3148,-2.85468808336849,10.9281240669181,0.0272960505980677,0.000738,0.000345,-0.001854,0.039785,0.022125,313.102111,24.558515,0.999634,0.994585,0.003055,0.408129,-0.000017,-0.000005,-0.000012,0.000002,-0.000024,-57.679376,0.000027,
2146,3223,-2.54137231597447,12.5539158512314,0.0376525051356111,0.000710,0.000222,-0.002586,0.040760,0.019169,311.900930,24.640973,0.999483,0.995048,0.003017,0.420222,-0.000015,0.000004,-0.000020,0.000017,-0.000028,-57.631306,0.000028,
2416,3208,3.32039788517789,12.2533479262775,0.0302768682477677,0.000668,0.000248,-0.002233,0.039096,0.013445,311.698868,25.972774,0.999480,0.992173,0.003600,0.397442,0.000002,-0.000007,-0.000004,0.000004,-0.000009,-20.863041,0.000009,
2461,2083,4.52516598903533,-12.2869074762051,0.0243247931996962,0.000589,0.000769,-0.005127,0.046485,0.012814,330.040568,22.135836,0.999283,0.980205,0.005553,0.322729,-0.000007,-0.000041,0.000033,0.000013,-0.000061,31.671525,0.000064,
2296,2533,0.833895343190822,-2.43375903626396,-0.0411768793993588,0.001707,0.000345,-0.005069,0.095617,-0.020624,322.155837,23.929831,0.999682,0.994091,0.003380,0.483852,-0.000026,-0.000037,-0.000011,-0.000019,-0.000043,-31.678627,0.000064,
2026,2923,-5.09755415164822,6.04230364170229,-0.00689233118077937,0.000780,0.000205,-0.002076,0.041811,0.016296,317.041310,24.286759,0.999315,0.993497,0.003490,0.382115,-0.000020,-0.000023,-0.000004,-0.000018,-0.000026,-34.714580,0.000044,
2056,2953,-4.45127703378789,6.69475648846997,-0.0020291488135058,0.000843,0.000102,-0.001415,0.042918,0.010083,316.415387,24.321865,0.999178,0.993241,0.003567,0.391981,-0.000024,-0.000023,-0.000006,-0.000017,-0.000029,-47.893740,0.000047,
2326,2698,1.45660310627484,1.1648672138512,-0.0309832546843722,0.000893,0.000502,-0.005119,0.058897,0.008497,319.503070,24.330743,0.999604,0.991883,0.003744,0.444472,-0.000025,-0.000006,-0.000002,-0.000006,-0.000025,-83.821248,0.000033,
2251,2398,-0.121147201487251,-5.38414810418757,-0.00696901826768226,0.000594,-0.000068,0.000345,0.026108,-0.007888,324.621112,23.926159,0.999211,0.990230,0.004293,0.356598,-0.000027,-0.000013,0.000001,-0.000013,-0.000027,87.300706,0.000041,
2446,2113,4.19110702595027,-11.6276780401557,0.0205328363530839,0.000871,0.000746,-0.005366,0.060079,-0.000246,329.505806,22.353490,0.999518,0.980504,0.005496,0.296241,-0.000027,-0.000042,0.000005,-0.000026,-0.000043,16.876860,0.000070,
2176,2038,-1.69244965694794,-13.2667831655294,0.0207263358828982,0.000847,0.000864,-0.005029,0.054621,0.012927,330.867199,23.938170,0.999056,0.986092,0.004790,0.239627,-0.000001,-0.000048,-0.000009,0.000001,-0.000050,-10.514317,0.000057,
2206,2158,-1.05876550532476,-10.6365991663325,0.00799232581175602,0.000990,0.000786,-0.005019,0.061528,0.004081,328.752805,23.764118,0.999090,0.986293,0.004855,0.366155,-0.000024,-0.000038,0.000005,-0.000022,-0.000040,16.770400,0.000063,
2071,2953,-4.12617618644486,6.69628788889743,-0.00892036303275745,0.001010,0.000063,-0.001783,0.051743,0.008556,316.282871,24.367937,0.999178,0.992736,0.003648,0.380313,-0.000018,-0.000021,-0.000003,-0.000017,-0.000022,-32.079019,0.000039,
2191,2053,-1.36852845120395,-12.9377106695282,0.00843293167355341,0.000836,0.000499,-0.004148,0.051416,-0.004449,330.475608,23.770500,0.999141,0.984011,0.005011,0.309665,-0.000012,-0.000047,-0.000010,-0.000009,-0.000050,-14.119106,0.000063,
2386,2998,2.70638853310722,7.69361656935941,0.000236689912526344,0.000386,-0.000028,0.000368,0.016403,-0.004937,314.836325,25.261847,0.999554,0.991494,0.003794,0.351907,-0.000031,-0.000009,0.000006,-0.000007,-0.000032,74.976143,0.000042,
2311,2593,1.14994007247501,-1.12443556706872,-0.0223652340936269,0.000800,0.000646,-0.003737,0.049754,0.025689,321.280320,24.157129,0.999537,0.992448,0.003612,0.408085,-0.000019,-0.000017,0.000004,-0.000014,-0.000022,51.344744,0.000036,
2476,2293,4.8080536349292,-7.68228286931231,0.00931639835141596,0.000199,-0.000239,0.002292,0.000335,-0.002562,326.511872,22.743314,0.999481,0.983315,0.004965,0.436816,-0.000021,-0.000004,-0.000017,0.000007,-0.000031,-58.841414,0.000033,
2221,2263,-0.75077655702302,-8.3357185229094,-0.00629457123295651,0.000745,0.000628,-0.006329,0.054599,0.013375,326.897438,23.859841,0.998904,0.983993,0.005136,0.349058,-0.000028,-0.000034,0.000009,-0.000021,-0.000041,36.170087,0.000063,
2101,3058,-3.49104271189131,8.97467577179113,0.0146446433839174,0.000863,0.000262,-0.002194,0.046347,0.014727,314.609871,24.398633,0.999596,0.994865,0.003160,0.430726,-0.000003,-0.000020,-0.000007,0.000000,-0.000023,-21.139225,0.000026,
2011,2848,-5.4122019856011,4.41324406215957,-0.0249315510326937,0.000940,0.000332,-0.005160,0.057440,-0.005751,318.221156,24.262508,0.999671,0.995649,0.003212,0.415121,-0.000020,-0.000005,-0.000016,0.000005,-0.000030,-57.352034,0.000032,
2266,2488,0.188720326647324,-3.41784142601105,-0.0199114369199265,0.000604,-0.000125,0.000363,0.026461,-0.008941,323.031978,23.964504,0.999644,0.992046,0.003826,0.432979,-0.000026,-0.000019,-0.000003,-0.000018,-0.000027,-67.669615,0.000046,
2041,2923,-4.77212201833811,6.04304834894526,-0.0112967486292064,0.000971,0.000551,-0.005309,0.059744,0.007335,316.930462,24.284551,0.999392,0.993532,0.003420,0.406984,-0.000017,-0.000019,-0.000008,-0.000010,-0.000026,-41.106576,0.000037,
2371,2938,2.39127816853104,6.3895773562563,-0.00987809531261519,0.000652,0.000179,-0.000239,0.030914,0.015266,315.738484,25.066421,0.999228,0.990827,0.003909,0.363887,-0.000042,-0.000016,-0.000006,-0.000015,-0.000043,-77.963286,0.000060,
2131,3163,-2.85683746297173,11.2529844521893,0.0287952020426019,0.000986,0.000105,-0.001930,0.051387,0.013822,312.881210,24.553564,0.999498,0.993100,0.003369,0.409490,-0.000014,0.000002,-0.000014,0.000010,-0.000022,-58.998283,0.000022,
2116,3103,-3.17246688346505,9.95190182783316,0.0205922844448878,0.001088,-0.000003,-0.003293,0.059974,-0.002135,313.867840,24.525639,0.999797,0.996083,0.002900,0.345438,-0.000008,-0.000016,-0.000006,-0.000004,-0.000019,-29.824998,0.000025,
2281,2503,0.512761499067409,-3.08782874673585,-0.022921102866917,0.000657,0.000566,-0.002720,0.039503,0.031222,322.754270,24.101983,0.999663,0.992657,0.003759,0.331739,-0.000028,-0.000025,-0.000004,-0.000022,-0.000031,-57.082903,0.000053,
2356,2863,2.07827154979115,4.75855072070455,-0.0283806155523507,0.000846,0.000257,-0.002394,0.047456,0.015354,316.820593,24.788714,0.999484,0.991917,0.003712,0.416630,-0.000040,-0.000004,-0.000015,0.000002,-0.000045,-70.109058,0.000051,
2026,2938,-5.10005449156232,6.3680439341769,-0.00595244820209473,0.000699,0.000025,0.000815,0.030070,0.014847,316.793531,24.293225,0.999105,0.992239,0.003800,0.363995,-0.000016,-0.000019,0.000004,-0.000013,-0.000022,32.906384,0.000035,
2056,2968,-4.45359549547879,7.01990250730001,0.000462700340619904,0.000815,0.000017,0.000040,0.037378,-0.019093,316.186919,24.320585,0.999144,0.992391,0.003647,0.357853,-0.000019,-0.000029,-0.000017,-0.000007,-0.000041,-36.617687,0.000052,
2461,2098,4.52164710247284,-11.9569122119438,0.0218862478828328,0.000582,0.000178,-0.001956,0.034048,-0.008931,329.765516,22.253603,0.999563,0.981410,0.005349,0.240797,-0.000013,-0.000051,0.000016,-0.000007,-0.000057,19.490319,0.000070,
2146,3238,-2.54447591772324,12.8800421322893,0.0276415491715625,0.000808,0.000057,-0.002504,0.044945,0.002852,311.575388,24.713811,0.999563,0.994966,0.002992,0.337289,-0.000015,0.000003,-0.000020,0.000016,-0.000028,-56.989407,0.000028,
2086,3028,-3.81184082447719,8.32383017314718,0.00365862172481002,0.001133,0.000392,-0.003115,0.061374,0.010930,315.096977,24.376285,0.999398,0.993733,0.003335,0.401586,-0.000011,-0.000014,-0.000001,-0.000011,-0.000014,-10.449184,0.000025,
2236,2293,-0.429164119845122,-7.67995382644468,-0.00844087180291808,0.000884,0.000363,-0.003931,0.053393,-0.016728,326.361418,23.795833,0.999229,0.986704,0.004541,0.363711,-0.000026,-0.000033,0.000003,-0.000025,-0.000034,22.743538,0.000059,
2326,2713,1.45357238922308,1.49379352963739,-0.0348271553396557,0.000827,0.000827,-0.006798,0.061763,0.020136,319.228744,24.520745,0.999205,0.988331,0.004309,0.301008,-0.000025,-0.000013,-0.000003,-0.000012,-0.000026,-76.403879,0.000039,
2296,2548,0.83137237819059,-2.10620112134717,-0.0258363932265979,0.000997,0.000323,-0.002233,0.053431,-0.000048,321.997994,24.101341,0.999293,0.990054,0.004179,0.363364,-0.000027,-0.000020,-0.000008,-0.000015,-0.000032,-56.385670,0.000048,
2206,2173,-1.06140780742023,-10.3077593795545,0.0043711730449445,0.000800,0.001051,-0.009949,0.068467,-0.002557,328.488220,23.774322,0.999318,0.987734,0.004535,0.368894,-0.000025,-0.000027,0.000005,-0.000021,-0.000031,38.544856,0.000052,
2251,2413,-0.123583424495255,-5.05663884612683,-0.00325320749493585,0.000540,-0.000121,0.000423,0.023351,-0.008991,324.406869,23.966958,0.999166,0.989442,0.004255,0.339514,-0.000025,-0.000016,-0.000005,-0.000014,-0.000027,-66.977650,0.000041,
2446,2128,4.1879516432139,-11.2985281011929,0.0195354466779349,0.000839,0.000828,-0.004952,0.057116,-0.003743,329.252448,22.402689,0.999443,0.980314,0.005656,0.298561,-0.000024,-0.000033,0.000003,-0.000023,-0.000034,19.154371,0.000058,
2401,3133,3.00817660878055,10.6261062787299,0.0158654888518299,0.000819,0.000441,-0.002899,0.048441,0.024886,312.800958,25.724203,0.999753,0.995494,0.002932,0.362841,-0.000003,-0.000002,0.000009,0.000006,-0.000011,46.205243,0.000011,
2011,2863,-5.41465104698899,4.73950923616913,-0.0225288711415601,0.000832,0.000080,-0.001529,0.042481,-0.010605,317.982578,24.311348,0.999279,0.991970,0.003996,0.349013,-0.000025,-0.000017,-0.000017,-0.000004,-0.000038,-52.343242,0.000047,
2386,3013,2.70450916424775,8.01911084905002,0.00732276589917547,0.000747,0.000097,-0.000913,0.037683,0.002561,314.671780,25.304359,0.999609,0.991933,0.003645,0.359507,-0.000029,-0.000011,0.000004,-0.000011,-0.000030,77.826983,0.000042,
2176,2053,-1.69506183758412,-12.9378219123189,0.0180295362488323,0.001003,0.000504,-0.003380,0.056572,0.018681,330.606061,23.910880,0.999179,0.986143,0.004650,0.288696,-0.000010,-0.000043,-0.000002,-0.000010,-0.000043,-2.923632,0.000056,
2416,3223,3.31721600192305,12.5788651144956,0.0255165075889181,0.000590,0.000179,-0.005073,0.045880,0.001549,311.419511,26.015699,0.999404,0.991798,0.003693,0.389056,0.000001,-0.000006,-0.000005,0.000004,-0.000008,-26.935308,0.000008,
2476,2308,4.80574515018601,-7.35167004047777,0.0086335164012894,0.000538,0.000453,-0.003580,0.038366,0.026256,326.300149,22.962188,0.999121,0.979165,0.005707,0.305577,-0.000018,0.000009,-0.000013,0.000015,-0.000023,-67.521113,0.000024,
2191,2068,-1.371601190285,-12.6093057856846,0.00461449766140731,0.000727,0.000044,-0.001199,0.037098,-0.033783,330.189249,23.721909,0.999431,0.985405,0.004959,0.346921,-0.000017,-0.000038,-0.000003,-0.000017,-0.000038,-6.858443,0.000056,
2341,2758,1.77201984657445,2.47228870259068,-0.0219234849683971,0.000687,0.000210,-0.001405,0.036615,0.023182,318.575406,24.528537,0.999518,0.991607,0.003796,0.406555,-0.000028,-0.000007,0.000001,-0.000007,-0.000028,87.998142,0.000038,
2311,2608,1.14718363008096,-0.797288865384964,-0.0240137988265587,0.000908,0.000576,-0.003993,0.055592,0.029501,321.028893,24.175245,0.999561,0.992395,0.003578,0.426868,-0.000023,-0.000020,0.000006,-0.000015,-0.000027,51.906990,0.000043,
2026,2953,-5.10129773904314,6.69345964784483,-0.00433526822797603,0.001180,0.000518,-0.007228,0.074466,0.006343,316.607297,24.285489,0.999397,0.993126,0.003447,0.352822,-0.000012,-0.000026,0.000002,-0.000012,-0.000026,6.296748,0.000039,
2371,2953,2.38831109980413,6.71589069197713,-0.012826314204915,0.000590,0.000185,-0.002777,0.037170,0.014808,315.474939,25.108218,0.999274,0.990820,0.003968,0.362185,-0.000037,-0.000016,-0.000004,-0.000015,-0.000037,-80.407472,0.000054,
2281,2518,0.510551442192494,-2.76233138772392,-0.0208649335346536,0.000833,0.000417,-0.004852,0.054622,0.003992,322.544570,24.003599,0.999708,0.992835,0.003719,0.431563,-0.000025,-0.000030,-0.000003,-0.000024,-0.000032,-23.968269,0.000056,
2101,3073,-3.49338130133629,9.30062401446983,0.0150349992042607,0.000822,0.000311,-0.004097,0.050037,0.012465,314.371829,24.457993,0.999460,0.992335,0.003638,0.369232,-0.000002,-0.000016,-0.000008,0.000002,-0.000020,-25.239723,0.000022,
2056,2983,-4.45605643638952,7.34590458835692,0.000473484793417356,0.000758,0.000127,0.000795,0.032689,-0.007406,315.937876,24.344152,0.999079,0.990886,0.003825,0.340163,-0.000023,-0.000031,-0.000018,-0.000009,-0.000045,-38.179296,0.000058,
2116,3118,-3.17538748099276,10.2770942274136,0.0207688426897903,0.000690,0.000238,-0.002321,0.038776,0.007034,313.603253,24.514537,0.999763,0.996311,0.002780,0.367758,-0.000011,-0.000010,-0.000008,-0.000003,-0.000018,-46.058214,0.000022,
2131,3178,-2.85949037239959,11.5779876140375,0.0298999837287965,0.000682,0.000051,-0.003175,0.041042,0.003893,312.635018,24.564750,0.999227,0.990206,0.003808,0.392414,-0.000013,0.000004,-0.000014,0.000011,-0.000021,-60.724531,0.000021,
2236,2308,-0.43183929294187,-7.35121898085834,-0.0118415922448207,0.001013,0.000333,-0.004634,0.061548,-0.007644,326.098900,23.833863,0.998946,0.986459,0.004672,0.357767,-0.000029,-0.000042,0.000005,-0.000028,-0.000043,19.056068,0.000072,
2041,2938,-4.77536574340599,6.36895336280012,-0.0127394858093339,0.000413,0.000502,-0.000850,0.021574,0.018918,316.636354,24.277149,0.999166,0.992741,0.003642,0.417997,-0.000015,-0.000016,0.000001,-0.000014,-0.000017,32.573161,0.000031,
2221,2278,-0.752935671196784,-8.00853059212335,0.00290561533984146,0.000857,-0.000208,-0.001511,0.044069,-0.014287,326.722094,23.909493,0.998754,0.984200,0.005120,0.292344,-0.000025,-0.000029,0.000006,-0.000020,-0.000033,34.691370,0.000054,
2356,2878,2.07581915523423,5.08415898994035,-0.0198246271632456,0.000562,0.000101,-0.002622,0.035150,0.004830,316.635486,24.838861,0.999456,0.992673,0.003641,0.394148,-0.000043,-0.000006,-0.000013,-0.000002,-0.000047,-72.118416,0.000055,
2401,3148,3.00621733505784,10.950265989619,0.0271946706842527,0.000924,0.000255,-0.002378,0.051295,0.015574,312.653584,25.716895,0.999712,0.995642,0.002904,0.405020,-0.000003,-0.000008,0.000005,0.000000,-0.000011,30.342554,0.000013,
2206,2188,-1.06441368608375,-9.97942565706671,0.00982222688298862,0.000474,0.000083,-0.002601,0.029986,-0.006516,328.253717,23.837134,0.998924,0.983246,0.005170,0.321524,-0.000028,-0.000010,0.000006,-0.000008,-0.000030,71.870976,0.000040,
2476,2323,4.80206417269646,-7.0235944812177,0.000512785875116606,0.000596,0.000269,-0.003504,0.040688,0.006419,325.992194,22.929184,0.998948,0.980944,0.005474,0.377588,-0.000023,0.000023,-0.000003,0.000023,-0.000023,-86.824036,0.000026,
2071,2968,-4.1288560007931,7.02204616511078,-0.0114370862581268,0.000872,0.000089,-0.001707,0.045156,0.007407,316.011091,24.361294,0.998880,0.991863,0.003906,0.382143,-0.000014,-0.000024,-0.000011,-0.000007,-0.000031,-32.261215,0.000041,
2011,2878,-5.41659733643269,5.06599955657364,-0.0232390505010471,0.001121,0.000615,-0.002792,0.059461,0.019562,317.749414,24.327090,0.999061,0.991393,0.003979,0.351161,-0.000019,-0.000007,-0.000015,0.000003,-0.000029,-55.496642,0.000032,
2326,2728,1.45084081316563,1.81985147145856,-0.0346505961599632,0.000868,0.000780,-0.006804,0.063682,0.014638,318.988488,24.501803,0.999371,0.990537,0.003960,0.348948,-0.000027,-0.000018,-0.000003,-0.000017,-0.000028,-73.063863,0.000045,
2176,2068,-1.69739496410575,-12.6100233539007,0.0230373927539063,0.000954,0.000200,-0.001107,0.047229,0.006300,330.398055,23.886927,0.999336,0.985759,0.004872,0.315591,-0.000016,-0.000034,0.000005,-0.000015,-0.000035,13.860162,0.000051,
2146,3253,-2.54744444390802,13.2052476192064,0.0194565724802942,0.000838,0.000246,-0.003666,0.049910,0.008154,311.266099,24.695578,0.999568,0.994543,0.003077,0.367307,-0.000014,0.000007,-0.000018,0.000018,-0.000025,-59.814005,0.000025,
2296,2563,0.828894627482772,-1.77957716857486,-0.0137519349712534,0.000597,-0.000031,0.000992,0.024046,0.002165,321.826341,24.179507,0.998976,0.988484,0.004688,0.318100,-0.000029,-0.000012,-0.000010,-0.000007,-0.000034,-64.747811,0.000044,
2446,2143,4.18388146746686,-10.9681578065127,0.00407802991975359,0.000733,0.000796,-0.008788,0.066529,-0.017876,328.890673,22.424082,0.999257,0.980630,0.005646,0.318740,-0.000025,-0.000025,0.000003,-0.000022,-0.000028,43.579725,0.000050,
2266,2503,0.186448388914584,-3.08896589099417,-0.0208242468690969,0.000785,0.000502,-0.003707,0.048473,0.015788,322.802560,24.091666,0.999634,0.992557,0.003855,0.357195,-0.000030,-0.000023,-0.000003,-0.000022,-0.000031,-68.178775,0.000053,
2086,3043,-3.81415381649515,8.6480585591257,0.0182689536671319,0.000484,0.000061,-0.000361,0.023448,0.011711,314.937218,24.360182,0.999498,0.993462,0.003388,0.416551,-0.000011,-0.000020,-0.000004,-0.000009,-0.000022,-20.687387,0.000032,
2251,2428,-0.126295870951768,-4.72956988070195,-0.00933503009690639,0.000629,0.000520,-0.003319,0.039880,-0.006475,324.130550,23.875948,0.998813,0.987146,0.004528,0.458027,-0.000022,-0.000034,-0.000009,-0.000017,-0.000039,-26.783045,0.000057,
2461,2113,4.51789041638105,-11.6271428838235,0.0123387111004831,0.000647,0.000366,-0.001990,0.037223,0.009287,329.446908,22.239138,0.999476,0.979296,0.005611,0.331435,-0.000015,-0.000051,0.000010,-0.000012,-0.000053,14.277583,0.000070,
2416,3238,3.31369238938516,12.9050827552022,0.0167159008267959,0.000784,0.000373,-0.004305,0.052071,0.014586,311.105101,26.080022,0.999375,0.992323,0.003601,0.384061,0.000002,-0.000008,-0.000005,0.000004,-0.000010,-21.401509,0.000010,
2026,2968,-5.10346456718155,7.01843286997376,-0.00069403777882826,0.001207,0.000479,-0.005433,0.070782,0.010272,316.390215,24.242772,0.999408,0.992923,0.003421,0.389142,-0.000007,-0.000041,-0.000015,-0.000002,-0.000046,-20.910983,0.000054,
2371,2968,2.38544532161395,7.04257885710159,-0.0131099034495605,0.000610,0.000109,-0.002951,0.038662,0.010909,315.228654,25.211002,0.999477,0.991093,0.004010,0.295970,-0.000037,-0.000016,0.000000,-0.000016,-0.000037,89.221142,0.000054,
2281,2533,0.508226170814826,-2.4365560870781,-0.0140741944278489,0.000753,0.000112,-0.004244,0.048741,-0.031261,322.353124,23.985543,0.999583,0.993334,0.003604,0.442915,-0.000027,-0.000035,-0.000007,-0.000022,-0.000039,-31.090080,0.000062,
2056,2998,-4.45818902776909,7.67132079163179,0.00252310529015176,0.000715,0.000075,-0.001554,0.037361,-0.001680,315.715377,24.337679,0.999165,0.991284,0.003808,0.346084,-0.000020,-0.000019,-0.000013,-0.000007,-0.000033,-45.991039,0.000043,
2116,3133,-3.17782665175875,10.6028168015845,0.0179541248047599,0.001078,-0.000044,0.000319,0.048734,-0.003026,313.344465,24.556848,0.999842,0.997595,0.002451,0.317794,-0.000013,-0.000006,-0.000012,0.000003,-0.000022,-53.488309,0.000024,
2191,2083,-1.37393452460668,-12.2796138637559,0.010092776153158,0.000452,-0.000008,-0.002410,0.028270,-0.039680,329.984468,23.875482,0.999269,0.985003,0.005077,0.205094,-0.000020,-0.000032,-0.000003,-0.000019,-0.000032,-11.862913,0.000052,
2041,2953,-4.77671832799699,6.69458955769919,-0.00935722249880655,0.000835,0.000663,-0.006597,0.057131,0.019943,316.455857,24.293354,0.999364,0.993922,0.003307,0.394499,-0.000009,-0.000025,-0.000001,-0.000009,-0.000025,-4.088206,0.000035,
2011,2893,-5.41904499650712,5.39114697679777,-0.0191813794614859,0.000711,0.000369,-0.002642,0.040071,0.005056,317.520654,24.303043,0.999247,0.993377,0.003475,0.348233,-0.000014,-0.000017,-0.000016,0.000001,-0.000031,-41.738008,0.000036,
2386,3028,2.70104013494274,8.34523160402549,0.0041528392242185,0.000544,-0.000095,0.000567,0.022920,-0.005500,314.385036,25.355369,0.999566,0.991762,0.003721,0.342823,-0.000026,-0.000012,0.000003,-0.000012,-0.000026,78.607068,0.000039,
2341,2773,1.7700284623406,2.79873827079327,-0.0159567811053876,0.001142,0.000069,-0.000331,0.053706,0.016778,318.398184,24.604410,0.999568,0.993210,0.003479,0.360783,-0.000029,-0.000014,-0.000004,-0.000013,-0.000030,-77.364362,0.000044,
2476,2338,4.79831925559241,-6.69496124608906,0.00279922770960184,-0.000023,-0.000171,-0.000528,0.000869,-0.011747,325.728225,23.054412,0.998620,0.982588,0.005474,0.292744,-0.000027,0.000029,0.000002,0.000030,-0.000027,88.296846,0.000033,
2236,2323,-0.434914517735727,-7.02375452366412,-0.0112623294703553,0.000847,-0.000285,0.000208,0.038091,-0.027633,325.838600,23.829901,0.998869,0.988317,0.004485,0.365097,-0.000027,-0.000040,0.000005,-0.000025,-0.000042,19.344894,0.000068,
2131,3193,-2.86206037427501,11.9029253488801,0.0314319890430284,0.000693,-0.000158,-0.000463,0.033291,-0.009279,312.394949,24.579304,0.999477,0.993266,0.003355,0.368954,-0.000014,-0.000001,-0.000016,0.000010,-0.000025,-55.954526,0.000026,
2101,3088,-3.49539600874497,9.62527551936132,0.0180923700805806,0.001006,0.000200,-0.004862,0.060667,-0.007278,314.163606,24.436268,0.999221,0.988250,0.004300,0.371419,-0.000006,-0.000013,-0.000008,-0.000001,-0.000018,-32.160505,0.000022,
2326,2743,1.44829487598188,2.14556897082363,-0.0277174473320656,0.000825,0.000356,-0.003660,0.050722,0.011907,318.789821,24.507125,0.999556,0.991985,0.003696,0.375142,-0.000026,-0.000014,-0.000003,-0.000014,-0.000027,-76.850883,0.000041,
2026,2983,-5.10659633257774,7.34395510713296,0.000420210046513603,0.000578,0.000366,-0.001088,0.029754,0.013681,316.114612,24.237503,0.999269,0.992799,0.003579,0.387188,-0.000011,-0.000043,-0.000016,-0.000004,-0.000049,-22.529046,0.000060,
2356,2893,2.07344862614798,5.41066608030697,-0.0129828651913613,0.000371,0.000685,-0.004438,0.033013,0.024914,316.445535,24.931752,0.999396,0.992738,0.003620,0.359810,-0.000042,-0.000016,-0.000012,-0.000011,-0.000047,-68.357744,0.000061,
2086,3058,-3.81588901353227,8.9734581796384,0.0159216882904047,0.001039,0.000426,-0.004706,0.061663,0.008443,314.711068,24.347628,0.999411,0.993671,0.003345,0.424024,-0.000005,-0.000018,-0.000009,0.000000,-0.000022,-27.401222,0.000026,
2146,3268,-2.55011089880674,13.5304867366976,0.0167412175968593,0.000795,0.000458,-0.005050,0.052186,0.008709,310.999799,24.720156,0.999596,0.995188,0.002979,0.349667,-0.000012,0.000011,-0.000018,0.000021,-0.000023,-61.086779,0.000025,
2266,2518,0.184094101294807,-2.76350726284656,-0.0121501042066825,0.000463,0.000280,-0.003790,0.033905,-0.002185,322.618311,24.039803,0.999540,0.992273,0.003822,0.417462,-0.000027,-0.000027,-0.000002,-0.000025,-0.000029,-47.487011,0.000054,
2401,3163,3.00272180754876,11.2760243820762,0.0243424638799752,0.000660,-0.000200,-0.001398,0.035412,-0.000190,312.367808,25.780794,0.999566,0.993881,0.003289,0.369751,0.000001,-0.000007,0.000001,0.000001,-0.000007,4.699074,0.000007,
2221,2293,-0.755163851881353,-7.68080068652981,0.00213545490868228,0.000949,0.000553,-0.005862,0.062489,-0.004166,326.492334,23.874615,0.999013,0.986423,0.004696,0.358518,-0.000024,-0.000027,0.000006,-0.000020,-0.000031,39.008633,0.000052,
2251,2443,-0.128840881298437,-4.39993813947777,-0.00992875436725171,0.000966,-0.000027,-0.000830,0.047017,-0.016248,323.889109,24.088906,0.999409,0.990369,0.004133,0.259963,-0.000024,-0.000033,-0.000008,-0.000020,-0.000038,-30.079662,0.000058,
2071,2983,-4.13064951497612,7.34635603243285,-0.00352253160593818,0.000918,-0.000159,-0.002462,0.049317,-0.013722,315.837738,24.317134,0.999234,0.992636,0.003567,0.401261,-0.000017,-0.000026,-0.000012,-0.000009,-0.000034,-34.710948,0.000046,
2206,2203,-1.06711462189459,-9.6495337725924,0.00532351088503447,0.000717,0.000349,-0.001436,0.037523,0.014044,327.981585,23.918026,0.998827,0.982889,0.005313,0.280763,-0.000025,-0.000006,0.000008,-0.000003,-0.000027,70.110876,0.000033,
2311,2623,1.14449625427965,-0.471208088996235,-0.0162929025541416,0.000557,0.000180,-0.001922,0.032228,-0.000242,320.827004,24.213875,0.999419,0.990902,0.003805,0.391029,-0.000023,-0.000008,0.000002,-0.000008,-0.000023,82.667950,0.000032,
2416,3253,3.3102685800688,13.2309766959471,0.010011767680453,0.000960,0.000291,-0.002902,0.055037,0.017374,310.805160,26.141411,0.999161,0.991281,0.003824,0.371820,0.000002,-0.000007,-0.000006,0.000005,-0.000010,-26.223166,0.000010,
2296,2578,0.82654371348681,-1.45231424236118,-0.0192591108044553,0.000972,0.000105,-0.004588,0.060195,-0.008044,321.573286,24.177995,0.999242,0.990425,0.004132,0.340219,-0.000025,-0.000006,-0.000006,-0.000004,-0.000027,-73.000829,0.000034,
2056,3013,-4.46063739511505,7.99694984742317,0.00207304679202025,0.000713,0.000374,-0.000618,0.034812,0.031933,315.464500,24.310119,0.998914,0.989085,0.004384,0.401166,-0.000015,-0.000015,-0.000011,-0.000004,-0.000026,-45.571986,0.000033,
2446,2158,4.18100396460446,-10.6400655392944,0.0137284304527157,0.000581,0.000271,-0.002593,0.036316,-0.019390,328.698836,22.500511,0.999305,0.981334,0.005361,0.295636,-0.000030,-0.000034,-0.000006,-0.000026,-0.000038,-37.819224,0.000064,
2041,2968,-4.7788136521288,7.01924880717367,-0.00427554795891183,0.000863,0.000632,-0.004886,0.053615,0.011307,316.251142,24.244935,0.999440,0.993575,0.003291,0.425946,-0.000005,-0.000036,-0.000014,0.000001,-0.000041,-21.556786,0.000047,
2011,2908,-5.42058088042429,5.71646601444363,-0.0133001930694832,0.000959,0.000382,-0.005001,0.057995,0.017072,317.343841,24.285015,0.999146,0.993189,0.003531,0.365627,-0.000014,-0.000019,-0.000018,0.000002,-0.000034,-40.959864,0.000038,
2386,3043,2.69829095311272,8.67108761596651,0.000711190867775713,0.000870,-0.000004,-0.000627,0.042283,0.002155,314.130125,25.368916,0.999599,0.992930,0.003577,0.379530,-0.000022,-0.000007,0.000005,-0.000006,-0.000023,73.677732,0.000031,
2026,2998,-5.10828741333098,7.66925037315342,0.00577962381316866,0.000859,0.000216,-0.001381,0.043465,0.003679,315.928903,24.257217,0.999288,0.993452,0.003435,0.346741,-0.000008,-0.000023,-0.000012,-0.000001,-0.000029,-28.654220,0.000034,
2476,2353,4.79569493966754,-6.36679700450064,0.00308751389042072,0.000485,-0.000069,0.000642,0.019768,0.011977,325.506459,23.079818,0.998769,0.984107,0.005452,0.349553,-0.000019,0.000035,0.000014,0.000038,-0.000022,76.520566,0.000038,
2176,2083,-1.70017207033641,-12.2797285669838,0.0154723298157933,0.001005,0.000405,-0.003595,0.057330,-0.013377,330.103939,23.964018,0.999418,0.986137,0.004965,0.234665,-0.000020,-0.000024,0.000002,-0.000019,-0.000025,24.406477,0.000044,
2131,3208,-2.86395885606784,12.2279826292541,0.0379056941495151,0.000792,0.000107,-0.001751,0.041987,0.024922,312.212145,24.589809,0.999623,0.995114,0.003018,0.397020,-0.000014,-0.000002,-0.000018,0.000011,-0.000027,-54.487142,0.000027,
2341,2788,1.76672800305994,3.12529003630746,-0.0186181931171063,0.000686,0.000283,-0.002637,0.040860,0.016375,318.118838,24.620561,0.999586,0.994187,0.003339,0.381021,-0.000029,-0.000011,-0.000005,-0.000010,-0.000030,-75.476313,0.000041,
2371,2983,2.38314636415409,7.36744202064045,-0.00697493749743217,0.000622,0.000380,-0.003980,0.042964,0.014152,315.039673,25.186701,0.999473,0.991136,0.003911,0.363793,-0.000034,-0.000012,0.000006,-0.000010,-0.000035,76.708430,0.000048,
2101,3103,-3.49748575098512,9.95084097868538,0.0222221456392617,0.001193,0.000034,-0.003395,0.065058,0.008478,313.957401,24.473586,0.999608,0.993578,0.003277,0.350227,-0.000004,-0.000013,-0.000005,-0.000002,-0.000015,-22.899251,0.000019,
2116,3148,-3.18014218816438,10.9273523649322,0.0194679119061334,0.001051,0.000457,-0.001012,0.051676,0.026821,313.115100,24.480684,0.999733,0.995907,0.002800,0.426289,-0.000013,-0.000004,-0.000014,0.000006,-0.000023,-54.588758,0.000024,
2461,2128,4.51527421517241,-11.2988075391056,0.0178784583955576,0.000722,-0.000154,-0.000665,0.035463,-0.024299,329.249575,22.315439,0.999444,0.978085,0.005783,0.278667,-0.000011,-0.000041,0.000009,-0.000009,-0.000043,14.799676,0.000056,
2146,3283,-2.55317099233305,13.8558165823036,0.00731302275363532,0.000908,0.000352,-0.004880,0.056854,0.008386,310.679587,24.721567,0.999560,0.995169,0.003012,0.354233,-0.000016,0.000014,-0.000016,0.000021,-0.000022,-66.937481,0.000025,
2326,2758,1.44492462073636,2.4722345483587,-0.0292988559508558,0.000596,0.000272,-0.000608,0.029656,0.025188,318.511350,24.519943,0.999573,0.992938,0.003597,0.410416,-0.000027,-0.000011,0.000001,-0.000011,-0.000027,87.173076,0.000039,
2056,3028,-4.46299064844218,8.3221543184652,0.00160217221821313,0.000763,0.000361,-0.000440,0.036558,0.020961,315.218094,24.291885,0.999364,0.992915,0.003583,0.402198,-0.000005,-0.000015,-0.000006,-0.000002,-0.000018,-24.662897,0.000022,
2011,2923,-5.42258344738889,6.04178685786358,-0.00830099770280412,0.000963,0.000459,-0.004527,0.056917,0.028507,317.140728,24.264918,0.999195,0.993262,0.003429,0.384752,-0.000008,-0.000022,-0.000010,-0.000003,-0.000028,-27.775754,0.000034,
2191,2098,-1.37679672548946,-11.9508253953244,-0.00576096082335198,0.001046,0.000423,-0.004238,0.061356,-0.016536,329.645059,23.688968,0.999308,0.987676,0.004879,0.432968,-0.000021,-0.000025,0.000002,-0.000021,-0.000026,20.622184,0.000047,
2236,2338,-0.437159500067043,-6.69522589950847,-0.00579572250376259,0.000725,0.000327,-0.001244,0.037380,-0.000434,325.640729,23.929118,0.999067,0.988040,0.004559,0.315823,-0.000025,-0.000036,0.000006,-0.000022,-0.000039,25.258218,0.000062,
2086,3073,-3.81857140488444,9.29947138131982,0.0132409389017312,0.000910,0.000337,-0.005267,0.057325,0.003466,314.439421,24.395566,0.999368,0.992677,0.003455,0.369259,-0.000003,-0.000014,-0.000010,0.000003,-0.000020,-30.904054,0.000021,
2041,2983,-4.78127844422511,7.34469436019811,0.00423767332313219,0.000627,0.000056,0.001882,0.023702,0.010588,316.048292,24.287856,0.999290,0.992872,0.003520,0.373866,-0.000010,-0.000039,-0.000015,-0.000003,-0.000045,-23.447566,0.000054,
2221,2308,-0.758118151665759,-7.35241713790081,-0.000788973587191322,0.000781,0.000670,-0.005855,0.054779,0.010879,326.218160,23.878420,0.999015,0.988386,0.004345,0.390799,-0.000025,-0.000033,0.000006,-0.000022,-0.000036,29.460519,0.000059,
2266,2533,0.181316916573046,-2.43611363187112,-0.0217272082849149,0.000832,0.000285,-0.006864,0.060948,-0.040284,322.322704,24.025722,0.999664,0.995502,0.003254,0.420239,-0.000029,-0.000029,-0.000005,-0.000024,-0.000034,-45.783629,0.000058,
2026,3013,-5.1105137406032,7.99566539949425,0.00416989029537262,0.000986,0.000533,-0.002337,0.052100,0.017949,315.679280,24.312436,0.999493,0.994214,0.003344,0.295337,-0.000002,-0.000018,-0.000004,-0.000001,-0.000019,-14.452178,0.000023,
2401,3178,2.99952393982247,11.6014458311364,0.0219718337981476,0.000499,0.000105,-0.002336,0.031526,0.003613,312.098051,25.801155,0.999509,0.993615,0.003374,0.397433,0.000003,-0.000005,0.000000,0.000003,-0.000005,-0.143269,0.000006,
2416,3268,3.30613342134113,13.5563705326357,0.00187852263655941,0.000589,0.000089,-0.000872,0.030503,0.029501,310.465799,26.144215,0.999506,0.992806,0.003506,0.427418,0.000004,-0.000011,0.000000,0.000004,-0.000011,0.164021,0.000011,
2206,2218,-1.07004568108007,-9.32161444119554,0.00890245450767679,0.000362,0.000018,0.002618,0.008352,0.023641,327.740833,23.919736,0.998811,0.983269,0.005321,0.307809,-0.000022,-0.000010,0.000009,-0.000005,-0.000027,62.011752,0.000035,
2386,3058,2.69573808109217,8.99655594006254,0.0113077158894725,0.000601,-0.000063,0.002136,0.020014,0.016719,313.951132,25.435607,0.999620,0.993357,0.003435,0.369490,-0.000017,-0.000009,0.000007,-0.000005,-0.000021,61.575898,0.000027,
2296,2593,0.824682005648359,-1.12618544950087,-0.00890049876710464,0.000941,0.000754,-0.006346,0.064915,0.012766,321.421349,24.184445,0.999545,0.993029,0.003498,0.384922,-0.000023,-0.000021,-0.000005,-0.000017,-0.000027,-51.382463,0.000044,
2251,2458,-0.131379880463424,-4.07241635706715,-0.0144037245807453,0.001076,0.000426,-0.005198,0.066534,-0.001877,323.628640,24.053600,0.999708,0.991757,0.003963,0.334389,-0.000025,-0.000031,-0.000005,-0.000022,-0.000035,-30.381239,0.000057,
2356,2908,2.07045705664326,5.73713924750028,-0.0187318385968638,0.000817,0.000483,-0.002539,0.046787,0.034624,316.166257,24.944633,0.999300,0.991791,0.003783,0.395064,-0.000042,-0.000018,-0.000010,-0.000015,-0.000046,-69.893712,0.000063,
2071,2998,-4.1322187721353,7.67149214426307,0.012033062381704,0.000670,0.000300,-0.003945,0.042311,0.010939,315.716277,24.358063,0.999504,0.993689,0.003250,0.380815,-0.000017,-0.000016,-0.000008,-0.000009,-0.000025,-46.538214,0.000035,
2281,2548,0.505143517529671,-2.10673581039889,-0.0246674321056162,0.001242,0.000041,-0.003166,0.067603,-0.018207,322.039230,24.139690,0.999278,0.990909,0.004063,0.330754,-0.000028,-0.000022,-0.000005,-0.000019,-0.000031,-58.519734,0.000050,
2311,2638,1.14180423501107,-0.144173830302826,-0.0156493392879042,0.000696,0.000056,-0.000368,0.033242,0.007028,320.589736,24.246754,0.999274,0.990103,0.003909,0.398230,-0.000026,-0.000005,0.000001,-0.000005,-0.000026,86.244346,0.000033,
2476,2368,4.79190360598797,-6.03641075890654,-0.00738277309272917,0.000315,0.000798,-0.003202,0.026906,0.029995,325.182080,23.215071,0.999561,0.987329,0.004835,0.291044,-0.000024,0.000037,0.000024,0.000046,-0.000032,70.633317,0.000047,
2131,3223,-2.86649244612243,12.552536468676,0.0395333620753604,0.000788,-0.000023,0.000222,0.035771,0.013495,311.974416,24.574600,0.999558,0.995140,0.003004,0.405103,-0.000013,0.000002,-0.000021,0.000018,-0.000028,-54.651150,0.000028,
2446,2173,4.17871471377015,-10.3107066064399,0.0184186978612502,0.000838,0.000480,-0.003624,0.051986,0.003157,328.510909,22.619780,0.999514,0.986162,0.004651,0.253569,-0.000030,-0.000013,-0.000008,-0.000010,-0.000033,-67.255962,0.000045,
2146,3298,-2.55571277692184,14.1801027318208,0.00823113490565675,0.000876,0.000350,-0.004383,0.053821,-0.001230,310.438730,24.696506,0.999624,0.995778,0.002767,0.375955,-0.000012,0.000028,-0.000019,0.000036,-0.000020,-68.074342,0.000036,
2371,2998,2.38069200392713,7.69308797218905,0.000521177150858421,0.000295,0.000578,-0.006071,0.035419,0.009554,314.849802,25.254839,0.999537,0.992339,0.003639,0.331372,-0.000030,-0.000009,0.000005,-0.000008,-0.000031,77.993401,0.000041,
2461,2143,4.51164752825168,-10.9680627530585,0.00484512918666269,0.000689,0.000877,-0.006994,0.058108,-0.001620,328.920778,22.360470,0.999139,0.978821,0.005652,0.314232,-0.000010,-0.000028,0.000012,-0.000004,-0.000034,26.125276,0.000042,
2341,2803,1.76345327498616,3.45228946626199,-0.0238348252313472,0.000582,0.000162,-0.003273,0.038253,0.009621,317.828105,24.669349,0.999492,0.993323,0.003514,0.362064,-0.000031,-0.000016,-0.000006,-0.000014,-0.000033,-69.475724,0.000048,
2116,3163,-3.18245231944403,11.2522248474847,0.0271241147478918,0.000729,0.000335,-0.000913,0.036468,0.012500,312.919010,24.520063,0.999575,0.994385,0.003197,0.374639,-0.000009,0.000006,-0.000016,0.000016,-0.000019,-56.840217,0.000021,
2086,3088,-3.82091113229563,9.62477322079748,0.0146154729191039,0.000955,0.000562,-0.004434,0.057129,0.021800,314.205867,24.384925,0.999368,0.991943,0.003622,0.396048,-0.000008,-0.000011,-0.000009,-0.000001,-0.000019,-40.008568,0.000022,
2101,3118,-3.50030888423582,10.2758767555617,0.0205185153967591,0.001054,0.000078,-0.001375,0.052746,0.010703,313.686112,24.442847,0.999738,0.995376,0.002834,0.383261,-0.000006,-0.000008,-0.000006,-0.000001,-0.000013,-41.738684,0.000015,
2176,2098,-1.70325323642667,-11.9504693499867,0.000341771240130129,0.001296,0.000906,-0.005405,0.076439,0.007918,329.756410,23.829613,0.999311,0.985280,0.005054,0.406514,-0.000021,-0.000018,0.000006,-0.000013,-0.000026,52.216769,0.000040,
2056,3043,-4.46507994352276,8.64777832441414,0.00115226106026967,0.001005,0.000333,-0.001450,0.050634,0.023310,314.983756,24.303191,0.999655,0.995494,0.002998,0.387178,-0.000005,-0.000022,-0.000011,0.000000,-0.000028,-26.027894,0.000032,
2191,2113,-1.37796072387084,-11.622909910916,0.0136833353092811,0.001044,0.000256,-0.004513,0.062060,-0.023866,329.566250,23.844560,0.998836,0.984235,0.005212,0.286736,-0.000020,-0.000024,0.000002,-0.000019,-0.000025,25.753071,0.000044,
2041,2998,-4.78301261252183,7.67009619332039,0.0065050630170731,0.000994,-0.000143,0.000292,0.045008,-0.002734,315.844295,24.299824,0.999163,0.991475,0.003773,0.340342,-0.000010,-0.000024,-0.000011,-0.000004,-0.000030,-27.922586,0.000037,
2401,3193,2.9968099148678,11.9267757595577,0.0272566324596255,0.000450,-0.000122,-0.000343,0.021970,0.000875,311.886765,25.868635,0.999488,0.993247,0.003373,0.371332,0.000005,-0.000002,0.000000,0.000005,-0.000002,-1.322369,0.000005,
2236,2353,-0.439587963094123,-6.36746253367244,-0.0058593901088102,0.000773,0.000410,-0.003187,0.045907,-0.007584,325.406619,23.942915,0.998815,0.986478,0.004838,0.317838,-0.000029,-0.000024,0.000005,-0.000021,-0.000032,59.538991,0.000053,
2326,2773,1.44334931229136,2.79957969510286,-0.0252196473251729,0.001297,0.000515,-0.003434,0.071682,0.025358,318.342824,24.657010,0.999661,0.995263,0.003225,0.307696,-0.000028,-0.000017,-0.000004,-0.000016,-0.000029,-71.936744,0.000046,
2011,2938,-5.42500724358259,6.36744930965346,-0.0107170276604052,0.001023,0.000338,-0.003447,0.056705,0.017276,316.876569,24.250036,0.999439,0.994111,0.003333,0.375905,-0.000002,-0.000018,-0.000003,-0.000002,-0.000018,-8.894957,0.000022,
2251,2473,-0.134128296368981,-3.74662751002937,-0.00361458696136197,0.000449,0.000225,-0.001617,0.025983,0.008131,323.436015,24.010281,0.999624,0.991748,0.003878,0.412313,-0.000018,-0.000024,0.000001,-0.000018,-0.000024,13.110806,0.000042,
2071,3013,-4.13444419520958,7.99652203395388,0.0183221962616358,0.000658,0.000289,-0.000414,0.031705,0.031438,315.513946,24.333265,0.999373,0.992916,0.003475,0.422093,-0.000013,-0.000012,-0.000008,-0.000005,-0.000020,-47.467719,0.000027,
2026,3028,-5.11243466225791,8.31940201587401,0.0121386400001029,0.000941,0.000130,-0.001651,0.048079,0.017553,315.498244,24.203780,0.999425,0.992961,0.003655,0.392905,0.000011,-0.000017,0.000004,0.000011,-0.000018,7.625590,0.000018,
2221,2323,-0.761305699219371,-7.0236786962891,-0.0104414701074234,0.001105,0.000207,-0.002281,0.058048,-0.011221,325.898958,23.890575,0.999120,0.988814,0.004323,0.377854,-0.000021,-0.000032,0.000007,-0.000018,-0.000035,25.424580,0.000054,
2206,2233,-1.07216485827049,-8.99452345498329,0.0105670261523301,0.000650,-0.000226,0.002368,0.022240,0.000640,327.527649,23.863118,0.999010,0.984319,0.005281,0.360335,-0.000024,-0.000017,0.000007,-0.000012,-0.000028,58.268449,0.000041,
2446,2188,4.17530092672368,-9.98208752609744,0.0196090685024046,0.000489,0.000482,-0.001693,0.028886,0.020766,328.255384,22.644355,0.999612,0.987455,0.004528,0.301788,-0.000025,-0.000004,-0.000012,0.000002,-0.000030,-66.025433,0.000034,
2386,3073,2.69259386986663,9.3227192338305,0.00284671746072718,0.000678,0.000358,-0.002232,0.039399,0.020571,313.653924,25.457125,0.999625,0.992771,0.003499,0.394459,-0.000016,-0.000004,0.000003,-0.000003,-0.000017,75.654942,0.000022,
2296,2608,0.821176570000876,-0.797318180789603,-0.0222025398006735,0.001106,0.000877,-0.007072,0.075018,0.024833,321.076207,24.250910,0.999381,0.991327,0.003820,0.361736,-0.000027,-0.000024,-0.000001,-0.000024,-0.000027,-72.105180,0.000051,
2371,3013,2.37805589843839,8.01882388017014,0.000123690572706892,0.000511,0.000645,-0.006739,0.047829,0.023986,314.613631,25.262378,0.999543,0.992031,0.003674,0.378456,-0.000029,-0.000013,0.000003,-0.000012,-0.000030,79.290853,0.000043,
2161,1993,-2.01224098689829,-14.2534120588434,0.0239555422573972,0.000947,0.000719,-0.003078,0.053061,0.004304,331.663928,24.082136,0.999106,0.984082,0.005075,0.144827,0.000045,-0.000075,-0.000015,0.000046,-0.000076,-6.909654,0.000077,
2131,3238,-2.86963261524253,12.8782442268578,0.0296071058384086,0.000726,-0.000032,-0.001015,0.036574,0.000822,311.646440,24.605263,0.999522,0.995082,0.002925,0.365950,-0.000012,0.000001,-0.000021,0.000016,-0.000027,-53.846586,0.000027,
2416,3283,3.30264819155859,13.8823764281008,-0.0059377778412113,0.000630,0.000034,-0.001512,0.034668,0.014470,310.157573,26.237142,0.999665,0.993087,0.003424,0.365528,0.000010,-0.000021,0.000000,0.000010,-0.000021,0.394089,0.000021,
2266,2548,0.178772693083687,-2.10734217743343,-0.0211593124407159,0.001072,0.000163,-0.004961,0.065673,-0.013408,322.088136,24.169218,0.999508,0.992883,0.003682,0.330217,-0.000029,-0.000018,-0.000003,-0.000017,-0.000030,-74.246387,0.000048,
2356,2923,2.0678100475156,6.06323423195745,-0.0193035225769336,0.000847,0.000484,-0.005331,0.057960,0.019207,315.927887,24.989732,0.999259,0.991784,0.003786,0.373080,-0.000043,-0.000021,-0.000009,-0.000018,-0.000047,-70.813213,0.000066,
2461,2158,4.50888931981924,-10.6395106049175,0.0119383983749799,0.000835,0.000381,-0.001540,0.044123,0.005964,328.723631,22.442537,0.999140,0.978306,0.005592,0.296697,-0.000019,-0.000039,0.000002,-0.000018,-0.000039,6.619527,0.000059,
2086,3103,-3.8230858105727,9.94975628030179,0.0157610588784109,0.001083,0.000399,-0.005187,0.065149,0.015222,313.978791,24.372059,0.999678,0.994603,0.003072,0.400630,-0.000004,-0.000011,-0.000005,-0.000001,-0.000014,-27.615596,0.000016,
2476,2383,4.78856730102539,-5.7083758905347,-0.0149329758873478,0.000574,0.000600,-0.004304,0.042870,0.027177,324.892094,23.190455,0.999621,0.986430,0.004837,0.371377,-0.000008,0.000028,0.000022,0.000038,-0.000018,64.960928,0.000038,
2056,3058,-4.46727259397437,8.97266267810586,0.0041595557958658,0.001040,-0.000215,-0.000728,0.049992,-0.008704,314.764104,24.307225,0.999455,0.994474,0.003245,0.344792,-0.000005,-0.000015,-0.000018,0.000009,-0.000029,-36.949384,0.000030,
2101,3133,-3.50242245117151,10.6010656817698,0.0255602590333979,0.000969,0.000088,-0.002942,0.053342,-0.003234,313.483944,24.487797,0.999791,0.996150,0.002674,0.324319,-0.000009,-0.000004,-0.000011,0.000004,-0.000017,-51.499898,0.000018,
2281,2563,0.501791215005827,-1.78005004295736,-0.0246135820599989,0.000616,0.000195,-0.002750,0.037548,-0.004450,321.766666,24.105914,0.999171,0.989662,0.004335,0.407124,-0.000029,-0.000017,-0.000009,-0.000012,-0.000034,-60.854299,0.000047,
2116,3178,-3.18429927156713,11.5765016800603,0.0341591763747715,0.000869,0.000136,-0.001486,0.044537,0.004119,312.741078,24.497684,0.999546,0.993655,0.003256,0.390801,-0.000009,0.000008,-0.000016,0.000017,-0.000018,-59.445315,0.000021,
2401,3208,2.99429724579696,12.2518334649122,0.0307485965655587,0.000541,0.000069,-0.000898,0.028215,0.003267,311.676306,25.898523,0.999430,0.993069,0.003525,0.387932,0.000004,-0.000010,-0.000003,0.000005,-0.000010,-11.631646,0.000010,
2191,2128,-1.38022120052693,-11.2937284942079,0.0096209312589508,0.001360,0.000885,-0.007580,0.086307,-0.003074,329.315308,23.836295,0.998380,0.983004,0.005433,0.333276,-0.000022,-0.000030,0.000003,-0.000021,-0.000031,20.840285,0.000052,
2041,3013,-4.78575963068659,7.9970491119127,-0.00016007120825634,0.000904,0.000458,-0.001151,0.045054,0.018827,315.543634,24.363743,0.999378,0.992731,0.003642,0.289637,-0.000006,-0.000019,-0.000006,-0.000003,-0.000022,-21.670140,0.000027,
2311,2653,1.13867493995254,0.182866281267437,-0.0182211471872051,0.000450,-0.000040,-0.001318,0.025152,-0.009647,320.316598,24.281731,0.999408,0.990897,0.003830,0.379143,-0.000028,-0.000006,0.000002,-0.000006,-0.000029,84.695037,0.000037,
2341,2818,1.76072244446223,3.77855604907435,-0.0242435634780804,0.000805,0.000194,-0.001896,0.043721,0.014026,317.585822,24.681326,0.999243,0.990137,0.003905,0.390934,-0.000034,-0.000016,-0.000010,-0.000012,-0.000039,-66.775939,0.000053,
2176,2113,-1.7054668259347,-11.6218325684804,0.00587276087338751,0.001130,0.000807,-0.006302,0.071531,-0.002443,329.556421,23.902138,0.999011,0.981916,0.005438,0.338670,-0.000021,-0.000019,0.000007,-0.000013,-0.000027,48.721762,0.000041,
2026,3043,-5.11436970319051,8.64400587247757,0.0121398799735744,0.001149,0.000232,-0.004537,0.065668,0.021280,315.271717,24.121390,0.999406,0.993272,0.003616,0.468500,0.000010,-0.000026,0.000000,0.000010,-0.000026,-0.041306,0.000026,
2326,2788,1.43990799322163,3.12432420731374,-0.0277541330199256,0.000997,0.000039,-0.001229,0.050108,-0.001436,318.056908,24.534882,0.999532,0.994524,0.003396,0.437527,-0.000027,-0.000015,-0.000003,-0.000014,-0.000028,-75.129894,0.000042,
2161,2008,-2.01488928801788,-13.9250245252552,0.0224430271177312,0.000911,0.000627,-0.001915,0.047792,0.021062,331.406000,23.987569,0.999133,0.986366,0.004778,0.270099,0.000025,-0.000069,-0.000011,0.000026,-0.000070,-6.713017,0.000071,
2011,2953,-5.42684533666991,6.69279291830927,-0.00437437800849239,0.001066,0.000419,-0.003821,0.059748,0.020883,316.688616,24.256676,0.999614,0.995319,0.002937,0.360171,0.000007,-0.000026,-0.000005,0.000008,-0.000026,-7.727063,0.000027,
2221,2338,-0.76497473395904,-6.69335630884841,-0.0229538732410219,0.001012,0.000298,-0.000768,0.048985,0.006952,325.542566,23.985755,0.999637,0.991217,0.003990,0.322156,-0.000020,-0.000030,0.000007,-0.000017,-0.000034,26.829730,0.000052,
2251,2488,-0.137000471882025,-3.41886560065855,-0.00954813654959707,0.000690,0.000196,-0.001042,0.035133,-0.006383,323.152903,24.022428,0.999573,0.991006,0.003828,0.410105,-0.000020,-0.000018,-0.000003,-0.000016,-0.000022,-53.765079,0.000038,
2236,2368,-0.442258387762326,-6.03869630285752,-0.00944836457074416,0.001052,0.000366,-0.002084,0.055144,0.008559,325.143202,23.996075,0.999281,0.988835,0.004487,0.303696,-0.000032,-0.000022,0.000001,-0.000021,-0.000032,85.320244,0.000054,
2386,3088,2.69015781105165,9.64747957797968,0.0102641176317775,0.000640,0.000011,-0.001178,0.033711,-0.000394,313.465311,25.480195,0.999423,0.991839,0.003690,0.392666,-0.000013,-0.000004,0.000000,-0.000004,-0.000013,-88.958804,0.000017,
2461,2173,4.50606279910881,-10.3102628510336,0.00931654755510181,0.001361,0.000374,-0.000344,0.063732,0.015380,328.478964,22.487484,0.999066,0.980525,0.005372,0.318439,-0.000019,-0.000015,-0.000001,-0.000014,-0.000019,-74.343080,0.000034,
2446,2203,4.17176731523397,-9.65281909750809,0.0115926112900411,0.000483,0.000890,-0.003319,0.034793,0.025699,327.952026,22.649580,0.999631,0.986315,0.004654,0.356431,-0.000033,-0.000017,-0.000016,-0.000008,-0.000043,-57.960656,0.000054,
2206,2248,-1.07527599276032,-8.6641674976415,-0.002712130087275,0.000826,0.000197,-0.000351,0.039066,0.012725,327.191440,23.921491,0.998894,0.984020,0.005170,0.333575,-0.000025,-0.000028,0.000007,-0.000019,-0.000034,38.324095,0.000054,
2071,3028,-4.13707401324928,8.32255657528074,0.010445935648363,0.000784,0.000444,-0.002398,0.043203,0.024047,315.215014,24.337915,0.999464,0.994122,0.003272,0.406008,-0.000006,-0.000013,-0.000003,-0.000005,-0.000015,-20.523423,0.000020,
2416,3298,3.29863618845149,14.2075255784349,-0.0213083303834765,0.000782,-0.000099,-0.001703,0.042246,-0.005881,309.789745,26.220526,0.999684,0.993413,0.003331,0.407967,0.000011,-0.000032,-0.000004,0.000011,-0.000032,-5.717120,0.000032,
2371,3028,2.37503511864211,8.34484590874065,-6.68132483383488E-05,0.000545,0.000515,-0.004637,0.041802,0.018651,314.360627,25.321603,0.999462,0.991418,0.003831,0.354362,-0.000026,-0.000013,0.000003,-0.000012,-0.000027,77.916300,0.000040,
2296,2623,0.817697360969408,-0.470745224830068,-0.0244601999390284,0.000681,0.000628,-0.004959,0.048265,0.005287,320.787510,24.239222,0.999351,0.990707,0.003836,0.384599,-0.000025,-0.000013,-0.000003,-0.000012,-0.000025,-78.722515,0.000038,
2056,3073,-4.46952706368893,9.29711525382312,0.00999122011131703,0.000737,0.000053,-0.001676,0.038795,0.011050,314.557349,24.241731,0.999349,0.993317,0.003614,0.423511,-0.000005,-0.000010,-0.000019,0.000011,-0.000026,-40.973455,0.000026,
2476,2398,4.78623281789232,-5.38083329763227,-0.00793437712422929,0.000739,0.000247,-0.004052,0.049337,0.005489,324.714030,23.284897,0.999524,0.987190,0.004698,0.313378,-0.000005,0.000018,0.000026,0.000034,-0.000022,56.974413,0.000035,
2131,3253,-2.87240326684188,13.2032742040274,0.0257868595754189,0.000598,0.000037,-0.002828,0.036156,0.007524,311.368412,24.593340,0.999623,0.995661,0.002783,0.388844,-0.000010,0.000005,-0.000021,0.000019,-0.000025,-55.080505,0.000026,
2026,3058,-5.11671132637856,8.96940855730372,0.0171297527603542,0.000949,-0.000064,-0.002527,0.050716,-0.014641,315.054226,24.188374,0.999182,0.992275,0.003705,0.354904,0.000006,-0.000010,-0.000008,0.000009,-0.000013,-21.744936,0.000014,
2116,3193,-3.18732782048075,11.9017005506638,0.0351911387543282,0.000378,0.000073,0.000432,0.016203,0.004886,312.476169,24.518917,0.999566,0.993715,0.003398,0.372559,-0.000010,0.000004,-0.000018,0.000017,-0.000022,-55.500855,0.000023,
2086,3118,-3.8255943366572,10.2749482075195,0.019310732583051,0.000902,0.000367,-0.003166,0.050954,0.019475,313.749442,24.386393,0.999714,0.994898,0.002923,0.388424,-0.000007,-0.000005,-0.000006,0.000000,-0.000012,-51.499719,0.000014,
2401,3223,2.99104041910902,12.5774961506177,0.0236925149320086,0.000540,0.000095,-0.003805,0.038709,-0.007207,311.381375,25.940094,0.999452,0.993004,0.003449,0.380117,0.000003,-0.000007,-0.000003,0.000004,-0.000008,-15.944362,0.000008,
2266,2563,0.17605290022632,-1.78202708595875,-0.0156768381384609,0.000869,-0.000207,-0.001569,0.045026,-0.017610,321.871018,24.074934,0.999416,0.990926,0.004029,0.446536,-0.000028,-0.000017,-0.000008,-0.000013,-0.000032,-61.482566,0.000046,
2041,3028,-4.78809389341647,8.32077660560467,0.00731063597959292,0.000593,0.000192,0.001164,0.024170,0.015736,315.341675,24.254337,0.999424,0.992959,0.003678,0.387504,0.000004,-0.000018,0.000001,0.000004,-0.000018,1.646370,0.000019,
2356,2938,2.06490868276482,6.38896258205083,-0.0164354565288249,0.000842,-0.000009,-0.001841,0.045180,-0.007018,315.694481,25.040521,0.999175,0.990999,0.003890,0.334088,-0.000038,-0.000014,-0.000008,-0.000011,-0.000041,-73.685208,0.000055,
2101,3148,-3.50471314350897,10.9251092157334,0.030509437258047,0.000872,0.000269,-0.001986,0.046130,0.005260,313.273570,24.407597,0.999879,0.997064,0.002496,0.413148,-0.000010,-0.000002,-0.000014,0.000008,-0.000020,-52.231069,0.000020,
2281,2578,0.499920383675612,-1.45408930052689,-0.0107158116747428,0.000489,0.000091,-0.001947,0.029013,-0.003676,321.631249,24.144026,0.999014,0.988329,0.004561,0.398051,-0.000024,-0.000009,-0.000006,-0.000007,-0.000026,-70.710879,0.000035,
2011,2968,-5.42936377922499,7.01790174552307,0.000450084232397785,0.000727,0.000283,-0.000717,0.035615,0.019936,316.461074,24.239150,0.999608,0.995319,0.002908,0.364003,0.000012,-0.000045,-0.000026,0.000023,-0.000055,-21.532335,0.000055,
2326,2803,1.43679386579497,3.45150308355496,-0.0289482393394564,0.000451,0.000380,-0.005448,0.039713,0.011907,317.791813,24.611440,0.999316,0.993761,0.003645,0.408823,-0.000028,-0.000021,-0.000003,-0.000020,-0.000029,-66.982739,0.000049,
2431,1993,3.88713129627995,-14.2626322884245,0.0305757539311458,0.000414,0.000225,-0.002295,0.027457,-0.016018,331.462834,22.134413,0.999284,0.978469,0.005638,0.161581,-0.000033,-0.000086,0.000037,-0.000014,-0.000105,27.271787,0.000130,
2341,2833,1.7581712885128,4.10522000652055,-0.0210435192364571,0.000898,0.000035,-0.001031,0.044918,0.004408,317.369195,24.775504,0.999612,0.992030,0.003634,0.323402,-0.000035,-0.000006,-0.000009,-0.000003,-0.000038,-74.056754,0.000046,
2191,2143,-1.38307790023061,-10.9644267412635,0.00885574645923271,0.001130,0.001047,-0.006696,0.073063,0.017486,329.054143,23.880711,0.998838,0.984193,0.005142,0.326985,-0.000029,-0.000042,0.000003,-0.000028,-0.000043,12.970556,0.000072,
2311,2668,1.13595528310194,0.51177394793249,-0.0281965690948596,0.000700,0.000919,-0.008601,0.061878,0.020759,320.025221,24.384456,0.999764,0.993196,0.003463,0.339800,-0.000028,0.000001,-0.000006,0.000002,-0.000029,-78.875209,0.000032,
2056,3088,-4.47137539256827,9.62247048457692,0.0117318792922561,0.001080,-0.000071,-0.002888,0.057975,-0.002933,314.346343,24.269976,0.999412,0.993382,0.003427,0.375062,-0.000010,-0.000006,-0.000016,0.000008,-0.000024,-48.249367,0.000025,
2161,2023,-2.01734664723394,-13.595570055633,0.0166519702506207,0.001016,0.000979,-0.005885,0.064836,0.021507,331.134306,23.963775,0.998907,0.985531,0.004918,0.308089,0.000006,-0.000056,-0.000009,0.000007,-0.000057,-8.087483,0.000063,
2236,2383,-0.444342286244172,-5.71212542766884,-0.00639925439003264,0.001163,0.000501,-0.004824,0.069154,0.013668,324.940817,23.928838,0.999402,0.988944,0.004427,0.398776,-0.000032,-0.000018,0.000003,-0.000018,-0.000032,79.543180,0.000051,
2221,2353,-0.767304108629144,-6.36733751903606,-0.0145667730909054,0.000865,-0.000155,0.002031,0.033167,0.007307,325.355273,23.916117,0.999396,0.989657,0.004282,0.412547,-0.000024,-0.000021,0.000005,-0.000017,-0.000027,52.198747,0.000045,
2071,3043,-4.1395694530977,8.64837137612779,0.00808781963041838,0.000898,0.000135,-0.001262,0.045131,0.016948,314.952611,24.363428,0.999449,0.994190,0.003259,0.369466,-0.000006,-0.000020,-0.000007,-0.000003,-0.000023,-22.599193,0.000028,
2176,2128,-1.70858529954565,-11.2929354353162,0.0062458063550821,0.000650,0.000153,-0.003675,0.041211,-0.024807,329.288208,23.959404,0.998830,0.982358,0.005391,0.274580,-0.000023,-0.000026,0.000008,-0.000017,-0.000033,40.019541,0.000050,
2371,3043,2.3725249674375,8.67025828023969,0.00395612365502984,0.000772,0.000472,-0.002363,0.044175,0.026519,314.151441,25.343185,0.999562,0.992913,0.003528,0.380718,-0.000024,-0.000009,0.000004,-0.000008,-0.000025,75.202304,0.000034,
2131,3268,-2.87531836310297,13.5289686659607,0.0167033493087274,0.000773,0.000297,-0.003085,0.045038,0.007541,311.055252,24.624584,0.999664,0.996021,0.002702,0.361790,-0.000009,0.000011,-0.000022,0.000025,-0.000024,-57.574515,0.000028,
2026,3073,-5.1189698963165,9.29417705756643,0.020544282039225,0.000957,-0.000197,-0.000037,0.044192,-0.008984,314.831950,24.148832,0.999232,0.993468,0.003500,0.389174,0.000008,0.000000,-0.000007,0.000012,-0.000004,-31.097430,0.000012,
2446,2218,4.16835757480398,-9.3235095544219,0.00301533430285872,0.000610,0.000746,-0.005454,0.048496,-0.001889,327.651835,22.691608,0.999385,0.985152,0.004941,0.341662,-0.000034,-0.000022,-0.000017,-0.000010,-0.000046,-54.062317,0.000060,
2476,2413,4.7835522437669,-5.05391091240377,-0.00443640509001852,0.000561,0.000540,-0.007140,0.053011,0.005405,324.504155,23.271693,0.999390,0.987898,0.004662,0.384400,-0.000013,0.000013,0.000029,0.000031,-0.000031,56.841542,0.000036,
2461,2188,4.50177631850563,-9.98004862181373,-0.00602273335539394,0.001172,0.000350,-0.002907,0.064654,0.008413,328.109319,22.508897,0.999617,0.988839,0.004510,0.347731,-0.000010,-0.000006,-0.000007,-0.000001,-0.000015,-51.695445,0.000018,
2251,2503,-0.140269104690052,-3.08950580809702,-0.0154455254839263,0.000508,0.000516,-0.000936,0.026553,0.014333,322.851292,24.151888,0.999430,0.990208,0.004091,0.326132,-0.000022,-0.000021,-0.000003,-0.000018,-0.000025,-49.660124,0.000044,
2011,2983,-5.43215409841354,7.34359781533157,-0.00497216998712702,0.000633,-0.000007,0.000802,0.027014,0.003675,316.163276,24.224225,0.999278,0.992764,0.003422,0.350116,0.000005,-0.000043,-0.000027,0.000017,-0.000055,-24.003088,0.000056,
2296,2638,0.815322729393554,-0.144547360591474,-0.0201089534093057,0.000780,0.000373,-0.004104,0.049844,-0.005088,320.582259,24.244640,0.999303,0.989463,0.003994,0.399110,-0.000026,-0.000006,0.000000,-0.000006,-0.000026,-89.026023,0.000034,
2401,3238,2.98801735065108,12.9032546448749,0.018648407727369,0.000904,0.000050,-0.003048,0.052709,-0.008354,311.106622,25.997316,0.999420,0.993141,0.003383,0.365663,0.000003,-0.000011,-0.000003,0.000004,-0.000011,-10.364856,0.000011,
2206,2263,-1.07745083293206,-8.33665392694403,0.000151844894389797,0.000679,0.000512,-0.004935,0.046910,0.014084,326.981658,23.902362,0.999035,0.983065,0.005122,0.372952,-0.000022,-0.000034,0.000010,-0.000017,-0.000039,28.327795,0.000057,
2386,3103,2.68786395795765,9.9729984695453,0.0132731874751357,0.000857,0.000273,-0.003113,0.050797,0.011720,313.261942,25.515330,0.999130,0.990470,0.003928,0.411864,-0.000007,0.000002,0.000005,0.000004,-0.000009,65.143760,0.000009,
2431,2008,3.88457373929107,-13.9345396652985,0.0330072892496105,0.000577,0.000134,-0.002926,0.037203,-0.016019,331.251973,22.077457,0.999175,0.978094,0.005854,0.272031,-0.000036,-0.000075,0.000023,-0.000025,-0.000085,24.725562,0.000116,
2056,3103,-4.47341758356605,9.94696222949638,0.0240194464052479,0.000848,-0.000061,0.000254,0.038486,0.017951,314.185048,24.254064,0.999454,0.992977,0.003436,0.405098,-0.000004,-0.000004,-0.000009,0.000005,-0.000013,-44.733584,0.000014,
2341,2848,1.75454957172245,4.43154132972023,-0.0276242893241943,0.000653,0.000092,-0.000293,0.031071,0.003733,317.055872,24.760174,0.999670,0.992478,0.003519,0.374572,-0.000035,0.000002,-0.000009,0.000005,-0.000037,-76.521751,0.000040,
2101,3163,-3.5074840565675,11.2506551692005,0.0258861057925515,0.000858,0.000164,-0.001873,0.045059,-0.009001,312.988673,24.434166,0.999765,0.995980,0.002762,0.372381,-0.000006,0.000008,-0.000017,0.000019,-0.000017,-55.747666,0.000021,
2086,3133,-3.82767902847795,10.5999598002314,0.0233682342775978,0.000964,0.000474,-0.003525,0.054863,0.014524,313.542407,24.399771,0.999706,0.994565,0.002916,0.367758,-0.000010,-0.000001,-0.000011,0.000006,-0.000018,-55.255012,0.000018,
2266,2578,0.172770584732383,-1.45321884558865,-0.0226095780477635,0.000801,0.000119,-0.001196,0.040793,0.007342,321.564867,24.167395,0.999203,0.989403,0.004284,0.405634,-0.000023,-0.000010,-0.000006,-0.000008,-0.000025,-68.869289,0.000034,
2161,2038,-2.02052734787621,-13.2655776285327,0.011516245533528,0.000729,0.000788,-0.004376,0.047053,0.010122,330.832983,24.014586,0.999060,0.985656,0.004875,0.259926,-0.000004,-0.000052,-0.000004,-0.000004,-0.000053,-5.201937,0.000063,
2041,3043,-4.78998143872385,8.64591884690735,0.0096309702232702,0.000690,0.000340,-0.002382,0.038654,0.026381,315.131073,24.230477,0.999681,0.995567,0.002922,0.413657,0.000003,-0.000024,-0.000003,0.000003,-0.000025,-7.050160,0.000027,
2326,2818,1.43458157350972,3.77728872149577,-0.0226543856501848,0.000630,0.000159,-0.004473,0.044450,-0.006592,317.605162,24.653210,0.999475,0.992220,0.003680,0.382598,-0.000030,-0.000021,-0.000007,-0.000017,-0.000034,-60.976846,0.000052,
2131,3283,-2.87816291596387,13.8537681810633,0.0119001902052673,0.000853,0.000133,-0.001603,0.044286,0.008151,310.768622,24.600995,0.999677,0.996038,0.002769,0.390109,-0.000014,0.000013,-0.000019,0.000023,-0.000024,-62.350675,0.000027,
2281,2593,0.496949777968606,-1.12587491063665,-0.01727960735343,0.000694,0.000239,-0.002157,0.039184,0.006534,321.342803,24.205009,0.999161,0.989693,0.004230,0.375900,-0.000019,-0.000022,-0.000003,-0.000017,-0.000025,-33.406376,0.000042,
2071,3058,-4.14159538804627,8.97269270231755,0.00926079828718684,0.001157,-0.000252,-0.001775,0.058353,-0.020216,314.731715,24.308716,0.999181,0.993680,0.003378,0.383025,-0.000002,-0.000015,-0.000012,0.000005,-0.000023,-31.220790,0.000024,
2476,2428,4.78024999828537,-4.7255040275087,-0.0038287786559863,0.000615,0.000648,-0.002983,0.039773,0.029658,324.252269,23.347474,0.999275,0.988105,0.004577,0.391133,-0.000014,0.000004,0.000032,0.000029,-0.000038,52.940070,0.000040,
2461,2203,4.4981378043134,-9.65121016178531,-0.00965026725691587,0.000926,0.000218,-0.002205,0.050734,-0.008718,327.822819,22.544854,0.999223,0.983694,0.005126,0.351889,-0.000016,-0.000024,-0.000015,-0.000005,-0.000035,-38.020321,0.000044,
2176,2143,-1.71105805819581,-10.9645856436071,0.0113085713266514,0.000419,0.000443,-0.002106,0.025861,0.015800,329.073698,23.959528,0.998693,0.981884,0.005396,0.329998,-0.000029,-0.000038,0.000007,-0.000025,-0.000042,29.466265,0.000067,
2356,2953,2.06193119485836,6.71449903270012,-0.0154411265634167,0.000674,-0.000325,-0.001331,0.035570,-0.016879,315.448509,25.048019,0.999233,0.991233,0.003833,0.354900,-0.000035,-0.000015,-0.000007,-0.000012,-0.000037,-72.044811,0.000052,
2401,3253,2.98414563379642,13.2294353157571,0.00648136368374708,0.001033,0.000111,-0.001691,0.053726,-0.003562,310.758812,26.052389,0.999452,0.992708,0.003468,0.359740,0.000003,-0.000010,-0.000002,0.000003,-0.000010,-8.943125,0.000010,
2011,2998,-5.43349645079778,7.66853067438851,0.00249095282623557,0.001039,0.000086,-0.000807,0.050152,0.005640,316.004596,24.212936,0.999376,0.993114,0.003367,0.350611,0.000009,-0.000016,-0.000022,0.000022,-0.000029,-30.351361,0.000030,
2026,3088,-5.1211424147103,9.62066763892646,0.0223334348558524,0.000863,0.000367,-0.002375,0.046558,0.024932,314.603878,24.232742,0.999600,0.995469,0.002975,0.328174,0.000000,0.000005,-0.000007,0.000010,-0.000005,-55.190311,0.000010,
2371,3058,2.36926863977347,8.9961180024742,0.00680634559671489,0.000532,-0.000079,0.002262,0.016405,0.009034,313.902119,25.427282,0.999654,0.994362,0.003169,0.319198,-0.000020,-0.000010,0.000005,-0.000008,-0.000023,66.431443,0.000032,
2311,2683,1.1336522731797,0.837489877237871,-0.0237954921623214,0.001019,0.000838,-0.006007,0.067659,0.025556,319.824479,24.344317,0.999728,0.992532,0.003576,0.417354,-0.000027,0.000004,-0.000005,0.000005,-0.000028,-81.754451,0.000030,
2191,2158,-1.38516080158166,-10.6378563916375,0.023798455380927,0.000717,0.000750,-0.003919,0.045363,0.011612,328.910224,23.875294,0.999130,0.986512,0.004822,0.343387,-0.000030,-0.000045,0.000003,-0.000030,-0.000045,9.918952,0.000076,
2086,3148,-3.82995387354456,10.9244369857066,0.0314118118988631,0.000643,0.000292,-0.002996,0.038483,0.015563,313.348621,24.385539,0.999774,0.996070,0.002690,0.380745,-0.000009,-0.000001,-0.000016,0.000011,-0.000021,-52.303983,0.000021,
2056,3118,-4.47565857772365,10.2721578936258,0.0250646084390951,0.000864,-0.000075,-0.000643,0.041686,-0.000557,313.952296,24.274532,0.999479,0.994287,0.003116,0.359788,-0.000009,0.000004,-0.000009,0.000008,-0.000013,-63.269240,0.000014,
2206,2278,-1.07989624763658,-8.00906597404425,0.0055484986514216,0.000733,-0.000234,-0.000279,0.034433,-0.004449,326.772594,23.940302,0.998931,0.983971,0.005082,0.335277,-0.000020,-0.000030,0.000006,-0.000017,-0.000033,24.596052,0.000051,
2116,3208,-3.18888255827827,12.2262015348116,0.0422602461002271,0.000820,-0.000003,-0.000010,0.037946,0.012683,312.311776,24.507289,0.999598,0.994780,0.003125,0.394010,-0.000010,0.000003,-0.000020,0.000017,-0.000024,-53.890407,0.000025,
2296,2653,0.811496237087777,0.183129290528207,-0.027567037589165,0.000353,0.000136,-0.002634,0.025165,-0.009243,320.251465,24.284764,0.999274,0.989388,0.004011,0.385524,-0.000028,-0.000004,0.000003,-0.000004,-0.000028,83.992263,0.000034,
2101,3178,-3.51012644447835,11.5750379095609,0.0227944273552225,0.000909,-0.000085,-0.001221,0.045412,-0.018263,312.718424,24.362201,0.999816,0.996314,0.002623,0.435082,-0.000006,0.000011,-0.000016,0.000021,-0.000016,-58.653345,0.000022,
2431,2023,3.88088802770407,-13.6034692434394,0.0277547191471967,0.000423,0.000316,-0.001501,0.024968,0.008030,330.953571,22.186462,0.998974,0.978296,0.005790,0.240887,-0.000038,-0.000053,0.000021,-0.000023,-0.000068,35.009093,0.000095,
2161,2053,-2.02254618143261,-12.9382693298343,0.0213724389030858,0.000636,0.000367,-0.002171,0.035901,0.003143,330.663668,23.989711,0.999067,0.985198,0.004909,0.290987,-0.000013,-0.000040,0.000005,-0.000012,-0.000041,9.492327,0.000056,
2386,3118,2.68512933920928,10.2992751748076,0.0132668078084066,0.000976,0.000441,-0.003750,0.058589,0.012274,313.023624,25.616732,0.999548,0.993514,0.003353,0.353425,-0.000003,0.000001,0.000005,0.000004,-0.000006,54.787108,0.000007,
2221,2368,-0.769182169087916,-6.03912193130219,-0.00730669928094585,0.000958,-0.000106,0.000458,0.042475,0.013547,325.182427,24.034315,0.999507,0.990097,0.004241,0.320968,-0.000026,-0.000018,0.000000,-0.000018,-0.000026,87.349227,0.000044,
2041,3058,-4.79186059391472,8.97002823927517,0.0220651169475445,0.000644,-0.000236,0.001661,0.025027,0.000918,314.977531,24.216916,0.999634,0.995406,0.002993,0.393141,0.000000,-0.000013,-0.000010,0.000006,-0.000019,-29.414957,0.000019,
2446,2233,4.16581382058459,-8.99590602041481,0.0146582559795547,0.000398,0.000346,-0.002050,0.025993,-0.010575,327.484201,22.774229,0.998926,0.980931,0.005490,0.304735,-0.000030,-0.000001,-0.000011,0.000002,-0.000034,-71.908106,0.000038,
2251,2518,-0.142917939321492,-2.76236001537455,-0.0173552404696693,0.000590,0.000386,-0.001670,0.032725,0.014068,322.598743,24.140986,0.999153,0.988198,0.004460,0.361454,-0.000021,-0.000025,-0.000003,-0.000019,-0.000026,-27.825801,0.000046,
2131,3298,-2.88058231294722,14.1784311904052,0.0122209781514471,0.000815,0.000292,-0.003348,0.047831,0.016955,310.529062,24.588467,0.999635,0.994615,0.003081,0.415682,-0.000009,0.000025,-0.000025,0.000038,-0.000022,-62.698591,0.000038,
2236,2398,-0.447995884886726,-5.38271207277268,-0.0161988121917034,0.000766,0.000903,-0.005623,0.053682,0.019797,324.600648,24.002540,0.999446,0.990775,0.004058,0.354246,-0.000030,-0.000012,0.000001,-0.000012,-0.000030,85.547412,0.000043,
2476,2443,4.77647817815648,-4.39646706152904,-0.0113245177400358,0.000475,0.000668,-0.003677,0.035972,0.012304,323.942094,23.451624,0.999236,0.987369,0.004603,0.327826,0.000001,-0.000042,0.000029,0.000015,-0.000056,26.910149,0.000058,
2266,2593,0.169561022722078,-1.12597351824503,-0.0249547021857666,0.000510,0.000134,-0.000234,0.024252,0.008245,321.285466,24.186026,0.999019,0.988235,0.004495,0.414297,-0.000018,-0.000025,-0.000003,-0.000017,-0.000026,-22.873267,0.000043,
2341,2863,1.75201994718464,4.75675686270057,-0.0179921143696333,0.000238,-0.000165,0.000121,0.010482,-0.003971,316.871765,24.775404,0.999600,0.992354,0.003617,0.387843,-0.000039,0.000003,-0.000013,0.000007,-0.000043,-73.903349,0.000046,
2326,2833,1.43118191199137,4.10591958131592,-0.0323733539282784,0.000866,0.000403,-0.003147,0.050902,0.023611,317.284720,24.790740,0.999830,0.993980,0.003345,0.309753,-0.000031,-0.000011,-0.000007,-0.000009,-0.000034,-72.002699,0.000045,
2401,3268,2.97976761082021,13.555866992303,-0.011093427584342,0.000899,0.000185,-0.002673,0.051238,0.007450,310.361867,26.100134,0.999590,0.992866,0.003493,0.366962,0.000004,-0.000013,0.000005,0.000006,-0.000014,15.954019,0.000014,
2011,3013,-5.43575697141245,7.99344317336219,0.00383872240763594,0.000895,0.000083,-0.002350,0.047697,-0.000439,315.769487,24.169969,0.999505,0.994022,0.003306,0.374761,0.000013,-0.000014,-0.000014,0.000019,-0.000020,-23.652109,0.000023,
2071,3073,-4.14433069712148,9.29804930352059,0.0119395859880456,0.000600,-0.000021,-0.002557,0.035017,-0.002577,314.486124,24.308287,0.999276,0.992979,0.003527,0.396907,-0.000001,-0.000011,-0.000013,0.000008,-0.000020,-34.242595,0.000020,
2116,3223,-3.19133854851166,12.5507243583668,0.040044806617459,0.000944,-0.000219,-0.000738,0.045711,-0.005334,312.055929,24.473150,0.999603,0.995315,0.003054,0.412209,-0.000009,0.000006,-0.000023,0.000022,-0.000025,-53.931123,0.000028,
2026,3103,-5.12362288060703,9.94522534420835,0.0229981909100729,0.000649,0.000364,-0.002695,0.037577,0.025523,314.356181,24.168702,0.999543,0.995014,0.003124,0.382318,0.000002,0.000012,0.000001,0.000012,0.000001,84.209838,0.000015,
2101,3193,-3.51229778940681,11.9003733512958,0.0315451308123329,0.000618,0.000164,-0.001520,0.032970,-0.001935,312.533701,24.426123,0.999594,0.995012,0.003012,0.387439,-0.000005,0.000008,-0.000019,0.000022,-0.000019,-54.402410,0.000024,
2191,2173,-1.38864109590871,-10.3077078774507,0.00716790935871359,0.000799,0.000780,-0.005312,0.053485,0.020688,328.538290,23.850083,0.999228,0.969547,0.006007,0.395461,-0.000032,-0.000033,0.000003,-0.000030,-0.000035,40.297135,0.000065,
2461,2218,4.49559570083133,-9.32288241167937,-0.00448164582849131,0.000760,0.000739,-0.004988,0.053784,0.017323,327.626452,22.588139,0.999471,0.986825,0.004910,0.391361,-0.000021,-0.000028,-0.000018,-0.000006,-0.000043,-39.996958,0.000053,
2176,2158,-1.7163399489283,-10.6298811704358,-0.035485992740746,0.000736,0.000459,-0.003301,0.044107,0.001204,328.459694,24.046075,0.999376,0.959697,0.006907,0.246149,-0.000032,-0.000043,0.000004,-0.000030,-0.000044,18.847107,0.000075,
2056,3133,-4.47779662165456,10.5970962781175,0.0224523714676934,0.001148,-0.000053,-0.002539,0.060110,-0.015035,313.704158,24.248597,0.999077,0.993629,0.003288,0.364750,-0.000014,0.000005,-0.000014,0.000013,-0.000021,-62.155546,0.000021,
2281,2608,0.493344356142181,-0.797472781064407,-0.0252378688400086,0.000608,-0.000095,0.000883,0.024945,0.009442,321.018198,24.284281,0.999065,0.989177,0.004367,0.328315,-0.000022,-0.000026,0.000001,-0.000022,-0.000027,15.836123,0.000048,
2146,1993,-2.33987169784642,-14.2545904854642,0.0251715736654319,0.000633,0.000447,-0.002164,0.035653,0.017056,331.711578,24.044064,0.999204,0.983701,0.004959,0.301218,0.000030,-0.000096,-0.000016,0.000032,-0.000098,-6.933844,0.000100,
2041,3073,-4.79401957567164,9.29544426545778,0.0198719407772501,0.000782,0.000214,-0.001322,0.039902,0.016773,314.729340,24.190764,0.999423,0.993617,0.003476,0.426740,0.000000,-0.000006,-0.000011,0.000008,-0.000014,-37.397099,0.000014,
2431,2038,3.87835198558653,-13.2745286265707,0.0289574232402856,0.000674,0.000550,-0.002612,0.040642,0.019953,330.737774,22.191998,0.998956,0.978305,0.005793,0.300707,-0.000041,-0.000048,0.000026,-0.000019,-0.000071,41.143554,0.000095,
2371,3073,2.36707145131024,9.32148733589644,0.00708734538653744,0.000760,0.000294,-0.003220,0.046559,0.010588,313.689304,25.434114,0.999556,0.993258,0.003414,0.354044,-0.000019,-0.000005,0.000002,-0.000005,-0.000020,80.652722,0.000026,
2296,2668,0.809245551698687,0.510562634882476,-0.0255818639328709,0.000403,0.000389,-0.006588,0.040899,-0.010540,320.039783,24.383670,0.999564,0.991450,0.003770,0.315638,-0.000029,0.000003,-0.000005,0.000003,-0.000030,-81.453204,0.000032,
2161,2068,-2.02479379180352,-12.6096991068907,0.0223471731774225,0.000824,0.000243,-0.001319,0.041864,0.012661,330.437071,23.969006,0.999315,0.985352,0.004914,0.334536,-0.000019,-0.000028,0.000011,-0.000011,-0.000035,34.130150,0.000049,
2476,2458,4.774043297523,-4.06931066633084,-0.00629056976458742,0.000941,0.000265,-0.000508,0.045177,0.011324,323.750200,23.489353,0.999227,0.988528,0.004435,0.347055,0.000002,-0.000041,0.000024,0.000013,-0.000051,24.101840,0.000053,
2266,2608,0.166783656840156,-0.79839459840548,-0.027670404869184,0.000530,0.000054,-0.001370,0.028925,0.001106,321.023933,24.245049,0.999142,0.988527,0.004405,0.374408,-0.000020,-0.000029,0.000001,-0.000020,-0.000029,7.729323,0.000049,
2401,3283,2.97654872430935,13.8809810419627,-0.0165760561150137,0.001186,-0.000011,-0.000857,0.057709,-0.003589,310.075974,26.120121,0.999632,0.992560,0.003560,0.379849,0.000011,-0.000020,0.000005,0.000012,-0.000021,8.816974,0.000021,
2356,2968,2.05962079403486,7.04118869094332,-0.0131733892023362,0.000916,0.000026,-0.002934,0.052537,0.002997,315.238943,25.144744,0.999495,0.992620,0.003573,0.316297,-0.000036,-0.000015,-0.000005,-0.000014,-0.000037,-77.514962,0.000053,
2221,2383,-0.772011157921476,-5.71220030329319,-0.0098611028971618,0.000763,-0.000008,-0.001290,0.039143,-0.009568,324.916170,23.973063,0.999424,0.989709,0.004226,0.379911,-0.000025,-0.000014,0.000002,-0.000013,-0.000025,80.733416,0.000039,
2251,2533,-0.146154496100461,-2.43378200977484,-0.0268734436997988,0.000780,0.000198,-0.000429,0.037322,0.021015,322.280425,24.191257,0.999546,0.992606,0.003655,0.342645,-0.000023,-0.000025,-0.000006,-0.000018,-0.000030,-41.136177,0.000048,
2236,2413,-0.45193518560885,-5.05186292999789,-0.0384680684214231,0.000973,0.000554,-0.006523,0.065930,-0.010436,324.183788,24.131897,0.999572,0.991947,0.003729,0.218087,-0.000028,-0.000020,-0.000005,-0.000018,-0.000030,-63.979931,0.000049,
2311,2698,1.1306572567301,1.16382754507853,-0.0230330479911345,0.000845,0.000554,-0.004460,0.054281,0.019493,319.573901,24.346396,0.999773,0.993122,0.003477,0.441674,-0.000027,-0.000004,-0.000001,-0.000004,-0.000027,-87.458834,0.000034,
2011,3028,-5.43741932968726,8.31840471363014,0.0128919984628624,0.001030,-0.000148,-0.001628,0.051983,0.004666,315.605152,24.175270,0.999466,0.993871,0.003453,0.361649,0.000026,-0.000014,-0.000003,0.000026,-0.000014,-4.800613,0.000026,
2206,2293,-1.08184767901703,-7.68036164916218,0.00111311197241548,0.001223,0.000477,-0.006289,0.076154,-0.006612,326.535236,23.969379,0.999052,0.986404,0.004777,0.322722,-0.000019,-0.000027,0.000006,-0.000016,-0.000030,26.180461,0.000047,
2446,2248,4.16303842644701,-8.66611085261986,0.00780805748456714,0.000912,0.000787,-0.005508,0.062541,0.016666,327.220567,22.834948,0.998983,0.980859,0.005452,0.325881,-0.000026,-0.000002,-0.000012,0.000003,-0.000031,-67.674765,0.000034,
2386,3133,2.68265844529261,10.6243891120653,0.0215717912148534,0.000848,0.000348,-0.002540,0.048342,0.015621,312.837353,25.663151,0.999658,0.994220,0.003245,0.352165,-0.000003,-0.000002,0.000007,0.000005,-0.000010,46.862529,0.000010,
2116,3238,-3.19430440780758,12.8763023100277,0.0312217658665759,0.000965,-0.000113,-0.001814,0.049889,-0.010124,311.740596,24.489842,0.999629,0.995701,0.002824,0.392906,-0.000009,0.000007,-0.000020,0.000021,-0.000023,-55.278518,0.000025,
2026,3118,-5.12579003686249,10.2709421614542,0.01999055349944,0.000921,0.000523,-0.003877,0.053444,0.028239,314.101881,24.190175,0.999634,0.995452,0.002984,0.352663,-0.000002,0.000024,0.000004,0.000025,-0.000002,81.604026,0.000027,
2056,3148,-4.47989796136384,10.9220847992331,0.0303154403131316,0.000814,0.000435,-0.004643,0.050829,0.010207,313.515588,24.255600,0.999488,0.994459,0.003102,0.376418,-0.000010,0.000004,-0.000019,0.000017,-0.000023,-55.453466,0.000024,
2341,2878,1.74864491277759,5.08315215408984,-0.0296114647186982,0.000210,0.000194,-0.004569,0.025669,-0.007630,316.545171,24.742181,0.999526,0.992109,0.003730,0.453977,-0.000042,0.000000,-0.000011,0.000003,-0.000044,-76.298223,0.000050,
2071,3088,-4.14644224241478,9.62334185567461,0.012269106739268,0.000920,0.000160,-0.001652,0.047272,0.011269,314.256293,24.294339,0.999204,0.992243,0.003661,0.420481,-0.000005,-0.000009,-0.000011,0.000004,-0.000018,-39.727249,0.000019,
2101,3208,-3.51418452611227,12.2256134684453,0.0394442402622985,0.000764,0.000012,-0.000316,0.036180,0.002274,312.357487,24.490940,0.999601,0.994976,0.003031,0.326472,-0.000005,0.000004,-0.000021,0.000020,-0.000022,-50.689548,0.000024,
2326,2848,1.4287684686557,4.43020651357718,-0.0234994717271775,0.000664,0.000403,-0.001885,0.037215,0.018598,317.101739,24.708688,0.999761,0.993243,0.003447,0.420789,-0.000032,-0.000003,-0.000009,0.000000,-0.000034,-73.688574,0.000040,
2401,3298,2.97292175805574,14.2061602885879,-0.0258460878575875,0.001067,0.000152,-0.002780,0.059295,-0.003154,309.753226,26.118823,0.999675,0.993417,0.003428,0.425787,0.000014,-0.000030,0.000001,0.000014,-0.000030,1.286601,0.000030,
2461,2233,4.49224364662831,-8.99458812099935,0.00663406630019381,-0.000020,0.000100,0.000440,-0.002537,-0.002828,327.420183,22.740751,0.999158,0.982815,0.005276,0.275186,-0.000018,-0.000003,-0.000012,0.000003,-0.000025,-60.845251,0.000027,
2041,3088,-4.79634676680616,9.62184991087245,0.0125230956827522,0.001179,0.000049,-0.002526,0.061552,0.009309,314.444432,24.250434,0.999640,0.994989,0.002997,0.350858,-0.000007,-0.000002,-0.000010,0.000005,-0.000014,-51.287444,0.000014,
2146,2008,-2.34140146897207,-13.9265541881114,0.0294805708856529,0.001032,0.001129,-0.004948,0.062597,0.026963,331.534170,23.989887,0.999006,0.984757,0.004974,0.376430,0.000017,-0.000080,-0.000007,0.000018,-0.000080,-3.960052,0.000084,
2431,2053,3.87527770841814,-12.9448402699203,0.0261457380472052,0.001003,0.000074,-0.000261,0.046836,0.011966,330.478770,22.246222,0.998829,0.977902,0.005886,0.291950,-0.000037,-0.000047,0.000021,-0.000020,-0.000064,37.918682,0.000088,
2086,3163,-3.8330133124295,11.2503102619717,0.0220981055770153,0.000616,0.000169,-0.002770,0.036523,0.002103,313.023540,24.412939,0.999790,0.996158,0.002735,0.337908,-0.000006,0.000010,-0.000019,0.000023,-0.000019,-56.018375,0.000024,
2191,2188,-1.3909982967533,-9.97856119845237,0.00786175848827497,0.001069,0.000434,-0.003075,0.058771,0.011318,328.307630,23.941781,0.998648,0.979227,0.005622,0.311546,-0.000033,-0.000015,0.000003,-0.000014,-0.000033,81.298743,0.000049,
2296,2683,0.806792994263549,0.83687655985468,-0.0258108085388926,0.000856,0.000461,-0.004470,0.054645,0.010170,319.808036,24.343972,0.999622,0.991105,0.003766,0.406299,-0.000027,0.000005,-0.000004,0.000006,-0.000028,-83.675336,0.000029,
2236,2428,-0.453460821385221,-4.72712273888614,-0.0249973392316178,0.001086,0.000525,-0.006616,0.071448,-0.003796,324.060240,24.010077,0.999402,0.990665,0.004011,0.368772,-0.000026,-0.000039,-0.000008,-0.000022,-0.000043,-24.937431,0.000066,
2266,2623,0.164355914322154,-0.471761347233226,-0.0270321404420883,0.000711,-0.000098,-0.001715,0.038328,-0.007244,320.795470,24.252158,0.999400,0.989384,0.004163,0.385162,-0.000019,-0.000022,0.000002,-0.000018,-0.000023,22.965971,0.000041,
2476,2473,4.77037516430304,-3.74057310465199,-0.0226113699670805,0.001641,-0.000144,-0.001151,0.079526,-0.002261,323.404656,23.491887,0.999501,0.990802,0.004024,0.389169,-0.000018,-0.000055,0.000018,-0.000011,-0.000062,21.913770,0.000078,
2251,2548,-0.1486909372863,-2.10798882219258,-0.0225059084449413,0.000612,-0.000263,0.000088,0.027778,0.004190,322.065036,24.139277,0.999672,0.994196,0.003380,0.401944,-0.000024,-0.000015,-0.000004,-0.000013,-0.000025,-68.613425,0.000039,
2011,3043,-5.43982531097901,8.64336573717216,0.0145643647727525,0.000781,0.000138,-0.002238,0.042231,0.012136,315.365234,24.132618,0.999385,0.993860,0.003577,0.398898,0.000026,-0.000023,-0.000005,0.000026,-0.000024,-5.345068,0.000029,
2221,2398,-0.774012078339123,-5.3826942846588,-0.0105487285097183,0.001120,0.000807,-0.005339,0.068794,0.007438,324.696694,24.131257,0.999598,0.991979,0.003781,0.259280,-0.000023,-0.000010,0.000000,-0.000010,-0.000023,89.089109,0.000034,
2116,3253,-3.19704113201587,13.2020405905187,0.0282487951942016,0.000863,-0.000041,-0.002535,0.047423,0.004690,311.467267,24.539402,0.999737,0.996998,0.002427,0.359856,-0.000007,0.000011,-0.000020,0.000024,-0.000020,-57.200915,0.000026,
2056,3163,-4.48208992536778,11.24695107058,0.030069763637016,0.001055,0.000117,-0.004079,0.060293,0.003268,313.278122,24.237489,0.999544,0.993238,0.003337,0.380930,-0.000005,0.000016,-0.000022,0.000030,-0.000018,-58.122558,0.000030,
2281,2623,0.490561684298651,-0.471027344793356,-0.0262170151403893,0.000483,-0.000062,-0.000723,0.024606,0.006675,320.766564,24.254926,0.999283,0.989230,0.004147,0.383243,-0.000020,-0.000017,0.000001,-0.000017,-0.000021,78.036276,0.000038,
2371,3088,2.36425817731182,9.64617386064923,0.0145683847259761,0.000497,-0.000141,0.000105,0.022453,-0.005968,313.482842,25.445951,0.999437,0.991954,0.003680,0.365539,-0.000016,-0.000006,-0.000001,-0.000006,-0.000016,-82.578041,0.000023,
2026,3133,-5.12803034765284,10.5954413091771,0.0261848282979713,0.000767,0.000311,-0.001769,0.040442,0.023746,313.896225,24.167638,0.999548,0.994837,0.003137,0.359831,-0.000011,0.000023,-0.000004,0.000023,-0.000011,-83.979149,0.000023,
2176,2173,-1.72064585571744,-10.2966470312523,-0.0718289521298061,0.001199,0.000256,-0.006251,0.074410,-0.012620,327.944863,24.120325,0.999818,0.924715,0.009050,0.174274,-0.000032,-0.000030,0.000004,-0.000028,-0.000035,54.349884,0.000063,
2446,2263,4.15999061672022,-8.33718054574513,0.00801924557129041,0.000774,0.000751,-0.006528,0.060028,0.022314,326.976976,22.916475,0.998925,0.980214,0.005616,0.304651,-0.000028,-0.000009,-0.000022,0.000005,-0.000042,-56.769214,0.000046,
2356,2983,2.05712174653365,7.36677800085648,-0.00943422951075945,0.000908,0.000368,-0.003814,0.055381,0.013429,315.028087,25.163555,0.999377,0.990179,0.004003,0.346148,-0.000034,-0.000013,0.000000,-0.000013,-0.000034,89.451000,0.000049,
2461,2248,4.49038358376297,-8.6666581627715,0.00908602900989308,0.000600,0.000498,-0.003762,0.041769,0.005881,327.242712,22.745558,0.999051,0.980406,0.005330,0.335497,-0.000016,-0.000002,-0.000014,0.000006,-0.000024,-58.377355,0.000025,
2386,3148,2.68028924724743,10.9490145378985,0.0286385262850217,0.000857,0.000145,-0.002117,0.047106,0.004408,312.649982,25.674254,0.999570,0.993563,0.003353,0.372118,-0.000003,-0.000008,0.000004,-0.000001,-0.000010,29.698030,0.000012,
2341,2893,1.74697352987387,5.40952302557956,-0.0172423116688378,0.000499,0.000204,-0.003537,0.035366,0.001404,316.413390,24.874126,0.999321,0.992014,0.003762,0.367116,-0.000041,-0.000012,-0.000010,-0.000009,-0.000044,-73.415022,0.000057,
2161,2083,-2.02732642276079,-12.280024542738,0.0229544564076605,0.000583,0.000232,-0.003157,0.036431,-0.013494,330.195548,24.085798,0.999237,0.984786,0.005054,0.204946,-0.000022,-0.000016,0.000008,-0.000010,-0.000028,55.595554,0.000039,
2041,3103,-4.79870337454832,9.94634338995707,0.0194681981211033,0.000795,0.000254,-0.001790,0.041790,0.016440,314.238384,24.214452,0.999671,0.995285,0.002923,0.385432,-0.000003,0.000000,-0.000002,0.000001,-0.000005,-62.759739,0.000005,
2311,2713,1.12746919368327,1.4908001688327,-0.0222630747161929,0.000548,0.000271,-0.002028,0.032181,0.000207,319.314327,24.424516,0.999531,0.991730,0.003744,0.376631,-0.000027,-0.000011,-0.000002,-0.000011,-0.000027,-82.201940,0.000040,
2101,3223,-3.5162844141434,12.550043282186,0.0411466736701414,0.000860,0.000157,-0.002750,0.047814,0.005638,312.138180,24.449190,0.999574,0.994953,0.003078,0.371698,-0.000003,0.000005,-0.000024,0.000025,-0.000023,-49.532977,0.000028,
2416,1993,3.56029167347024,-14.2634357298625,0.0367704368937893,0.000717,0.001147,-0.008105,0.062792,-0.007303,331.525978,22.189081,0.999110,0.977337,0.005948,0.221935,-0.000056,-0.000068,0.000029,-0.000032,-0.000092,39.555299,0.000129,
2326,2863,1.42615688254077,4.75590165763344,-0.0203552818140338,0.000552,-0.000062,-0.002657,0.034494,-0.024472,316.881269,24.754753,0.999723,0.992911,0.003508,0.365620,-0.000036,-0.000003,-0.000013,0.000002,-0.000041,-70.965125,0.000046,
2206,2308,-1.08426658775455,-7.35240570200329,-0.00116080748171044,0.001179,0.001143,-0.011039,0.089409,0.000258,326.287684,23.948488,0.998846,0.986734,0.004714,0.369262,-0.000019,-0.000033,0.000005,-0.000017,-0.000034,16.948643,0.000052,
2146,2023,-2.34457034327685,-13.5957468216578,0.0201702383883458,0.001029,0.000610,-0.003062,0.056596,0.025771,331.209743,24.050541,0.998594,0.984155,0.005118,0.326636,-0.000001,-0.000067,-0.000006,-0.000001,-0.000068,-5.417965,0.000079,
2431,2068,3.87134630937731,-12.6151368278369,0.0227146316991025,0.000378,-0.000046,0.000310,0.016125,0.009677,330.177528,22.295303,0.998586,0.976139,0.006215,0.294263,-0.000033,-0.000027,0.000023,-0.000007,-0.000053,48.202327,0.000066,
2116,3268,-3.1997338999587,13.5273065253382,0.024541754120321,0.000780,0.000425,-0.004386,0.049233,0.021211,311.192178,24.543817,0.999727,0.996513,0.002619,0.373999,-0.000007,0.000019,-0.000021,0.000030,-0.000019,-60.908483,0.000031,
2476,2488,4.76754041161426,-3.4132486761261,-0.018404587612622,0.000942,0.000775,-0.007940,0.073625,0.001242,323.190445,23.542917,0.999514,0.988318,0.004237,0.399500,-0.000011,-0.000066,0.000000,-0.000011,-0.000066,0.081070,0.000084,
2236,2443,-0.45558714352709,-4.39955412811216,-0.0104055412571711,0.001065,-0.000034,0.000670,0.046712,-0.005700,323.914331,24.169272,0.999569,0.992185,0.003922,0.229617,-0.000027,-0.000038,-0.000008,-0.000023,-0.000042,-27.495722,0.000066,
2071,3103,-4.14836211475302,9.9481289017345,0.0245313339186168,0.000711,0.000229,-0.000417,0.034162,0.026544,314.100999,24.311312,0.999517,0.993718,0.003259,0.414548,0.000000,-0.000008,-0.000006,0.000003,-0.000011,-28.684090,0.000012,
2086,3178,-3.83448779851602,11.5737035664904,0.0352800107905296,0.000793,0.000257,-0.001929,0.042292,0.015308,312.895002,24.323822,0.999692,0.996067,0.002747,0.437929,-0.000005,0.000014,-0.000019,0.000026,-0.000017,-57.898414,0.000026,
2296,2698,0.803597426906375,1.16397421858081,-0.0287773717340087,0.000761,0.000223,-0.002563,0.043729,0.011900,319.528430,24.377507,0.999735,0.993107,0.003480,0.405144,-0.000026,-0.000003,0.000000,-0.000003,-0.000026,-89.298267,0.000032,
2371,3103,2.3617670233932,9.97235300835054,0.012289522768242,0.000742,0.000013,-0.004005,0.048407,-0.009650,313.243857,25.523992,0.999427,0.992148,0.003660,0.323936,-0.000010,0.000000,0.000003,0.000000,-0.000011,74.658349,0.000012,
2056,3178,-4.48428815567314,11.5714639885506,0.0378139624783671,0.000846,0.000179,-0.002754,0.046953,0.011114,313.084701,24.223400,0.999627,0.994878,0.003038,0.396343,-0.000005,0.000021,-0.000023,0.000034,-0.000018,-60.094139,0.000034,
2461,2263,4.48709968842408,-8.33674122431228,0.000784054602092965,0.000785,0.000685,-0.006898,0.062103,0.010018,326.950650,22.832032,0.999103,0.981141,0.005329,0.310143,-0.000019,-0.000010,-0.000023,0.000009,-0.000038,-50.578596,0.000039,
2011,3058,-5.4413811427601,8.96822126027816,0.0223240676351679,0.000889,0.000475,-0.005134,0.055158,0.011761,315.198628,24.131252,0.999242,0.993361,0.003467,0.386852,0.000023,-0.000003,-0.000009,0.000026,-0.000006,-18.140624,0.000028,
2416,2008,3.55720170712192,-13.9359461623665,0.0424778964959387,0.000497,0.000694,-0.003207,0.034702,0.016808,331.304665,22.089859,0.999068,0.976078,0.006057,0.396689,-0.000056,-0.000062,0.000016,-0.000043,-0.000075,39.370731,0.000119,
2041,3118,-4.80089956344255,10.2713016013509,0.0181415053613705,0.000975,0.000273,-0.002723,0.052685,0.009553,313.993553,24.186730,0.999653,0.995494,0.002874,0.397714,-0.000009,0.000010,-0.000001,0.000010,-0.000009,-86.857223,0.000011,
2026,3148,-5.13014534922504,10.9193782512232,0.0333935248910961,0.000607,0.000114,-0.000845,0.030448,0.012865,313.702255,24.108865,0.999636,0.995450,0.002974,0.396395,-0.000008,0.000016,-0.000008,0.000019,-0.000010,-73.705474,0.000019,
2221,2413,-0.776702199227262,-5.05574754269456,-0.00763477552288805,0.000946,0.000529,-0.003405,0.054493,0.006413,324.464638,24.112735,0.999609,0.991902,0.003794,0.297009,-0.000020,-0.000022,-0.000006,-0.000015,-0.000027,-40.394060,0.000043,
2386,3163,2.67687405731806,11.2744776949204,0.0256118081768477,0.000654,-0.000077,-0.001188,0.034396,0.005782,312.366017,25.692449,0.999387,0.991917,0.003729,0.397358,0.000000,-0.000007,0.000000,0.000000,-0.000007,-2.512589,0.000008,
2101,3238,-3.51899165653737,12.8750192093768,0.0361179527712352,0.000896,0.000143,-0.003376,0.051315,-0.001691,311.854237,24.433947,0.999655,0.995408,0.002888,0.379340,-0.000002,0.000007,-0.000021,0.000024,-0.000020,-50.903569,0.000026,
2446,2278,4.15686113016278,-8.00838033108739,0.00740184454627979,0.000791,0.000688,-0.005459,0.056808,0.012944,326.725839,22.997904,0.999120,0.980895,0.005505,0.268275,-0.000032,-0.000007,-0.000018,0.000003,-0.000042,-62.056892,0.000047,
2251,2563,-0.15082766825665,-1.78120059326389,-0.022126596656733,0.000981,-0.000037,-0.001515,0.050031,-0.003360,321.847543,24.138187,0.999527,0.992081,0.003719,0.419591,-0.000023,-0.000015,-0.000009,-0.000009,-0.000029,-57.724354,0.000040,
2356,2998,2.05375750004371,7.69235384825801,-0.00161306617553691,0.000087,0.000101,0.000027,0.003969,0.012332,314.797105,25.224070,0.999591,0.993128,0.003464,0.322533,-0.000032,-0.000011,0.000000,-0.000011,-0.000032,89.227619,0.000044,
2191,2203,-1.39360539228212,-9.64952216118788,-0.000126178739662919,0.001231,0.001001,-0.007328,0.079718,0.017762,328.020499,23.922275,0.998562,0.980133,0.005653,0.354935,-0.000027,-0.000007,0.000005,-0.000005,-0.000028,75.699600,0.000036,
2266,2638,0.162143367562667,-0.144812827193427,-0.0270291252963375,0.001124,0.000042,-0.002480,0.059893,-0.003414,320.573548,24.275194,0.999280,0.988961,0.004165,0.391952,-0.000020,-0.000014,0.000002,-0.000014,-0.000021,71.292144,0.000035,
2341,2908,1.7447289089664,5.73605709612166,-0.0169831630682893,0.001057,0.000378,-0.003547,0.061169,0.020437,316.196306,24.926538,0.999172,0.991326,0.003911,0.369867,-0.000041,-0.000016,-0.000008,-0.000014,-0.000044,-73.296138,0.000060,
2116,3283,-3.20265910030463,13.8515220735316,0.0243510702476897,0.000624,0.000088,-0.000278,0.029636,0.003025,310.925807,24.509349,0.999744,0.996212,0.002748,0.392186,-0.000010,0.000020,-0.000016,0.000026,-0.000016,-66.715821,0.000027,
2161,2098,-2.02938398617617,-11.9513288407347,0.0206242975953046,0.001073,0.000770,-0.003909,0.061384,0.005766,329.960216,24.041219,0.999507,0.985391,0.004936,0.281928,-0.000024,-0.000011,0.000011,-0.000005,-0.000030,60.610633,0.000038,
2146,2038,-2.34786530475156,-13.2661276947407,0.0158895846213909,0.000416,0.000566,-0.003331,0.029318,0.007761,330.906330,24.083062,0.998888,0.984775,0.005085,0.287851,-0.000010,-0.000064,-0.000002,-0.000010,-0.000064,-2.400780,0.000080,
2476,2503,4.76441900473973,-3.08594609116435,-0.0123499723873692,0.000701,0.000614,-0.003997,0.047571,0.012073,322.971339,23.605752,0.999553,0.989138,0.004160,0.405195,-0.000010,-0.000066,-0.000007,-0.000009,-0.000067,-7.035006,0.000083,
2311,2728,1.12480185319062,1.81734360432828,-0.0222941841784632,0.000691,0.000186,-0.001440,0.036739,0.005797,319.074721,24.436299,0.999389,0.991400,0.003871,0.402804,-0.000029,-0.000016,-0.000003,-0.000015,-0.000029,-79.573515,0.000045,
2416,2023,3.55243108422069,-13.6024875386867,0.0300209589550491,-0.000150,0.000651,-0.001435,-0.001361,0.018216,330.921532,22.357145,0.998615,0.976222,0.006114,0.182942,-0.000055,-0.000045,0.000013,-0.000035,-0.000064,55.156590,0.000101,
2461,2278,4.48457225968972,-8.00863970060934,0.00702158379971252,0.000833,0.000822,-0.006201,0.061757,0.019271,326.759653,22.900950,0.999397,0.982214,0.005219,0.306983,-0.000024,-0.000012,-0.000020,0.000003,-0.000039,-53.524420,0.000043,
2326,2878,1.42373793161493,5.08213761333641,-0.0174422660682012,0.000651,0.000271,-0.003414,0.041841,0.003436,316.668208,24.781851,0.999481,0.992113,0.003708,0.400730,-0.000037,-0.000005,-0.000010,-0.000002,-0.000040,-73.778369,0.000047,
2431,2083,3.86748747488239,-12.2840299763929,0.011486741836336,0.000320,-0.000030,-0.000927,0.018032,-0.000665,329.843427,22.400396,0.998879,0.978218,0.006056,0.232381,-0.000028,-0.000028,0.000020,-0.000008,-0.000048,45.231344,0.000061,
2281,2638,0.488712772914514,-0.144095495088415,-0.0253810875110503,0.001054,0.000313,-0.003803,0.061289,0.007763,320.566672,24.286325,0.999314,0.987653,0.004220,0.381215,-0.000023,-0.000009,0.000002,-0.000009,-0.000023,80.901259,0.000033,
2176,2188,-1.71868156523079,-9.9771965673318,-0.00289966016441667,0.000998,0.000661,-0.005335,0.062495,0.008182,328.267762,24.020511,0.999117,0.948351,0.007583,0.306936,-0.000035,-0.000018,0.000001,-0.000018,-0.000035,86.187528,0.000054,
2011,3073,-5.44386387384801,9.29340806846716,0.0188152707528957,0.000996,0.000168,-0.003724,0.056164,-0.001206,314.926031,24.103559,0.999236,0.994470,0.003359,0.388706,0.000025,0.000010,-0.000007,0.000028,0.000007,-21.885030,0.000037,
2371,3118,2.35899852725717,10.2980164584448,0.01007690339992,0.001048,0.000127,-0.003671,0.061368,0.002380,312.992513,25.543556,0.999575,0.993175,0.003496,0.356408,-0.000007,-0.000001,0.000002,0.000000,-0.000008,70.118877,0.000009,
2056,3193,-4.48694033743714,11.8973600070435,0.0328104608399258,0.000816,0.000577,-0.003952,0.049103,0.028099,312.799424,24.255637,0.999501,0.994800,0.003084,0.374423,-0.000005,0.000020,-0.000026,0.000036,-0.000022,-57.467733,0.000037,
2206,2323,-1.08710883405751,-7.0245369334237,-0.00175883905666296,0.001129,0.000832,-0.008191,0.077971,-0.016029,326.029477,23.964835,0.998959,0.987335,0.004470,0.355398,-0.000015,-0.000034,0.000004,-0.000014,-0.000034,11.327976,0.000050,
2236,2458,-0.458288934079359,-4.07282109832295,-0.010627009528605,0.000737,0.000095,-0.002914,0.043313,0.002557,323.666848,24.107213,0.999487,0.990615,0.004140,0.322510,-0.000025,-0.000034,-0.000006,-0.000022,-0.000037,-26.335511,0.000060,
2026,3163,-5.1322171594973,11.2445239172332,0.0353591501284427,0.000718,0.000162,-0.001446,0.037225,0.012501,313.480469,24.122248,0.999585,0.994869,0.003137,0.371886,-0.000006,0.000024,-0.000014,0.000029,-0.000012,-68.311512,0.000029,
2116,3298,-3.20520372590221,14.1768046282767,0.0188666612256725,0.000828,0.000353,-0.001810,0.043757,0.019203,310.647916,24.514222,0.999633,0.994338,0.003230,0.405522,-0.000004,0.000031,-0.000020,0.000041,-0.000013,-65.647537,0.000041,
2086,3193,-3.83688818847114,11.8993598834495,0.0353847249484716,0.000791,0.000462,-0.002402,0.043633,0.021489,312.651696,24.375527,0.999393,0.995045,0.002998,0.390176,-0.000002,0.000011,-0.000022,0.000027,-0.000019,-53.064516,0.000028,
2101,3253,-3.52163919604023,13.2005676192015,0.0351031619800892,0.000894,0.000138,-0.001588,0.046036,0.016097,311.594594,24.473289,0.999710,0.996217,0.002699,0.357594,-0.000001,0.000011,-0.000023,0.000029,-0.000019,-52.673423,0.000029,
2041,3133,-4.80270727392397,10.5963534002104,0.0264235941256743,0.001034,0.000319,-0.002485,0.054755,0.012370,313.819971,24.221025,0.999346,0.993885,0.003311,0.357388,-0.000017,0.000012,-0.000007,0.000014,-0.000019,-77.262170,0.000019,
2386,3178,2.67393129789858,11.6005252171511,0.0255559046534017,0.000667,0.000324,-0.000562,0.032926,0.026742,312.117699,25.766852,0.999467,0.992904,0.003458,0.385802,0.000002,-0.000006,-0.000001,0.000002,-0.000006,-7.977320,0.000006,
2071,3118,-4.15016881934568,10.2726683584582,0.0363774341782346,0.000602,0.000088,0.000164,0.027396,0.013014,313.948762,24.333785,0.999732,0.995048,0.002868,0.374084,-0.000005,-0.000001,-0.000007,0.000004,-0.000011,-53.184179,0.000011,
2221,2428,-0.778588636590715,-4.73220387342525,0.0038651627550621,0.000792,0.000452,-0.003773,0.048587,0.006797,324.314025,23.866735,0.999653,0.991383,0.003865,0.563504,-0.000018,-0.000043,-0.000009,-0.000015,-0.000046,-17.917986,0.000063,
2296,2713,0.800045822423311,1.49137285459879,-0.0393616973539679,0.000865,0.000091,-0.000753,0.042349,0.004428,319.194612,24.391128,0.999758,0.994067,0.003320,0.414478,-0.000025,-0.000010,-0.000002,-0.000009,-0.000025,-84.272467,0.000035,
2476,2518,4.76134041368175,-2.75823507390787,-0.0119741315104989,0.000666,0.000350,-0.003826,0.045169,0.002564,322.728396,23.679125,0.999468,0.985769,0.004433,0.379797,-0.000019,-0.000055,-0.000009,-0.000017,-0.000057,-13.110310,0.000078,
2446,2293,4.15327367227394,-7.68172709452887,0.00856632598600982,0.000455,0.000108,-0.001141,0.025123,0.002637,326.462055,22.907149,0.999162,0.981795,0.005409,0.402948,-0.000031,-0.000001,-0.000019,0.000008,-0.000040,-63.984463,0.000042,
2251,2578,-0.153231045803526,-1.45379525466196,-0.0186840975369478,0.001033,0.000315,-0.000826,0.050269,0.009988,321.633072,24.204314,0.999364,0.990123,0.004053,0.390805,-0.000021,-0.000008,-0.000008,-0.000005,-0.000025,-65.365858,0.000032,
2416,2038,3.54913339161396,-13.273537853305,0.0199704446934561,0.000198,0.000643,-0.002686,0.019101,0.014059,330.617277,22.252944,0.998719,0.976515,0.006038,0.334471,-0.000055,-0.000044,0.000014,-0.000034,-0.000065,55.107477,0.000101,
2011,3088,-5.44619277451357,9.61865828660871,0.0254372791272885,0.000603,0.000402,-0.003276,0.036847,0.010219,314.717489,24.126224,0.999554,0.995737,0.002925,0.364411,0.000015,0.000013,-0.000009,0.000023,0.000006,-41.897457,0.000031,
2356,3013,2.05137524088341,8.01796615884543,-0.00595636498985641,0.000481,0.000314,-0.005238,0.040754,0.005193,314.552511,25.215194,0.999565,0.992435,0.003582,0.362502,-0.000030,-0.000015,0.000000,-0.000015,-0.000030,-89.819033,0.000045,
2266,2653,0.159410913007836,0.183217552314183,-0.0299994335321685,0.001299,0.000092,-0.002432,0.067755,-0.005816,320.312556,24.383509,0.999525,0.990959,0.003919,0.307401,-0.000017,-0.000011,0.000005,-0.000008,-0.000020,62.262228,0.000029,
2461,2293,4.48073981851644,-7.68176911631425,0.00911208975168165,0.000271,0.000144,-0.001136,0.016724,0.008361,326.490034,22.840202,0.999272,0.981404,0.005315,0.413405,-0.000021,-0.000004,-0.000022,0.000011,-0.000036,-55.960760,0.000037,
2341,2923,1.74172198250973,6.06266408531671,-0.0197744695760775,0.000959,0.000527,-0.005221,0.062554,0.018249,315.929303,24.989448,0.999030,0.990614,0.004014,0.341181,-0.000042,-0.000021,-0.000007,-0.000019,-0.000044,-73.512442,0.000065,
2161,2113,-2.03219741933668,-11.6219306566496,0.0145587336499489,0.001019,0.000838,-0.005375,0.063440,-0.000556,329.670772,24.051414,0.999271,0.983820,0.005153,0.278864,-0.000024,-0.000015,0.000011,-0.000008,-0.000031,56.573113,0.000042,
2146,2053,-2.3501647655914,-12.9381610781845,0.0214393873486074,0.000224,0.000427,-0.002352,0.017506,0.009167,330.700376,24.061240,0.998713,0.983642,0.005197,0.322186,-0.000016,-0.000046,0.000007,-0.000014,-0.000048,12.457079,0.000065,
2431,2098,3.86480939589255,-11.954821920104,0.0144239654245553,0.000341,0.000309,-0.001452,0.021045,0.010952,329.628841,22.472399,0.999501,0.981917,0.005640,0.224985,-0.000033,-0.000037,0.000006,-0.000028,-0.000042,35.064138,0.000071,
2311,2743,1.12245822418245,2.14355090148953,-0.0165553632339197,0.000777,0.000078,-0.000177,0.036358,0.004584,318.878443,24.474445,0.999452,0.991966,0.003777,0.395634,-0.000028,-0.000013,-0.000003,-0.000013,-0.000029,-78.442802,0.000042,
2131,1993,-2.66765873726142,-14.253020609196,0.0191461015170376,0.000209,0.001322,-0.007362,0.031959,0.021806,331.715895,24.181510,0.999141,0.982402,0.005201,0.274160,0.000017,-0.000114,-0.000008,0.000017,-0.000115,-3.590926,0.000124,
2026,3178,-5.13432142661929,11.5688759229122,0.0401366856294771,0.000660,0.000029,-0.001528,0.034737,0.005905,313.273284,24.089022,0.999651,0.994478,0.003102,0.387407,-0.000010,0.000025,-0.000017,0.000032,-0.000017,-68.172642,0.000032,
2041,3148,-4.80509052161653,10.9204307439489,0.0346061766312005,0.000605,0.000073,-0.000910,0.030546,0.011956,313.619845,24.171046,0.999611,0.994473,0.003169,0.398112,-0.000014,0.000010,-0.000012,0.000015,-0.000019,-67.281456,0.000020,
2086,3208,-3.83893318288498,12.2237997407576,0.0415994001021431,0.000772,0.000269,-0.002674,0.043501,0.011092,312.458574,24.370832,0.999477,0.994778,0.003103,0.382187,0.000001,0.000005,-0.000024,0.000027,-0.000021,-47.288364,0.000028,
2326,2893,1.42076678582979,5.40847182072369,-0.0176799450981662,0.000479,0.000091,-0.003644,0.034613,-0.010053,316.414341,24.840383,0.999190,0.991883,0.003786,0.362529,-0.000035,-0.000016,-0.000007,-0.000013,-0.000038,-71.696710,0.000053,
2176,2203,-1.72126439857572,-9.64963700038486,0.00131417533964395,0.000598,0.000648,-0.005531,0.044764,-0.007744,328.044161,24.016490,0.998241,0.977075,0.005988,0.309942,-0.000027,-0.000011,0.000004,-0.000011,-0.000028,78.294564,0.000040,
2206,2338,-1.0906604867586,-6.69546036472563,-0.00369134722518538,0.000592,0.000512,-0.003589,0.038678,0.002008,325.731526,24.049524,0.999463,0.990075,0.004159,0.307597,-0.000015,-0.000032,0.000004,-0.000014,-0.000033,13.312545,0.000048,
2056,3208,-4.489227556905,12.221664110937,0.0376966194115766,0.000636,0.000399,-0.003656,0.039838,0.014663,312.586253,24.233296,0.999508,0.994669,0.003066,0.376629,-0.000004,0.000012,-0.000027,0.000033,-0.000024,-53.316977,0.000034,
2236,2473,-0.461028128515448,-3.74690435364184,-0.00573127299196585,0.000397,0.000200,-0.000972,0.021442,0.015840,323.443809,24.017498,0.999479,0.991478,0.003992,0.447875,-0.000017,-0.000024,0.000002,-0.000017,-0.000025,13.690479,0.000042,
2221,2443,-0.781261016088116,-4.40164084782928,-0.00509368892244311,0.001438,0.000190,-0.002595,0.074387,-0.005190,324.021270,24.087405,0.999264,0.988965,0.004400,0.351298,-0.000020,-0.000043,-0.000009,-0.000017,-0.000046,-19.946514,0.000065,
2101,3268,-3.52420520918303,13.5255410883211,0.0313261293310347,0.000914,0.000361,-0.003486,0.052590,0.015335,311.323928,24.466743,0.999765,0.996819,0.002600,0.363071,-0.000002,0.000019,-0.000024,0.000035,-0.000018,-56.959918,0.000035,
2011,3103,-5.44855570451545,9.9438227268117,0.0280248917729295,0.000380,0.000448,-0.003440,0.027074,0.020229,314.484742,24.120100,0.999541,0.995550,0.002937,0.367591,0.000017,0.000019,0.000001,0.000020,0.000017,73.211133,0.000036,
2371,3133,2.3563110904173,10.6233056613661,0.0151340065347085,0.000895,-0.000099,-0.003013,0.051928,-0.007548,312.779859,25.599480,0.999547,0.993120,0.003488,0.330465,-0.000007,-0.000003,0.000004,0.000000,-0.000010,58.042285,0.000012,
2476,2533,4.75794366035825,-2.42986377352389,-0.017218285839931,0.000699,0.000444,-0.004625,0.049773,-0.004587,322.445163,23.765226,0.999713,0.989564,0.003816,0.344627,-0.000013,-0.000058,-0.000004,-0.000012,-0.000059,-4.626669,0.000076,
2281,2653,0.485901781394677,0.182920311413646,-0.0257718274800709,0.000881,0.000538,-0.005158,0.057946,0.008296,320.316457,24.320391,0.999428,0.990027,0.003998,0.376017,-0.000024,-0.000005,0.000005,-0.000004,-0.000025,75.985877,0.000032,
2416,2053,3.54711371195028,-12.9447133708019,0.0275008508700694,0.000582,0.000360,-0.002001,0.034074,-0.000090,330.453401,22.350356,0.998596,0.977183,0.006044,0.273489,-0.000048,-0.000044,0.000009,-0.000036,-0.000055,50.774975,0.000092,
2386,3193,2.67174425677841,11.925544654482,0.0305278383227119,0.000946,0.000319,-0.001135,0.047823,0.025808,311.928440,25.801525,0.999472,0.993404,0.003247,0.392245,0.000004,-0.000003,-0.000001,0.000004,-0.000003,-6.768656,0.000004,
2146,2068,-2.35194330834768,-12.6080350857868,0.0175400579660163,0.000920,0.001059,-0.005443,0.058921,0.030652,330.467916,24.115947,0.998695,0.982049,0.005389,0.300059,-0.000020,-0.000030,0.000014,-0.000010,-0.000040,35.110211,0.000053,
2131,2008,-2.66860556002217,-13.9262365574028,0.0307611241095174,0.001318,0.000261,-0.000590,0.062202,0.032557,331.602898,24.095536,0.999249,0.986670,0.004877,0.379594,0.000004,-0.000095,0.000000,0.000004,-0.000095,-0.287646,0.000107,
2461,2308,4.4775662746761,-7.35067190300966,-0.00241261731042641,0.000747,0.000639,-0.005388,0.054718,0.011962,326.187944,23.020262,0.999049,0.978291,0.005666,0.293619,-0.000019,0.000005,-0.000018,0.000015,-0.000029,-61.931935,0.000029,
2071,3133,-4.1526139741933,10.5977969337722,0.0297894828140102,0.000840,-0.000023,-0.001915,0.044241,-0.006220,313.665776,24.305260,0.999559,0.994934,0.002921,0.379112,-0.000009,0.000001,-0.000014,0.000011,-0.000018,-54.740033,0.000019,
2251,2593,-0.156020498929369,-1.1263965023832,-0.0273938416435158,0.001224,0.000351,-0.004966,0.072586,-0.011814,321.339538,24.203924,0.999192,0.988575,0.004377,0.393754,-0.000019,-0.000023,-0.000005,-0.000015,-0.000026,-34.842995,0.000042,
2266,2668,0.156540666668505,0.509743489085622,-0.0345923700810431,0.001177,0.000333,-0.006080,0.074323,-0.001437,320.037392,24.338599,0.999493,0.992089,0.003777,0.382767,-0.000017,-0.000010,-0.000003,-0.000009,-0.000018,-69.964620,0.000028,
2446,2308,4.15014856115451,-7.35010119074087,-0.0028344907183282,0.000866,0.000854,-0.006289,0.063384,0.015747,326.160985,23.127201,0.999128,0.981296,0.005336,0.250646,-0.000030,0.000005,-0.000017,0.000012,-0.000036,-67.878727,0.000037,
2026,3193,-5.13667690972277,11.8941295802996,0.0422192422126955,0.000530,0.000341,-0.001367,0.028464,0.030435,313.039141,24.095212,0.999597,0.994174,0.003132,0.394904,-0.000011,0.000029,-0.000016,0.000035,-0.000017,-70.517786,0.000035,
2056,3223,-4.49146243281255,12.5465812072679,0.0365408518499635,0.000791,0.000608,-0.004828,0.050386,0.018434,312.341833,24.218789,0.999511,0.994701,0.002998,0.388068,-0.000006,0.000007,-0.000031,0.000032,-0.000031,-50.685979,0.000036,
2356,3028,2.04891917543138,8.34342431577153,0.00169920675250523,0.000424,0.000057,-0.003443,0.031739,0.004776,314.362453,25.269805,0.999568,0.992926,0.003528,0.345241,-0.000028,-0.000015,0.000000,-0.000015,-0.000028,-89.813107,0.000043,
2086,3223,-3.84118047158086,12.5486365472109,0.0434670252641922,0.000825,0.000315,-0.002994,0.046878,0.013282,312.232276,24.368220,0.999439,0.994111,0.003338,0.384658,0.000004,0.000005,-0.000027,0.000032,-0.000023,-45.270711,0.000033,
2041,3163,-4.80737122441702,11.2455975927529,0.0291483967292265,0.000916,0.000070,-0.002550,0.049460,0.005429,313.348143,24.148261,0.999578,0.994197,0.003286,0.405789,-0.000012,0.000021,-0.000016,0.000028,-0.000018,-68.390258,0.000028,
2191,2218,-1.39622823534235,-9.32164780652548,0.00465135147913998,0.001024,0.000725,-0.004002,0.059749,0.000643,327.799050,23.959048,0.998533,0.981341,0.005690,0.318028,-0.000025,-0.000009,0.000007,-0.000007,-0.000028,70.502059,0.000037,
2101,3283,-3.52754203962049,13.8501685961656,0.0225845452506519,0.000708,0.000070,-0.001861,0.038119,-0.006933,310.991025,24.427021,0.999665,0.996799,0.002680,0.380125,-0.000006,0.000020,-0.000019,0.000030,-0.000016,-62.032691,0.000030,
2341,2938,1.73936955734576,6.38747888570561,-0.0128226367514799,0.001016,0.000249,-0.003635,0.059583,0.015162,315.740218,24.961633,0.998981,0.990151,0.004031,0.401685,-0.000038,-0.000015,-0.000007,-0.000013,-0.000040,-74.226858,0.000056,
2476,2548,4.75471628948265,-2.10266931851991,-0.0185576996008763,0.000527,0.000630,-0.005930,0.046900,-0.003568,322.187490,23.775408,0.999675,0.988825,0.004028,0.393070,-0.000013,-0.000066,-0.000002,-0.000013,-0.000066,-2.382275,0.000084,
2176,2218,-1.72419436961763,-9.32126556307067,0.00342045946331382,0.000331,0.000188,-0.000885,0.017975,-0.008096,327.793474,24.053845,0.998538,0.980627,0.005577,0.287044,-0.000025,-0.000013,0.000005,-0.000012,-0.000027,70.626191,0.000040,
2011,3118,-5.45059910905278,10.2691556084621,0.0232751634684973,0.000991,0.000307,-0.002304,0.052142,0.015836,314.225309,24.101760,0.999644,0.995947,0.002812,0.368595,0.000014,0.000032,0.000003,0.000032,0.000014,81.970137,0.000047,
2161,2128,-2.03532366491947,-11.2924697231969,0.00594641879274604,0.001003,0.000884,-0.004161,0.058995,0.026720,329.353467,24.012607,0.999236,0.982630,0.005295,0.358395,-0.000029,-0.000023,0.000010,-0.000015,-0.000036,53.049267,0.000053,
2311,2758,1.11918369982901,2.47076017737423,-0.0231669472120757,0.000505,0.000478,-0.003624,0.035814,0.018491,318.578279,24.495821,0.999557,0.992897,0.003672,0.420919,-0.000029,-0.000008,0.000001,-0.000008,-0.000029,86.493906,0.000039,
2431,2113,3.86263758701277,-11.6277036363132,0.0224595684302926,0.000597,0.000177,-0.000055,0.027568,0.017484,329.461156,22.419196,0.999402,0.980866,0.005674,0.337305,-0.000035,-0.000035,0.000001,-0.000034,-0.000036,48.325939,0.000070,
2101,3298,-3.53062283266439,14.1752921259393,0.0147670775800748,0.000522,0.000284,-0.003032,0.033124,0.012182,310.674685,24.401635,0.999522,0.995350,0.003022,0.424431,-0.000001,0.000031,-0.000026,0.000045,-0.000016,-60.976762,0.000046,
2296,2728,0.797980722840602,1.81765528886658,-0.0315370224096796,0.000954,0.000072,-0.000827,0.046712,0.008982,319.020501,24.444020,0.999528,0.992547,0.003627,0.396122,-0.000024,-0.000014,-0.000003,-0.000013,-0.000025,-74.410424,0.000039,
2371,3148,2.35394055958944,10.9485444138532,0.0206316507162114,0.000978,0.000038,-0.002956,0.055584,-0.003486,312.583871,25.642609,0.999523,0.992474,0.003533,0.331095,-0.000006,-0.000007,0.000001,-0.000006,-0.000008,30.415327,0.000014,
2416,2068,3.54319752831404,-12.6151421038433,0.0229284808202124,0.000006,0.000408,-0.001710,0.006658,0.008168,330.146072,22.363924,0.998773,0.978248,0.006056,0.319619,-0.000042,-0.000024,0.000012,-0.000018,-0.000048,64.013790,0.000068,
2326,2908,1.41829508242627,5.73458355226359,-0.014417782796329,0.000645,-0.000052,-0.002494,0.038242,-0.016600,316.200566,24.900950,0.999145,0.991413,0.003892,0.329223,-0.000036,-0.000019,-0.000005,-0.000017,-0.000037,-75.454765,0.000055,
2206,2353,-1.09318629219399,-6.36867559437339,-0.00254282254138616,0.000727,0.000053,-0.000826,0.036017,0.004525,325.496879,23.975444,0.999624,0.990836,0.004057,0.402805,-0.000018,-0.000021,0.000002,-0.000018,-0.000022,24.105897,0.000040,
2056,3238,-4.49330039607288,12.8711887794458,0.0421962506051159,0.001050,0.000364,-0.004008,0.060029,0.025428,312.153459,24.214921,0.999547,0.995144,0.002977,0.392376,-0.000010,0.000010,-0.000028,0.000030,-0.000029,-55.093365,0.000034,
2386,3208,2.66826601756015,12.2507463148805,0.0283660556509062,0.000601,0.000176,-0.000353,0.029066,0.020261,311.645586,25.819578,0.999459,0.993422,0.003375,0.410543,0.000005,-0.000009,-0.000003,0.000005,-0.000010,-10.625305,0.000010,
2146,2083,-2.35579337093171,-12.2778849248178,0.00756825446148923,0.000192,0.000642,-0.004902,0.023765,0.023800,330.108915,24.140655,0.998709,0.982263,0.005403,0.280439,-0.000022,-0.000018,0.000012,-0.000008,-0.000032,49.635980,0.000042,
2446,2323,4.14693262797246,-7.02384316252016,0.00122388738157042,0.000700,0.000338,-0.001516,0.037815,-0.000795,325.927466,23.045958,0.999248,0.981227,0.005217,0.369358,-0.000035,0.000013,-0.000008,0.000015,-0.000036,-80.482558,0.000036,
2236,2488,-0.464134977354579,-3.41735520209036,-0.020108765953637,0.000766,0.000385,-0.003383,0.046254,0.001575,323.105196,24.115746,0.999446,0.989937,0.004086,0.358190,-0.000019,-0.000017,-0.000003,-0.000015,-0.000021,-54.637009,0.000036,
2221,2458,-0.784697322813116,-4.07415418102521,-0.00645906920237849,0.000615,0.000208,-0.003624,0.039888,-0.003404,323.732941,24.089665,0.999192,0.987041,0.004682,0.371328,-0.000017,-0.000038,-0.000007,-0.000015,-0.000040,-16.950230,0.000057,
2011,3133,-5.4531427773746,10.5944296731418,0.0206920600008402,0.000882,0.000282,-0.002742,0.048339,0.016880,313.955174,24.090553,0.999613,0.994944,0.003032,0.367727,0.000003,0.000024,-0.000006,0.000026,0.000002,-75.863032,0.000031,
2026,3208,-5.13876314788274,12.2186705802836,0.0432212229173388,0.000646,0.000258,-0.002713,0.037512,0.026508,312.811627,24.061317,0.999513,0.993848,0.003223,0.413519,-0.000015,0.000019,-0.000016,0.000025,-0.000022,-68.029467,0.000028,
2071,3148,-4.15517938551849,10.9229252953685,0.0323394228336156,0.000577,0.000173,-0.001010,0.029640,0.021585,313.427444,24.290210,0.999721,0.996495,0.002613,0.417575,-0.000007,0.000000,-0.000019,0.000016,-0.000022,-50.366771,0.000023,
2251,2608,-0.158945302188044,-0.799763660410996,-0.0257659884472901,0.000807,0.000193,-0.005351,0.054656,-0.021552,321.092164,24.216077,0.999086,0.987313,0.004595,0.395778,-0.000021,-0.000027,-0.000002,-0.000020,-0.000028,-13.702502,0.000048,
2131,2023,-2.67224652368543,-13.5934231806676,0.0126967864198946,0.001076,0.000775,-0.003397,0.059698,0.016571,331.208592,24.254476,0.999083,0.985704,0.005096,0.214826,-0.000014,-0.000085,-0.000003,-0.000014,-0.000085,-2.764395,0.000107,
2116,1993,-2.99595020071625,-14.2493247717813,0.00348657505986694,0.000437,0.000694,-0.003997,0.032021,0.015282,331.647541,24.413802,0.999624,0.991069,0.004133,0.141519,0.000020,-0.000123,-0.000017,0.000022,-0.000125,-6.710331,0.000133,
2281,2668,0.483171401093454,0.510935241764699,-0.0286125325248463,0.000944,0.000488,-0.006954,0.066828,0.006713,320.057441,24.432548,0.999597,0.992109,0.003842,0.290368,-0.000024,-0.000002,-0.000003,-0.000002,-0.000025,-83.411943,0.000029,
2266,2683,0.153424872374568,0.836704338065935,-0.0319431562074897,0.000828,0.000376,-0.002285,0.045787,0.015729,319.787170,24.385855,0.999425,0.992953,0.003622,0.378554,-0.000016,-0.000007,-0.000004,-0.000005,-0.000018,-69.498717,0.000025,
2086,3238,-3.84432591747037,12.873914567211,0.0366777978790651,0.000669,0.000127,-0.001083,0.034114,0.015792,311.917275,24.360620,0.999559,0.994865,0.003075,0.392387,0.000005,0.000008,-0.000024,0.000031,-0.000018,-46.292579,0.000031,
2461,2323,4.47428200784539,-7.0233874194065,-0.00333186345227432,0.000650,0.000491,-0.004339,0.046271,-0.000935,325.929555,22.980000,0.999020,0.980065,0.005456,0.377571,-0.000026,0.000017,-0.000009,0.000019,-0.000028,-77.905729,0.000028,
2476,2563,4.75143134265808,-1.77407617205984,-0.0239572944427096,0.001014,0.000382,-0.002812,0.057329,0.007285,321.908409,23.873297,0.998720,0.984802,0.004951,0.363682,-0.000011,-0.000056,-0.000004,-0.000011,-0.000056,-5.618889,0.000072,
2191,2233,-1.3983387160125,-8.99235842040328,-0.000379321614218497,0.001410,0.001350,-0.009388,0.094487,0.011410,327.549841,24.000368,0.998741,0.983316,0.005327,0.304147,-0.000026,-0.000015,0.000005,-0.000013,-0.000028,69.062057,0.000042,
2176,2233,-1.72620342940708,-8.9920238154815,-0.00334235789074455,0.000907,0.001237,-0.006201,0.061198,0.048866,327.538217,24.026686,0.998694,0.983390,0.005160,0.386044,-0.000025,-0.000022,0.000002,-0.000021,-0.000026,64.867432,0.000047,
2356,3043,2.04641274278833,8.66910203163923,-0.00117739098078573,0.001031,0.000304,-0.002883,0.057865,0.034313,314.119069,25.248537,0.999533,0.992940,0.003537,0.434221,-0.000026,-0.000012,0.000001,-0.000012,-0.000026,86.393798,0.000039,
2056,3253,-4.49593183520315,13.1962474245369,0.0418186794003645,0.000888,0.000079,-0.003204,0.050113,0.001311,311.895132,24.252936,0.999696,0.996038,0.002846,0.323107,-0.000011,0.000018,-0.000033,0.000039,-0.000033,-56.888182,0.000042,
2041,3178,-4.80971292375252,11.5701092420906,0.0312710911460385,0.000840,0.000101,-0.001990,0.044391,0.002634,313.116093,24.111028,0.999694,0.994719,0.003101,0.431335,-0.000016,0.000026,-0.000018,0.000032,-0.000023,-69.903493,0.000033,
2161,2143,-2.03822760137419,-10.9637695879819,0.00405407693961024,0.000709,0.001020,-0.003671,0.044079,0.029117,329.081799,24.007924,0.999304,0.973180,0.006061,0.378710,-0.000034,-0.000031,0.000009,-0.000023,-0.000042,49.525711,0.000065,
2116,2008,-2.99740574307196,-13.9232849321625,0.00686511972389781,0.000995,0.000501,-0.005491,0.061947,-0.007740,331.466672,24.201165,0.999677,0.992356,0.004101,0.337856,0.000008,-0.000100,-0.000010,0.000009,-0.000101,-5.507926,0.000111,
2026,3223,-5.14114871244321,12.5440135695254,0.0408913370462187,0.000726,0.000155,-0.003064,0.042073,0.013268,312.551424,24.095147,0.999510,0.994424,0.003078,0.355241,-0.000021,0.000007,-0.000019,0.000016,-0.000031,-63.543810,0.000031,
2371,3163,2.35108244332329,11.2736526164408,0.02334067306424,0.000783,0.000216,-0.002989,0.046888,0.023439,312.352033,25.637307,0.999464,0.992502,0.003611,0.403500,-0.000004,-0.000007,-0.000003,-0.000002,-0.000009,-30.735860,0.000011,
2311,2773,1.11738054328152,2.79675293895156,-0.014992967540195,0.000873,0.000294,-0.003414,0.051942,0.009732,318.418811,24.548983,0.999522,0.993372,0.003579,0.390895,-0.000029,-0.000015,-0.000003,-0.000014,-0.000029,-78.249255,0.000044,
2326,2923,1.41567489288535,6.06008224237803,-0.0108824789686537,0.000574,0.000409,-0.002196,0.034067,-0.004343,315.981405,24.892108,0.998708,0.989196,0.004327,0.384277,-0.000035,-0.000022,-0.000003,-0.000021,-0.000036,-77.495242,0.000058,
2341,2953,1.73680138707565,6.71359221040704,-0.00792799523583199,0.000960,0.000392,-0.002835,0.054207,0.012883,315.530795,25.041400,0.999292,0.992172,0.003675,0.355751,-0.000035,-0.000019,-0.000008,-0.000015,-0.000038,-67.454956,0.000055,
2086,3253,-3.84657932460353,13.198162776044,0.0430697906356841,0.000638,-0.000089,0.001844,0.024170,0.013305,311.715676,24.341255,0.999685,0.995642,0.002882,0.406747,0.000009,0.000013,-0.000026,0.000037,-0.000015,-47.333607,0.000038,
2236,2503,-0.466985495343209,-3.08998397131059,-0.0235416390252112,0.000780,0.000409,-0.003343,0.046796,0.000056,322.834372,24.108068,0.999362,0.989071,0.004221,0.386619,-0.000018,-0.000018,-0.000003,-0.000015,-0.000021,-43.313758,0.000037,
2056,3268,-4.49885021362391,13.520939423795,0.0375322113375773,0.000623,0.000214,-0.003336,0.038271,0.002024,311.602151,24.214708,0.999672,0.995919,0.002810,0.355100,-0.000014,0.000029,-0.000031,0.000045,-0.000030,-61.964969,0.000046,
2131,2038,-2.6755230602409,-13.2659175948561,0.0108374059168455,0.000447,0.000143,-0.001073,0.023710,0.005642,330.917696,24.114924,0.999185,0.985649,0.005152,0.353053,-0.000021,-0.000078,0.000000,-0.000021,-0.000078,-0.484242,0.000104,
2221,2473,-0.787695197399575,-3.74616585917554,-0.00941960455725166,0.000552,0.000607,-0.001654,0.030864,0.011440,323.456347,24.115129,0.999344,0.987893,0.004498,0.380895,-0.000012,-0.000027,0.000000,-0.000012,-0.000027,1.313540,0.000039,
2146,2098,-2.35772621419686,-11.9496869065558,0.00904754612048464,0.000565,0.000793,-0.005038,0.041391,0.005290,329.898280,24.130873,0.999115,0.984410,0.005075,0.282682,-0.000022,-0.000016,0.000013,-0.000005,-0.000032,51.313911,0.000041,
2071,3163,-4.15720241684478,11.2486279433353,0.0327897802654888,0.000838,0.000211,-0.002546,0.046022,0.006816,313.202292,24.361255,0.999706,0.995661,0.002829,0.327520,-0.000002,0.000012,-0.000021,0.000028,-0.000017,-54.171858,0.000028,
2476,2578,4.74798678173991,-1.44686248908311,-0.017422969881693,0.000725,-0.000250,0.004888,0.014567,0.002097,321.676287,23.970564,0.998433,0.985730,0.004960,0.318464,-0.000015,-0.000040,-0.000003,-0.000014,-0.000040,-7.354001,0.000056,
2266,2698,0.151470373348165,1.16292902817423,-0.0277699581504294,0.001101,0.000400,-0.004405,0.065365,0.005064,319.598128,24.409778,0.999563,0.993273,0.003502,0.369871,-0.000018,-0.000013,-0.000001,-0.000013,-0.000018,-80.120016,0.000031,
2386,3223,2.664903843691,12.5768815514831,0.0205733853817378,0.000459,0.000351,-0.004127,0.036092,0.004356,311.340840,25.905952,0.999554,0.994008,0.003193,0.350074,0.000004,-0.000005,-0.000003,0.000005,-0.000006,-17.470607,0.000006,
2416,2083,3.54124075496633,-12.2849989743806,0.0208372227916129,0.000977,0.000590,-0.004178,0.060149,-0.004811,329.940048,22.483989,0.998611,0.978532,0.006148,0.237340,-0.000036,-0.000024,0.000008,-0.000020,-0.000041,63.561243,0.000061,
2206,2368,-1.09554253520244,-6.03966474687284,-0.00603895998841608,0.001247,0.000392,0.000228,0.056656,0.027893,325.245535,24.043874,0.999432,0.989469,0.004296,0.376331,-0.000020,-0.000013,-0.000002,-0.000013,-0.000020,-73.268493,0.000033,
2446,2338,4.1441801796165,-6.69569840615112,0.0109286591751356,0.000445,-0.000006,0.001921,0.013248,0.019099,325.740703,23.161036,0.999104,0.982208,0.005161,0.328059,-0.000036,0.000019,-0.000005,0.000019,-0.000036,-85.181733,0.000036,
2011,3148,-5.45521754771709,10.9181833688894,0.0259711253903561,0.000847,-0.000112,-0.002016,0.044587,-0.002728,313.751462,24.011899,0.999592,0.994573,0.003213,0.413648,0.000005,0.000015,-0.000009,0.000020,-0.000001,-59.322973,0.000023,
2041,3193,-4.81180176648359,11.8956801166239,0.0367209724126951,0.000748,0.000237,-0.002604,0.041947,0.015412,312.913761,24.178812,0.999613,0.994620,0.003126,0.367342,-0.000017,0.000026,-0.000020,0.000034,-0.000025,-68.205909,0.000035,
2026,3238,-5.14289198098821,12.8679302082004,0.0511361217661488,0.000712,0.000238,-0.003109,0.041572,0.011061,312.391730,24.061695,0.999583,0.995512,0.002887,0.375479,-0.000028,0.000013,-0.000016,0.000018,-0.000034,-71.088715,0.000034,
2431,2128,3.86028467109783,-11.2991869185662,0.0297190974181376,0.000392,0.000708,-0.003015,0.029310,0.021021,329.281434,22.492522,0.999553,0.982038,0.005700,0.320139,-0.000033,-0.000026,-0.000002,-0.000026,-0.000033,-76.493430,0.000059,
2296,2743,0.796189262863699,2.1438826266626,-0.0251155657929303,0.001304,0.000400,-0.002465,0.068452,0.018512,318.851974,24.479069,0.999304,0.991581,0.003868,0.400678,-0.000022,-0.000013,-0.000004,-0.000012,-0.000024,-67.855652,0.000036,
2116,2023,-2.99939954444424,-13.5936117613626,0.0101055129667316,0.001191,0.000886,-0.004808,0.069077,0.012333,331.259737,24.279860,0.999304,0.986344,0.005238,0.286115,-0.000013,-0.000095,-0.000014,-0.000010,-0.000098,-9.585288,0.000119,
2461,2338,4.4709521112613,-6.69451237509979,0.000354958010916562,0.000324,0.000433,-0.001089,0.019103,0.022005,325.689651,23.100128,0.998837,0.979798,0.005468,0.336547,-0.000028,0.000023,-0.000006,0.000024,-0.000029,-83.187536,0.000031,
2281,2683,0.480379891832445,0.836704828924937,-0.0254486693949048,0.000962,0.000383,-0.002347,0.052245,0.016272,319.826054,24.382065,0.999608,0.992576,0.003646,0.378547,-0.000023,0.000000,-0.000002,0.000000,-0.000023,-84.351336,0.000027,
2176,2248,-1.72885279894332,-8.66448105612297,-0.00162961445795418,0.000608,0.000833,-0.006531,0.048364,0.013212,327.298590,24.029972,0.998833,0.982630,0.005207,0.361704,-0.000025,-0.000032,0.000001,-0.000025,-0.000032,12.266607,0.000057,
2161,2158,-2.04318606100441,-10.6279341525184,-0.0392442247888312,0.001079,0.000850,-0.004628,0.063918,0.012705,328.497846,24.236941,0.999863,0.945675,0.008361,0.147941,-0.000035,-0.000039,0.000005,-0.000031,-0.000042,34.224470,0.000073,
2056,3283,-4.50175258879856,13.84583985186,0.032223066195229,0.000614,0.000422,-0.000636,0.030328,0.025767,311.304163,24.171479,0.999689,0.996080,0.002769,0.415455,-0.000015,0.000030,-0.000024,0.000041,-0.000026,-66.392549,0.000041,
2131,2053,-2.67744868986932,-12.9367145797979,0.014641691441625,0.000623,0.000157,-0.001659,0.033569,-0.004705,330.718308,24.197955,0.998612,0.981959,0.005450,0.268437,-0.000025,-0.000054,0.000008,-0.000023,-0.000056,15.012121,0.000082,
2326,2938,1.41333617822776,6.38603676711956,-0.00612757009429288,0.000737,0.000317,-0.001372,0.038703,-0.004593,315.781004,24.949986,0.998950,0.989697,0.004202,0.359925,-0.000031,-0.000016,-0.000004,-0.000015,-0.000032,-77.480196,0.000048,
2476,2593,4.7449371269879,-1.11991661267987,-0.0201737451371855,0.000510,-0.000230,-0.000473,0.025086,-0.019509,321.420244,23.982860,0.998605,0.984866,0.004813,0.341883,-0.000016,-0.000031,-0.000005,-0.000014,-0.000033,-16.952831,0.000048,
2026,3253,-5.14594618354637,13.1937209153144,0.0348625403581195,0.000755,0.000593,-0.006942,0.054157,0.007456,312.022580,24.056696,0.999792,0.996733,0.002558,0.365718,-0.000030,0.000020,-0.000025,0.000030,-0.000041,-67.705993,0.000042,
2221,2488,-0.79054922833593,-3.41805467810569,-0.0160201008185368,0.000591,0.000546,-0.004013,0.040196,0.016294,323.167679,24.133774,0.999369,0.988195,0.004302,0.387411,-0.000015,-0.000018,-0.000004,-0.000012,-0.000021,-35.161488,0.000033,
2266,2713,0.14892859481796,1.48907558232097,-0.0204183553765915,0.000672,0.000443,-0.004950,0.047460,0.004843,319.398074,24.445943,0.999682,0.993751,0.003449,0.359119,-0.000016,-0.000018,-0.000002,-0.000015,-0.000019,-30.404346,0.000035,
2071,3178,-4.15921906020058,11.5733388617285,0.033992660109277,0.001183,0.000341,-0.002074,0.060708,0.021591,312.981947,24.319831,0.999768,0.996753,0.002631,0.379470,-0.000001,0.000016,-0.000022,0.000031,-0.000016,-56.079612,0.000031,
2011,3163,-5.45703485656152,11.2431701444615,0.0368718249395101,0.000740,0.000018,-0.001291,0.037734,0.006300,313.590757,24.055051,0.999470,0.994608,0.003276,0.366113,0.000004,0.000021,-0.000018,0.000032,-0.000007,-57.297438,0.000034,
2191,2248,-1.40091930468907,-8.66480149733856,0.00101793003898365,0.001289,0.001119,-0.008804,0.087042,-0.002965,327.312825,23.980529,0.998726,0.984213,0.005178,0.326577,-0.000026,-0.000025,0.000004,-0.000021,-0.000030,48.690792,0.000052,
2356,3058,2.04346361238393,8.99446635293346,0.00680007420612583,0.000571,-0.000076,0.000383,0.024946,0.008099,313.907835,25.329135,0.999584,0.994035,0.003265,0.365048,-0.000025,-0.000013,0.000003,-0.000013,-0.000026,77.613943,0.000040,
2446,2353,4.14131935474733,-6.36859809808276,0.0103889987951788,0.000518,-0.000389,0.000577,0.021403,-0.015231,325.502194,23.138179,0.999283,0.983599,0.005171,0.370551,-0.000029,0.000027,0.000005,0.000027,-0.000029,85.025371,0.000033,
2086,3268,-3.84933273288098,13.5239903785527,0.0314210851531698,0.000867,0.000290,-0.001282,0.043908,0.022667,311.391896,24.359070,0.999677,0.996160,0.002774,0.395954,0.000011,0.000023,-0.000027,0.000044,-0.000010,-51.071230,0.000046,
2311,2788,1.11456197667756,3.12242432215795,-0.0130511032161849,0.000708,0.000244,-0.002937,0.042708,0.006026,318.182053,24.522674,0.999567,0.994886,0.003375,0.445504,-0.000028,-0.000014,-0.000002,-0.000014,-0.000028,-80.602120,0.000043,
2461,2353,4.46735331614159,-6.36563034836983,-0.00854752591925489,0.000518,0.000065,-0.000834,0.026888,0.001535,325.380089,23.145692,0.999125,0.983888,0.005213,0.327144,-0.000022,0.000030,0.000005,0.000030,-0.000023,85.020881,0.000031,
2041,3208,-4.81407808405881,12.2200615131121,0.0387384478018475,0.000703,0.000120,-0.002809,0.040356,0.005192,312.684233,24.143138,0.999547,0.994195,0.003139,0.383929,-0.000019,0.000018,-0.000022,0.000028,-0.000029,-65.081042,0.000033,
2236,2518,-0.470143641537998,-2.76181694680481,-0.0246895012500659,0.000432,0.000545,-0.001888,0.026142,0.025160,322.560772,24.172698,0.999357,0.989557,0.004121,0.369475,-0.000017,-0.000022,-0.000002,-0.000016,-0.000022,-18.575959,0.000038,
2146,2113,-2.35899341529214,-11.6228891923917,0.0229878928543599,0.000752,0.000905,-0.005559,0.051560,-0.002971,329.784011,24.123820,0.999331,0.985342,0.004942,0.291702,-0.000022,-0.000022,0.000012,-0.000010,-0.000034,45.223288,0.000046,
2386,3238,2.66133515635491,12.90241771767,0.0116094370823134,0.000731,0.000052,-0.001156,0.037776,-0.008948,311.021115,25.932736,0.999570,0.993849,0.003192,0.351948,0.000005,-0.000009,-0.000003,0.000005,-0.000010,-11.873058,0.000010,
2251,2623,-0.161289970982249,-0.473000725122262,-0.0218775543680749,0.000899,0.000214,-0.004506,0.056097,-0.015051,320.882724,24.247583,0.999128,0.987939,0.004417,0.394839,-0.000021,-0.000022,-0.000001,-0.000020,-0.000023,-31.600426,0.000043,
2371,3178,2.34803976853944,11.5993267640117,0.0207740587147214,0.000882,0.000365,-0.002163,0.048520,0.020381,312.086137,25.686323,0.999498,0.992681,0.003482,0.391297,-0.000001,-0.000006,-0.000004,0.000001,-0.000008,-27.754986,0.000009,
2056,3298,-4.50449123789499,14.171050086395,0.0240943057457343,0.000738,0.000506,-0.001287,0.037951,0.029694,310.997961,24.165768,0.999455,0.994939,0.003035,0.417936,-0.000015,0.000036,-0.000029,0.000049,-0.000028,-65.854778,0.000049,
2416,2098,3.53758920938273,-11.9555441391782,0.014510789461383,0.000748,0.000894,-0.004564,0.051203,0.018810,329.636448,22.464320,0.998993,0.978602,0.005995,0.331956,-0.000039,-0.000032,-0.000003,-0.000031,-0.000040,-68.646445,0.000071,
2476,2608,4.74155191940342,-0.791949090924611,-0.0260743091236577,0.000462,0.000162,-0.002991,0.032609,-0.007226,321.134118,24.033124,0.999151,0.985855,0.004455,0.361608,-0.000020,-0.000029,-0.000005,-0.000018,-0.000031,-24.516074,0.000049,
2206,2383,-1.09870883065773,-5.71182964270506,-0.00950049491387972,0.000956,0.000166,0.001367,0.039649,0.008610,324.957656,24.053333,0.999190,0.987815,0.004454,0.365995,-0.000018,-0.000009,0.000000,-0.000009,-0.000018,-88.032868,0.000028,
2116,2038,-3.00203116024173,-13.2652611916058,0.00902572023392167,0.001023,0.000816,-0.004099,0.059251,0.021121,331.000861,24.206114,0.999089,0.985239,0.005204,0.375832,-0.000021,-0.000087,-0.000011,-0.000020,-0.000088,-8.956608,0.000115,
2341,2968,1.7342523627145,7.04017246251898,-0.00995926158151406,0.001373,0.000218,-0.003092,0.074124,0.021772,315.288382,25.108571,0.999892,0.997975,0.002448,0.333398,-0.000036,-0.000021,-0.000007,-0.000018,-0.000039,-67.524077,0.000058,
2026,3268,-5.148797931251,13.5186510298635,0.0251322781576278,0.001025,0.000378,-0.003840,0.058063,0.008091,311.699726,24.010236,0.999767,0.997262,0.002475,0.401551,-0.000033,0.000027,-0.000022,0.000034,-0.000040,-72.092542,0.000044,
2176,2263,-1.73138782852248,-8.33599497001985,0.00477512144260572,0.000385,0.000592,-0.002847,0.026682,0.028449,327.088252,24.121377,0.999148,0.981947,0.005291,0.299811,-0.000023,-0.000036,0.000001,-0.000022,-0.000036,4.773520,0.000059,
2296,2758,0.792846754808981,2.47077121350166,-0.0315591031998679,0.001021,0.000448,-0.004595,0.062662,0.015094,318.548259,24.490007,0.999369,0.991512,0.003856,0.416531,-0.000023,-0.000005,0.000001,-0.000005,-0.000023,88.254205,0.000030,
2011,3178,-5.45923471730987,11.567558829306,0.0397741726968661,0.000659,-0.000148,-0.001705,0.035010,-0.008231,313.367744,24.021513,0.999737,0.995887,0.002678,0.371847,-0.000002,0.000018,-0.000022,0.000032,-0.000016,-56.949873,0.000032,
2431,2143,3.85576741460387,-10.9685264060974,0.0152412643246862,0.000324,0.000077,0.000531,0.012910,0.001842,328.901884,22.555236,0.999357,0.981381,0.005486,0.291789,-0.000033,-0.000022,-0.000003,-0.000021,-0.000034,-76.339605,0.000055,
2281,2698,0.477812798916034,1.16311288987377,-0.0205546266382726,0.000762,0.000237,-0.002163,0.042373,0.016283,319.613441,24.417942,0.999788,0.994135,0.003356,0.370827,-0.000023,-0.000009,0.000001,-0.000009,-0.000023,86.902607,0.000032,
2131,2068,-2.67846491233892,-12.6077156362784,0.0196543455944038,0.001463,0.001080,-0.004721,0.081486,0.033367,330.566640,24.232293,0.998044,0.976938,0.006043,0.280580,-0.000028,-0.000035,0.000015,-0.000016,-0.000047,37.862334,0.000065,
2071,3193,-4.1620008974678,11.8987733107644,0.0337776616852921,0.000865,0.000463,-0.001452,0.044299,0.032844,312.718425,24.343983,0.999534,0.995395,0.002939,0.361967,0.000002,0.000014,-0.000025,0.000033,-0.000017,-51.977217,0.000033,
2161,2173,-2.04672857103138,-10.3020536787088,-0.0502353550571684,0.000777,0.000641,-0.003516,0.046588,0.009299,328.149640,23.898611,0.999824,0.932046,0.008781,0.496429,-0.000036,-0.000023,0.000006,-0.000021,-0.000038,68.009991,0.000060,
2191,2263,-1.40426655677819,-8.3355175448135,-0.00570855820478755,0.001024,0.001098,-0.007393,0.070481,0.022117,326.998140,24.001425,0.998948,0.982860,0.005225,0.347965,-0.000023,-0.000030,0.000006,-0.000020,-0.000034,29.281025,0.000055,
2326,2953,1.41066411070987,6.71305306967058,-0.00715771919334429,0.000912,0.000682,-0.001796,0.048429,0.026254,315.536555,25.037706,0.999062,0.989327,0.004389,0.336955,-0.000029,-0.000017,-0.000004,-0.000016,-0.000030,-73.507999,0.000046,
2041,3223,-4.81648256142421,12.545076309824,0.0367271556589799,0.000792,0.000097,-0.002766,0.044328,0.001053,312.426165,24.140194,0.999513,0.994301,0.003072,0.373639,-0.000022,0.000009,-0.000025,0.000023,-0.000036,-60.716944,0.000036,
2071,1993,-3.97650480527173,-14.2513914636563,0.0194038459626427,0.000377,0.000922,-0.004156,0.029399,0.022456,331.992586,24.605393,0.998578,0.980184,0.005699,0.271865,0.000063,-0.000162,0.000021,0.000065,-0.000163,5.271993,0.000165,
2386,3253,2.6578923233092,13.2280572848375,0.00385792882713076,0.000924,-0.000145,0.000409,0.041019,-0.002751,310.712850,25.961366,0.999638,0.993545,0.003171,0.371479,0.000004,-0.000007,-0.000002,0.000005,-0.000007,-9.691864,0.000008,
2476,2623,4.73902348238668,-0.464249684250618,-0.0270686442085548,0.000912,0.000196,-0.004937,0.060629,-0.020102,320.909662,24.131189,0.999656,0.991581,0.003638,0.307954,-0.000027,-0.000028,-0.000009,-0.000019,-0.000036,-42.808854,0.000055,
2356,3073,2.04147739312745,9.32009217519382,0.00965853430903962,0.001043,0.000218,-0.001850,0.054645,0.009210,313.716035,25.376379,0.999508,0.993944,0.003310,0.356985,-0.000024,-0.000007,0.000000,-0.000007,-0.000024,88.582204,0.000032,
2086,3283,-3.8522436218614,13.8486527339466,0.0319482767592945,0.000467,-0.000011,0.000279,0.020831,0.009819,311.127903,24.363216,0.999492,0.995814,0.002898,0.376211,0.000013,0.000023,-0.000022,0.000041,-0.000004,-51.932146,0.000044,
2221,2503,-0.79313633485399,-3.09054175777774,-0.0209312309722804,0.000947,0.000427,-0.003926,0.056234,0.001933,322.900055,24.137875,0.999347,0.988722,0.004266,0.389194,-0.000015,-0.000018,-0.000005,-0.000011,-0.000022,-34.429839,0.000034,
2026,3283,-5.1508308336403,13.8430736527683,0.0364812804132271,0.000898,0.000121,0.000009,0.041554,0.015485,311.532817,24.029929,0.999714,0.996899,0.002583,0.377753,-0.000036,0.000039,-0.000019,0.000043,-0.000040,-76.761798,0.000048,
2461,2368,4.4652777411397,-6.03767967220095,0.00160492418939384,0.000635,0.000451,-0.000858,0.032508,0.009714,325.227274,23.268578,0.999609,0.988048,0.004763,0.268219,-0.000025,0.000030,0.000014,0.000033,-0.000028,76.729769,0.000036,
2266,2728,0.145502728694492,1.81635203730409,-0.0274711452755696,0.000701,0.000279,-0.001425,0.037046,0.009561,319.084707,24.468790,0.999458,0.992050,0.003667,0.366815,-0.000016,-0.000022,-0.000004,-0.000014,-0.000024,-25.948925,0.000038,
2446,2368,4.13829277990519,-6.03908020997738,0.00234030258883422,0.000844,0.000194,-0.003268,0.050895,-0.019849,325.221048,23.239126,0.999442,0.986415,0.004780,0.319208,-0.000031,0.000024,0.000012,0.000027,-0.000033,77.901661,0.000035,
2251,2638,-0.164235517754726,-0.144889684485562,-0.0241189877492047,0.001078,0.000141,-0.000266,0.050449,-0.007610,320.614364,24.354198,0.998880,0.987846,0.004356,0.319460,-0.000021,-0.000014,0.000000,-0.000014,-0.000021,-89.232339,0.000035,
2116,2053,-3.00454390982406,-12.9359946968482,0.0095677699386556,0.000816,0.000827,-0.004383,0.050589,0.007682,330.756062,24.261599,0.998505,0.981608,0.005409,0.313655,-0.000026,-0.000056,0.000000,-0.000026,-0.000056,-0.873288,0.000084,
2236,2533,-0.47173958753817,-2.43547852773642,-0.0116613327461437,0.000642,0.000532,-0.000337,0.030800,0.032961,322.431346,24.218532,0.999696,0.992528,0.003526,0.353266,-0.000019,-0.000021,-0.000005,-0.000015,-0.000025,-39.461026,0.000040,
2041,3238,-4.81858615039251,12.8695765100188,0.0381818218181138,0.001026,-0.000185,-0.001859,0.052563,-0.001117,312.201427,24.111477,0.999526,0.995540,0.002871,0.391351,-0.000027,0.000014,-0.000023,0.000024,-0.000037,-65.946064,0.000037,
2311,2803,1.11086569477382,3.45065516718588,-0.0241713776391066,0.000668,0.000258,-0.002266,0.038568,0.013734,317.839896,24.624038,0.999395,0.992510,0.003719,0.384229,-0.000029,-0.000021,-0.000001,-0.000021,-0.000029,-79.893774,0.000050,
2341,2983,1.731502532329,7.36521161119752,-0.00469318093740867,0.000970,0.000383,-0.004034,0.058864,0.004893,315.072650,25.114062,0.999763,0.995798,0.002893,0.346863,-0.000035,-0.000020,-0.000004,-0.000019,-0.000036,-75.255889,0.000056,
2371,3193,2.34565701596403,11.9241656823383,0.0275995447224773,0.000872,0.000116,-0.001836,0.046788,0.007302,311.895947,25.727517,0.999460,0.993046,0.003453,0.376699,0.000002,-0.000004,-0.000003,0.000003,-0.000006,-23.473713,0.000006,
2071,2008,-3.97874783229085,-13.9213862186045,0.0129086864901637,0.000736,0.000791,-0.005273,0.048994,0.006233,331.717798,24.632917,0.998941,0.983803,0.005164,0.228855,0.000061,-0.000136,0.000031,0.000065,-0.000141,8.878722,0.000141,
2281,2713,0.475172877750136,1.48908896306921,-0.0184688293802537,0.000686,0.000197,-0.002055,0.038468,0.004291,319.383577,24.407242,0.999722,0.993774,0.003394,0.397423,-0.000021,-0.000015,-0.000001,-0.000014,-0.000022,-81.193005,0.000036,
2296,2773,0.790385583293936,2.79744073134921,-0.0310856645913304,0.001026,0.000632,-0.007833,0.073946,0.015347,318.319317,24.536544,0.999301,0.990440,0.004045,0.400062,-0.000023,-0.000009,-0.000002,-0.000008,-0.000024,-82.150028,0.000033,
2386,3268,2.65441918885654,13.5538625720309,-0.00106668961257128,0.000545,0.000226,-0.002089,0.032753,0.013115,310.416536,26.016069,0.999613,0.993279,0.003345,0.374487,0.000005,-0.000008,0.000004,0.000007,-0.000010,16.630684,0.000010,
2026,3298,-5.15361824613182,14.1679654896222,0.0308773863073952,0.000715,0.000328,-0.001472,0.037239,0.018024,311.236095,24.008791,0.999363,0.994855,0.003156,0.390177,-0.000038,0.000025,-0.000016,0.000029,-0.000042,-76.173601,0.000043,
2146,2128,-2.36128466244083,-11.293897603988,0.0218156301534691,0.000966,0.000672,-0.005522,0.061205,-0.015367,329.542853,24.161153,0.999193,0.983369,0.005167,0.252668,-0.000028,-0.000028,0.000011,-0.000017,-0.000039,45.233405,0.000057,
2011,3193,-5.46151455920128,11.8930635067474,0.0372111049837827,0.000797,0.000380,-0.002565,0.043915,0.011971,313.109834,24.027533,0.999738,0.995998,0.002593,0.372867,-0.000002,0.000026,-0.000018,0.000035,-0.000011,-64.322395,0.000035,
2206,2398,-1.10122089954127,-5.38393959318298,-0.00563095178301865,0.000679,0.000241,0.000527,0.029598,0.037938,324.737271,24.094835,0.999382,0.989749,0.004218,0.372039,-0.000017,-0.000005,-0.000002,-0.000005,-0.000018,-80.306084,0.000024,
2041,3253,-4.82106848381952,13.1942686744956,0.0379972077889192,0.000898,0.000067,-0.002338,0.048068,0.003757,311.950123,24.087849,0.999591,0.995588,0.002799,0.410884,-0.000028,0.000021,-0.000030,0.000035,-0.000042,-64.589828,0.000045,
2476,2638,4.73574353354632,-0.13719463390386,-0.0284134067062496,0.000822,0.000482,-0.004601,0.055401,0.014487,320.648969,24.124628,0.999608,0.991453,0.003679,0.406515,-0.000034,-0.000026,-0.000010,-0.000019,-0.000041,-56.241663,0.000061,
2191,2278,-1.40662071208821,-8.00748668550544,-0.00264033010790854,0.001182,0.000728,-0.004481,0.068516,0.015144,326.779986,24.044883,0.998884,0.982214,0.005310,0.314202,-0.000020,-0.000031,0.000001,-0.000020,-0.000031,3.855412,0.000051,
2416,2113,3.53553988655228,-11.627726182199,0.0267812018088875,0.000739,0.000975,-0.003557,0.047172,0.041512,329.492944,22.504780,0.999034,0.979004,0.005861,0.364642,-0.000039,-0.000029,-0.000007,-0.000025,-0.000043,-62.722446,0.000069,
2161,2188,-2.04580004802535,-9.98016975600824,-0.00364070936029748,0.000889,0.001183,-0.005283,0.057328,0.026221,328.308684,23.787833,0.999759,0.912387,0.009670,0.634661,-0.000038,-0.000014,0.000004,-0.000013,-0.000039,80.822879,0.000054,
2326,2968,1.40786600552797,7.03927812095215,-0.00662897973137433,0.000989,0.000158,-0.000306,0.046640,0.012026,315.294186,25.112745,0.999686,0.995612,0.002949,0.281605,-0.000031,-0.000020,-0.000002,-0.000020,-0.000031,-81.457239,0.000052,
2116,2068,-3.00631294481815,-12.6074378688381,0.0131912084439705,0.001325,0.000579,-0.001975,0.066781,0.004110,330.561752,24.282003,0.998533,0.971853,0.006512,0.296386,-0.000030,-0.000036,0.000007,-0.000025,-0.000040,32.975507,0.000066,
2071,3208,-4.16401480875941,12.2225719775729,0.0383778958724861,0.000878,0.000122,-0.003022,0.049281,0.011854,312.517292,24.281199,0.999475,0.994981,0.003044,0.399358,0.000006,0.000007,-0.000025,0.000032,-0.000019,-45.920482,0.000032,
2011,3208,-5.46356535132053,12.2180235069802,0.0378178776136906,0.001008,0.000431,-0.002956,0.054776,0.025307,312.880541,24.012732,0.999571,0.994219,0.003121,0.387648,-0.000007,0.000016,-0.000016,0.000024,-0.000016,-62.453556,0.000025,
2131,2083,-2.68242464528609,-12.2777876593497,0.00586243635967776,0.000913,0.000762,-0.002947,0.050873,0.032011,330.180715,24.188816,0.998551,0.980382,0.005637,0.332496,-0.000028,-0.000021,0.000012,-0.000012,-0.000037,52.822228,0.000051,
2071,2023,-3.98100920175684,-13.5923120995835,0.00910913088881671,0.000944,0.001047,-0.005698,0.059826,0.018421,331.456847,24.584266,0.998876,0.984873,0.005116,0.290250,0.000038,-0.000151,0.000019,0.000040,-0.000153,5.536153,0.000158,
2041,1993,-4.63065502185104,-14.2513048978533,0.0189052238471845,0.000441,0.000762,-0.003934,0.031327,0.020512,332.155222,24.746849,0.998582,0.984116,0.005355,0.338462,0.000035,-0.000210,0.000004,0.000036,-0.000210,1.001579,0.000225,
2446,2383,4.13498673738541,-5.70970271825944,-0.00387819907388121,0.000705,0.000814,-0.007554,0.060742,-0.002280,324.935323,23.328955,0.999760,0.989354,0.004353,0.300940,-0.000017,0.000014,0.000010,0.000017,-0.000020,72.976947,0.000021,
2086,3298,-3.85559435056536,14.173883637371,0.0186512214158938,0.000301,0.000058,-0.001339,0.017907,0.014470,310.767895,24.331731,0.999473,0.995421,0.002952,0.409903,0.000018,0.000034,-0.000030,0.000057,-0.000005,-52.179346,0.000063,
2176,2278,-1.7340025437124,-8.00930934622885,0.00785063748469383,0.000223,0.000045,-0.000265,0.011076,0.012118,326.857368,24.050427,0.998809,0.981830,0.005408,0.368986,-0.000019,-0.000037,-0.000004,-0.000018,-0.000038,-13.192789,0.000058,
2221,2518,-0.795783649586941,-2.7638907922599,-0.015815082864151,0.000608,0.000500,-0.002846,0.037210,0.010201,322.681116,24.136347,0.999217,0.988432,0.004279,0.418822,-0.000014,-0.000026,-0.000002,-0.000013,-0.000026,-10.512865,0.000040,
2266,2743,0.14316965963031,2.14257540695394,-0.02641196559631,0.000948,0.000229,-0.001822,0.049706,-0.000243,318.862545,24.479383,0.999210,0.989754,0.004017,0.372053,-0.000013,-0.000021,-0.000004,-0.000012,-0.000022,-21.996945,0.000035,
2386,3283,2.65147270433712,13.878667559281,-0.00051631898247706,0.000470,0.000199,-0.001934,0.028704,0.005560,310.170892,26.035951,0.999606,0.992483,0.003499,0.388557,0.000010,-0.000014,0.000003,0.000011,-0.000014,7.176826,0.000015,
2461,2383,4.46170955049991,-5.70911976408503,-0.00770803704858736,0.000622,0.000414,-0.003848,0.043140,0.008921,324.917034,23.272288,0.999645,0.987755,0.004652,0.320153,-0.000012,0.000020,0.000011,0.000024,-0.000015,72.422244,0.000024,
2041,3268,-4.82400662328253,13.5199687171027,0.0344032607380313,0.000688,-0.000017,-0.000146,0.032236,0.006543,311.658516,24.144153,0.999536,0.995193,0.002907,0.347978,-0.000028,0.000029,-0.000028,0.000041,-0.000039,-67.632108,0.000046,
2356,3088,2.03843174797386,9.64542303047079,0.015134476584592,0.000583,-0.000020,0.000156,0.026277,0.004809,313.488172,25.422363,0.999537,0.993440,0.003379,0.344170,-0.000019,-0.000006,-0.000003,-0.000006,-0.000020,-76.591657,0.000026,
2341,2998,1.72821801402499,7.69062606687754,-0.0016824911588742,0.000444,-0.000042,-0.001899,0.027036,-0.005263,314.821191,25.135579,0.999887,0.997557,0.002630,0.351071,-0.000033,-0.000019,-0.000004,-0.000018,-0.000034,-76.126362,0.000052,
2041,2008,-4.63393988813877,-13.9209040593858,0.0171412166047276,-0.000154,0.000366,0.002193,-0.013004,0.022128,331.855787,24.845926,0.997726,0.981678,0.005867,0.237536,0.000049,-0.000164,0.000039,0.000056,-0.000171,10.049521,0.000175,
2476,2653,4.73265622691232,0.189574005463719,-0.0250218420430883,0.000660,0.000223,-0.002744,0.040803,0.003409,320.418715,24.181991,0.999560,0.991519,0.003706,0.395063,-0.000037,-0.000016,-0.000018,-0.000005,-0.000048,-60.063754,0.000059,
2071,3223,-4.16614434881219,12.5477230157337,0.0377832070926729,0.001104,0.000365,-0.004566,0.064215,0.017613,312.281769,24.289760,0.999470,0.994523,0.003143,0.391921,0.000008,0.000005,-0.000028,0.000035,-0.000022,-43.567556,0.000035,
2236,2548,-0.47535126681062,-2.10761948354744,-0.0259938169780867,0.000626,0.000048,-0.000979,0.031973,0.002838,322.070058,24.202078,0.999684,0.993175,0.003430,0.361895,-0.000021,-0.000011,-0.000004,-0.000010,-0.000022,-69.291997,0.000033,
2011,3223,-5.46609746719416,12.543269651778,0.0358786483195104,0.001063,0.000033,-0.000428,0.050423,0.025293,312.614738,24.026747,0.999427,0.993603,0.003355,0.360207,-0.000014,0.000002,-0.000017,0.000013,-0.000024,-57.627909,0.000024,
2101,1993,-3.32110338122476,-14.2536049894581,0.0327719405367475,0.000468,0.000627,-0.006120,0.039469,0.002124,331.966763,24.439848,0.999635,0.991051,0.004228,0.206114,0.000034,-0.000136,-0.000009,0.000035,-0.000136,-2.905653,0.000142,
2311,2818,1.10820706546842,3.77733607209103,-0.0238343721141518,0.000724,0.000211,-0.002661,0.042470,-0.001737,317.602237,24.699209,0.999513,0.991002,0.003825,0.325855,-0.000029,-0.000020,-0.000004,-0.000018,-0.000031,-67.215512,0.000049,
2431,2158,3.85406444958364,-10.6414959956051,0.0219474777127857,0.000444,0.000695,-0.006855,0.045816,-0.015039,328.749501,22.517415,0.999310,0.980240,0.005556,0.365111,-0.000036,-0.000029,-0.000011,-0.000022,-0.000044,-53.791081,0.000067,
2296,2788,0.787494155282612,3.12372538749626,-0.0269166062203112,0.000840,0.000504,-0.004155,0.052897,0.025380,318.088981,24.571098,0.999284,0.991113,0.003931,0.405777,-0.000023,-0.000009,-0.000001,-0.000009,-0.000023,-85.310762,0.000034,
2071,2038,-3.98283964091945,-13.2634549337629,0.0094387694954321,0.001065,0.001755,-0.010340,0.078763,0.024176,331.238138,24.574524,0.998857,0.986114,0.004914,0.305970,0.000026,-0.000147,0.000017,0.000028,-0.000149,5.654340,0.000159,
2116,2083,-3.0091139163393,-12.2775619634473,0.00814761674109832,0.000947,0.000902,-0.006103,0.061706,0.018905,330.273675,24.313966,0.998537,0.977681,0.006084,0.286180,-0.000031,-0.000019,0.000005,-0.000017,-0.000033,71.956962,0.000051,
2251,2653,-0.167032140222535,0.181398966140428,-0.0211415249344782,0.000714,-0.000103,-0.000393,0.034068,-0.007602,320.379659,24.349766,0.999263,0.990410,0.004058,0.347714,-0.000017,-0.000009,0.000004,-0.000008,-0.000018,68.616302,0.000027,
2386,3298,2.64751403704348,14.2050826559039,-0.0197007491915997,0.000854,0.000416,-0.002817,0.049661,0.013016,309.783777,26.087181,0.999674,0.993266,0.003450,0.386609,0.000011,-0.000022,-0.000002,0.000011,-0.000022,-2.658764,0.000022,
2041,3283,-4.82656689337454,13.844466783768,0.0306109834054382,0.000746,0.000011,0.000022,0.034416,0.004004,311.383655,24.098080,0.999540,0.994904,0.002961,0.382470,-0.000026,0.000032,-0.000022,0.000039,-0.000034,-71.318251,0.000043,
2146,2143,-2.36511165342224,-10.9646747253442,0.0111681686310021,0.000558,0.000493,-0.001107,0.029096,0.025610,329.181169,24.070460,0.999423,0.982533,0.005191,0.395951,-0.000033,-0.000031,0.000011,-0.000021,-0.000043,47.428116,0.000065,
2161,2203,-2.04819987848266,-9.64847113138861,-0.00412877100114883,0.001015,0.000628,-0.005207,0.062685,0.007191,328.066944,24.115107,0.998838,0.962448,0.006669,0.301188,-0.000033,-0.000006,0.000006,-0.000005,-0.000034,78.270530,0.000043,
2131,2098,-2.68442999840142,-11.9481413146635,0.00341491472352118,0.001496,0.000620,-0.002450,0.076107,0.032357,329.944333,24.249099,0.998914,0.984645,0.005020,0.281363,-0.000026,-0.000019,0.000013,-0.000009,-0.000036,52.974123,0.000047,
2266,2758,0.139639453976883,2.47000115820514,-0.0345330439894838,0.000790,0.000177,-0.000532,0.038176,0.005279,318.538880,24.517151,0.999227,0.990100,0.004001,0.365660,-0.000014,-0.000012,0.000000,-0.000012,-0.000014,-81.268603,0.000026,
2221,2533,-0.79822008690056,-2.4351882779294,-0.0168893684004274,0.000876,0.000719,-0.002465,0.048397,0.029312,322.439613,24.260646,0.999542,0.991062,0.003786,0.333754,-0.000015,-0.000026,-0.000003,-0.000015,-0.000026,-12.768487,0.000042,
2326,2983,1.40505680206558,7.36384132810597,-0.00233868492335887,0.000682,-0.000063,0.000097,0.031036,0.006537,315.070164,25.055931,0.999895,0.997483,0.002492,0.366576,-0.000030,-0.000020,0.000002,-0.000020,-0.000031,78.180157,0.000051,
2446,2398,4.13129220134865,-5.38182904345462,-0.0093493420838513,0.000820,0.000345,-0.003148,0.049430,0.003276,324.635371,23.306216,0.999681,0.988464,0.004511,0.383396,-0.000014,0.000008,0.000015,0.000016,-0.000021,63.739636,0.000022,
2011,3238,-5.46784753700625,12.8669627709748,0.0445315090685767,0.001012,0.000130,-0.002335,0.053201,0.014410,312.445180,23.972334,0.999564,0.993919,0.003298,0.390422,-0.000021,0.000004,-0.000016,0.000011,-0.000028,-63.967373,0.000029,
2371,3208,2.34228797736996,12.2489954804595,0.0254148643721805,0.000647,-0.000161,-0.000606,0.031860,-0.010509,311.617023,25.723362,0.999378,0.993207,0.003534,0.402642,0.000004,-0.000008,-0.000004,0.000005,-0.000009,-16.278684,0.000009,
2206,2413,-1.10267386876382,-5.05681511993838,0.0112217072319822,0.000634,0.000485,0.000771,0.026865,0.029841,324.632566,24.231161,0.999613,0.992301,0.003800,0.245529,-0.000014,-0.000020,-0.000009,-0.000008,-0.000026,-35.209392,0.000035,
2041,2023,-4.63492147657001,-13.5926172761655,0.0152143837930225,0.000768,0.000715,-0.004568,0.048111,0.008085,331.660950,24.771715,0.998038,0.980796,0.005837,0.293324,0.000020,-0.000190,0.000020,0.000022,-0.000192,5.493098,0.000210,
2191,2293,-1.40963292148685,-7.67974085410295,-0.00311001166585356,0.000698,0.000462,-0.004862,0.047380,0.008257,326.513424,24.031504,0.998787,0.984312,0.005130,0.337271,-0.000019,-0.000029,-0.000001,-0.000019,-0.000029,-8.220916,0.000048,
2416,2128,3.53108075297301,-11.2960822013746,0.0108251272567372,0.000559,0.000800,-0.003148,0.037370,0.038454,329.107294,22.618810,0.999286,0.981374,0.005471,0.298973,-0.000035,-0.000021,-0.000010,-0.000016,-0.000040,-63.282238,0.000057,
2071,3238,-4.16861644737355,12.8721761338422,0.0416561843130125,0.000976,-0.000030,-0.001861,0.050468,0.009653,312.055382,24.276817,0.999457,0.994299,0.003191,0.392261,0.000008,0.000009,-0.000025,0.000033,-0.000016,-45.340154,0.000033,
2461,2398,4.45859966207986,-5.38171765783522,-0.00563136687122778,0.000449,0.000205,-0.002885,0.031521,0.006669,324.679869,23.286771,0.999591,0.987188,0.004654,0.359537,-0.000009,0.000013,0.000015,0.000020,-0.000016,63.182248,0.000022,
2401,1993,3.23164724689368,-14.263549697854,0.037437201985199,0.000594,0.000357,-0.001917,0.034218,0.009298,331.483246,22.235911,0.998744,0.970625,0.006572,0.298478,-0.000050,-0.000057,0.000011,-0.000042,-0.000065,36.003706,0.000109,
2356,3103,2.03578345933345,9.97147046163262,0.0118796320014667,0.000907,0.000072,-0.001543,0.047270,0.005828,313.236125,25.477217,0.999566,0.992992,0.003537,0.328173,-0.000013,-0.000001,0.000000,-0.000001,-0.000013,-89.876302,0.000016,
2236,2563,-0.476901571952144,-1.78270405466455,-0.013940769164094,0.000799,0.000304,-0.001473,0.041584,0.003163,321.938087,24.124172,0.999658,0.993081,0.003415,0.461736,-0.000021,-0.000011,-0.000010,-0.000005,-0.000027,-58.664844,0.000035,
2011,3253,-5.47007405920344,13.1924193860654,0.0383389493422328,0.001169,0.000518,-0.007581,0.074802,0.010212,312.169392,23.993400,0.999810,0.996230,0.002686,0.351931,-0.000020,0.000013,-0.000028,0.000029,-0.000036,-60.445914,0.000039,
2071,2053,-3.98478566187158,-12.9350887207952,0.0137689920046,0.001249,0.001528,-0.008165,0.080977,0.037218,331.036011,24.562873,0.998402,0.978220,0.005854,0.330833,0.000019,-0.000095,0.000025,0.000024,-0.000100,11.674816,0.000104,
2176,2293,-1.73632565407181,-7.6801053124853,0.00377484603387757,0.000425,0.000433,-0.003955,0.031898,0.028345,326.601893,24.109831,0.998854,0.983818,0.005168,0.340315,-0.000019,-0.000035,-0.000007,-0.000017,-0.000038,-21.535074,0.000056,
2281,2728,0.472002967471806,1.81640377361019,-0.0242929714774505,0.000814,0.000022,0.000082,0.037168,0.012566,319.089474,24.439982,0.999661,0.993141,0.003450,0.401207,-0.000022,-0.000019,-0.000003,-0.000017,-0.000023,-58.004481,0.000041,
2041,3298,-4.82919897829334,14.1697024939557,0.0282246051019683,0.000616,0.000143,-0.000361,0.029545,0.011803,311.113036,24.121441,0.999537,0.995428,0.003001,0.357678,-0.000021,0.000029,-0.000023,0.000038,-0.000029,-68.995300,0.000040,
2101,2008,-3.32278260283663,-13.9269001968545,0.0354631445379141,0.001033,0.000522,-0.004329,0.060137,-0.004388,331.770641,24.261176,0.999699,0.991880,0.004177,0.382795,0.000022,-0.000110,-0.000004,0.000022,-0.000110,-1.816063,0.000116,
2476,2668,4.72924752095775,0.516032261462769,-0.0273713919279999,0.000653,0.000024,-0.000859,0.033212,-0.002742,320.147607,24.162320,0.999391,0.989110,0.004102,0.465729,-0.000045,-0.000003,-0.000019,0.000004,-0.000052,-69.263986,0.000058,
2341,3013,1.72596219515695,8.01612909741166,0.000816030625628628,0.000656,0.000156,-0.004059,0.044410,-0.008397,314.614480,25.158325,0.999636,0.993922,0.003287,0.361045,-0.000030,-0.000022,-0.000003,-0.000021,-0.000031,-70.292834,0.000053,
2266,2773,0.137403556943394,2.79628572432996,-0.0280061987234035,0.000753,0.000229,-0.000778,0.037324,0.012778,318.348545,24.568200,0.999229,0.989253,0.004074,0.347428,-0.000014,-0.000012,-0.000002,-0.000011,-0.000015,-59.825109,0.000027,
2116,2098,-3.01109070347385,-11.9491154615379,0.0155706059080671,0.001084,0.000325,-0.002559,0.057347,0.005891,330.090274,24.385808,0.999032,0.976783,0.005962,0.207515,-0.000031,-0.000017,0.000006,-0.000015,-0.000033,69.581617,0.000049,
2431,2173,3.85094017642129,-10.3117788347738,0.0233955290518679,0.000701,0.000104,-0.000568,0.034209,-0.019799,328.507286,22.661691,0.999366,0.983905,0.004934,0.268716,-0.000035,-0.000014,-0.000012,-0.000009,-0.000040,-65.354281,0.000052,
2041,2038,-4.63751552686029,-13.2652193426503,0.02301686102237,0.000217,0.000210,0.000680,0.008144,0.006010,331.446356,24.719867,0.998545,0.980557,0.005626,0.339054,0.000006,-0.000184,0.000017,0.000008,-0.000186,5.034412,0.000210,
2011,3268,-5.47253943227186,13.5164990247732,0.0410026516680659,0.000976,0.000506,-0.005877,0.061291,0.019313,311.933161,23.927808,0.999792,0.996321,0.002688,0.412972,-0.000023,0.000023,-0.000023,0.000033,-0.000032,-67.480004,0.000038,
2251,2668,-0.169838092266684,0.508351460669999,-0.0233444025029144,0.000568,0.000241,-0.002541,0.034542,0.017188,320.118064,24.342637,0.999425,0.992337,0.003727,0.403340,-0.000017,-0.000007,-0.000005,-0.000005,-0.000019,-67.435567,0.000025,
2446,2413,4.12884125516598,-5.05395483551179,-0.0010337406777694,0.000914,0.000468,-0.000463,0.043786,0.027501,324.455739,23.401503,0.999667,0.988788,0.004567,0.365842,-0.000021,0.000004,0.000016,0.000013,-0.000029,63.687222,0.000029,
2311,2833,1.10610461066157,4.10358568321772,-0.0163781654488844,0.000622,0.000530,-0.005492,0.047576,0.009857,317.425223,24.765725,0.999714,0.993015,0.003515,0.302837,-0.000031,-0.000010,-0.000004,-0.000010,-0.000032,-78.198744,0.000043,
2131,2113,-2.68666480659554,-11.6204053291682,0.00657794093598341,0.001383,0.000482,-0.003320,0.073513,0.005555,329.727730,24.229156,0.999075,0.984936,0.004978,0.283218,-0.000025,-0.000025,0.000012,-0.000013,-0.000037,45.559825,0.000052,
2071,3253,-4.17137867164086,13.1977791628699,0.0359361104063964,0.000978,0.000131,-0.002054,0.051121,0.009602,311.762474,24.311621,0.999651,0.995586,0.002909,0.352657,0.000011,0.000015,-0.000028,0.000041,-0.000015,-47.322997,0.000041,
2221,2548,-0.800547776971268,-2.10910253667025,-0.0122272471614906,0.000831,0.000391,-0.002223,0.045440,0.016718,322.233159,24.232650,0.999711,0.992894,0.003397,0.368660,-0.000017,-0.000016,-0.000001,-0.000015,-0.000017,-49.013920,0.000033,
2296,2803,0.784109799567613,3.45107292194562,-0.0330338521384306,0.000643,0.000454,-0.004290,0.044312,0.022044,317.784686,24.641496,0.999184,0.990391,0.004032,0.361828,-0.000025,-0.000017,-0.000001,-0.000017,-0.000025,-84.112742,0.000042,
2146,2158,-2.36726148744725,-10.6337910412172,0.0028285630571645,0.001061,0.000834,-0.006219,0.067707,-0.002536,328.908351,24.231236,0.999716,0.966352,0.006416,0.217623,-0.000033,-0.000038,0.000008,-0.000027,-0.000044,36.695443,0.000071,
2461,2413,4.45588800058429,-5.05432063465799,-0.00272264540376455,0.000415,0.000563,-0.004197,0.035034,0.015754,324.464671,23.301984,0.999482,0.987534,0.004663,0.409182,-0.000017,0.000010,0.000017,0.000018,-0.000025,64.124617,0.000025,
2206,2428,-1.10585073562891,-4.731461760446,0.00532025937530989,0.000418,-0.000152,0.000831,0.016516,0.019013,324.332053,23.996575,0.999152,0.988807,0.004444,0.487456,-0.000013,-0.000042,-0.000010,-0.000010,-0.000046,-17.090635,0.000059,
2416,2143,3.52783964684899,-10.967868537577,0.00953650874618006,0.000433,0.000511,-0.002307,0.028420,0.012632,328.846112,22.607582,0.999307,0.982614,0.005041,0.335011,-0.000035,-0.000019,-0.000010,-0.000014,-0.000040,-63.266825,0.000056,
2371,3223,2.33916144760313,12.5750399488653,0.0224348721320098,0.000507,0.000062,-0.002228,0.031264,-0.007959,311.344962,25.810457,0.999501,0.993881,0.003273,0.357622,0.000004,-0.000003,-0.000004,0.000006,-0.000005,-25.730369,0.000007,
2011,3283,-5.47517841608583,13.8413853562228,0.0388046198008283,0.000962,0.000389,-0.003143,0.053206,0.028224,311.661247,23.913587,0.999735,0.996714,0.002649,0.422715,-0.000024,0.000050,-0.000023,0.000056,-0.000031,-74.082030,0.000056,
2161,2218,-2.05061841215179,-9.32089500468797,0.0029221484000459,0.000798,0.000243,-0.001976,0.042750,-0.015652,327.864651,24.153723,0.998684,0.980702,0.005471,0.252037,-0.000031,-0.000008,0.000006,-0.000007,-0.000033,76.152684,0.000043,
2476,2683,4.72583324594145,0.844375667856923,-0.0327830620950067,0.000583,0.000002,-0.002862,0.037630,-0.007296,319.861876,24.293907,0.999619,0.990606,0.003827,0.386869,-0.000049,0.000005,-0.000011,0.000008,-0.000051,-78.683468,0.000055,
2041,2053,-4.64065562134084,-12.9299191192885,-0.0192465787361584,0.001582,0.001190,-0.004158,0.084500,0.027267,330.929104,24.810628,0.999674,0.993430,0.003502,0.266950,0.000001,-0.000116,0.000023,0.000005,-0.000120,10.842383,0.000136,
2326,2998,1.40257413071955,7.68918038603266,0.00219319570101106,0.000662,-0.000036,0.000184,0.029806,-0.001065,314.862075,25.077757,0.999758,0.995645,0.002922,0.370561,-0.000029,-0.000018,0.000003,-0.000017,-0.000030,77.938358,0.000047,
2056,1993,-4.3032441991405,-14.2522145514594,0.0198239649741367,0.000619,0.000663,-0.005668,0.044521,-0.022294,332.092011,24.648421,0.998673,0.981785,0.005503,0.288905,0.000043,-0.000182,0.000005,0.000043,-0.000182,1.278797,0.000190,
2356,3118,2.03337226145337,10.2963342590872,0.014012569576721,0.000832,0.000453,-0.006078,0.059919,0.004641,313.021356,25.463058,0.999532,0.993213,0.003511,0.379127,-0.000012,-0.000003,-0.000001,-0.000003,-0.000012,-82.615416,0.000016,
2101,2023,-3.32613867992312,-13.5950371916561,0.0253099169913753,0.000935,0.000402,-0.000092,0.043305,0.000642,331.428067,24.400971,0.999356,0.987626,0.004892,0.253597,0.000001,-0.000112,-0.000010,0.000001,-0.000113,-4.784245,0.000130,
2011,3298,-5.47812910482476,14.1661738318725,0.0359039058400867,0.000555,0.000337,-0.002507,0.032561,0.006915,311.371132,23.920644,0.999335,0.993661,0.003463,0.380833,-0.000020,0.000026,-0.000024,0.000036,-0.000030,-67.014983,0.000038,
2071,2068,-3.98658989605673,-12.6076337978505,0.0279068298659695,0.000950,0.000814,-0.006283,0.061704,0.011236,330.894187,24.620573,0.998134,0.967201,0.007041,0.246793,0.000011,-0.000063,0.000029,0.000021,-0.000073,18.710398,0.000075,
2071,3268,-4.17439580115468,13.5229507820331,0.0230821548971107,0.001024,0.000295,-0.004595,0.060572,0.008507,311.418792,24.272948,0.999765,0.996366,0.002717,0.385911,0.000011,0.000026,-0.000028,0.000048,-0.000010,-52.524983,0.000050,
2176,2308,-1.73875590361747,-7.35235761066621,0.00535076258563549,0.000434,0.000644,-0.003158,0.029912,0.025328,326.371345,24.117512,0.998628,0.984116,0.005202,0.343981,-0.000019,-0.000043,-0.000012,-0.000014,-0.000048,-21.701109,0.000065,
2191,2308,-1.41231757776889,-7.35236183274007,-0.00147774011963975,0.000435,0.000461,-0.004642,0.034652,0.000178,326.272800,24.011895,0.998357,0.984811,0.005264,0.365430,-0.000019,-0.000036,-0.000003,-0.000018,-0.000036,-11.139866,0.000055,
2401,2008,3.22810390408879,-13.9324676551704,0.0289885221498025,0.000597,0.000732,-0.002575,0.036874,0.028770,331.173473,22.307614,0.998539,0.969659,0.006661,0.295912,-0.000048,-0.000057,0.000000,-0.000048,-0.000057,-1.659303,0.000106,
2461,2428,4.45251652356893,-4.72519664776905,-0.0135999666514977,0.000808,0.001104,-0.006211,0.060815,0.023287,324.155953,23.351503,0.999280,0.986262,0.004771,0.423280,-0.000019,0.000001,0.000019,0.000012,-0.000030,58.961958,0.000031,
2116,2113,-3.01411443610607,-11.6219641784399,0.016734186449014,0.000604,0.000095,0.001615,0.022990,-0.005992,329.825800,24.274995,0.999272,0.986786,0.004712,0.313228,-0.000031,-0.000023,0.000007,-0.000019,-0.000035,58.348852,0.000055,
2431,2188,3.84837016173421,-9.9831685258192,0.0301116862386834,0.000516,-0.000062,-0.001228,0.028113,-0.011308,328.314812,22.752211,0.999687,0.988503,0.004299,0.239175,-0.000031,-0.000004,-0.000015,0.000003,-0.000038,-65.834115,0.000042,
2251,2683,-0.1724153410971,0.834850885733935,-0.0213017407166944,0.000477,0.000455,-0.002860,0.031489,0.021364,319.888577,24.354374,0.999380,0.992026,0.003727,0.419542,-0.000017,-0.000003,-0.000006,-0.000001,-0.000019,-69.437190,0.000023,
2236,2578,-0.480030792989989,-1.45382286155777,-0.0251450399116493,0.000936,0.000479,-0.003729,0.055238,-0.003679,321.614443,24.217093,0.999389,0.990512,0.003947,0.384086,-0.000020,-0.000004,-0.000008,0.000000,-0.000023,-66.970738,0.000027,
2281,2743,0.469402596927903,2.14305504313428,-0.024240620043372,0.000901,0.000121,-0.000208,0.042165,-0.000207,318.851026,24.484862,0.999372,0.991402,0.003793,0.371363,-0.000019,-0.000017,-0.000003,-0.000015,-0.000021,-53.572590,0.000037,
2041,2068,-4.6426832469167,-12.6026725729834,-0.0199178730056246,0.001463,0.001386,-0.009597,0.094154,0.003231,330.693750,24.685143,0.999668,0.992939,0.003544,0.364121,-0.000005,-0.000069,0.000031,0.000007,-0.000082,21.855594,0.000090,
2266,2788,0.135489635901781,3.1225889611769,-0.0277706361039236,0.001264,0.000613,-0.004176,0.072237,0.025884,318.141317,24.570037,0.999202,0.989422,0.004197,0.384503,-0.000015,-0.000013,-0.000002,-0.000012,-0.000016,-65.798594,0.000028,
2146,2173,-2.36802024860538,-10.3106157288084,0.0403213208506941,0.000654,0.000458,0.000314,0.029212,0.012328,328.942238,24.138174,0.999858,0.945408,0.008043,0.334882,-0.000034,-0.000020,0.000010,-0.000015,-0.000039,62.575801,0.000055,
2056,2008,-4.30547982024508,-13.9240904851539,0.0298518686029752,0.000375,-0.000058,0.000464,0.015911,-0.026202,331.906841,24.679734,0.998752,0.982938,0.005441,0.251797,0.000050,-0.000151,0.000025,0.000053,-0.000154,7.046655,0.000156,
2221,2563,-0.803598539810459,-1.78145856074892,-0.0208208711368911,0.001047,0.000225,-0.001279,0.052286,0.011614,321.925238,24.227516,0.999549,0.992111,0.003599,0.388743,-0.000016,-0.000018,-0.000006,-0.000011,-0.000023,-40.177140,0.000035,
2371,3238,2.33648525553164,12.9008819607266,0.0188315397512611,0.000796,0.000538,-0.004732,0.053763,0.019713,311.090652,25.854401,0.999666,0.994702,0.003019,0.381167,0.000005,-0.000008,-0.000005,0.000007,-0.000010,-20.048755,0.000010,
2131,2128,-2.6892938753574,-11.2922390205901,0.00413784671843587,0.001214,0.000354,-0.004675,0.069766,-0.017615,329.463250,24.189256,0.998781,0.982973,0.005238,0.308606,-0.000030,-0.000031,0.000011,-0.000020,-0.000042,43.789487,0.000063,
2311,2848,1.10336009308284,4.42819002525839,-0.0120679092573823,0.000390,0.000546,-0.004515,0.033583,0.018927,317.203631,24.663378,0.999820,0.993602,0.003418,0.446146,-0.000031,-0.000004,-0.000006,-0.000003,-0.000033,-77.874944,0.000039,
2476,2698,4.72311311312227,1.17158191579836,-0.0301901017336945,0.000610,0.000184,-0.003956,0.043073,-0.008408,319.644523,24.388349,0.999622,0.990419,0.003992,0.348183,-0.000051,0.000015,-0.000012,0.000017,-0.000053,-79.996144,0.000054,
2446,2428,4.12468190300154,-4.7246911076923,-0.0150614075018325,0.000856,0.000149,-0.001148,0.043558,-0.004823,324.094880,23.473821,0.999220,0.986941,0.004740,0.315390,-0.000021,-0.000006,0.000019,0.000007,-0.000034,56.135553,0.000036,
2416,2158,3.525084743199,-10.6390668563614,0.00682153969574983,0.000535,0.000659,-0.006151,0.047194,-0.010777,328.600430,22.637815,0.999227,0.981065,0.005257,0.331744,-0.000036,-0.000027,-0.000016,-0.000014,-0.000048,-52.663648,0.000065,
2341,3028,1.7236354414156,8.34193141284855,0.00797831597964205,0.000689,0.000017,-0.003031,0.042283,-0.011112,314.427055,25.242939,0.999711,0.994911,0.003164,0.309443,-0.000029,-0.000022,-0.000003,-0.000021,-0.000030,-67.454533,0.000051,
2296,2818,0.78193376543927,3.77632290295045,-0.0250915658336908,0.000738,0.000182,-0.002690,0.043126,0.008990,317.606177,24.641012,0.999414,0.991299,0.003813,0.378965,-0.000024,-0.000016,-0.000003,-0.000015,-0.000025,-70.099468,0.000040,
2071,3283,-4.17747795350807,13.8479791916101,0.0161387878430332,0.000900,0.000307,-0.002955,0.050183,0.017707,311.104682,24.248492,0.999700,0.996667,0.002691,0.414584,0.000010,0.000028,-0.000023,0.000043,-0.000006,-55.633091,0.000047,
2026,1993,-4.95655716528183,-14.2506106954112,0.0208774225119441,0.001093,0.001626,-0.009868,0.077592,0.026465,332.305994,24.895188,0.998546,0.983700,0.005435,0.300456,0.000021,-0.000240,0.000010,0.000021,-0.000240,2.214797,0.000266,
2206,2443,-1.10993684944937,-4.40024784336331,-0.0215588357804108,0.000489,0.000326,-0.003213,0.032751,0.009891,323.880504,24.106168,0.998642,0.985249,0.005132,0.387765,-0.000013,-0.000044,-0.000011,-0.000009,-0.000047,-17.600092,0.000060,
2161,2233,-2.05271272335114,-8.99305148515873,0.00446328991563405,0.000743,0.000921,-0.006630,0.054677,0.011855,327.647974,24.113836,0.998752,0.981807,0.005248,0.331786,-0.000032,-0.000020,0.000001,-0.000020,-0.000032,84.545986,0.000052,
2461,2443,4.45000333594141,-4.39730958210066,-0.0104249158363245,0.000829,0.001132,-0.009085,0.072593,-0.000769,323.950981,23.457293,0.999105,0.986611,0.004716,0.349148,-0.000006,-0.000038,0.000018,0.000002,-0.000046,23.612893,0.000052,
2356,3133,2.03056913707225,10.6219229503062,0.0174869204394099,0.000762,0.000247,-0.004178,0.049944,0.004728,312.794743,25.526393,0.999431,0.992610,0.003677,0.353401,-0.000013,-0.000003,0.000001,-0.000003,-0.000013,84.749223,0.000017,
2041,2083,-4.64372163427654,-12.2776690110313,0.0154848030783796,0.000840,0.000340,-0.003640,0.048738,-0.020705,330.703055,24.757662,0.999259,0.987711,0.004443,0.262188,-0.000014,-0.000022,0.000024,0.000006,-0.000042,39.738718,0.000046,
2056,2023,-4.30752519270892,-13.592929191831,0.0188786317662561,0.001057,0.000658,-0.002595,0.055966,0.015310,331.614490,24.709316,0.998649,0.984650,0.005247,0.262229,0.000028,-0.000171,0.000012,0.000029,-0.000171,3.364030,0.000184,
2071,2083,-3.99136392536363,-12.2756634339235,-0.000477794684115906,0.000541,0.000515,-0.001225,0.028468,0.029583,330.384084,24.581291,0.998646,0.969205,0.006698,0.306076,0.000002,-0.000029,0.000021,0.000012,-0.000039,26.534237,0.000040,
2236,2593,-0.482329150605075,-1.12738946879852,-0.021219785356891,0.000938,0.000388,-0.004369,0.057373,-0.010743,321.406440,24.223104,0.999298,0.988629,0.004366,0.392942,-0.000016,-0.000015,-0.000004,-0.000011,-0.000020,-46.206973,0.000031,
2101,2038,-3.32926712170247,-13.2657987009454,0.0133080767871547,0.000849,0.000686,-0.000753,0.041325,0.028099,331.086194,24.265692,0.999363,0.987357,0.005017,0.421675,-0.000008,-0.000104,-0.000006,-0.000008,-0.000105,-3.694167,0.000125,
2326,3013,1.4001619471455,8.01500358193555,0.00186294938151832,0.000959,-0.000173,-0.001367,0.048804,-0.008328,314.633222,25.114661,0.999383,0.990784,0.003772,0.360264,-0.000027,-0.000021,0.000004,-0.000019,-0.000029,62.244018,0.000048,
2146,2188,-2.37034534950135,-9.98141848889338,0.0285791078596276,0.001231,0.000901,-0.004246,0.069581,0.021598,328.643552,24.081784,0.999363,0.955420,0.007078,0.411363,-0.000033,-0.000010,0.000009,-0.000007,-0.000036,70.965534,0.000046,
2401,2023,3.22413867892256,-13.6024856197421,0.0224557795634155,0.000123,0.000864,-0.001916,0.012911,0.004502,330.853609,22.351257,0.998661,0.973195,0.006358,0.277481,-0.000048,-0.000042,0.000000,-0.000042,-0.000048,88.881654,0.000090,
2026,2008,-4.96010078330583,-13.9210817134572,0.0164704482790512,0.000729,0.000054,0.002419,0.026828,0.036044,331.978839,24.876627,0.998472,0.984187,0.005439,0.323185,0.000034,-0.000178,0.000053,0.000046,-0.000190,13.290845,0.000198,
2371,3253,2.33320253264984,13.2258410083385,0.0142173595234567,0.000909,0.000100,-0.002714,0.051588,0.002133,310.803788,25.860753,0.999625,0.994006,0.003162,0.396992,0.000006,-0.000007,-0.000005,0.000008,-0.000009,-18.882482,0.000009,
2116,2128,-3.01664073225923,-11.2934575040202,0.0135072464568111,0.000438,0.000158,-0.001635,0.024967,-0.021329,329.560354,24.248786,0.998842,0.984397,0.005178,0.330777,-0.000035,-0.000031,0.000009,-0.000024,-0.000042,52.708941,0.000067,
2251,2698,-0.174825118348625,1.16143988385297,-0.0234850829204447,0.000872,0.000333,-0.003002,0.050047,0.011904,319.645378,24.357635,0.999355,0.992253,0.003583,0.430515,-0.000018,-0.000010,-0.000003,-0.000009,-0.000019,-71.068164,0.000029,
2446,2443,4.12285489719923,-4.39860791197962,-0.00225484595324588,0.001013,0.000153,-0.000708,0.049094,-0.010205,323.964791,23.485742,0.998570,0.984857,0.004993,0.351039,-0.000010,-0.000040,0.000019,-0.000001,-0.000049,25.662907,0.000056,
2041,2098,-4.64561970133112,-11.9493460740238,0.0178383683939956,0.000871,0.000585,-0.005913,0.056544,-0.009353,330.489996,24.736460,0.999043,0.983241,0.005092,0.290318,-0.000018,-0.000031,0.000022,-0.000002,-0.000047,36.565461,0.000055,
2191,2323,-1.41447526984106,-7.02425053042575,-0.00284299274011346,0.000799,0.000793,-0.006037,0.055807,0.000332,326.040565,24.026049,0.998903,0.986813,0.004747,0.367884,-0.000012,-0.000038,-0.000004,-0.000012,-0.000039,-7.754452,0.000053,
2281,2758,0.465800807289952,2.47010158261611,-0.0304387950001797,0.000451,-0.000021,-0.000454,0.022245,-0.005626,318.535226,24.513996,0.999315,0.991130,0.003837,0.364871,-0.000020,-0.000009,0.000001,-0.000008,-0.000020,86.006601,0.000029,
2071,3298,-4.18019563664,14.1726425771495,0.0159312940030532,0.000682,0.000040,-0.001973,0.037249,0.012518,310.844523,24.245489,0.999469,0.995562,0.002938,0.407703,0.000010,0.000037,-0.000031,0.000057,-0.000010,-57.000357,0.000061,
2476,2713,4.72008713108178,1.49763908144464,-0.0293991383006755,0.000605,0.000290,-0.003453,0.041013,0.002427,319.405056,24.354879,0.999579,0.990920,0.004014,0.449430,-0.000062,0.000012,-0.000006,0.000013,-0.000062,-85.162685,0.000066,
2311,2863,1.10082897298557,4.75477778049029,-0.0117337980234993,0.000773,0.000029,-0.002295,0.043434,-0.001463,316.971725,24.747018,0.999670,0.992896,0.003538,0.373876,-0.000036,-0.000005,-0.000011,-0.000002,-0.000039,-72.712210,0.000047,
2431,2203,3.84492814806132,-9.65474693237334,0.0200732108100397,0.000646,0.000354,-0.003797,0.043688,-0.017208,328.004898,22.668789,0.999530,0.986216,0.004701,0.369613,-0.000037,-0.000015,-0.000016,-0.000006,-0.000046,-62.395457,0.000057,
2056,2038,-4.30982806512185,-13.2637574389667,0.012287997675628,0.001259,0.000843,-0.004770,0.071385,0.010578,331.335008,24.660151,0.998540,0.982358,0.005429,0.305137,0.000016,-0.000167,0.000011,0.000016,-0.000167,3.479064,0.000185,
2266,2803,0.132498330752654,3.4496395309774,-0.0310615360110091,0.001171,0.000769,-0.004628,0.069512,0.031103,317.866660,24.625869,0.999029,0.989181,0.004565,0.359330,-0.000019,-0.000018,-0.000002,-0.000016,-0.000020,-52.087464,0.000036,
2221,2578,-0.806316813762798,-1.45426768218945,-0.0251810885363852,0.000932,0.000450,-0.005544,0.060753,-0.002594,321.654347,24.232800,0.999238,0.990215,0.003955,0.389015,-0.000016,-0.000011,-0.000004,-0.000009,-0.000019,-61.362106,0.000028,
2206,2458,-1.11137121395516,-4.07355895266719,-0.0128451912144669,0.000879,0.000598,-0.005105,0.056719,0.010547,323.734734,24.130703,0.999065,0.986340,0.004859,0.381567,-0.000009,-0.000039,-0.000008,-0.000007,-0.000041,-13.815169,0.000051,
2026,2023,-4.96159333253476,-13.5922959453472,0.0158516512980214,0.001113,0.000998,-0.003037,0.059694,0.027351,331.766475,24.857081,0.998514,0.983396,0.005545,0.327641,0.000004,-0.000212,0.000027,0.000007,-0.000216,7.102039,0.000245,
2296,2833,0.779732809324347,4.10270490883062,-0.0215549210221866,0.000825,0.000437,-0.005312,0.056109,0.015225,317.404293,24.695331,0.999695,0.993475,0.003473,0.360723,-0.000026,-0.000008,-0.000002,-0.000008,-0.000026,-83.243607,0.000036,
2416,2173,3.52150745101987,-10.3101636127637,0.00163303627829237,0.000583,-0.000162,-0.002956,0.037402,-0.029603,328.305424,22.652345,0.998955,0.980714,0.005231,0.349330,-0.000033,-0.000015,-0.000017,-0.000005,-0.000043,-58.665349,0.000053,
2461,2458,4.44728244345025,-4.06964255763134,-0.00525633314674678,0.000839,0.001100,-0.007557,0.067332,0.026215,323.745343,23.514970,0.999333,0.987957,0.004497,0.374132,-0.000006,-0.000037,0.000012,-0.000002,-0.000041,19.186489,0.000049,
2176,2323,-1.74139147530645,-7.02346754407795,-0.00868306040058542,0.000894,0.001162,-0.008338,0.067219,0.013492,326.049752,24.088586,0.998662,0.984194,0.005131,0.375623,-0.000012,-0.000045,-0.000013,-0.000007,-0.000049,-18.528182,0.000061,
2086,1993,-3.64869968457363,-14.2522257091286,0.024791796274485,0.000599,0.001070,-0.005687,0.044147,0.035416,331.976217,24.509487,0.999103,0.984898,0.004985,0.275298,0.000046,-0.000149,0.000006,0.000046,-0.000149,1.894144,0.000153,
2356,3148,2.02788497123254,10.9468936855631,0.0230479240664181,0.000677,-0.000049,-0.001922,0.037914,-0.008185,312.583853,25.561821,0.999444,0.993089,0.003591,0.342770,-0.000012,-0.000005,0.000000,-0.000005,-0.000012,-88.849812,0.000017,
2071,2098,-3.99212244396346,-11.9491089267609,0.0234043685856591,0.000562,0.000502,-0.001216,0.029387,0.019771,330.343207,24.657123,0.998713,0.977912,0.005658,0.219335,-0.000003,-0.000028,0.000018,0.000007,-0.000038,27.656977,0.000041,
2341,3043,1.72058112814053,8.66719957224603,0.00141735492985617,0.000837,0.000201,-0.004615,0.054760,0.008103,314.139499,25.169480,0.999631,0.994035,0.003290,0.438110,-0.000028,-0.000018,-0.000003,-0.000017,-0.000028,-74.876112,0.000046,
2371,3268,2.32939452137972,13.5515407894996,0.00621984666867093,0.000620,0.000033,-0.002511,0.037550,0.002163,310.476133,25.903685,0.999617,0.994221,0.003216,0.393499,0.000009,-0.000008,0.000001,0.000009,-0.000008,2.709045,0.000010,
2131,2143,-2.69245258794986,-10.9642945996674,0.00843517622479339,0.000553,-0.000265,0.001226,0.021638,-0.006123,329.210237,24.172711,0.999032,0.984262,0.005121,0.345466,-0.000035,-0.000032,0.000011,-0.000023,-0.000044,49.121995,0.000069,
2101,2053,-3.33088424408946,-12.9359466372734,0.0202711591117009,0.000959,0.000865,-0.003337,0.053960,0.027064,330.915388,24.432945,0.998855,0.975401,0.006117,0.257843,-0.000013,-0.000068,0.000004,-0.000013,-0.000068,4.444874,0.000087,
2041,2113,-4.64778544552102,-11.6210899204939,0.0158556409068069,0.000986,0.000341,-0.006795,0.064178,-0.021450,330.240948,24.690504,0.998791,0.982424,0.005438,0.319617,-0.000025,-0.000048,0.000022,-0.000012,-0.000061,31.558599,0.000079,
2476,2728,4.71763165557067,1.82549984187389,-0.0265146987018738,0.000966,0.000182,-0.003499,0.057701,0.004259,319.200897,24.517361,0.999594,0.992262,0.003522,0.345346,-0.000066,0.000000,0.000004,0.000001,-0.000066,86.591291,0.000076,
2056,2053,-4.3114521149679,-12.9338909580639,0.00746137561941396,0.001943,0.001670,-0.008449,0.113353,0.027983,331.095933,24.678099,0.998112,0.978111,0.005929,0.302589,0.000010,-0.000106,0.000019,0.000013,-0.000109,8.940640,0.000119,
2026,2038,-4.96361580648061,-13.2657127335782,0.0242121575798251,0.000929,0.000004,-0.000169,0.043077,0.007350,331.580269,24.754717,0.998554,0.980003,0.005659,0.403546,-0.000007,-0.000207,0.000023,-0.000004,-0.000209,6.590606,0.000244,
2431,2218,3.8421927771566,-9.32674601433549,0.0255914557259871,0.000580,0.000034,-0.002079,0.034210,-0.020048,327.799290,22.712354,0.999511,0.986537,0.004710,0.375350,-0.000037,-0.000019,-0.000017,-0.000010,-0.000047,-58.899576,0.000060,
2086,2008,-3.65068565066541,-13.9237385523028,0.025587979551176,0.000839,0.000924,-0.005863,0.055621,0.027266,331.754359,24.473475,0.999362,0.987632,0.004674,0.305677,0.000036,-0.000125,0.000013,0.000037,-0.000126,4.492329,0.000129,
2161,2248,-2.05544882950464,-8.6643304216209,-0.00308474988969465,0.000995,0.000635,-0.006363,0.065300,0.004707,327.354229,24.100497,0.998763,0.980970,0.005201,0.350742,-0.000030,-0.000032,-0.000001,-0.000029,-0.000032,-32.483959,0.000062,
2236,2608,-0.48485465221307,-0.800243460451313,-0.024856251676681,0.001105,0.000604,-0.007078,0.073867,-0.011457,321.149315,24.227315,0.999097,0.987174,0.004566,0.409728,-0.000014,-0.000019,0.000000,-0.000014,-0.000019,-2.296398,0.000034,
2116,2143,-3.01901036910064,-10.9638011472215,0.00894417366475864,0.000735,0.000229,-0.001615,0.038552,-0.002280,329.294538,24.284540,0.998202,0.979752,0.005989,0.320554,-0.000041,-0.000029,0.000008,-0.000025,-0.000045,63.953340,0.000071,
2401,2038,3.22150431434516,-13.2736285645621,0.0230346316845953,0.000365,0.000758,-0.001849,0.023675,0.013145,330.627856,22.345545,0.998708,0.974351,0.006200,0.340751,-0.000050,-0.000045,0.000000,-0.000045,-0.000050,84.087674,0.000095,
2146,2203,-2.37525404270563,-9.64899323738436,-0.00247416692968727,0.000857,0.000181,-0.003820,0.050913,-0.002510,328.124316,24.158569,0.998670,0.979628,0.005546,0.322549,-0.000026,-0.000004,0.000008,-0.000002,-0.000029,71.587381,0.000035,
2461,2473,4.44353509092139,-3.74156092231819,-0.0109293363453844,0.000822,0.000503,-0.004799,0.055911,0.003355,323.443115,23.564766,0.999486,0.988670,0.004312,0.357322,-0.000021,-0.000049,0.000008,-0.000019,-0.000052,15.308996,0.000073,
2446,2458,4.11936995294504,-4.06976946020809,-0.00628138483750718,0.000534,0.001023,-0.004708,0.042455,0.036331,323.680492,23.545124,0.999215,0.987371,0.004569,0.392290,-0.000011,-0.000039,0.000013,-0.000006,-0.000044,21.778828,0.000055,
2251,2713,-0.177822720442744,1.48873108140057,-0.028657909049798,0.000879,0.000332,-0.003392,0.051655,0.013415,319.359830,24.395136,0.999380,0.992285,0.003615,0.418366,-0.000017,-0.000015,-0.000004,-0.000012,-0.000020,-50.204494,0.000032,
2191,2338,-1.41676203579485,-6.69638755370219,0.00786187259564031,0.000415,0.000264,-0.004521,0.033265,-0.021258,325.865118,24.163289,0.999632,0.990911,0.004121,0.225183,-0.000011,-0.000034,-0.000003,-0.000011,-0.000035,-6.359344,0.000047,
2071,2113,-3.99434511887192,-11.6202766402794,0.0183970214015972,0.000866,0.000312,-0.002175,0.046002,0.011800,330.077649,24.626918,0.998879,0.982886,0.005248,0.241709,-0.000008,-0.000040,0.000018,0.000000,-0.000047,23.802462,0.000055,
2041,2128,-4.65005400364845,-11.2918095146008,0.0117647271785017,0.001361,0.000322,-0.003888,0.073370,0.002012,329.975208,24.685342,0.998562,0.979460,0.005999,0.343928,-0.000039,-0.000053,0.000022,-0.000022,-0.000069,36.135469,0.000095,
2266,2818,0.130247182744558,3.77498395709992,-0.0229441506128296,0.001119,0.000623,-0.003277,0.062563,0.023896,317.683835,24.628981,0.999243,0.990553,0.004116,0.374452,-0.000015,-0.000010,-0.000003,-0.000009,-0.000016,-64.703848,0.000025,
2206,2473,-1.1142034031872,-3.74563807799264,-0.020470952151129,0.001026,0.000917,-0.006719,0.068676,-0.000819,323.440474,24.133293,0.999338,0.984861,0.005016,0.385673,-0.000007,-0.000028,0.000001,-0.000006,-0.000028,2.387042,0.000037,
2281,2773,0.463726189453791,2.79626478661461,-0.0240190380555418,0.000517,0.000082,-0.001871,0.030093,0.004241,318.352710,24.550609,0.999232,0.989890,0.004057,0.365702,-0.000020,-0.000010,-0.000001,-0.000010,-0.000020,-84.809010,0.000031,
2326,3028,1.39751150444732,8.341031200573,0.00219195628972102,0.000834,0.000282,-0.004696,0.054667,-0.006514,314.396519,25.169892,0.999578,0.992828,0.003477,0.340423,-0.000026,-0.000021,0.000004,-0.000019,-0.000029,61.761281,0.000048,
2101,2068,-3.33300815355061,-12.6083111758514,0.0227512851756728,0.001148,0.000484,-0.000976,0.055630,0.021141,330.697723,24.358156,0.999045,0.951185,0.008513,0.331252,-0.000017,-0.000046,0.000011,-0.000013,-0.000050,19.243552,0.000066,
2086,2023,-3.65434024053202,-13.5929320630334,0.0124468971311558,0.000421,0.000804,-0.004175,0.031553,0.012584,331.380590,24.503522,0.999058,0.984924,0.005138,0.264533,0.000014,-0.000133,0.000003,0.000014,-0.000133,1.103816,0.000146,
2416,2188,3.51992911436789,-9.98184029434261,0.0223587028892211,0.000502,0.000207,-0.000383,0.024438,0.006410,328.222515,22.838130,0.999314,0.984224,0.004916,0.249003,-0.000030,-0.000005,-0.000021,0.000007,-0.000042,-60.582250,0.000045,
2026,2053,-4.96615276738401,-12.9339213109293,0.0244250504826482,0.000565,0.000641,-0.000343,0.027042,0.025309,331.324261,25.002172,0.999706,0.993539,0.003469,0.167827,-0.000011,-0.000128,0.000029,-0.000004,-0.000135,13.431310,0.000158,
2221,2593,-0.809104087823798,-1.12685558948801,-0.0265972590973433,0.000996,0.000472,-0.003385,0.056784,0.012115,321.395206,24.260383,0.999127,0.988313,0.004323,0.395909,-0.000015,-0.000020,0.000001,-0.000015,-0.000021,10.602489,0.000036,
2056,2068,-4.31425678390606,-12.6051251657418,0.00697799313513769,0.001534,0.001109,-0.006409,0.088742,0.013451,330.827180,24.682139,0.998654,0.980135,0.005447,0.282189,0.000004,-0.000068,0.000025,0.000012,-0.000076,17.247822,0.000082,
2311,2878,1.09756818714549,5.08209257759255,-0.0208444696206698,0.000846,0.000226,-0.003916,0.052421,0.013310,316.659427,24.797505,0.999486,0.991547,0.003808,0.370328,-0.000036,-0.000011,-0.000007,-0.000009,-0.000037,-75.823383,0.000049,
2296,2848,0.776847470934701,4.42791701752165,-0.0192840868298276,0.000710,0.000358,-0.002614,0.041647,0.011328,317.164994,24.646717,0.999687,0.993605,0.003468,0.435059,-0.000027,-0.000002,-0.000004,-0.000001,-0.000028,-81.949799,0.000033,
2371,3283,2.32605741313631,13.8768049517369,0.00257682926286407,0.000524,0.000039,-0.001522,0.029569,-0.000318,310.191176,25.937392,0.999590,0.993690,0.003311,0.396670,0.000016,-0.000010,-0.000002,0.000017,-0.000011,-3.979565,0.000017,
2356,3163,2.02507349980405,11.2717000829259,0.0300243908838524,0.000362,-0.000035,0.000437,0.015190,0.012772,312.373942,25.559904,0.999449,0.992938,0.003698,0.403277,-0.000008,-0.000004,-0.000002,-0.000003,-0.000009,-63.079594,0.000013,
2131,2158,-2.69300633988077,-10.6364758525106,0.0225236767307706,0.000894,0.000806,-0.007576,0.063904,-0.025044,329.128462,24.283674,0.999722,0.991790,0.004067,0.223241,-0.000034,-0.000039,0.000006,-0.000029,-0.000043,34.146269,0.000073,
2116,2158,-3.02135052360542,-10.6344594588567,0.00022210966591274,0.001237,0.000089,-0.003042,0.065743,-0.022053,329.008057,24.291911,0.998879,0.985388,0.005100,0.299944,-0.000039,-0.000037,0.000002,-0.000035,-0.000041,60.949973,0.000076,
2476,2743,4.71380232295412,2.15228644862707,-0.030468278403589,0.000625,0.000097,-0.002185,0.037054,0.010207,318.902630,24.526827,0.999717,0.993090,0.003425,0.399074,-0.000067,-0.000007,-0.000002,-0.000007,-0.000067,-87.958900,0.000081,
2176,2338,-1.74492930143716,-6.69466067075613,-0.0111653801925513,0.000462,0.000437,-0.001972,0.027442,0.021689,325.747047,24.152999,0.999099,0.986701,0.004688,0.333884,-0.000010,-0.000041,-0.000011,-0.000006,-0.000044,-17.845869,0.000055,
2161,2263,-2.05909828248108,-8.33485096038615,-0.00980631603579241,0.000578,0.000148,-0.001721,0.031823,0.001745,327.022865,24.167082,0.998777,0.981442,0.005400,0.293924,-0.000027,-0.000038,-0.000003,-0.000027,-0.000039,-15.181440,0.000066,
2431,2233,3.83827229598146,-8.99648627764915,0.0206687380947415,0.000355,-0.000287,0.001700,0.009871,-0.002264,327.490635,22.838489,0.999221,0.983907,0.005102,0.319926,-0.000033,0.000000,-0.000010,0.000002,-0.000036,-74.498127,0.000040,
2341,3058,1.71746868534295,8.99258665883463,4.21458643700134E-05,0.000745,-0.000010,-0.003446,0.046323,-0.003111,313.874430,25.176029,0.999640,0.994894,0.003045,0.456117,-0.000029,-0.000019,-0.000001,-0.000019,-0.000029,-86.577433,0.000048,
2401,2053,3.2184041886673,-12.9423934121426,0.01658100714684,0.000795,0.000173,-0.000880,0.039592,0.012527,330.347600,22.492919,0.998952,0.978119,0.005949,0.241942,-0.000044,-0.000046,-0.000003,-0.000042,-0.000048,-33.456289,0.000090,
2446,2473,4.1164192493537,-3.74182254109436,-0.00247936240151603,0.000435,0.000884,-0.002807,0.030750,0.031739,323.456971,23.651566,0.999576,0.988798,0.004248,0.334613,-0.000021,-0.000049,0.000010,-0.000018,-0.000052,17.214282,0.000072,
2086,2038,-3.65627456198421,-13.2648769922074,0.0154696848786102,0.000491,0.000899,-0.005653,0.039040,0.014651,331.173164,24.454725,0.998946,0.984962,0.005150,0.317630,0.000005,-0.000127,0.000004,0.000006,-0.000127,1.753852,0.000144,
2236,2623,-0.487719560881647,-0.472908834055865,-0.0242866178596728,0.000873,0.000431,-0.006475,0.061223,-0.014067,320.897965,24.291827,0.999149,0.987213,0.004552,0.364450,-0.000014,-0.000017,0.000000,-0.000014,-0.000017,7.361470,0.000031,
2461,2488,4.44075286956323,-3.41417141077922,-0.00869865221261534,0.000915,0.000708,-0.004399,0.058782,0.013594,323.221204,23.595952,0.999535,0.987124,0.004479,0.391943,-0.000014,-0.000062,-0.000006,-0.000013,-0.000062,-7.536092,0.000081,
2146,2218,-2.3774040841913,-9.32107700878601,0.00579714229644424,0.000629,0.000611,-0.003175,0.038664,0.009926,327.939499,24.205295,0.998637,0.980615,0.005435,0.298148,-0.000026,-0.000007,0.000007,-0.000004,-0.000029,72.180600,0.000036,
2071,2128,-3.99691171715819,-11.2903181267337,0.0056329226233629,0.001113,0.000960,-0.006319,0.069350,0.013780,329.753848,24.611778,0.998980,0.985538,0.004995,0.259205,-0.000017,-0.000048,0.000018,-0.000009,-0.000056,24.941831,0.000071,
2326,3043,1.3948103652058,8.66623408322297,0.00714203052149287,0.000579,0.000145,-0.004436,0.042060,-0.003921,314.180335,25.182780,0.999639,0.993396,0.003413,0.363494,-0.000025,-0.000016,0.000005,-0.000014,-0.000027,65.994621,0.000042,
2266,2833,0.127112201095848,4.10176345329661,-0.0302846917197712,0.001080,0.000563,-0.005065,0.066663,0.014079,317.382235,24.653274,0.999194,0.991105,0.003951,0.365751,-0.000015,-0.000004,-0.000003,-0.000004,-0.000016,-77.311738,0.000021,
2101,2233,-3.36000061415272,-8.992302955591,-0.00165818101862669,0.001105,0.000651,-0.006092,0.068698,0.013499,327.857356,24.371534,0.998653,0.984744,0.005068,0.356231,-0.000026,-0.000007,-0.000002,-0.000007,-0.000026,-83.787833,0.000035,
2101,2083,-3.33682575316793,-12.2770987119508,-0.00183235344701416,0.001034,0.000904,-0.004104,0.059679,0.029736,330.256431,24.302126,0.999007,0.959076,0.007863,0.401338,-0.000021,-0.000024,0.000007,-0.000016,-0.000030,38.819325,0.000047,
2056,2083,-4.31735009139293,-12.2752990870295,-0.000955107366962693,0.001312,0.000886,-0.004186,0.072231,0.006541,330.504174,24.698700,0.998702,0.982288,0.005272,0.257059,-0.000002,-0.000028,0.000019,0.000008,-0.000039,27.793725,0.000041,
2251,2728,-0.180637637751335,1.81566186037579,-0.029718939526731,0.000769,0.000515,-0.003840,0.048124,0.014266,319.103528,24.438495,0.999279,0.991552,0.003751,0.399384,-0.000018,-0.000021,-0.000007,-0.000012,-0.000027,-38.440070,0.000040,
2191,2353,-1.41950959046953,-6.36998091350119,0.0051100820307397,0.000600,-0.000083,-0.001201,0.031255,-0.031754,325.599044,24.028482,0.999334,0.988451,0.004472,0.365790,-0.000015,-0.000025,-0.000005,-0.000013,-0.000027,-21.114092,0.000041,
2476,2758,4.71103330560097,2.47715061166158,-0.0171675762385917,0.000186,-0.000081,0.002567,-0.001198,0.021811,318.731802,24.495171,0.999606,0.991338,0.003713,0.498832,-0.000057,-0.000016,-0.000009,-0.000014,-0.000059,-77.855224,0.000077,
2311,2893,1.09443414905958,5.40895942936865,-0.0234819630995275,0.000740,0.000156,-0.003147,0.044880,-0.000437,316.384967,24.887896,0.999443,0.992424,0.003644,0.297943,-0.000035,-0.000021,-0.000003,-0.000020,-0.000035,-78.110817,0.000056,
2416,2203,3.51682348258386,-9.65322646112276,0.010388227844544,0.000836,0.000841,-0.006099,0.060864,0.001879,327.917359,22.751008,0.999291,0.983508,0.005144,0.382546,-0.000036,-0.000014,-0.000021,-0.000001,-0.000049,-58.796158,0.000058,
2371,3298,2.32271583897343,14.2025449856484,-0.00809896185103298,0.000881,-0.000034,-0.001694,0.046637,-0.001039,309.871964,25.979670,0.999630,0.993632,0.003354,0.393335,0.000018,-0.000016,-0.000006,0.000018,-0.000017,-9.108059,0.000020,
2206,2488,-1.11737202419056,-3.41695303962402,-0.0263527509170558,0.000847,0.000817,-0.006568,0.059969,0.005690,323.139520,24.209995,0.999239,0.986544,0.004730,0.333613,-0.000011,-0.000019,-0.000002,-0.000010,-0.000020,-11.569263,0.000030,
2221,2608,-0.811878872373452,-0.800022225994624,-0.0299455620749427,0.001018,0.000294,-0.003909,0.059426,-0.005647,321.126942,24.255589,0.998854,0.985542,0.004749,0.402692,-0.000014,-0.000024,0.000004,-0.000013,-0.000026,21.393581,0.000039,
2131,2173,-2.69671875469177,-10.3072644529081,0.00417521640179075,0.001005,0.000570,-0.004083,0.058480,-0.006250,328.729522,24.144219,0.999398,0.976755,0.005558,0.390786,-0.000034,-0.000021,0.000008,-0.000017,-0.000037,65.120743,0.000056,
2086,2158,-3.67504212269391,-10.6338611897636,-0.000122881587344637,0.001222,0.000220,-0.004215,0.068299,-0.019117,329.147521,24.469947,0.998949,0.985497,0.005001,0.286805,-0.000030,-0.000039,0.000004,-0.000029,-0.000041,20.548437,0.000070,
2296,2863,0.774163163192799,4.75511795310628,-0.0216883482723915,0.000896,0.000063,-0.003394,0.052760,-0.000576,316.911152,24.758288,0.999651,0.993522,0.003418,0.341304,-0.000032,-0.000004,-0.000009,-0.000001,-0.000034,-73.967167,0.000040,
2116,2173,-3.02341559605018,-10.3061648351977,0.0053094090390573,0.001006,0.000428,-0.006205,0.064593,-0.012566,328.808059,24.327489,0.998845,0.985565,0.005070,0.279788,-0.000039,-0.000021,0.000003,-0.000021,-0.000040,80.198889,0.000062,
2341,3073,1.71499942000384,9.31935917299012,-0.00064887160510807,0.000929,0.000151,-0.006475,0.065403,-0.008979,313.641786,25.313412,0.999631,0.994813,0.003030,0.348445,-0.000029,-0.000012,-0.000003,-0.000011,-0.000030,-81.907388,0.000042,
2401,2068,3.21421729094751,-12.6131612985141,0.00576056573362393,0.000292,0.000295,-0.001993,0.020642,0.009025,329.997175,22.418625,0.999297,0.981136,0.005819,0.362233,-0.000040,-0.000026,0.000002,-0.000025,-0.000041,80.831642,0.000067,
2356,3178,2.0224800184671,11.5973113989061,0.02962061338377,0.000583,0.000139,-0.000498,0.028651,0.007856,312.138076,25.617066,0.999509,0.993292,0.003561,0.378810,-0.000005,-0.000004,-0.000003,-0.000002,-0.000007,-51.533421,0.000010,
2086,2053,-3.65752426537681,-12.9359760222587,0.0230787843048006,0.001065,0.000960,-0.005578,0.065176,0.031093,331.021617,24.524649,0.998507,0.981453,0.005530,0.266180,0.000002,-0.000083,0.000014,0.000004,-0.000085,9.064408,0.000096,
2281,2788,0.461531279471078,3.12276357667123,-0.0223638931855135,0.000828,0.000238,-0.003082,0.048499,0.006134,318.140778,24.592606,0.999084,0.988735,0.004270,0.353395,-0.000020,-0.000010,0.000000,-0.000010,-0.000020,-88.255951,0.000031,
2101,2098,-3.33807090393907,-11.9474443004452,0.0168240926546446,0.001012,0.000640,-0.003076,0.055589,0.024246,330.165616,24.599692,0.999407,0.958020,0.008032,0.101918,-0.000022,-0.000022,0.000008,-0.000014,-0.000030,45.054519,0.000045,
2326,3058,1.39163350050268,8.99181136856554,0.00591233043434158,0.000495,-0.000007,-0.001814,0.029103,0.002114,313.911822,25.189976,0.999678,0.994469,0.003110,0.395872,-0.000027,-0.000018,0.000006,-0.000014,-0.000030,62.929265,0.000045,
2101,2248,-3.36287811367921,-8.66469309925375,-0.000370623706942297,0.000731,0.000150,-0.002337,0.040419,-0.005141,327.598962,24.358162,0.998693,0.987062,0.004884,0.354768,-0.000026,-0.000008,-0.000004,-0.000007,-0.000026,-78.418194,0.000035,
2176,2353,-1.74736485711568,-6.36728539299195,-0.0104034026124395,0.000646,0.000190,0.000621,0.027829,0.009793,325.512064,24.143506,0.998672,0.982928,0.005276,0.345521,-0.000015,-0.000032,-0.000011,-0.000010,-0.000038,-27.033692,0.000050,
2476,2773,4.70776143879133,2.80616320404562,-0.0306987215251979,0.000700,-0.000083,-0.002287,0.040796,-0.002262,318.415102,24.673058,0.999271,0.988739,0.004111,0.353778,-0.000060,-0.000030,-0.000015,-0.000024,-0.000067,-67.207029,0.000094,
2416,2218,3.51301579890648,-9.3232539613871,0.00711157874366108,0.000475,0.000502,-0.003318,0.034063,0.004438,327.620269,22.878545,0.999371,0.985163,0.004973,0.308002,-0.000034,-0.000020,-0.000021,-0.000005,-0.000049,-54.925094,0.000060,
2386,1993,2.90345009095082,-14.2624484330618,0.0337672794285027,0.000545,0.000761,-0.004182,0.040136,0.021867,331.442842,22.347912,0.998712,0.963483,0.007160,0.305975,-0.000039,-0.000047,0.000011,-0.000031,-0.000055,35.433400,0.000087,
2191,2368,-1.42216943617426,-6.04046742637918,-0.0017658887431935,0.000936,0.000501,-0.001325,0.047296,0.005688,325.314771,24.095291,0.999407,0.989129,0.004434,0.352837,-0.000015,-0.000015,-0.000006,-0.000009,-0.000022,-44.820515,0.000032,
2266,2848,0.124666730245675,4.42705221214624,-0.0201056183414039,0.000870,0.000201,-0.001175,0.044028,0.011110,317.200815,24.670016,0.999476,0.993068,0.003619,0.371047,-0.000018,0.000001,-0.000002,0.000001,-0.000019,-83.376280,0.000021,
2401,2083,3.21299756629444,-12.2846656373967,0.0183239911588089,0.000758,0.000603,-0.004980,0.052894,-0.003779,329.892396,22.550806,0.998967,0.978027,0.006000,0.265057,-0.000037,-0.000025,0.000000,-0.000025,-0.000037,88.725505,0.000063,
2461,2503,4.4373494291169,-3.08658586595356,-0.00867277633807362,0.000504,0.000601,-0.004840,0.041537,0.012205,322.960624,23.641356,0.999466,0.987848,0.004305,0.400910,-0.000015,-0.000064,-0.000011,-0.000013,-0.000066,-11.989435,0.000085,
2446,2488,4.11362182525143,-3.41607232354683,0.00154139912086748,0.000508,0.000196,-0.000287,0.024433,0.000701,323.241877,23.589395,0.999415,0.987592,0.004405,0.418953,-0.000011,-0.000059,-0.000004,-0.000011,-0.000059,-4.410836,0.000076,
2056,2098,-4.3193783155341,-11.9481674899594,0.00593450560216979,0.001168,0.000537,-0.003003,0.062207,0.000366,330.311555,24.637570,0.998825,0.981739,0.005334,0.309787,-0.000004,-0.000032,0.000019,0.000006,-0.000042,26.944758,0.000046,
2236,2638,-0.490217723923596,-0.145759464468831,-0.0239224868474253,0.001110,0.000676,-0.004597,0.066158,0.007170,320.662337,24.318357,0.999031,0.988394,0.004440,0.380974,-0.000011,-0.000010,0.000004,-0.000006,-0.000014,48.029930,0.000021,
2071,2143,-3.99923364407361,-10.9622356344282,0.0100499616154366,0.000970,0.000888,-0.003454,0.054584,0.045107,329.535080,24.587939,0.998978,0.985653,0.005023,0.313924,-0.000025,-0.000028,0.000015,-0.000012,-0.000041,41.737020,0.000056,
2161,2278,-2.06108732928655,-8.0076883441796,-0.00141291341702754,0.000534,0.000232,-0.001005,0.027667,0.013474,326.847155,24.166176,0.998351,0.979341,0.005860,0.318467,-0.000024,-0.000042,-0.000009,-0.000020,-0.000046,-23.098074,0.000068,
2086,2173,-3.67724394970763,-10.3061688785623,0.00655691877580011,0.001021,0.000144,-0.002391,0.053784,0.009152,328.947731,24.448238,0.998973,0.985715,0.004861,0.338467,-0.000034,-0.000024,0.000004,-0.000022,-0.000036,70.159772,0.000058,
2146,2233,-2.38017167148898,-8.99276191247692,0.0044608352681621,0.000441,0.000588,-0.002269,0.027289,0.021920,327.675620,24.193868,0.998868,0.982167,0.005162,0.332209,-0.000026,-0.000020,0.000002,-0.000020,-0.000027,69.995194,0.000047,
2296,2878,0.771341418965712,5.08084520571162,-0.0220237522610205,0.000774,0.000363,-0.004299,0.050297,0.003490,316.661602,24.738286,0.999618,0.993013,0.003508,0.394968,-0.000030,-0.000010,-0.000006,-0.000008,-0.000032,-74.988617,0.000042,
2101,2113,-3.34017900219169,-11.6224425148465,0.0235817257053554,0.000759,0.000420,-0.003411,0.044909,-0.005456,329.972283,24.371066,0.999194,0.979366,0.005635,0.304891,-0.000023,-0.000030,0.000009,-0.000016,-0.000036,35.023190,0.000054,
2221,2623,-0.815160334782266,-0.473019159553282,-0.0294001762050016,0.000420,-0.000024,-0.002231,0.026411,-0.012622,320.855299,24.294027,0.999018,0.986904,0.004641,0.376733,-0.000015,-0.000024,0.000005,-0.000013,-0.000026,22.985656,0.000039,
2476,2788,4.70486077918864,3.13316755005189,-0.0291853398554736,0.000683,0.000263,-0.002779,0.042030,0.009356,318.184066,24.753760,0.999286,0.987658,0.004227,0.341072,-0.000060,-0.000031,-0.000021,-0.000020,-0.000071,-61.872649,0.000095,
2251,2743,-0.182880660478663,2.14170435983205,-0.0234522811871329,0.000997,-0.000043,-0.000237,0.046609,-0.005311,318.910816,24.483623,0.999147,0.989971,0.004083,0.358124,-0.000017,-0.000021,-0.000007,-0.000011,-0.000026,-36.884825,0.000038,
2131,2188,-2.69846181646954,-9.97871712257854,0.0145441230833967,0.000934,0.000670,-0.004889,0.057687,0.004136,328.573374,24.262437,0.999166,0.984257,0.005052,0.290715,-0.000032,-0.000009,0.000007,-0.000007,-0.000034,75.563907,0.000044,
2086,2068,-3.66126843464677,-12.6064168502944,0.0100680498222232,0.000447,0.000716,-0.005465,0.036471,0.003603,330.644705,24.474755,0.998681,0.962314,0.007477,0.291777,-0.000002,-0.000056,0.000020,0.000004,-0.000063,18.407792,0.000071,
2356,3193,2.01958248139933,11.9234477170922,0.0216767811292584,0.000879,0.000236,-0.004062,0.054928,0.005206,311.851507,25.680104,0.999491,0.992890,0.003547,0.350675,-0.000003,-0.000003,-0.000001,-0.000001,-0.000005,-52.746704,0.000006,
2416,2233,3.51024275415822,-8.99534174565976,0.0118518083401113,0.000503,0.000112,-0.000400,0.024555,0.010690,327.408116,22.902525,0.999415,0.986272,0.004837,0.340427,-0.000032,-0.000004,-0.000014,0.000002,-0.000038,-66.759076,0.000042,
2341,3088,1.71187081322773,9.64497911434477,-0.00218833255513573,0.000929,0.000156,-0.004053,0.056992,-0.000352,313.374971,25.328949,0.999636,0.994871,0.002991,0.377127,-0.000026,-0.000009,-0.000006,-0.000007,-0.000027,-72.025225,0.000036,
2431,2248,3.83473151250501,-8.66641789920282,0.00851265753357211,0.000471,0.000364,-0.002105,0.029473,0.033259,327.165777,22.860980,0.999030,0.981886,0.005372,0.385755,-0.000031,-0.000001,-0.000012,0.000003,-0.000035,-70.880666,0.000039,
2311,2908,1.09222985410791,5.73397711226649,-0.0136677329928716,0.000456,0.000193,-0.004687,0.037031,-0.018057,316.215105,24.906201,0.999511,0.993249,0.003543,0.293452,-0.000034,-0.000022,-0.000001,-0.000022,-0.000034,-86.493948,0.000057,
2116,2188,-3.02626017793196,-9.97719720533927,0.00101244979674675,0.000908,0.000578,-0.004672,0.055639,0.003960,328.522081,24.323363,0.998810,0.983762,0.005169,0.306915,-0.000039,-0.000009,0.000002,-0.000009,-0.000039,86.058633,0.000051,
2176,2368,-1.74945371816306,-6.03909301990684,-0.0133272143951899,0.001063,0.000461,-0.002234,0.055884,0.006747,325.273494,24.168991,0.999011,0.988034,0.004573,0.331149,-0.000016,-0.000017,-0.000011,-0.000005,-0.000028,-43.442442,0.000035,
2461,2518,4.43481265798199,-2.75912808523795,-0.00485890694636737,0.000695,0.000665,-0.004677,0.049733,0.017693,322.757075,23.707034,0.999275,0.985570,0.004464,0.396096,-0.000024,-0.000054,-0.000012,-0.000020,-0.000058,-19.382591,0.000081,
2386,2008,2.90002192695792,-13.9316061355667,0.0258753718935623,0.000641,0.000419,-0.004161,0.044349,0.001089,331.139600,22.444402,0.998764,0.973439,0.006192,0.235873,-0.000037,-0.000053,0.000000,-0.000037,-0.000053,0.981091,0.000090,
2206,2503,-1.11959202510733,-3.09118329748938,-0.0180587907038898,0.000865,0.000351,-0.002919,0.049103,0.004992,322.955767,24.161162,0.999442,0.989190,0.004260,0.399493,-0.000008,-0.000020,-0.000002,-0.000008,-0.000020,-8.656746,0.000029,
2101,2263,-3.36561176133752,-8.33779526377512,0.0043376647029163,0.000423,-0.000855,0.003602,0.008631,-0.041708,327.365799,24.337448,0.998735,0.985323,0.005006,0.342298,-0.000024,-0.000017,-0.000003,-0.000016,-0.000025,-70.637609,0.000041,
2056,2113,-4.32166836311833,-11.620459385945,0.00449803395639492,0.001073,0.000128,-0.005183,0.063848,-0.043119,330.061430,24.580057,0.998841,0.983513,0.005316,0.321701,-0.000008,-0.000046,0.000021,0.000002,-0.000056,23.793808,0.000064,
2446,2503,4.11044166103434,-3.08758615781579,-0.00613935387815445,0.000659,0.000268,-0.003998,0.045226,-0.002462,322.954761,23.648157,0.999500,0.989558,0.004117,0.410402,-0.000013,-0.000061,-0.000007,-0.000012,-0.000062,-8.043219,0.000079,
2236,2653,-0.493255024279254,0.180703098286443,-0.0101644984864606,0.000202,-0.000098,0.002041,0.002666,0.004468,320.470400,24.422763,0.999220,0.990499,0.004231,0.294927,-0.000007,-0.000004,0.000008,0.000003,-0.000014,49.492201,0.000014,
2401,2098,3.20946467169049,-11.9553033566744,0.0154875355335093,0.000603,0.000279,-0.002075,0.035203,0.000984,329.609195,22.579808,0.998826,0.974954,0.006329,0.289814,-0.000041,-0.000031,-0.000009,-0.000026,-0.000046,-60.002481,0.000073,
2281,2803,0.458151052300028,3.45008390126491,-0.027814613713474,0.000697,0.000215,-0.001299,0.036511,0.018124,317.838636,24.649783,0.999141,0.989659,0.004197,0.335892,-0.000023,-0.000017,0.000000,-0.000017,-0.000023,-87.786974,0.000040,
2071,2158,-4.00221935383066,-10.6344709016865,0.00781329150748888,0.000389,0.000607,-0.003605,0.028271,0.022248,329.250073,24.522986,0.999088,0.986045,0.004933,0.355822,-0.000031,-0.000039,0.000002,-0.000030,-0.000040,14.878488,0.000070,
2221,2638,-0.817918390907888,-0.145436888138761,-0.0399996813571875,0.000718,0.000676,-0.006316,0.053496,0.006683,320.550268,24.269648,0.998875,0.988017,0.004620,0.440300,-0.000012,-0.000015,0.000009,-0.000005,-0.000023,39.857782,0.000029,
2086,2188,-3.6798332453981,-9.97795152347259,0.00790587536550902,0.000776,0.000034,-0.000508,0.037110,0.005841,328.701427,24.454169,0.998789,0.984815,0.005095,0.330924,-0.000033,-0.000010,0.000004,-0.000009,-0.000033,80.010105,0.000045,
2476,2803,4.70156740004415,3.46011578111531,-0.029079279374173,0.000547,0.000305,-0.001392,0.030545,0.010018,317.928517,24.833729,0.999271,0.986745,0.004485,0.318253,-0.000059,-0.000038,-0.000020,-0.000026,-0.000071,-58.859714,0.000101,
2296,2893,0.76877592866358,5.40740966111525,-0.0218241912481858,0.000720,0.000729,-0.007285,0.058038,0.007838,316.426203,24.803185,0.999587,0.993015,0.003438,0.364094,-0.000030,-0.000019,-0.000003,-0.000018,-0.000031,-77.513388,0.000049,
2326,3073,1.38920757530685,9.31842130868181,0.00754358363479923,0.000694,0.000263,-0.002584,0.041005,0.006573,313.691499,25.316363,0.999738,0.995541,0.002776,0.307312,-0.000026,-0.000011,0.000004,-0.000010,-0.000027,76.018353,0.000039,
2356,3208,2.0170046558109,12.248135402817,0.0249440581523572,0.000857,0.000252,-0.004664,0.056052,0.005197,311.634316,25.676768,0.999461,0.993429,0.003438,0.391562,-0.000002,-0.000005,0.000000,-0.000002,-0.000005,-7.120043,0.000007,
2461,2533,4.43161112504072,-2.43072013891376,-0.0101599496985045,0.000904,0.000627,-0.005419,0.062083,0.007944,322.481177,23.797903,0.999516,0.988901,0.004065,0.350853,-0.000019,-0.000059,-0.000011,-0.000016,-0.000062,-14.513141,0.000082,
2191,2383,-1.42535577397206,-5.71312843639706,-0.00190996074525174,0.000552,0.000056,0.002529,0.017434,-0.003187,325.041899,24.080408,0.999171,0.988352,0.004546,0.375236,-0.000015,-0.000013,-0.000005,-0.000009,-0.000019,-51.936693,0.000029,
2446,2518,4.10690263305299,-2.75885867872277,-0.0142388881548072,0.000575,0.000864,-0.006593,0.051259,0.019242,322.649017,23.706428,0.999261,0.987480,0.004404,0.427404,-0.000018,-0.000051,-0.000008,-0.000016,-0.000053,-12.340738,0.000072,
2056,2128,-4.32403135090198,-11.2903095456468,0.000135981886330683,0.001404,0.000057,-0.002416,0.071247,-0.012790,329.791102,24.645476,0.998810,0.983440,0.005385,0.284160,-0.000017,-0.000054,0.000023,-0.000006,-0.000065,25.974639,0.000079,
2146,2248,-2.38265021841799,-8.66429292681402,0.0012657055894465,0.000559,0.000693,-0.002993,0.034930,0.030159,327.415112,24.186509,0.998843,0.982607,0.005185,0.358049,-0.000028,-0.000030,0.000000,-0.000028,-0.000030,-10.926280,0.000058,
2101,2128,-3.34313803492858,-11.2933527305137,0.0147124103621081,0.000503,0.000507,-0.006513,0.042210,-0.029036,329.655263,24.344570,0.999112,0.988076,0.004774,0.312567,-0.000028,-0.000037,0.000011,-0.000020,-0.000045,33.886033,0.000067,
2086,2083,-3.6657334220015,-12.2728152739942,-0.0267971935878109,0.000732,0.000863,-0.003773,0.044719,0.028305,330.104674,24.485822,0.999037,0.949419,0.008822,0.309367,-0.000008,-0.000029,0.000015,-0.000001,-0.000036,27.403513,0.000043,
2176,2383,-1.75180835116175,-5.71211647940688,-0.0146667269261229,0.001332,0.000354,-0.001695,0.066521,-0.000106,325.031279,24.107840,0.998959,0.989565,0.004460,0.399394,-0.000018,-0.000012,-0.000009,-0.000005,-0.000025,-53.561390,0.000032,
2386,2023,2.89675481257522,-13.6018996415782,0.0197431058222151,0.000730,0.000354,-0.004375,0.049169,-0.026486,330.852082,22.470687,0.998785,0.972546,0.006459,0.228991,-0.000036,-0.000036,0.000003,-0.000033,-0.000039,43.005475,0.000072,
2161,2293,-2.06286411538958,-7.6795545776655,-0.00588367409375223,0.001027,0.001148,-0.008329,0.072970,0.016786,326.613455,24.137017,0.998619,0.983064,0.005318,0.363156,-0.000022,-0.000040,-0.000011,-0.000017,-0.000045,-25.265023,0.000064,
2131,2203,-2.70220048742915,-9.64959081776311,0.0033660216410567,0.000578,0.000168,-0.001098,0.029847,0.001842,328.211425,24.224936,0.998629,0.980955,0.005410,0.334844,-0.000025,-0.000002,0.000005,-0.000001,-0.000026,78.917563,0.000031,
2416,2248,3.5076926863954,-8.66642177894373,0.0119164075874778,0.000642,0.000895,-0.003565,0.042743,0.051032,327.184063,22.941044,0.999185,0.984414,0.005075,0.392182,-0.000029,-0.000005,-0.000014,0.000001,-0.000036,-65.064387,0.000041,
2251,2758,-0.18679611038397,2.46940869364593,-0.033851409482736,0.000673,-0.000178,0.002273,0.023399,-0.010884,318.556464,24.539663,0.999156,0.990265,0.004075,0.320042,-0.000019,-0.000014,-0.000004,-0.000011,-0.000021,-59.285875,0.000033,
2266,2863,0.122863359523713,4.75185231776427,-0.00513780422562604,0.000724,0.000099,-0.000487,0.034975,0.009507,317.073103,24.678735,0.999746,0.994597,0.003293,0.385724,-0.000024,0.000002,-0.000007,0.000004,-0.000026,-75.314367,0.000028,
2431,2263,3.83111371241485,-8.33496506398377,-0.00856500271009963,0.000932,0.001386,-0.005704,0.064268,0.045511,326.814460,22.990070,0.999006,0.981461,0.005458,0.321658,-0.000032,-0.000008,-0.000022,0.000005,-0.000045,-59.518168,0.000049,
2311,2923,1.08962307468637,6.05964383791812,-0.0158051999771942,0.000849,0.000469,-0.003729,0.051978,0.003831,315.967545,24.862493,0.999186,0.991626,0.003808,0.390995,-0.000033,-0.000025,0.000001,-0.000025,-0.000033,84.025681,0.000058,
2206,2518,-1.12241177640772,-2.76379001067026,-0.0225245474671283,0.000820,0.000528,-0.004370,0.051694,0.017394,322.678318,24.136738,0.999364,0.989383,0.004221,0.454068,-0.000009,-0.000029,0.000000,-0.000009,-0.000029,1.294808,0.000039,
2071,2173,-4.00442961272874,-10.3066343323884,0.0138576795479821,0.000452,-0.000122,0.002298,0.014150,0.022040,329.045513,24.535202,0.998998,0.986598,0.004855,0.343071,-0.000035,-0.000024,0.000001,-0.000024,-0.000035,85.630182,0.000059,
2236,2668,-0.495401016748719,0.50743558712449,-0.0119670822503508,0.000445,0.000511,-0.003138,0.030802,0.014878,320.239980,24.411997,0.999353,0.991776,0.003878,0.337869,-0.000006,-0.000004,0.000001,-0.000004,-0.000007,68.507859,0.000011,
2356,3223,2.01355539343772,12.5737702508585,0.0246464753913074,0.000496,0.000123,-0.001957,0.029839,0.004722,311.359369,25.744330,0.999407,0.993607,0.003346,0.360908,-0.000003,0.000000,0.000000,0.000000,-0.000003,-83.919290,0.000003,
2116,2203,-3.02864428771038,-9.64879222673611,0.00178694508906574,0.000943,0.000737,-0.003129,0.052777,0.008109,328.284438,24.339080,0.998354,0.979972,0.005481,0.301424,-0.000032,-0.000003,0.000001,-0.000003,-0.000032,88.447256,0.000039,
2476,2818,4.69880534592108,3.78596733743093,-0.0255735565035025,0.000548,0.000239,-0.001291,0.030214,0.019878,317.713017,24.833850,0.999311,0.988219,0.004428,0.384795,-0.000066,-0.000042,-0.000019,-0.000032,-0.000076,-60.950416,0.000111,
2221,2653,-0.820079168438173,0.180506336903846,-0.0333840857090308,0.000886,0.000219,-0.003596,0.052355,-0.001662,320.361358,24.272878,0.999192,0.990071,0.004243,0.447947,-0.000009,-0.000006,0.000013,0.000005,-0.000021,47.861010,0.000021,
2086,2098,-3.66720448061264,-11.9453743447357,-0.00802959576941475,0.000595,0.000222,-0.000382,0.028465,0.003077,330.003958,24.604130,0.999035,0.967483,0.006883,0.167441,-0.000011,-0.000026,0.000015,-0.000002,-0.000035,31.227140,0.000042,
2401,2113,3.20679533558976,-11.6263148830281,0.0219527197231741,0.000427,0.000539,-0.000997,0.023334,0.031735,329.409026,22.655713,0.998884,0.976992,0.005969,0.292977,-0.000042,-0.000029,-0.000011,-0.000023,-0.000048,-61.241098,0.000072,
2056,2143,-4.32640231149874,-10.9630850644147,0.008459684272907,0.000936,0.000258,0.000442,0.041815,0.000149,329.590659,24.603767,0.998856,0.985248,0.005229,0.336330,-0.000022,-0.000027,0.000024,-0.000001,-0.000048,42.377624,0.000056,
2341,3103,1.71013779107075,9.96967905820161,0.0127820562382794,0.000897,0.000165,-0.003855,0.054813,0.000651,313.252997,25.375116,0.999584,0.994164,0.003247,0.367554,-0.000020,-0.000002,-0.000003,-0.000001,-0.000021,-82.464466,0.000024,
2416,2263,3.504731506239,-8.33750915399837,0.0110226118146102,0.000764,0.000877,-0.002813,0.045622,0.038029,326.936869,23.027712,0.999073,0.984386,0.005067,0.342558,-0.000030,-0.000012,-0.000021,0.000002,-0.000044,-56.859019,0.000049,
2101,2143,-3.34590333751951,-10.9641273550334,0.0128451903561881,0.000735,-0.000222,0.001886,0.028147,-0.007623,329.384517,24.367332,0.998762,0.984514,0.005243,0.315630,-0.000034,-0.000030,0.000009,-0.000023,-0.000041,50.386185,0.000065,
2431,2278,3.82781657080453,-8.00870102311934,-0.00294178563842706,0.000530,0.000511,-0.000963,0.028021,0.015775,326.583606,22.924210,0.998995,0.979357,0.005777,0.409884,-0.000035,-0.000003,-0.000018,0.000005,-0.000043,-66.256119,0.000047,
2296,2908,0.766548435604523,5.73270238054103,-0.0124780717086992,0.000709,0.000315,-0.005103,0.050012,0.000006,316.252090,24.833309,0.999560,0.993513,0.003372,0.355543,-0.000029,-0.000022,-0.000002,-0.000021,-0.000030,-77.911494,0.000051,
2101,2278,-3.36749979108272,-8.00893585497194,-0.00150707257472504,0.000800,0.000109,-0.003564,0.047171,-0.013373,327.113737,24.328742,0.998634,0.983895,0.005164,0.383042,-0.000017,-0.000028,-0.000006,-0.000015,-0.000030,-23.798862,0.000046,
2146,2263,-2.38527241345946,-8.33528500269911,-0.00360013593007125,0.000793,0.000491,-0.001557,0.041290,0.018104,327.139183,24.237231,0.998846,0.983512,0.005248,0.305689,-0.000026,-0.000039,-0.000004,-0.000025,-0.000040,-15.067334,0.000065,
2176,2398,-1.75416466491947,-5.3841567533176,-0.0119453123166977,0.001157,0.000718,-0.003723,0.064934,0.035261,324.809808,24.138527,0.998892,0.987412,0.004708,0.417816,-0.000016,-0.000008,-0.000012,0.000000,-0.000024,-54.706915,0.000028,
2191,2398,-1.42774853998354,-5.38560439991126,0.00178895915200883,0.000075,0.000654,-0.002703,0.012136,0.019315,324.825108,24.092786,0.999127,0.986899,0.004837,0.401378,-0.000014,-0.000009,-0.000007,-0.000004,-0.000019,-55.656729,0.000025,
2386,2038,2.89367852454568,-13.2719141326562,0.0157865068422893,0.000823,0.000720,-0.004794,0.055043,0.007169,330.583143,22.492029,0.998950,0.976447,0.006026,0.288259,-0.000036,-0.000043,0.000002,-0.000035,-0.000043,17.045743,0.000079,
2251,2773,-0.18863714845719,2.79458833048516,-0.0243022199723555,0.000566,0.000152,-0.001063,0.029520,-0.019047,318.398974,24.528147,0.999266,0.989978,0.004001,0.346378,-0.000018,-0.000014,-0.000005,-0.000010,-0.000021,-57.557269,0.000032,
2356,3238,2.01050576138062,12.8990396205451,0.0207777704717387,0.000503,0.000173,-0.003232,0.034672,0.009157,311.085616,25.756825,0.999519,0.993695,0.003243,0.390275,-0.000003,-0.000006,-0.000001,-0.000003,-0.000007,-14.999684,0.000010,
2071,2188,-4.00658568757735,-9.97788331448431,0.00422739044745413,0.001001,0.000238,-0.000508,0.047463,0.010826,328.757835,24.481194,0.998787,0.985837,0.005141,0.385399,-0.000033,-0.000011,0.000002,-0.000011,-0.000033,84.942644,0.000046,
2236,2683,-0.49835580883736,0.834606185971801,-0.021012763056774,0.000665,0.000701,-0.004507,0.045413,0.013410,319.935453,24.398541,0.999313,0.990563,0.003975,0.371712,-0.000009,-0.000001,0.000000,-0.000001,-0.000009,-87.247728,0.000011,
2131,2218,-2.70473375962545,-9.32096134041034,0.00220485966281103,0.000432,0.000405,-0.002486,0.027370,-0.005608,327.957921,24.257918,0.998325,0.979964,0.005561,0.302709,-0.000025,-0.000002,0.000003,-0.000001,-0.000025,81.484463,0.000030,
2281,2818,0.456052253269753,3.77495963802911,-0.0173699368942835,0.000495,0.000044,-0.001997,0.029487,-0.001114,317.675437,24.639532,0.999264,0.990328,0.003922,0.354425,-0.000019,-0.000013,-0.000002,-0.000013,-0.000020,-76.658282,0.000032,
2446,2533,4.10440101981672,-2.42956176171047,-0.0149643808508131,0.001040,0.001131,-0.007891,0.077544,0.025533,322.424720,23.904157,0.999331,0.988170,0.004370,0.289287,-0.000014,-0.000057,-0.000009,-0.000013,-0.000059,-11.012370,0.000077,
2461,2548,4.42845023026878,-2.10285006251693,-0.00767236477781807,0.000743,0.000319,-0.003348,0.046785,-0.001015,322.242714,23.913398,0.999744,0.992301,0.003609,0.281878,-0.000019,-0.000064,-0.000009,-0.000017,-0.000065,-10.618079,0.000087,
2086,2113,-3.66773444805316,-11.6197491550455,0.00517004949546163,0.001192,0.000284,-0.005577,0.070826,-0.027887,329.916416,24.504740,0.998984,0.984581,0.005021,0.237232,-0.000014,-0.000036,0.000015,-0.000006,-0.000044,27.499669,0.000054,
2086,2203,-3.68242847142327,-9.6490819839545,0.00327512256490081,0.000700,0.000211,-0.001905,0.037683,-0.000329,328.422334,24.464973,0.998520,0.982451,0.005305,0.315831,-0.000024,0.000000,0.000003,0.000001,-0.000024,83.083532,0.000027,
2221,2668,-0.822703688374215,0.507320806260395,-0.0268913078528499,0.000608,0.000089,-0.000814,0.030603,0.003156,320.150276,24.345646,0.999455,0.993704,0.003579,0.399118,-0.000009,-0.000004,0.000006,0.000000,-0.000013,57.443107,0.000015,
2116,2218,-3.03105535873914,-9.32007958619482,-0.00128580153045732,0.000849,0.001007,-0.007096,0.060212,0.015011,328.024901,24.345297,0.998417,0.981418,0.005441,0.307971,-0.000033,-0.000002,-0.000001,-0.000002,-0.000033,-88.873839,0.000039,
2101,2158,-3.34803554936388,-10.6356379111325,0.0194871178872518,0.000544,0.000140,0.002329,0.018211,0.015254,329.188624,24.417786,0.998747,0.984445,0.005276,0.291902,-0.000033,-0.000038,0.000002,-0.000033,-0.000039,17.126130,0.000072,
2056,2158,-4.328922508802,-10.6331380047776,0.00315386462295919,0.000869,0.000447,-0.001700,0.044792,0.022996,329.308070,24.659184,0.999103,0.986985,0.004821,0.301471,-0.000030,-0.000039,0.000011,-0.000023,-0.000046,33.352918,0.000070,
2206,2533,-1.1245528942033,-2.43635209992871,-0.0159086023249984,0.000732,0.000607,-0.005222,0.050403,0.021658,322.489107,24.228914,0.999543,0.990394,0.003942,0.383926,-0.000012,-0.000029,0.000002,-0.000011,-0.000029,5.550818,0.000042,
2416,2278,3.50121322258893,-8.00966321219593,0.00897535517714232,0.000704,-0.000202,0.001475,0.026772,-0.011451,326.658968,23.047025,0.999118,0.984867,0.004936,0.323663,-0.000031,-0.000004,-0.000015,0.000003,-0.000037,-66.690457,0.000042,
2311,2938,1.08698025000967,6.38547717092698,-0.0138991509745665,0.000940,0.000252,-0.002355,0.051446,0.016376,315.738189,24.876516,0.999051,0.990115,0.004061,0.421212,-0.000028,-0.000019,-0.000001,-0.000019,-0.000028,-86.550623,0.000048,
2326,3088,1.38681435986659,9.64234472454658,0.014186593605416,0.000680,0.000099,-0.001500,0.036551,0.002787,313.498073,25.239088,0.999669,0.995182,0.002955,0.414254,-0.000024,-0.000010,0.000000,-0.000010,-0.000024,-89.172768,0.000035,
2266,2878,0.12002250207459,5.07787688853653,-0.0104272622516532,0.000834,0.000215,-0.002208,0.045746,-0.008548,316.795462,24.670145,0.999689,0.992925,0.003466,0.401540,-0.000026,-0.000002,-0.000007,0.000000,-0.000028,-75.070058,0.000032,
2071,2203,-4.0087656450018,-9.64959010296872,0.00540294842522826,0.000911,0.000425,-0.002455,0.048928,0.008668,328.528050,24.496026,0.998442,0.983283,0.005316,0.367940,-0.000026,0.000001,0.000001,0.000002,-0.000026,87.324925,0.000030,
2431,2293,3.82496326548449,-7.6810453300298,0.00696093824990385,0.000208,-0.000349,0.003378,-0.003077,0.008267,326.392591,23.010749,0.998961,0.981500,0.005464,0.367536,-0.000035,0.000001,-0.000017,0.000008,-0.000042,-68.002815,0.000044,
2356,3253,2.00739017298642,13.2237828663687,0.0236284866096526,0.000339,-0.000171,0.000857,0.012551,0.000772,310.841465,25.775409,0.999580,0.993555,0.003243,0.400556,-0.000004,-0.000006,-0.000001,-0.000004,-0.000006,-13.756176,0.000010,
2251,2788,-0.190767855072604,3.12105326961291,-0.0240449496369024,0.000948,0.000142,-0.002938,0.053238,-0.014216,318.180745,24.552786,0.999465,0.990520,0.003877,0.349996,-0.000019,-0.000013,-0.000003,-0.000011,-0.000020,-66.165528,0.000032,
2086,2218,-3.68456596636445,-9.32055521549749,0.00317519910527153,0.000781,0.000546,-0.003542,0.046208,0.030367,328.188600,24.460671,0.998478,0.983775,0.005147,0.352301,-0.000026,0.000005,0.000003,0.000005,-0.000026,85.036441,0.000027,
2161,2308,-2.06533338631909,-7.35108530687921,0.000980953233522541,0.000971,0.000651,-0.002373,0.052038,0.023902,326.407519,24.253717,0.998640,0.983641,0.005244,0.265471,-0.000022,-0.000046,-0.000017,-0.000013,-0.000055,-27.629064,0.000072,
2101,2293,-3.36997474064397,-7.67986383877713,-0.00284304227960774,0.000921,0.000363,-0.001161,0.045781,0.012194,326.859111,24.393589,0.999008,0.987128,0.004784,0.346993,-0.000010,-0.000021,-0.000005,-0.000008,-0.000023,-22.342876,0.000033,
2191,2413,-1.43109954482874,-5.05635619209668,-0.0124464537981908,0.000033,0.000640,-0.005693,0.019563,0.007184,324.471179,24.131756,0.999042,0.987722,0.004632,0.366662,-0.000010,-0.000023,-0.000014,-0.000001,-0.000032,-33.043799,0.000038,
2386,2053,2.89204636509475,-12.9435581224841,0.0280595593934549,0.001007,0.000875,-0.006161,0.068422,0.013858,330.457233,22.578782,0.999209,0.979806,0.005732,0.254331,-0.000031,-0.000044,0.000000,-0.000031,-0.000044,-0.628313,0.000075,
2476,2833,4.69651025649077,4.11185215168059,-0.0191974262513099,0.000649,0.000425,-0.002728,0.040334,0.009227,317.532006,24.883032,0.999482,0.989385,0.003947,0.381281,-0.000067,-0.000028,-0.000014,-0.000023,-0.000071,-72.433854,0.000099,
2056,2173,-4.33105227112626,-10.3044629548686,-0.000988870662524732,0.001249,0.000620,-0.001630,0.062117,0.025693,329.050037,24.637037,0.999143,0.988797,0.004485,0.323736,-0.000036,-0.000024,0.000006,-0.000022,-0.000039,66.332816,0.000061,
2176,2413,-1.75679798401664,-5.05672634762274,-0.00898233323374598,0.000848,0.000675,-0.003408,0.049746,0.023865,324.577199,24.174367,0.998731,0.985393,0.004912,0.384281,-0.000012,-0.000021,-0.000019,0.000004,-0.000036,-38.328405,0.000040,
2281,2833,0.453244869303088,4.10153581422912,-0.0234084050757701,0.000711,0.000209,-0.003861,0.045700,0.000222,317.396811,24.643622,0.999434,0.992183,0.003728,0.379405,-0.000019,-0.000007,-0.000001,-0.000006,-0.000019,-86.798624,0.000027,
2341,3118,1.70774805165111,10.2948633504643,0.0225385506945486,0.000659,0.000325,-0.002968,0.040836,0.010933,313.075227,25.426182,0.999557,0.994075,0.003333,0.362040,-0.000018,-0.000003,-0.000001,-0.000003,-0.000018,-84.363929,0.000022,
2086,2128,-3.67066868013817,-11.289740052556,-0.00535717150330584,0.001081,0.000740,-0.007935,0.072683,-0.021121,329.589618,24.514899,0.999016,0.985994,0.004931,0.236218,-0.000022,-0.000044,0.000017,-0.000013,-0.000053,28.078348,0.000070,
2146,2278,-2.38734355236668,-8.00824745192042,-0.00743077925596936,0.001240,0.000297,-0.004050,0.069239,-0.014207,326.894376,24.144436,0.998646,0.983184,0.005331,0.376210,-0.000021,-0.000045,-0.000010,-0.000017,-0.000049,-19.351941,0.000069,
2131,2233,-2.70633211867812,-8.99259492555983,0.00519296274296721,0.000910,0.000552,-0.004513,0.055418,0.012697,327.769140,24.289275,0.998637,0.982060,0.005322,0.297419,-0.000024,-0.000013,-0.000001,-0.000013,-0.000024,-86.876276,0.000037,
2236,2698,-0.501293141530187,1.16152530946839,-0.0267145529031723,0.000828,0.000384,-0.003626,0.049931,-0.002136,319.648817,24.409231,0.999371,0.992169,0.003614,0.366901,-0.000010,-0.000011,0.000002,-0.000008,-0.000013,42.436328,0.000021,
2206,2548,-1.12740659770838,-2.10852390165563,-0.0225110985251149,0.000899,0.000487,-0.005354,0.058445,0.019380,322.198978,24.250107,0.999559,0.991687,0.003741,0.378313,-0.000013,-0.000020,0.000003,-0.000012,-0.000020,19.319997,0.000033,
2461,2563,4.42434888596526,-1.77427674764994,-0.027994313653835,0.001293,0.000417,-0.004005,0.074526,0.003852,321.856599,23.883169,0.999375,0.989957,0.004185,0.372801,-0.000019,-0.000053,-0.000010,-0.000016,-0.000055,-15.633616,0.000075,
2446,2548,4.10065010429792,-2.10268883826593,-0.0157185445390837,0.000805,0.000379,-0.002337,0.045782,0.014742,322.143292,23.901523,0.999549,0.990431,0.004013,0.334429,-0.000014,-0.000060,-0.000007,-0.000014,-0.000061,-7.981898,0.000079,
2071,2218,-4.01064883625197,-9.32036629386064,0.00520297271202708,0.001256,0.000809,-0.003661,0.068334,0.029443,328.304032,24.563644,0.997931,0.983063,0.005330,0.320369,-0.000030,0.000009,0.000003,0.000009,-0.000030,86.177570,0.000031,
2056,2188,-4.33282648919294,-9.97702137373118,0.00448515554063533,0.001479,0.000623,-0.000136,0.068479,0.027240,328.861278,24.610582,0.998917,0.985754,0.004961,0.348793,-0.000034,-0.000014,0.000008,-0.000011,-0.000036,70.714611,0.000050,
2416,2293,3.49792853520814,-7.68110487241071,0.00665862815731089,0.000573,-0.000430,0.001692,0.019915,-0.011267,326.390141,23.084541,0.998633,0.980978,0.005617,0.336575,-0.000030,-0.000001,-0.000013,0.000004,-0.000035,-69.693524,0.000039,
2401,2128,3.20461670891421,-11.2977667885645,0.0291099663696173,0.000619,0.000369,-0.000782,0.031283,0.022557,329.234782,22.743211,0.999251,0.981840,0.005281,0.244693,-0.000038,-0.000021,-0.000012,-0.000014,-0.000045,-61.967490,0.000062,
2266,2893,0.117209645146627,5.40499834816229,-0.0150921840964315,0.000953,0.000251,-0.003667,0.056120,0.002197,316.521835,24.743262,0.999639,0.991612,0.003590,0.364436,-0.000027,-0.000010,-0.000002,-0.000009,-0.000028,-82.484471,0.000038,
2311,2953,1.08474523813663,6.71183188487235,-0.0125400426623514,0.001071,0.000705,-0.006459,0.071640,0.013095,315.524711,24.954363,0.999285,0.991676,0.003752,0.371542,-0.000028,-0.000018,-0.000002,-0.000017,-0.000028,-81.488453,0.000046,
2356,3268,2.00319138169822,13.5507106966403,0.00220500180193994,0.000617,-0.000142,0.000431,0.026934,0.009002,310.429090,25.848622,0.999513,0.993741,0.003268,0.373112,-0.000003,-0.000005,0.000006,0.000002,-0.000010,39.563235,0.000010,
2221,2683,-0.825241785095532,0.8342629797163,-0.0289358063775467,0.000711,0.000396,-0.002340,0.040339,0.012268,319.899312,24.359132,0.999509,0.993063,0.003560,0.413956,-0.000013,0.000002,0.000003,0.000003,-0.000014,78.346670,0.000015,
2326,3103,1.38478753202588,9.96797438189638,0.0163595029840167,0.001106,0.000201,-0.004002,0.064795,-0.003254,313.299007,25.296147,0.999577,0.994717,0.003125,0.384702,-0.000021,-0.000004,0.000001,-0.000004,-0.000021,85.410633,0.000027,
2296,2923,0.763942927334945,6.05699769675505,-0.00522991535422079,0.000590,0.000079,-0.001297,0.031598,0.005767,316.050437,24.746135,0.999477,0.993946,0.003303,0.477996,-0.000029,-0.000024,-0.000001,-0.000024,-0.000029,-76.701624,0.000053,
2101,2308,-3.37199064584105,-7.35211809870837,-0.00432825062131315,0.001051,0.000658,-0.005858,0.065571,0.001204,326.625100,24.377487,0.998909,0.984987,0.005278,0.355517,-0.000011,-0.000029,-0.000016,-0.000002,-0.000038,-29.580307,0.000045,
2116,2233,-3.03293835010983,-8.99149880274465,-0.00195969400567719,0.001298,0.001162,-0.008442,0.084867,0.018640,327.802375,24.373067,0.998459,0.982329,0.005434,0.289647,-0.000031,-0.000012,-0.000004,-0.000011,-0.000032,-77.874982,0.000045,
2086,2233,-3.68709618072232,-8.99148629474833,-0.00597714437748209,0.001086,0.000418,-0.004529,0.063048,0.014463,327.887965,24.464156,0.998931,0.986180,0.004666,0.334933,-0.000025,-0.000002,0.000001,-0.000002,-0.000025,88.275523,0.000030,
2431,2308,3.82299120806291,-7.35157107452371,0.0086366034030334,0.000696,0.000518,-0.001398,0.037243,0.027048,326.203525,23.158735,0.999054,0.983871,0.005053,0.290131,-0.000036,0.000003,-0.000015,0.000008,-0.000041,-71.212393,0.000043,
2476,2848,4.69278943636756,4.4389380448193,-0.0267308188773541,0.000796,0.000069,-0.000457,0.038328,-0.002415,317.221818,24.943319,0.999370,0.989473,0.003956,0.365675,-0.000063,-0.000021,-0.000016,-0.000016,-0.000068,-71.868433,0.000089,
2281,2848,0.450212736268387,4.42923532580418,-0.0281196312595853,0.000826,0.000356,-0.002780,0.047447,0.008944,317.114115,24.758792,0.999583,0.993823,0.003564,0.300471,-0.000021,0.000000,-0.000001,0.000000,-0.000021,-86.070220,0.000024,
2341,3133,1.70452141161585,10.6202855773561,0.018267570543685,0.000643,0.000039,-0.002233,0.037401,-0.009076,312.790546,25.445860,0.999422,0.993480,0.003480,0.357930,-0.000019,0.000000,0.000002,0.000000,-0.000019,84.621925,0.000022,
2251,2803,-0.193936309711393,3.44825844706509,-0.0303910030491465,0.000922,0.000472,-0.002630,0.051211,0.012977,317.881147,24.576929,0.999356,0.990498,0.004114,0.376473,-0.000020,-0.000017,-0.000003,-0.000015,-0.000022,-58.640744,0.000037,
2086,2143,-3.67241387785105,-10.9634611735461,0.0036692252893431,0.001289,0.000609,-0.004278,0.071675,0.006829,329.423618,24.380457,0.998986,0.985783,0.004934,0.400307,-0.000028,-0.000031,0.000013,-0.000016,-0.000043,41.939423,0.000060,
2461,2578,4.42004495978024,-1.44658950293063,-0.0363504594647566,0.000999,0.000084,-0.000467,0.047593,-0.004693,321.515914,23.897334,0.999516,0.992469,0.003993,0.405533,-0.000021,-0.000037,-0.000010,-0.000016,-0.000041,-25.388016,0.000059,
2446,2563,4.0977881386383,-1.77492334886638,-0.0211310258864614,0.001177,0.000476,-0.004910,0.072493,0.010909,321.881010,23.937480,0.999519,0.990255,0.004187,0.347614,-0.000015,-0.000048,-0.000007,-0.000014,-0.000050,-11.858689,0.000067,
2386,2068,2.88790736677855,-12.6142238743449,0.0193636770292756,0.000699,0.000608,-0.002851,0.042397,0.010242,330.117382,22.536536,0.999268,0.980196,0.005571,0.340232,-0.000028,-0.000022,0.000006,-0.000018,-0.000032,58.843547,0.000051,
2176,2428,-1.75923628503216,-4.72783342021668,-0.0186459252876716,0.001224,0.001181,-0.008571,0.083137,0.016127,324.287238,24.225853,0.998949,0.986372,0.004804,0.338980,-0.000014,-0.000038,-0.000017,-0.000005,-0.000047,-27.782546,0.000057,
2101,2173,-3.35028162916446,-10.3057945946387,0.00710192109238506,0.001082,0.000652,-0.003128,0.059003,0.014228,328.884960,24.418289,0.998860,0.985245,0.005070,0.294489,-0.000035,-0.000023,0.000002,-0.000023,-0.000035,80.018590,0.000058,
2161,2323,-2.06781786497871,-7.02394535797697,-0.00452302886731104,0.000989,0.001023,-0.007222,0.067842,0.001311,326.136304,24.160160,0.999015,0.985431,0.004877,0.348613,-0.000016,-0.000047,-0.000019,-0.000007,-0.000056,-25.148491,0.000068,
2356,3283,1.99938504039403,13.8762729733752,-0.00779149613310892,0.000411,-0.000111,0.000069,0.018684,0.005252,310.090493,25.876665,0.999471,0.993460,0.003342,0.378442,0.000001,-0.000007,0.000004,0.000003,-0.000008,22.791193,0.000009,
2056,2203,-4.33572013952352,-9.64776093072598,-0.0030310017790498,0.001051,0.000785,-0.004309,0.060607,0.041474,328.549698,24.606242,0.998532,0.981782,0.005488,0.365022,-0.000026,0.000001,0.000007,0.000003,-0.000028,75.724852,0.000031,
2266,2908,0.114908308798881,5.73137272037999,-0.0127797966408707,0.001088,0.000726,-0.004954,0.066754,0.017507,316.306999,24.798209,0.999693,0.993180,0.003376,0.350020,-0.000027,-0.000017,-0.000002,-0.000016,-0.000027,-76.909024,0.000044,
2191,2428,-1.43255366749229,-4.72959653356621,-0.0111125866245061,0.000967,0.000576,-0.006402,0.064636,-0.023088,324.285426,24.114517,0.998699,0.986293,0.004980,0.369331,-0.000010,-0.000043,-0.000014,-0.000005,-0.000048,-20.118504,0.000059,
2131,2248,-2.70972988111182,-8.66439493700718,-0.00155279090313343,0.000419,0.000351,-0.003557,0.029949,-0.008016,327.446545,24.249659,0.998896,0.983780,0.005131,0.324763,-0.000025,-0.000020,-0.000003,-0.000019,-0.000026,-64.084024,0.000045,
2236,2713,-0.504194427876467,1.48804296701821,-0.0297653939971383,0.000894,-0.000180,-0.001979,0.047454,-0.018188,319.377408,24.410417,0.999203,0.991584,0.003676,0.371042,-0.000009,-0.000017,0.000002,-0.000009,-0.000018,11.085409,0.000027,
2206,2563,-1.12993678726907,-1.78218667465957,-0.0180492982974556,0.000820,0.000293,-0.002554,0.045896,0.010536,321.981091,24.244256,0.999590,0.992255,0.003628,0.392682,-0.000011,-0.000023,-0.000003,-0.000010,-0.000023,-15.307462,0.000035,
2071,2233,-4.01325561239392,-8.99197276413161,0.00121341896431204,0.001193,0.000355,-0.003600,0.065124,-0.001571,328.026706,24.573409,0.998688,0.985981,0.004831,0.279178,-0.000030,0.000003,0.000001,0.000003,-0.000030,87.411106,0.000033,
2146,2293,-2.3900407343312,-7.6805621623842,-0.00134173225342238,0.000657,-0.000036,-0.002855,0.038791,-0.024919,326.673144,24.194711,0.998632,0.985456,0.004999,0.325123,-0.000016,-0.000040,-0.000010,-0.000012,-0.000044,-20.353152,0.000059,
2416,2308,3.49570067365789,-7.35247383460234,0.00389642817981439,0.000700,0.000896,-0.008418,0.063145,0.001709,326.167575,23.116743,0.999126,0.985725,0.004769,0.366938,-0.000032,-0.000002,-0.000009,0.000000,-0.000034,-74.073154,0.000039,
2086,2248,-3.68992091248069,-8.6643711103449,-0.00100634437490044,0.000629,0.000006,0.001299,0.025159,0.028609,327.650694,24.410742,0.998810,0.986112,0.004793,0.403845,-0.000027,0.000000,-0.000002,0.000001,-0.000027,-85.107402,0.000031,
2476,2863,4.68995600469264,4.76484346147827,-0.0222927671517823,0.000560,-0.000020,-0.001435,0.031143,-0.005304,317.007046,24.980257,0.999183,0.987909,0.004208,0.382308,-0.000053,-0.000009,-0.000012,-0.000006,-0.000056,-75.833569,0.000069,
2401,2143,3.20122569908659,-10.9696308695462,0.0222385823676632,0.000668,0.000211,-0.000973,0.034186,0.009524,328.939164,22.650644,0.999205,0.980442,0.005318,0.372802,-0.000038,-0.000021,-0.000014,-0.000013,-0.000046,-61.458653,0.000062,
2221,2698,-0.827884069406625,1.16046873689737,-0.0296118871070803,0.000620,0.000089,-0.003794,0.040664,-0.019499,319.650857,24.361874,0.999614,0.994277,0.003222,0.398756,-0.000016,-0.000009,0.000006,-0.000005,-0.000019,61.655886,0.000026,
2431,2323,3.81973838751527,-7.02418870033269,0.00463965135082844,0.000669,0.000384,-0.002215,0.038975,0.014796,325.929775,23.095182,0.999103,0.983186,0.005023,0.393722,-0.000041,0.000009,-0.000008,0.000010,-0.000042,-81.444539,0.000044,
2356,3298,1.99666187826339,14.2024072021876,-0.0160710584611365,0.000819,0.000190,-0.004679,0.054403,0.010183,309.809825,25.963010,0.999607,0.993494,0.003423,0.334408,-0.000001,-0.000012,0.000002,0.000000,-0.000012,11.989454,0.000014,
2446,2578,4.0935728295902,-1.44597231635561,-0.0352704284840115,0.001224,0.000441,-0.003701,0.070113,0.008857,321.516054,24.009923,0.999617,0.992645,0.003797,0.326433,-0.000015,-0.000032,-0.000006,-0.000014,-0.000034,-17.054146,0.000049,
2116,2248,-3.03600858500895,-8.66439362277092,0.0020708209208351,0.000754,0.000501,-0.002014,0.040742,0.009469,327.551113,24.332681,0.998692,0.984551,0.005145,0.326737,-0.000032,-0.000016,-0.000007,-0.000013,-0.000035,-69.478758,0.000050,
2296,2938,0.761317931208286,6.38462295567588,-0.00492567617965278,0.000753,0.000185,-0.000556,0.036662,0.027472,315.812373,24.903600,0.999301,0.991668,0.003735,0.371473,-0.000026,-0.000018,-0.000003,-0.000017,-0.000027,-71.540226,0.000044,
2461,2593,4.41794317111288,-1.1204157259919,-0.0233138699582582,0.000728,0.000041,-0.001908,0.040561,-0.012306,321.374370,23.962749,0.999238,0.989316,0.004242,0.387401,-0.000021,-0.000032,-0.000012,-0.000013,-0.000040,-33.317287,0.000055,
2101,2323,-3.37378933868723,-7.02441790367403,0.00105389829803926,0.001197,0.001052,-0.006886,0.075396,0.010939,326.437961,24.409870,0.999147,0.987988,0.004638,0.335834,-0.000011,-0.000038,-0.000024,0.000003,-0.000052,-30.234076,0.000058,
2071,2248,-4.01579356627004,-8.66418088395294,0.00045221040255683,0.000950,0.000622,-0.004210,0.055793,0.029078,327.769976,24.505696,0.998723,0.985902,0.004775,0.376584,-0.000034,0.000008,-0.000004,0.000009,-0.000034,-84.821203,0.000035,
2251,2818,-0.195617800771277,3.77338451657346,-0.0207310189634313,0.001082,0.000419,-0.004435,0.064444,-0.002217,317.731520,24.579303,0.999485,0.991597,0.004025,0.381962,-0.000014,-0.000007,-0.000003,-0.000006,-0.000015,-71.238985,0.000021,
2266,2923,0.111779999125798,6.05656663282153,-0.0110696900661651,0.000604,0.000430,-0.003944,0.041003,-0.003059,316.051512,24.780134,0.999696,0.993379,0.003518,0.372281,-0.000027,-0.000018,-0.000002,-0.000018,-0.000028,-77.354270,0.000046,
2191,2443,-1.43583692692066,-4.40124435101906,-0.0139393096022218,0.000549,0.000337,-0.004483,0.039356,0.009703,323.993734,24.146271,0.998904,0.986615,0.004862,0.386751,-0.000009,-0.000045,-0.000015,-0.000004,-0.000050,-19.875861,0.000060,
2326,3118,1.38166629886715,10.2940254057652,0.0160652324548209,0.000786,0.000396,-0.004353,0.051401,0.007354,313.037292,25.363913,0.999452,0.993514,0.003405,0.360543,-0.000019,-0.000006,0.000002,-0.000005,-0.000019,80.184635,0.000025,
2281,2863,0.447695850037707,4.7549617306621,-0.0265252216415206,0.001083,-0.000286,-0.000445,0.051256,-0.003081,316.887144,24.764916,0.999682,0.993977,0.003411,0.309772,-0.000025,-0.000002,-0.000007,0.000000,-0.000027,-74.258639,0.000031,
2341,3148,1.70231742969351,10.9455162028417,0.0239681248248758,0.000856,-0.000098,-0.001955,0.046150,-0.020083,312.601490,25.503846,0.999372,0.994335,0.003455,0.324049,-0.000018,0.000000,0.000002,0.000000,-0.000018,82.537711,0.000021,
2176,2443,-1.76202665664599,-4.40144829283347,-0.014985480236362,0.001066,0.000189,-0.003020,0.058383,-0.009823,324.051330,24.197066,0.999188,0.986709,0.004731,0.355455,-0.000014,-0.000037,-0.000018,-0.000004,-0.000047,-29.054094,0.000057,
2116,2308,-3.04581295415234,-7.35227368618403,-0.00232568115990262,0.000727,0.000302,-0.002412,0.040595,0.007560,326.548530,24.314927,0.998999,0.986823,0.004833,0.365351,-0.000016,-0.000036,-0.000020,-0.000004,-0.000048,-31.526819,0.000058,
2311,2968,1.08247732651239,7.03743930473976,9.77040785983263E-05,0.000695,0.000308,-0.005670,0.051463,-0.003289,315.365542,25.058562,0.999894,0.997665,0.002465,0.282457,-0.000030,-0.000018,0.000001,-0.000018,-0.000031,87.086982,0.000049,
2101,2188,-3.35320532571913,-9.97757809864453,0.00403692574030856,0.000774,0.000457,-0.001864,0.041103,0.010574,328.600828,24.378343,0.998876,0.985256,0.005072,0.335266,-0.000035,-0.000009,0.000001,-0.000009,-0.000035,87.969584,0.000047,
2371,1993,2.5753007527147,-14.2610362630626,0.0283919783872193,0.000777,0.000961,-0.004582,0.052133,0.023425,331.398642,22.479835,0.998938,0.969461,0.006849,0.282175,-0.000035,-0.000039,0.000012,-0.000025,-0.000049,39.991070,0.000075,
2386,2083,2.88504791702725,-12.2848346629779,0.0195298120960388,0.000796,0.000319,-0.001910,0.043346,0.013131,329.877893,22.596981,0.999134,0.977485,0.005705,0.329342,-0.000027,-0.000020,0.000004,-0.000019,-0.000029,64.864898,0.000048,
2086,2263,-3.69197341569745,-8.33750613108367,0.00514062983450003,0.000655,-0.000289,0.003695,0.019364,-0.000837,327.455350,24.394203,0.998891,0.985305,0.004845,0.391897,-0.000027,-0.000009,-0.000003,-0.000009,-0.000028,-79.917794,0.000038,
2476,2878,4.68620849742423,5.09240027824671,-0.0308563088955793,0.000588,-0.000010,-0.001318,0.031980,-0.010205,316.690627,25.079565,0.998634,0.988212,0.004507,0.334539,-0.000053,0.000004,-0.000009,0.000006,-0.000054,-81.321818,0.000060,
2236,2728,-0.506460238225447,1.81502487857042,-0.0280114177360247,0.001010,0.000357,-0.003792,0.058857,-0.000930,319.159407,24.464466,0.999179,0.990828,0.003886,0.355457,-0.000012,-0.000025,-0.000003,-0.000011,-0.000026,-14.017695,0.000038,
2131,2263,-2.71118143727555,-8.33697684003639,0.00120310662470047,0.000920,0.000562,-0.007655,0.065291,-0.028594,327.263601,24.241041,0.998804,0.984188,0.005183,0.320532,-0.000023,-0.000029,-0.000005,-0.000020,-0.000032,-31.214336,0.000052,
2206,2578,-1.13255096280047,-1.45505109252905,-0.0220390227543703,0.000870,0.000425,-0.005198,0.056568,-0.007562,321.715577,24.251117,0.999316,0.990723,0.003913,0.385218,-0.000013,-0.000017,-0.000003,-0.000012,-0.000019,-23.425505,0.000030,
2401,2158,3.19849030313896,-10.6402918842101,0.0210324672216302,0.000956,0.000234,-0.000924,0.047214,-0.002867,328.699982,22.733992,0.999335,0.980691,0.005199,0.325406,-0.000040,-0.000027,-0.000019,-0.000014,-0.000053,-54.309469,0.000071,
2116,2263,-3.03881126741769,-8.33642485601145,-0.00240562302320768,0.000691,-0.000012,-0.000890,0.034366,-0.017920,327.266451,24.307190,0.998722,0.985032,0.005133,0.330767,-0.000030,-0.000025,-0.000008,-0.000020,-0.000036,-54.094736,0.000056,
2446,2593,4.09069251254033,-1.11929139435102,-0.0354823304102752,0.001113,0.000887,-0.006663,0.076277,0.029333,321.276822,23.978818,0.999697,0.993668,0.003591,0.431272,-0.000015,-0.000029,-0.000008,-0.000011,-0.000033,-25.128087,0.000046,
2161,2338,-2.07105621974956,-6.69503517091569,-0.0103945085126611,0.000741,0.000813,-0.005412,0.050836,0.020494,325.828117,24.189092,0.999431,0.988771,0.004225,0.351167,-0.000015,-0.000040,-0.000015,-0.000008,-0.000047,-24.490010,0.000059,
2131,2383,-2.73146139697097,-5.71231624195462,-0.0110116034727525,0.000810,0.000825,-0.006637,0.057337,0.015829,325.219355,24.291227,0.998798,0.987103,0.004660,0.375989,-0.000019,-0.000006,-0.000011,0.000000,-0.000026,-59.507915,0.000029,
2071,2263,-4.01801163051621,-8.33618575785434,0.000778116820697505,0.001153,0.000331,-0.001813,0.058234,0.014895,327.533965,24.517466,0.999123,0.987831,0.004585,0.349772,-0.000037,-0.000003,-0.000008,-0.000001,-0.000039,-78.306496,0.000045,
2146,2308,-2.3921154293851,-7.35293369782519,0.00416925577184202,0.000734,0.000293,-0.001639,0.038736,-0.003010,326.477195,24.205667,0.998891,0.985201,0.005002,0.345635,-0.000016,-0.000044,-0.000018,-0.000007,-0.000053,-25.924882,0.000065,
2416,2323,3.49248837138396,-7.02398229342754,0.00621909761224515,0.000531,0.000576,-0.004967,0.042689,0.018215,325.923501,23.188829,0.999061,0.983441,0.005035,0.361241,-0.000038,0.000001,-0.000004,0.000002,-0.000038,-84.820493,0.000043,
2251,2833,-0.198488684398217,4.10027956612674,-0.0241714406063238,0.000986,0.000449,-0.006401,0.066502,-0.004302,317.460380,24.635490,0.999380,0.991836,0.003830,0.347038,-0.000012,-0.000001,-0.000001,-0.000001,-0.000012,-84.797576,0.000015,
2101,2338,-3.37668221253017,-6.69698311414563,-0.00370572210579212,0.001059,0.000404,-0.005411,0.064544,-0.012616,326.146332,24.355937,0.999343,0.989106,0.004334,0.369584,-0.000010,-0.000032,-0.000017,0.000000,-0.000041,-29.008972,0.000048,
2191,2458,-1.43850669028738,-4.07348002845384,-0.0185874219549191,0.000672,0.000655,-0.005342,0.047808,0.003448,323.720932,24.151452,0.999087,0.988208,0.004606,0.391018,-0.000006,-0.000039,-0.000012,-0.000002,-0.000043,-18.036754,0.000050,
2296,2953,0.758907556581178,6.71119731375778,-0.00742986225776576,0.001021,0.000567,-0.004027,0.060878,0.029879,315.570524,24.968153,0.999136,0.989597,0.004092,0.338903,-0.000025,-0.000017,-0.000005,-0.000015,-0.000027,-64.156714,0.000043,
2431,2338,3.81648096152729,-6.69507628442756,0.00122058626601529,0.000788,0.000065,-0.000801,0.039072,0.003635,325.658179,23.200199,0.999049,0.984206,0.004788,0.329308,-0.000042,0.000013,-0.000006,0.000014,-0.000043,-84.388000,0.000044,
2371,2008,2.57148279582391,-13.9296102660099,0.018696737129801,0.000774,0.000566,-0.002227,0.043474,0.022526,331.067218,22.589453,0.998820,0.974870,0.006174,0.216960,-0.000031,-0.000042,0.000006,-0.000028,-0.000044,22.877476,0.000073,
2461,2608,4.41507353504982,-0.79314533391765,-0.018225663308499,0.000519,0.000073,-0.001284,0.028683,0.008436,321.160867,24.035106,0.999135,0.986261,0.004570,0.390739,-0.000025,-0.000031,-0.000013,-0.000015,-0.000041,-38.365320,0.000057,
2476,2893,4.68372744546081,5.41891876815268,-0.0297696122276534,0.000912,0.000108,-0.003159,0.053992,0.007790,316.476499,25.135925,0.998796,0.988352,0.004391,0.352465,-0.000046,0.000001,-0.000008,0.000002,-0.000047,-80.943093,0.000053,
2326,3133,1.37842911542059,10.6191578380157,0.0157401601508695,0.000565,0.000065,-0.001886,0.032503,-0.011964,312.770359,25.380687,0.999329,0.992899,0.003455,0.357841,-0.000020,-0.000001,0.000005,0.000000,-0.000021,75.517012,0.000025,
2101,2203,-3.35533339047964,-9.64923061841405,0.00467294590885103,0.001040,0.000397,-0.000425,0.049086,0.016193,328.372907,24.385346,0.998570,0.982771,0.005286,0.337506,-0.000028,-0.000002,0.000000,-0.000002,-0.000028,-88.966964,0.000033,
2221,2713,-0.830513563722032,1.48707969014757,-0.024826255401706,0.000484,-0.000114,-0.000647,0.024321,-0.002341,319.430751,24.401926,0.999233,0.991540,0.003736,0.395015,-0.000015,-0.000015,0.000005,-0.000010,-0.000020,43.670969,0.000030,
2116,2278,-3.04011842394991,-8.00805747135102,0.00171321697104077,0.001340,0.000439,-0.003347,0.071527,-0.000495,327.095889,24.365876,0.998757,0.985138,0.005062,0.294882,-0.000023,-0.000036,-0.000011,-0.000017,-0.000042,-30.114529,0.000060,
2131,2278,-2.7134370442678,-8.00912656296332,-0.000883921352624384,0.001469,-0.000333,-0.003714,0.078411,-0.047353,327.018043,24.225999,0.998754,0.984426,0.005218,0.324623,-0.000017,-0.000038,-0.000010,-0.000013,-0.000042,-21.881660,0.000057,
2386,2098,2.88163098903029,-11.9549874462542,0.0109538902179338,0.000909,0.000218,-0.002390,0.050237,-0.004964,329.571560,22.629878,0.998880,0.976035,0.006003,0.324883,-0.000032,-0.000026,-0.000004,-0.000024,-0.000034,-63.695762,0.000059,
2446,2608,4.088307945431,-0.792954561182555,-0.0181938004620861,0.000886,0.000145,0.000275,0.039698,0.018868,321.141037,24.102282,0.999423,0.989770,0.004090,0.349825,-0.000019,-0.000029,-0.000009,-0.000013,-0.000034,-31.297983,0.000049,
2341,3163,1.69945384972745,11.271193616689,0.0267796648939793,0.000541,0.000429,-0.002832,0.035030,0.021181,312.367789,25.536688,0.999505,0.994131,0.003491,0.368049,-0.000013,0.000000,0.000000,0.000000,-0.000013,87.837524,0.000016,
2401,2173,3.19490363911483,-10.3107835838166,0.0119939035757284,0.000758,0.000237,-0.004110,0.049629,-0.013445,328.384931,22.753508,0.999263,0.982449,0.005120,0.343676,-0.000037,-0.000016,-0.000019,-0.000005,-0.000048,-59.437508,0.000058,
2281,2878,0.445359074699194,5.0794606350002,-0.0217782242200997,0.000817,0.000240,-0.004462,0.052605,0.001190,316.684497,24.669095,0.999747,0.993965,0.003369,0.437273,-0.000026,-0.000006,-0.000007,-0.000004,-0.000028,-72.399701,0.000035,
2266,2938,0.108661490390393,6.38185958863539,-0.00901830399567416,0.000502,0.000048,0.002520,0.014772,0.011093,315.798081,24.742914,0.999555,0.992661,0.003533,0.448689,-0.000027,-0.000013,-0.000004,-0.000012,-0.000028,-76.054256,0.000041,
2161,2353,-2.07383561781456,-6.36729935040722,-0.0133137980034803,0.000721,0.000580,-0.004010,0.045557,0.007035,325.556789,24.177883,0.999129,0.987320,0.004519,0.361105,-0.000019,-0.000031,-0.000013,-0.000011,-0.000039,-33.109466,0.000053,
2176,2458,-1.76474333658447,-4.07451236847341,-0.0132932184461083,0.000637,0.000273,-0.004529,0.043372,-0.014355,323.808305,24.183417,0.999098,0.987376,0.004723,0.378372,-0.000011,-0.000028,-0.000017,-0.000001,-0.000039,-31.660897,0.000045,
2086,2278,-3.69429287103402,-8.00778035231236,-0.00272660552053594,0.000832,0.000132,-0.001542,0.042689,0.004417,327.171075,24.466865,0.999238,0.989121,0.004391,0.325847,-0.000022,-0.000022,-0.000006,-0.000016,-0.000028,-43.621910,0.000044,
2071,2278,-4.0205196237294,-8.00689208355132,-0.00124447603730005,0.001017,0.000636,-0.002688,0.054552,0.022892,327.271526,24.607104,0.999855,0.994854,0.003592,0.267475,-0.000034,-0.000017,-0.000011,-0.000012,-0.000039,-64.084879,0.000054,
2131,2398,-2.73338149035118,-5.38601255815205,-0.00136327798611546,0.000582,0.000654,-0.008050,0.050994,-0.014552,325.051958,24.301086,0.998361,0.986134,0.004923,0.342756,-0.000020,-0.000006,-0.000015,0.000004,-0.000029,-57.372029,0.000032,
2206,2593,-1.13501128173221,-1.12769306406032,-0.0151440111432066,0.000911,0.000326,0.000636,0.040011,0.031282,321.513020,24.321140,0.999120,0.988866,0.004220,0.371374,-0.000013,-0.000025,0.000004,-0.000012,-0.000026,14.808162,0.000039,
2311,2983,1.08009763755672,7.36246908566192,0.00361125178847033,0.000859,0.000540,-0.005197,0.057441,-0.001004,315.156355,25.030856,0.999692,0.995352,0.002959,0.343811,-0.000029,-0.000017,0.000005,-0.000015,-0.000030,70.557487,0.000046,
2461,2623,4.41164384564624,-0.464261911328585,-0.0292498345161789,0.000797,0.000423,-0.004140,0.052316,0.004869,320.847677,24.146432,0.999488,0.989519,0.004002,0.331346,-0.000030,-0.000026,-0.000015,-0.000013,-0.000043,-48.149798,0.000059,
2236,2743,-0.509437545114348,2.14165934568653,-0.0293491360274061,0.000766,0.000178,-0.003762,0.047501,-0.002279,318.893108,24.484938,0.998943,0.988313,0.004489,0.355112,-0.000013,-0.000027,-0.000004,-0.000012,-0.000028,-15.856587,0.000041,
2416,2338,3.48924442736682,-6.69491944632166,0.00399682187571671,0.000558,0.000625,-0.003225,0.037612,0.027959,325.656660,23.279952,0.998936,0.983268,0.004979,0.329604,-0.000037,0.000007,-0.000002,0.000007,-0.000037,-87.303653,0.000039,
2116,2323,-3.04800514298427,-7.02351182607478,-0.00691070715112119,0.001077,0.000432,-0.004599,0.063192,-0.011398,326.290970,24.374363,0.999206,0.988516,0.004467,0.292458,-0.000014,-0.000042,-0.000026,0.000001,-0.000057,-31.146901,0.000066,
2371,2023,2.56895737897436,-13.6024894970458,0.0285611187237009,0.000471,-0.000144,-0.000423,0.022979,0.002796,330.888399,22.553282,0.998864,0.975685,0.006186,0.277642,-0.000029,-0.000025,0.000008,-0.000019,-0.000035,52.190109,0.000055,
2476,2908,4.68126990974467,5.74476780480386,-0.0241616501898534,0.000963,0.000217,-0.004009,0.059586,0.002307,316.284131,25.190825,0.998837,0.986475,0.004635,0.348096,-0.000042,0.000000,-0.000004,0.000000,-0.000043,-84.090078,0.000049,
2296,2968,0.756319064849908,7.03676557085952,-0.0101521964372751,0.001181,0.000426,-0.006754,0.077370,0.005731,315.319697,24.969672,0.999341,0.991972,0.003629,0.342452,-0.000027,-0.000017,-0.000002,-0.000017,-0.000028,-78.187944,0.000045,
2101,2353,-3.37990022508932,-6.3674815737595,-0.0159361454849432,0.001058,0.000525,-0.004294,0.061306,0.005327,325.798920,24.382304,0.998939,0.985433,0.004919,0.364807,-0.000009,-0.000020,-0.000011,-0.000003,-0.000027,-31.887678,0.000033,
2146,2323,-2.39456237139974,-7.02423856235585,-0.00284599892955839,0.000940,0.000570,-0.005461,0.059864,-0.009961,326.197906,24.223118,0.999327,0.985118,0.004908,0.331481,-0.000012,-0.000046,-0.000021,-0.000002,-0.000056,-25.636004,0.000066,
2116,2293,-3.04354523923295,-7.6791125079296,-0.00419397692388657,0.000755,0.000524,-0.002167,0.041219,0.020956,326.774606,24.377567,0.998917,0.987200,0.004733,0.310802,-0.000017,-0.000029,-0.000010,-0.000011,-0.000035,-28.891227,0.000048,
2431,2353,3.81345540327433,-6.36648527530745,-0.00564616235601534,0.000871,0.000321,-0.006046,0.062301,-0.018922,325.381295,23.240674,0.999038,0.983748,0.004976,0.318211,-0.000035,0.000022,0.000002,0.000022,-0.000036,87.861409,0.000036,
2191,2473,-1.44100305270818,-3.74530562278279,-0.0234872869370975,0.001071,0.000689,-0.005048,0.065224,0.008772,323.454606,24.185825,0.999076,0.985681,0.005012,0.377891,-0.000005,-0.000027,-0.000003,-0.000004,-0.000027,-7.826284,0.000034,
2251,2848,-0.201360643929153,4.42634822040858,-0.022560848321632,0.000945,0.000217,-0.002514,0.051851,0.014997,317.214935,24.637020,0.999380,0.992748,0.003669,0.387942,-0.000014,0.000003,0.000000,0.000003,-0.000014,-89.953251,0.000015,
2101,2218,-3.35788296662588,-9.31962454373531,-0.00393405728027574,0.001085,0.000962,-0.005168,0.065159,0.036038,328.075634,24.402211,0.998529,0.983407,0.005287,0.344560,-0.000029,0.000000,0.000000,0.000000,-0.000029,-89.673141,0.000033,
2221,2728,-0.832613617764192,1.81349548114813,-0.021929211744748,0.000785,-0.000004,-0.000705,0.038344,-0.008894,319.225339,24.436305,0.999291,0.991861,0.003628,0.373152,-0.000017,-0.000023,0.000000,-0.000017,-0.000023,-4.332639,0.000041,
2386,2113,2.87835144858036,-11.6258267951867,0.0134899265298145,0.000416,0.000242,-0.001213,0.023455,-0.001181,329.323917,22.705912,0.998426,0.972171,0.006404,0.299075,-0.000034,-0.000024,-0.000006,-0.000021,-0.000037,-63.755208,0.000058,
2341,3178,1.69656503465348,11.5966479320472,0.023614204842147,0.000723,0.000400,-0.002851,0.043451,0.016180,312.103861,25.563127,0.999598,0.994657,0.003515,0.372122,-0.000010,0.000001,0.000001,0.000001,-0.000010,86.054347,0.000012,
2176,2473,-1.76753159975192,-3.74625996314688,-0.0167175908133572,0.000730,0.000045,-0.002540,0.041406,-0.003279,323.534908,24.232205,0.999070,0.985724,0.005082,0.354367,-0.000010,-0.000017,-0.000008,-0.000004,-0.000023,-32.955781,0.000029,
2161,2368,-2.07581852279233,-6.03950643607033,-0.0102093115804109,0.001019,0.000622,-0.003775,0.058533,0.005179,325.353485,24.224065,0.999005,0.990514,0.004124,0.324691,-0.000019,-0.000012,-0.000011,-0.000004,-0.000027,-54.026009,0.000034,
2326,3148,1.37610532780568,10.9443752406653,0.0198295539342439,0.000704,-0.000021,-0.002346,0.040520,-0.006832,312.567021,25.411532,0.999466,0.993864,0.003411,0.365310,-0.000018,-0.000002,0.000006,0.000000,-0.000020,71.865115,0.000023,
2446,2623,4.08491621800902,-0.466187336824817,-0.0155443167483327,0.000194,0.000077,-0.000736,0.011696,0.004052,320.891428,24.147110,0.999532,0.989846,0.003957,0.342929,-0.000024,-0.000023,-0.000013,-0.000010,-0.000036,-46.361071,0.000049,
2146,2458,-2.41784190073835,-4.07274214773249,-0.02296391980002,0.001162,0.000722,-0.003376,0.063866,0.024902,323.854602,24.335385,0.999152,0.988447,0.004628,0.339846,-0.000015,-0.000029,-0.000021,0.000000,-0.000044,-35.951531,0.000051,
2461,2638,4.40850637810086,-0.137137120307422,-0.0283624002676106,0.000632,0.000526,-0.003900,0.043919,0.015505,320.602561,24.189114,0.999628,0.990387,0.003844,0.354119,-0.000038,-0.000025,-0.000016,-0.000014,-0.000049,-56.699575,0.000066,
2206,2608,-1.13787049941206,-0.800540784320688,-0.0226405970808514,0.001040,0.000229,-0.000871,0.050695,0.019406,321.218104,24.303027,0.998976,0.987168,0.004539,0.395056,-0.000012,-0.000028,0.000007,-0.000010,-0.000031,20.212037,0.000042,
2266,2953,0.106825534256277,6.70853797225751,-0.00739601254753097,0.000918,0.000341,-0.002076,0.049290,0.015971,315.600985,24.843114,0.999307,0.989504,0.004038,0.378369,-0.000028,-0.000016,-0.000005,-0.000014,-0.000030,-69.491650,0.000046,
2086,2293,-3.69690507905015,-7.67929386508463,-0.00937917186047343,0.000755,0.000561,-0.004825,0.048768,-0.009108,326.880338,24.463614,0.999573,0.992432,0.003962,0.316940,-0.000015,-0.000017,-0.000005,-0.000011,-0.000021,-39.739162,0.000032,
2416,2353,3.48608747534032,-6.36641905682748,-0.000877577675510111,0.000619,0.000825,-0.004735,0.046005,0.041891,325.381425,23.294852,0.998701,0.982525,0.005111,0.378536,-0.000030,0.000016,0.000005,0.000016,-0.000031,83.960474,0.000031,
2131,2293,-2.71694032819771,-7.68013943531894,-0.00632218864728884,0.000719,0.000224,-0.003900,0.044722,-0.008558,326.697117,24.229429,0.998817,0.985918,0.004951,0.368145,-0.000012,-0.000032,-0.000009,-0.000009,-0.000036,-20.684385,0.000047,
2371,2038,2.56596674153359,-13.2727103678033,0.0218897061033658,0.000838,0.000341,-0.000650,0.040780,0.022546,330.609114,22.538391,0.999100,0.979085,0.005714,0.357132,-0.000029,-0.000033,0.000005,-0.000026,-0.000036,36.118051,0.000062,
2401,2188,3.19195960978224,-9.98159644657334,0.0154048879803099,0.000429,0.000590,-0.004577,0.036414,0.003657,328.157591,22.853819,0.999323,0.984172,0.004992,0.308732,-0.000036,-0.000006,-0.000023,0.000006,-0.000048,-61.919178,0.000053,
2281,2893,0.442381917229934,5.40668115322198,-0.0252235860418182,0.000864,0.000164,-0.003826,0.052628,0.001672,316.410670,24.771502,0.999660,0.993109,0.003400,0.362736,-0.000027,-0.000015,-0.000004,-0.000014,-0.000028,-72.205704,0.000043,
2131,2413,-2.73674504990973,-5.05648908571771,-0.0150930181614513,0.000874,0.000286,-0.003046,0.049345,0.011343,324.693097,24.331269,0.998812,0.987557,0.004743,0.346217,-0.000015,-0.000016,-0.000021,0.000005,-0.000036,-43.913906,0.000039,
2476,2923,4.6778078067656,6.07128910147924,-0.0232343597273257,0.000564,0.000071,-0.002918,0.037029,-0.010057,316.023989,25.284754,0.999233,0.987494,0.004394,0.297791,-0.000036,-0.000007,-0.000001,-0.000007,-0.000036,-88.654943,0.000047,
2146,2338,-2.39756165241755,-6.69618590216947,-0.00343541734383734,0.000684,0.000348,-0.001510,0.036097,0.014082,325.927307,24.220381,0.999395,0.987133,0.004515,0.367885,-0.000013,-0.000039,-0.000016,-0.000005,-0.000047,-25.770308,0.000058,
2431,2368,3.81054943162077,-6.03861510376839,-0.00141041675112774,0.000575,0.000537,-0.006312,0.049819,-0.020954,325.161243,23.308544,0.999117,0.984660,0.004834,0.299890,-0.000038,0.000017,0.000007,0.000018,-0.000038,82.678557,0.000038,
2161,2533,-2.10450172825797,-2.43614327977996,-0.0292436221981802,0.000893,0.000550,-0.003797,0.052860,0.010783,322.522736,24.314564,0.998922,0.988477,0.004440,0.365794,-0.000016,-0.000020,-0.000006,-0.000012,-0.000024,-35.878467,0.000037,
2236,2758,-0.512294364499322,2.4684557654376,-0.0284236063218373,0.000679,0.000340,-0.000968,0.034482,0.015039,318.643757,24.524197,0.999154,0.989889,0.004107,0.354434,-0.000017,-0.000021,-0.000002,-0.000016,-0.000022,-21.872363,0.000038,
2101,2368,-3.38153521428648,-6.04155846539646,-0.00629655519713879,0.001088,0.000277,-0.005445,0.065947,-0.017001,325.642765,24.340350,0.998703,0.984146,0.005233,0.387047,-0.000007,0.000002,-0.000007,0.000006,-0.000011,-60.281271,0.000011,
2461,2653,4.40570168868915,0.189662559782114,-0.0241171889311431,0.000657,0.000285,-0.002049,0.037997,0.010278,320.388123,24.250455,0.999599,0.990676,0.003810,0.342461,-0.000044,-0.000016,-0.000023,-0.000003,-0.000056,-60.997384,0.000067,
2116,2338,-3.05090823842407,-6.69597106596193,-0.0118195495546161,0.001042,0.000126,-0.002004,0.053803,-0.015762,325.999351,24.310376,0.999296,0.987799,0.004514,0.357841,-0.000015,-0.000035,-0.000021,-0.000002,-0.000048,-32.148754,0.000056,
2221,2743,-0.835869392389693,2.14081086258807,-0.0304322983711245,0.000751,-0.000198,-0.000515,0.036111,-0.016155,318.908140,24.467459,0.999240,0.990730,0.003956,0.353742,-0.000020,-0.000024,-0.000002,-0.000019,-0.000025,-27.676814,0.000044,
2191,2488,-1.44416110518934,-3.41801709076226,-0.0232499828236428,0.000548,0.000363,-0.003394,0.035932,0.002330,323.184845,24.203517,0.998807,0.983930,0.005342,0.369622,-0.000010,-0.000017,-0.000006,-0.000007,-0.000020,-30.370996,0.000028,
2161,2383,-2.07863102635681,-5.71102554410221,-0.0198372859461529,0.001099,0.000957,-0.007146,0.072673,0.022768,325.045077,24.195866,0.998859,0.988969,0.004426,0.382550,-0.000021,-0.000008,-0.000009,-0.000003,-0.000026,-62.020807,0.000032,
2386,2128,2.87559834212573,-11.2962511625537,0.00930578510752866,0.000696,0.000811,-0.003576,0.044956,0.018313,329.068438,22.736330,0.998944,0.978519,0.005659,0.334558,-0.000030,-0.000017,-0.000009,-0.000012,-0.000035,-62.240746,0.000048,
2251,2863,-0.20410168761283,4.75242728996141,-0.0226597845009451,0.000860,0.000287,-0.002786,0.048829,0.013559,316.966848,24.651612,0.999498,0.992703,0.003555,0.394892,-0.000020,0.000003,-0.000005,0.000004,-0.000021,-77.475063,0.000023,
2296,2983,0.753972439844436,7.36269380573059,-0.00338604321149205,0.001086,0.000699,-0.006729,0.073044,0.018487,315.126919,25.036994,0.999111,0.989503,0.004085,0.317189,-0.000027,-0.000016,0.000002,-0.000016,-0.000027,80.675579,0.000044,
2371,2053,2.56354135342467,-12.9423255204936,0.0209171601125604,0.001073,0.000721,-0.004321,0.064671,0.007443,330.382909,22.683531,0.999195,0.980677,0.005450,0.241149,-0.000024,-0.000036,0.000002,-0.000024,-0.000037,8.886176,0.000061,
2311,2998,1.07732522279503,7.68772780351795,0.00727096803183258,0.000715,0.000231,-0.003485,0.044914,-0.002978,314.929731,25.033161,0.999868,0.996755,0.002795,0.370981,-0.000025,-0.000013,0.000005,-0.000012,-0.000027,70.433198,0.000039,
2176,2488,-1.77045673524586,-3.41855948742127,-0.0184524189549506,0.000357,0.000378,-0.003643,0.027831,0.012570,323.264154,24.246561,0.998874,0.985404,0.005112,0.369247,-0.000016,-0.000009,-0.000012,0.000000,-0.000024,-53.641464,0.000028,
2146,2473,-2.41996735045506,-3.74675980384505,-0.0167340958575437,0.000894,0.000829,-0.006052,0.059689,0.013266,323.660601,24.288057,0.999129,0.987775,0.004875,0.384707,-0.000015,-0.000021,-0.000015,-0.000002,-0.000033,-39.888741,0.000040,
2086,2308,-3.6993559518785,-7.35106458197306,-0.015391025970473,0.000855,0.000791,-0.007254,0.060432,-0.010553,326.600444,24.437258,0.999351,0.990053,0.004389,0.343212,-0.000017,-0.000026,-0.000016,-0.000005,-0.000039,-36.898889,0.000048,
2446,2638,4.08180455985789,-0.137968042311599,-0.0217333072746442,0.000459,0.000576,-0.002356,0.030090,0.022786,320.613536,24.221171,0.999603,0.990942,0.003821,0.340499,-0.000033,-0.000020,-0.000013,-0.000012,-0.000041,-58.295738,0.000056,
2206,2623,-1.14085957761389,-0.473746880398139,-0.0223302037807684,0.000481,0.000371,-0.002641,0.030586,0.000743,320.957597,24.331118,0.999195,0.986845,0.004644,0.365730,-0.000013,-0.000029,0.000006,-0.000011,-0.000031,18.629785,0.000044,
2341,3193,1.69374624528464,11.9217688660674,0.0257015763448294,0.000714,-0.000009,-0.001058,0.036588,-0.002840,311.868804,25.607910,0.999590,0.994262,0.003350,0.343552,-0.000010,0.000002,0.000002,0.000002,-0.000010,80.285235,0.000011,
2266,2968,0.103841440262212,7.03453995289111,-0.00968975695133167,0.000660,0.000281,-0.004022,0.043873,0.015220,315.331589,24.863749,0.999409,0.992047,0.003696,0.381989,-0.000031,-0.000017,-0.000001,-0.000017,-0.000031,-84.411342,0.000049,
2176,2608,-1.79078170400656,-0.800493450097356,-0.0302301614887597,0.000887,0.000593,-0.004687,0.055545,0.017434,321.250595,24.358180,0.999091,0.989636,0.004211,0.368319,-0.000018,-0.000026,0.000001,-0.000017,-0.000027,8.353929,0.000044,
2131,2428,-2.73992444311336,-4.72772930262394,-0.0226787869352734,0.000793,0.000430,-0.000341,0.037626,0.027484,324.375556,24.366099,0.999214,0.988614,0.004453,0.335080,-0.000014,-0.000031,-0.000013,-0.000007,-0.000038,-28.798473,0.000049,
2326,3163,1.37396079009849,11.2698559623104,0.0221212928283308,0.001108,0.000125,-0.003485,0.063114,-0.000495,312.362988,25.457937,0.999600,0.994595,0.003296,0.358712,-0.000015,-0.000004,0.000004,-0.000002,-0.000016,73.704332,0.000020,
2476,2938,4.67502432749029,6.39697549603471,-0.0191235160523888,0.000451,0.000176,-0.003302,0.033370,-0.000647,315.809674,25.306512,0.999344,0.990563,0.003898,0.341625,-0.000035,-0.000008,0.000003,-0.000007,-0.000035,83.450280,0.000046,
2131,2308,-2.71921083342674,-7.3519410847684,-0.00490063694849141,0.000773,0.000306,-0.003815,0.046977,0.003721,326.469322,24.261345,0.998965,0.986590,0.004856,0.356064,-0.000012,-0.000037,-0.000017,-0.000003,-0.000046,-26.479431,0.000055,
2416,2368,3.48329383279651,-6.0396509355014,0.00433275818392076,0.000509,0.000317,-0.002761,0.033543,0.012751,325.170256,23.297888,0.999041,0.984744,0.004833,0.395404,-0.000032,0.000011,0.000009,0.000012,-0.000034,78.481669,0.000034,
2401,2203,3.18949400353076,-9.65335626870426,0.0119105733006677,0.000915,0.000772,-0.007596,0.069658,-0.003840,327.919923,22.824563,0.999148,0.983145,0.005212,0.378537,-0.000043,-0.000011,-0.000023,0.000001,-0.000055,-62.352176,0.000063,
2161,2548,-2.10693941203882,-2.11009646137576,-0.0246628548878789,0.000845,0.000077,-0.000634,0.040848,0.014274,322.306656,24.266089,0.998977,0.988420,0.004350,0.428906,-0.000016,-0.000014,-0.000004,-0.000011,-0.000020,-53.087797,0.000031,
2146,2353,-2.39980183629472,-6.36864540933557,-0.0043405297268464,0.000796,0.000475,-0.003757,0.048049,0.009129,325.689983,24.201650,0.999409,0.987067,0.004452,0.391431,-0.000017,-0.000028,-0.000014,-0.000008,-0.000037,-33.346194,0.000048,
2461,2668,4.40274248153855,0.516191227609518,-0.0255167341032916,0.000897,0.000377,-0.001295,0.046209,0.016785,320.140728,24.232237,0.999518,0.988744,0.004063,0.422177,-0.000049,-0.000004,-0.000024,0.000006,-0.000060,-66.588230,0.000066,
2116,2353,-3.05368693580713,-6.36697838429274,-0.0166871513179672,0.001025,-0.000019,-0.001177,0.050552,-0.013182,325.713289,24.378263,0.999223,0.985998,0.004779,0.297785,-0.000016,-0.000022,-0.000016,-0.000003,-0.000036,-39.350471,0.000043,
2431,2383,3.80721903993547,-5.70988066285553,-0.00506192229886437,0.000695,0.000359,-0.004169,0.047338,-0.001396,324.884911,23.362397,0.999558,0.987820,0.004491,0.317671,-0.000026,0.000008,0.000006,0.000009,-0.000027,80.165619,0.000028,
2386,2143,2.87275554635298,-10.9672091446001,0.0065230449249043,0.000942,0.000570,-0.003862,0.057164,0.018848,328.815563,22.758037,0.998926,0.976623,0.005752,0.359610,-0.000030,-0.000019,-0.000011,-0.000012,-0.000037,-57.721254,0.000051,
2101,2383,-3.38461683238042,-5.71283684477795,-0.0105093291602429,0.000892,0.000003,-0.001549,0.045502,-0.021334,325.345067,24.406775,0.998678,0.984947,0.005008,0.319503,-0.000012,0.000000,-0.000009,0.000005,-0.000017,-61.988971,0.000018,
2371,2068,2.55990162489074,-12.6139510138967,0.0203735372041933,0.000529,0.000557,-0.001744,0.030594,0.010265,330.103164,22.638063,0.999430,0.982357,0.005030,0.334236,-0.000021,-0.000014,0.000009,-0.000009,-0.000027,56.028166,0.000037,
2161,2398,-2.08025182708145,-5.38559871662006,-0.00741896504865736,0.001226,0.000435,-0.005462,0.073185,-0.000664,324.907868,24.146234,0.998751,0.987793,0.004623,0.419793,-0.000019,-0.000006,-0.000012,0.000002,-0.000026,-59.264386,0.000029,
2191,2503,-1.44642140263513,-3.0913110282652,-0.0171668992717855,0.000471,0.000320,-0.002469,0.029467,-0.000122,322.986653,24.221626,0.999074,0.986860,0.004796,0.364476,-0.000005,-0.000018,-0.000005,-0.000003,-0.000019,-19.949077,0.000025,
2221,2758,-0.838149764941125,2.46749756884086,-0.0281231554920396,0.000958,0.000040,0.000033,0.044010,0.010760,318.691237,24.497723,0.999303,0.991104,0.003887,0.369418,-0.000024,-0.000019,0.000000,-0.000019,-0.000024,86.454134,0.000043,
2236,2773,-0.514570122450095,2.79463237569935,-0.0303209611796547,0.000902,0.000661,-0.004780,0.057196,0.005933,318.406885,24.515037,0.999213,0.989874,0.003980,0.375685,-0.000016,-0.000020,-0.000002,-0.000015,-0.000021,-24.164799,0.000036,
2281,2908,0.439943268948308,5.73291827452724,-0.0240579673885009,0.001084,0.000434,-0.003519,0.061817,0.013401,316.184860,24.810124,0.999666,0.993844,0.003204,0.363140,-0.000027,-0.000019,-0.000004,-0.000017,-0.000029,-67.174813,0.000047,
2341,3208,1.69142886838965,12.2463080607422,0.0263302277363096,0.000829,0.000427,-0.005628,0.058055,0.011427,311.649874,25.560792,0.999567,0.994013,0.003325,0.440307,-0.000009,-0.000001,0.000003,0.000000,-0.000010,70.886277,0.000011,
2446,2653,4.07901048103296,0.18890176479826,-0.0247395154883634,0.000800,0.000365,-0.003706,0.050674,0.007311,320.365178,24.237700,0.999690,0.992053,0.003625,0.361236,-0.000037,-0.000014,-0.000019,-0.000003,-0.000048,-60.933253,0.000057,
2266,2983,0.101444042668859,7.36014664911654,-0.00645866973417242,0.000950,0.000081,-0.000975,0.047079,0.017203,315.117065,24.887505,0.999570,0.993260,0.003581,0.384998,-0.000031,-0.000016,0.000002,-0.000016,-0.000031,81.514945,0.000048,
2131,2323,-2.72126897197896,-7.02380693440614,-0.00314273422401357,0.000894,0.000841,-0.005587,0.058045,0.016840,326.253039,24.294763,0.999228,0.986950,0.004676,0.343395,-0.000008,-0.000041,-0.000021,0.000002,-0.000052,-26.109401,0.000058,
2296,2998,0.75100244873747,7.68727262713739,0.00214428632472163,0.000769,0.000227,-0.002485,0.043882,0.001819,314.899763,25.004359,0.999353,0.991428,0.003727,0.362264,-0.000024,-0.000012,0.000002,-0.000012,-0.000025,78.723739,0.000037,
2206,2638,-1.14332689651778,-0.146768253995283,-0.023779475509059,0.000686,0.000534,-0.002682,0.040214,0.006316,320.711791,24.341632,0.999201,0.988234,0.004457,0.378188,-0.000011,-0.000020,0.000008,-0.000007,-0.000025,29.663246,0.000033,
2161,2563,-2.10892837676476,-1.78334695971746,-0.0186036513553063,0.000782,0.000254,-0.002979,0.045189,0.011190,322.118759,24.305573,0.998977,0.987906,0.004414,0.397054,-0.000014,-0.000020,-0.000008,-0.000008,-0.000026,-36.255777,0.000035,
2251,2878,-0.206245771620484,5.07875249052697,-0.0212151641432001,0.001234,0.000305,-0.003472,0.068272,0.002302,316.753914,24.714183,0.999627,0.991528,0.003612,0.344005,-0.000024,-0.000002,-0.000005,-0.000001,-0.000025,-76.409626,0.000029,
2401,2218,3.18600925514263,-9.32309405041487,0.0121944289616067,0.000542,0.000650,-0.005091,0.043468,-0.000064,327.652932,23.014092,0.999266,0.984333,0.005200,0.240819,-0.000042,-0.000017,-0.000023,-0.000004,-0.000055,-59.480646,0.000066,
2476,2953,4.67268227672022,6.72241969077547,-0.0142881922110973,0.000759,0.000001,-0.003218,0.047076,-0.015473,315.619005,25.338806,0.999345,0.990351,0.003940,0.350469,-0.000031,-0.000003,0.000009,0.000000,-0.000034,74.361736,0.000039,
2326,3178,1.37084024668821,11.5953834647446,0.0185771698415351,0.001054,0.000197,-0.003590,0.061042,0.003355,312.085345,25.480184,0.999645,0.994748,0.003279,0.373249,-0.000013,-0.000003,0.000003,-0.000002,-0.000014,74.078919,0.000017,
2176,2623,-1.79331051676778,-0.4739636704237,-0.0295615589391218,0.000849,0.000530,-0.004458,0.053033,0.011816,321.010762,24.352031,0.999321,0.989842,0.004125,0.381823,-0.000018,-0.000030,0.000000,-0.000018,-0.000030,-2.314237,0.000048,
2176,2503,-1.77292850989444,-3.09119017583441,-0.0190860397049164,0.000508,0.000468,-0.002620,0.031640,0.017552,323.020014,24.256444,0.998794,0.984804,0.005180,0.377906,-0.000011,-0.000013,-0.000012,0.000000,-0.000024,-42.093956,0.000028,
2461,2683,4.39902987825154,0.844324424927976,-0.0338804269624688,0.000574,0.000520,-0.005318,0.046585,0.005972,319.826482,24.326181,0.999540,0.989761,0.003990,0.372154,-0.000052,0.000004,-0.000017,0.000009,-0.000056,-74.328485,0.000061,
2416,2383,3.48108801395143,-5.71137305676893,0.0123816346814465,0.000654,0.000276,-0.002239,0.038246,-0.004353,324.998976,23.458676,0.999649,0.988741,0.004306,0.266579,-0.000023,0.000003,0.000009,0.000006,-0.000025,72.847064,0.000027,
2146,2488,-2.4228922164209,-3.41920172911917,-0.0241929522638884,0.000914,0.000491,-0.006139,0.060765,0.002024,323.357168,24.263474,0.999048,0.987233,0.004790,0.407354,-0.000022,-0.000010,-0.000021,0.000005,-0.000038,-52.943295,0.000041,
2086,2323,-3.70144602655251,-7.02383588124798,-0.0118666537442209,0.001108,0.000514,-0.003440,0.060981,-0.003505,326.388955,24.411384,0.999128,0.989345,0.004474,0.377064,-0.000019,-0.000039,-0.000024,-0.000003,-0.000055,-34.135459,0.000065,
2386,2158,2.86994667009924,-10.6378349482749,0.00819397564498558,0.000879,0.000619,-0.004111,0.055195,0.005852,328.585270,22.876925,0.999249,0.981197,0.005333,0.273792,-0.000032,-0.000026,-0.000016,-0.000013,-0.000045,-51.253670,0.000061,
2431,2398,3.80412913830489,-5.3822300820643,-0.00730318471516966,0.000841,0.000282,-0.003150,0.050266,0.002724,324.626289,23.351427,0.999707,0.988524,0.004471,0.384288,-0.000026,0.000004,0.000012,0.000008,-0.000030,71.252005,0.000031,
2146,2368,-2.40230763256229,-6.04082011748672,-0.00609698292436178,0.000893,0.000128,-0.003142,0.050541,-0.013519,325.436008,24.223537,0.999041,0.988376,0.004391,0.356570,-0.000017,-0.000010,-0.000012,-0.000001,-0.000026,-54.173782,0.000031,
2101,2398,-3.38684420535387,-5.38606838698444,-0.00587286261759346,0.000711,0.000169,-0.001811,0.037994,-0.007513,325.134528,24.366607,0.998915,0.986366,0.004624,0.376183,-0.000015,-0.000002,-0.000014,0.000007,-0.000023,-57.680470,0.000024,
2131,2443,-2.74191547247062,-4.4025249621783,-0.015327032679636,0.000745,0.000340,-0.000165,0.034835,0.009574,324.192889,24.255125,0.999234,0.988729,0.004516,0.434852,-0.000014,-0.000034,-0.000017,-0.000005,-0.000043,-30.243107,0.000053,
2311,3013,1.07374083424943,8.01449335748226,-0.000845946387642016,0.000818,-0.000334,0.000529,0.035742,-0.007560,314.607165,25.101522,0.999507,0.992124,0.003563,0.329644,-0.000021,-0.000017,0.000006,-0.000013,-0.000025,53.493453,0.000039,
2341,3223,1.68829100741855,12.5726595228988,0.0247362304218086,0.000810,0.000383,-0.003511,0.049775,0.015516,311.381656,25.682117,0.999463,0.993644,0.003292,0.358218,-0.000011,0.000006,0.000003,0.000006,-0.000011,80.033055,0.000011,
2371,2083,2.55681948520141,-12.28409625586,0.018148641949324,0.000606,0.000431,-0.000212,0.028644,0.032565,329.840650,22.695020,0.999293,0.980604,0.005326,0.343943,-0.000021,-0.000014,0.000007,-0.000009,-0.000025,57.379018,0.000036,
2446,2668,4.07617729523788,0.515596096599644,-0.0211014166314385,0.000701,0.000400,-0.003303,0.044683,0.027255,320.145494,24.263083,0.999535,0.990409,0.003919,0.408369,-0.000042,-0.000004,-0.000021,0.000005,-0.000051,-65.844232,0.000057,
2116,2368,-3.0552819120348,-6.0408981230924,-0.00534566556251548,0.001034,0.000042,-0.001862,0.052992,-0.013978,325.568851,24.346069,0.999009,0.986104,0.004808,0.334146,-0.000017,-0.000002,-0.000013,0.000006,-0.000024,-59.617314,0.000025,
2221,2773,-0.84034789312901,2.79342536170913,-0.0248003371163463,0.000912,0.000397,-0.003161,0.052260,0.016239,318.483552,24.491735,0.999321,0.991101,0.003903,0.399830,-0.000023,-0.000017,0.000001,-0.000017,-0.000023,85.358532,0.000040,
2236,2788,-0.516836120147804,3.12086613567799,-0.0269214200020542,0.001010,0.000657,-0.005119,0.063290,0.019798,318.197375,24.534012,0.999374,0.990810,0.003917,0.391693,-0.000017,-0.000018,0.000000,-0.000017,-0.000018,-24.033869,0.000035,
2401,2233,3.18300496698557,-8.99506727153695,0.0118986563197723,0.000719,0.000072,-0.002081,0.040461,-0.001623,327.405453,23.003811,0.999289,0.985049,0.005102,0.297791,-0.000040,-0.000005,-0.000017,0.000002,-0.000047,-67.608263,0.000053,
2191,2518,-1.44855016289825,-2.7657532356094,-0.00727634692822221,0.000485,-0.000082,0.001733,0.016869,0.011186,322.814465,24.159102,0.999254,0.989514,0.004403,0.453563,-0.000005,-0.000026,-0.000002,-0.000005,-0.000026,-5.198367,0.000033,
2131,2338,-2.72389200251751,-6.69570340556299,-0.00302930091095277,0.000837,0.000965,-0.003142,0.048163,0.037532,326.002141,24.306610,0.999414,0.987575,0.004474,0.359789,-0.000009,-0.000036,-0.000016,-0.000001,-0.000043,-25.405710,0.000051,
2161,2578,-2.11208680787471,-1.45621913423405,-0.022564693077129,0.000567,0.000082,-0.000180,0.026671,0.008609,321.824452,24.295838,0.999039,0.987852,0.004350,0.415071,-0.000015,-0.000018,-0.000008,-0.000008,-0.000025,-38.933130,0.000034,
2161,2413,-2.08366351297425,-5.05699456457049,-0.0115139963751858,0.000741,-0.000051,-0.002953,0.043047,-0.007428,324.601151,24.217342,0.998798,0.986971,0.004775,0.353811,-0.000013,-0.000016,-0.000020,0.000005,-0.000035,-42.893465,0.000038,
2476,2968,4.6702517938939,7.04897005797721,-0.00982744735779306,0.000745,0.000421,-0.006351,0.058551,0.002442,315.422153,25.441203,0.999528,0.991665,0.003712,0.322083,-0.000030,0.000001,0.000014,0.000007,-0.000035,69.012078,0.000037,
2296,3013,0.747725036163676,8.01315145442787,0.000161993203334987,0.000616,-0.000165,0.000556,0.026443,0.001956,314.620691,25.027610,0.999195,0.988735,0.004126,0.368435,-0.000020,-0.000018,0.000003,-0.000016,-0.000022,58.262600,0.000038,
2281,2923,0.43733016950809,6.05827794308949,-0.018875268949671,0.000851,0.000128,-0.002990,0.049238,-0.004056,315.971387,24.829904,0.999595,0.993546,0.003378,0.353132,-0.000027,-0.000021,-0.000004,-0.000019,-0.000029,-64.402381,0.000048,
2416,2398,3.47747353625986,-5.38327051794104,-0.00119555759061996,0.000865,0.000368,-0.004817,0.057370,-0.002421,324.662035,23.381421,0.999599,0.988122,0.004440,0.395613,-0.000022,0.000001,0.000015,0.000008,-0.000029,64.076967,0.000030,
2431,2413,3.8011613201205,-5.05461539647737,-0.00651469314504993,0.000933,0.000072,-0.001309,0.047627,0.020789,324.387187,23.357320,0.999601,0.988421,0.004505,0.448104,-0.000032,0.000001,0.000014,0.000006,-0.000037,69.777207,0.000040,
2461,2698,4.3965310521478,1.17132364895444,-0.0281118351143164,0.000628,0.000575,-0.005308,0.049034,0.004714,319.632792,24.427639,0.999660,0.990159,0.004051,0.324211,-0.000053,0.000011,-0.000017,0.000016,-0.000057,-75.884006,0.000059,
2326,3193,1.36833478304795,11.9191369363533,0.0314540114567876,0.000606,-0.000260,-0.000626,0.029950,-0.017750,311.917146,25.464321,0.999705,0.995486,0.003012,0.401122,-0.000013,-0.000003,0.000004,-0.000001,-0.000014,70.358899,0.000017,
2146,2503,-2.42574479147064,-3.09130177835679,-0.03102518100917,0.000897,0.000549,-0.007286,0.063460,0.003240,323.060214,24.269340,0.998985,0.985559,0.004903,0.411984,-0.000016,-0.000013,-0.000020,0.000006,-0.000035,-47.215161,0.000037,
2266,2998,0.0990193309505294,7.68534217857724,-0.0010886461680002,0.000778,0.000046,-0.001796,0.041763,-0.010141,314.912196,24.920852,0.999412,0.992137,0.003687,0.348916,-0.000029,-0.000015,0.000002,-0.000015,-0.000029,81.588367,0.000045,
2146,2383,-2.40465951837715,-5.71353782022076,-0.00228528239881598,0.000737,0.000184,-0.003065,0.043187,-0.012876,325.218538,24.231435,0.998723,0.988005,0.004497,0.358728,-0.000021,-0.000009,-0.000013,-0.000001,-0.000029,-58.257140,0.000034,
2176,2518,-1.77529187188784,-2.76475678590342,-0.01871616296512,0.000705,-0.000179,-0.001529,0.037063,-0.020368,322.786434,24.237325,0.998905,0.987580,0.004701,0.372364,-0.000012,-0.000023,-0.000009,-0.000007,-0.000028,-28.897835,0.000037,
2251,2893,-0.208698731436947,5.40380535245227,-0.0150286886770914,0.001022,-0.000042,-0.003257,0.057720,-0.003248,316.551163,24.692680,0.999689,0.992491,0.003454,0.382787,-0.000025,-0.000009,0.000000,-0.000009,-0.000025,-89.339844,0.000036,
2176,2638,-1.79585053063288,-0.147945816881581,-0.0262559290117679,0.000846,-0.000052,-0.000916,0.041744,-0.001562,320.784351,24.333525,0.999542,0.991175,0.003873,0.399534,-0.000015,-0.000025,0.000000,-0.000015,-0.000025,-1.859068,0.000041,
2206,2653,-1.14612488244898,0.180437768333448,-0.0287257344971295,0.000951,0.000393,-0.000631,0.045877,0.016396,320.432676,24.344091,0.999216,0.988066,0.004543,0.403162,-0.000009,-0.000009,0.000010,0.000001,-0.000019,45.183366,0.000022,
2131,2458,-2.74448428772963,-4.07234902974196,-0.0212016537489603,0.000931,0.000746,-0.001201,0.046655,0.044869,323.911981,24.427153,0.999207,0.989598,0.004483,0.305316,-0.000012,-0.000030,-0.000020,0.000001,-0.000043,-32.533802,0.000049,
2101,2413,-3.38915929712599,-5.05801606431025,-0.0063819494711197,0.000846,0.000228,-0.001026,0.041951,0.002892,324.891953,24.402721,0.999011,0.987336,0.004571,0.352999,-0.000012,-0.000013,-0.000018,0.000005,-0.000030,-44.136798,0.000032,
2086,2338,-3.70352721148561,-6.69688287305621,-0.00121744409040048,0.000598,0.000632,-0.004768,0.041417,0.011410,326.216570,24.427142,0.998938,0.987026,0.004705,0.376893,-0.000017,-0.000032,-0.000017,-0.000006,-0.000043,-32.951345,0.000054,
2386,2173,2.86687991800818,-10.309771927753,0.00177654533490568,0.001010,0.000627,-0.006511,0.069789,-0.010837,328.305009,22.799046,0.999439,0.984217,0.005057,0.381066,-0.000030,-0.000015,-0.000016,-0.000005,-0.000040,-58.020271,0.000050,
2311,3028,1.07169964241789,8.33975825735392,0.00516769665023276,0.000838,0.000160,-0.003011,0.048938,0.005532,314.425679,25.112876,0.999581,0.992220,0.003558,0.362545,-0.000020,-0.000019,0.000005,-0.000014,-0.000024,48.490790,0.000039,
2371,2098,2.55379377882977,-11.9544359920196,0.0125040620953314,0.000852,0.000310,-0.000631,0.041347,0.016097,329.564600,22.741230,0.999133,0.979529,0.005576,0.325606,-0.000026,-0.000021,0.000001,-0.000020,-0.000026,79.089798,0.000047,
2401,2248,3.17968383052316,-8.66629510642469,0.00261914167117538,0.000865,0.000813,-0.004364,0.055722,0.026518,327.100972,22.945026,0.999223,0.985111,0.005026,0.432888,-0.000038,-0.000008,-0.000017,0.000000,-0.000045,-66.008828,0.000052,
2341,3238,1.68508404721096,12.8981751330008,0.019959156587845,0.000843,0.000306,-0.002962,0.049347,0.014423,311.094976,25.717519,0.999423,0.992917,0.003363,0.357032,-0.000012,-0.000002,0.000002,-0.000001,-0.000012,77.088656,0.000015,
2461,2713,4.39346184734174,1.49828460291046,-0.0305197109811957,0.000820,0.000633,-0.004852,0.056170,0.016806,319.375381,24.449742,0.999646,0.991696,0.003774,0.369184,-0.000061,0.000010,-0.000014,0.000012,-0.000063,-79.214830,0.000067,
2476,2983,4.66681151274394,7.37596443177497,-0.0163808778049201,0.000951,0.000463,-0.005732,0.065738,0.016267,315.128501,25.516833,0.999440,0.990675,0.003903,0.316272,-0.000022,0.000004,0.000018,0.000013,-0.000031,62.807513,0.000031,
2236,2803,-0.519938260397463,3.44719500907001,-0.0282963826888931,0.000878,0.000463,-0.001821,0.046493,0.026436,317.925104,24.536313,0.999447,0.990694,0.003988,0.416859,-0.000018,-0.000021,0.000000,-0.000018,-0.000021,-2.293791,0.000040,
2296,3028,0.745938711906494,8.33938672922357,-0.000273810686167053,0.001157,0.000623,-0.005627,0.072599,0.025108,314.417685,25.075124,0.999297,0.990295,0.003887,0.373247,-0.000021,-0.000020,0.000001,-0.000019,-0.000021,62.119623,0.000041,
2281,2938,0.434742331284696,6.38360745377427,-0.0137985258730851,0.000798,0.000086,-0.000463,0.038322,0.005161,315.758487,24.823032,0.999542,0.993015,0.003486,0.396304,-0.000026,-0.000015,-0.000005,-0.000013,-0.000028,-69.889550,0.000042,
2446,2683,4.07248922872919,0.843822174074162,-0.02761487366746,0.000382,0.000897,-0.005334,0.037832,0.031456,319.839388,24.365363,0.999362,0.989536,0.004018,0.363176,-0.000042,0.000003,-0.000015,0.000007,-0.000047,-72.898599,0.000051,
2266,3013,0.0966717930696532,8.01026018942908,0.00473630460243157,0.000858,-0.000129,0.000247,0.038646,-0.000651,314.713189,24.898297,0.999336,0.992086,0.003632,0.405927,-0.000026,-0.000021,0.000001,-0.000021,-0.000026,84.567016,0.000047,
2221,2788,-0.842441168318825,3.11912417302154,-0.0210783562748134,0.000889,0.000433,-0.007159,0.064000,0.001064,318.282821,24.492358,0.999372,0.992151,0.003823,0.402866,-0.000023,-0.000015,0.000002,-0.000015,-0.000024,73.181555,0.000038,
2431,2428,3.79782714454939,-4.72562603359393,-0.00976979664432065,0.000683,-0.000237,-0.003360,0.043576,-0.036082,324.112534,23.530795,0.999363,0.987858,0.004628,0.269087,-0.000031,-0.000011,0.000015,-0.000003,-0.000039,62.089293,0.000047,
2191,2533,-1.45161858884153,-2.43667130126769,-0.0177621568872155,0.000674,0.000195,0.001599,0.026065,0.026486,322.492602,24.236786,0.999243,0.989977,0.004190,0.407034,-0.000007,-0.000022,0.000002,-0.000007,-0.000022,8.623821,0.000030,
2131,2473,-2.74658355447767,-3.74591170136799,-0.0203359818504509,0.000977,0.000618,-0.004583,0.058806,0.007844,323.689595,24.396930,0.999234,0.988928,0.004513,0.305348,-0.000012,-0.000021,-0.000013,-0.000003,-0.000030,-34.762584,0.000037,
2416,2413,3.47434272868771,-5.05336688048415,-0.00757525411268034,0.001134,0.000769,-0.005690,0.073086,0.032489,324.380387,23.511411,0.999667,0.988515,0.004355,0.350315,-0.000029,-0.000002,0.000017,0.000006,-0.000038,64.110410,0.000040,
2101,2428,-3.3915654662121,-4.72955578917404,-0.0115857928288392,0.001059,0.000733,-0.002308,0.055656,0.022663,324.619755,24.427634,0.999342,0.988458,0.004330,0.350894,-0.000011,-0.000024,-0.000006,-0.000009,-0.000027,-20.814394,0.000037,
2161,2593,-2.11444039381881,-1.12898716581115,-0.0241106490549328,0.000788,-0.000161,-0.000536,0.037820,-0.011963,321.579740,24.339628,0.999114,0.989570,0.004237,0.361388,-0.000017,-0.000024,-0.000001,-0.000017,-0.000024,-5.920373,0.000041,
2161,2428,-2.08586759008609,-4.72839580216889,-0.0170314536009641,0.001063,0.000733,-0.007763,0.072826,0.004946,324.342137,24.260808,0.999177,0.987094,0.004596,0.334457,-0.000015,-0.000032,-0.000016,-0.000005,-0.000042,-31.233772,0.000052,
2251,2908,-0.210287095118385,5.72950858628712,-0.000289982054312077,0.000939,0.000280,-0.004798,0.059113,0.014162,316.431222,24.772891,0.999770,0.993884,0.003193,0.342527,-0.000023,-0.000020,0.000000,-0.000020,-0.000023,89.162079,0.000043,
2476,2998,4.663985617921,7.70084512480303,-0.00913663684519861,0.000845,0.000280,-0.002350,0.047922,0.010681,314.926416,25.515684,0.999298,0.990589,0.003904,0.367656,-0.000019,0.000006,0.000020,0.000017,-0.000030,61.336401,0.000030,
2326,3208,1.36591593672876,12.2447110806408,0.0334718712626341,0.000756,0.000184,-0.001790,0.041076,0.005050,311.698983,25.511585,0.999606,0.994387,0.003158,0.409580,-0.000013,-0.000005,0.000004,-0.000003,-0.000015,65.590240,0.000020,
2146,2518,-2.42870707889812,-2.76388535094495,-0.0326780026092592,0.000873,-0.000109,-0.001738,0.045335,-0.014283,322.785817,24.302077,0.999036,0.987483,0.004586,0.370613,-0.000014,-0.000021,-0.000014,-0.000003,-0.000032,-37.995295,0.000039,
2176,2653,-1.7989530891929,0.18044293340791,-0.0382864977777331,0.000978,0.000304,-0.002528,0.052927,0.010356,320.451219,24.382918,0.999619,0.990621,0.003941,0.375278,-0.000015,-0.000014,0.000001,-0.000014,-0.000016,60.241744,0.000030,
2131,2353,-2.72656595089705,-6.36754389333499,-0.00721735497324971,0.000805,0.000828,-0.003895,0.048883,0.025795,325.726135,24.318922,0.999268,0.987140,0.004549,0.343561,-0.000012,-0.000024,-0.000013,-0.000004,-0.000032,-31.970006,0.000040,
2146,2398,-2.40711423247512,-5.38564754455277,-0.00751119718012205,0.001010,0.000000,-0.004075,0.058707,-0.027861,324.948483,24.228553,0.998592,0.987384,0.004753,0.356452,-0.000022,-0.000008,-0.000016,0.000003,-0.000033,-56.693843,0.000036,
2341,3253,1.68121239636984,13.2235408217561,0.00873781333530133,0.000731,0.000051,-0.002032,0.040831,0.000227,310.746261,25.720696,0.999414,0.993442,0.003312,0.374744,-0.000014,-0.000003,0.000003,-0.000002,-0.000015,74.264025,0.000018,
2116,2383,-3.05787674869021,-5.7134664630424,-0.0103189584388019,0.001018,0.000229,-0.003851,0.058191,-0.026853,325.291031,24.295912,0.999082,0.986355,0.004727,0.376546,-0.000021,-0.000002,-0.000014,0.000005,-0.000029,-61.652876,0.000031,
2086,2353,-3.70601025970957,-6.36833325158307,-0.00600043857212995,0.000777,0.000630,-0.004362,0.048456,0.013074,325.941802,24.454882,0.998486,0.982484,0.005332,0.352016,-0.000017,-0.000022,-0.000008,-0.000011,-0.000028,-36.353632,0.000040,
2461,2728,4.3908792981323,1.82540275928056,-0.027888986704852,0.000954,0.000721,-0.005988,0.066643,0.011615,319.163326,24.548911,0.999645,0.992875,0.003458,0.319278,-0.000065,0.000001,-0.000005,0.000002,-0.000065,-85.358565,0.000075,
2386,2188,2.86376896716019,-9.97994118738876,0.00597396290845609,0.000588,0.000720,-0.005026,0.045183,0.019825,328.072431,22.953486,0.999153,0.982877,0.005187,0.303383,-0.000031,-0.000007,-0.000019,0.000003,-0.000042,-61.047017,0.000046,
2401,2263,3.17594316466602,-8.33594562471966,-0.0048576316096387,0.000834,0.000096,-0.002128,0.045930,0.012031,326.785641,23.098023,0.999301,0.987277,0.004588,0.313472,-0.000038,-0.000013,-0.000022,-0.000001,-0.000050,-59.811018,0.000059,
2206,2668,-1.14856525244746,0.507590099459968,-0.0274571867093414,0.000735,0.000681,-0.004496,0.048269,0.012915,320.202067,24.412076,0.999518,0.992602,0.003675,0.348497,-0.000011,-0.000005,0.000004,-0.000003,-0.000013,61.418390,0.000017,
2176,2533,-1.77774348842032,-2.43711698666769,-0.0192486829144514,0.000746,0.000254,-0.002383,0.041736,0.001991,322.543594,24.265299,0.998782,0.988795,0.004415,0.380077,-0.000015,-0.000019,-0.000005,-0.000012,-0.000023,-33.233198,0.000035,
2311,3043,1.06903720111783,8.66524034149688,0.0114776516071515,0.000664,0.000041,-0.000571,0.032535,0.003313,314.216998,25.164776,0.999571,0.992574,0.003506,0.339794,-0.000019,-0.000015,0.000004,-0.000012,-0.000021,55.677489,0.000034,
2281,2953,0.432358940747054,6.70984043950781,-0.0131839525920441,0.000830,0.000323,-0.004078,0.051969,-0.002209,315.532391,24.888103,0.999302,0.990810,0.003873,0.351095,-0.000026,-0.000016,-0.000006,-0.000013,-0.000029,-63.974040,0.000043,
2296,3043,0.743534021045125,8.66428692007682,0.0117042577692246,0.001002,0.000043,-0.000469,0.047746,0.008264,314.248361,25.125378,0.999366,0.990631,0.003847,0.335152,-0.000021,-0.000017,-0.000001,-0.000016,-0.000021,-78.962220,0.000037,
2446,2698,4.06866845961425,1.17146949627805,-0.0374448465246928,0.000519,0.000642,-0.003475,0.037058,0.016829,319.511970,24.411694,0.999616,0.991372,0.003792,0.354731,-0.000041,0.000008,-0.000016,0.000013,-0.000045,-73.412761,0.000047,
2476,3013,4.66075627288411,8.02680688741668,-0.00608685224199235,0.000456,0.000180,-0.001788,0.027802,-0.000540,314.686298,25.594792,0.999502,0.992757,0.003458,0.333242,-0.000026,0.000015,0.000019,0.000022,-0.000033,68.755582,0.000034,
2431,2443,3.79457807507884,-4.39761760787673,-0.0126878957775602,0.000734,0.000036,-0.002233,0.041904,-0.013318,323.843119,23.543385,0.999195,0.987295,0.004637,0.330883,-0.000023,-0.000040,0.000015,-0.000014,-0.000048,29.439633,0.000066,
2236,2818,-0.522018801299982,3.77246361000414,-0.0204986748735791,0.000827,0.000251,-0.002615,0.046606,0.003288,317.746841,24.545198,0.999470,0.991482,0.003874,0.405658,-0.000012,-0.000011,0.000000,-0.000011,-0.000012,71.526992,0.000023,
2326,3223,1.36267887895631,12.5703603062739,0.029153929579536,0.000563,0.000287,-0.003005,0.036444,0.008456,311.411992,25.552492,0.999457,0.994040,0.003132,0.405220,-0.000016,0.000002,0.000003,0.000003,-0.000016,81.104918,0.000017,
2371,2113,2.55080090887236,-11.6252158546445,0.0113620883126941,0.000622,0.000599,-0.003044,0.039464,0.013966,329.311393,22.788209,0.999032,0.979553,0.005564,0.320903,-0.000029,-0.000018,-0.000001,-0.000018,-0.000029,-82.256831,0.000047,
2251,2923,-0.213889375847515,6.05514399861597,-0.00617078420077632,0.000696,-0.000149,-0.001080,0.035517,-0.006093,316.114323,24.739948,0.999698,0.993930,0.003300,0.378166,-0.000026,-0.000022,0.000000,-0.000022,-0.000026,-88.940361,0.000047,
2341,3268,1.67749405079642,13.549250080508,9.90307506185673E-05,0.000789,-0.000126,0.001671,0.030520,0.007898,310.416993,25.753285,0.999382,0.993726,0.003273,0.384957,-0.000014,-0.000005,0.000008,0.000000,-0.000019,58.657888,0.000021,
2131,2488,-2.74917786743166,-3.41995439087296,-0.0211269377168719,0.000947,0.000179,-0.003192,0.053144,-0.006583,323.435754,24.289915,0.999255,0.988439,0.004538,0.404680,-0.000018,-0.000012,-0.000018,0.000003,-0.000033,-49.830039,0.000037,
2161,2443,-2.08822709023945,-4.40244280465571,-0.00861971248571081,0.001088,-0.000082,-0.000686,0.052075,-0.006364,324.149896,24.221877,0.999159,0.987554,0.004620,0.373418,-0.000016,-0.000035,-0.000019,-0.000005,-0.000046,-31.504400,0.000057,
2161,2608,-2.11645343169849,-0.801739557722541,-0.0215748751153342,0.000847,0.000600,-0.004278,0.052275,0.013052,321.371962,24.379349,0.999278,0.991915,0.003962,0.357555,-0.000017,-0.000029,0.000001,-0.000017,-0.000029,4.177694,0.000046,
2386,2203,2.86092505648591,-9.65042575758117,-0.00254147674468186,0.001190,0.000772,-0.006532,0.078154,-0.000872,327.792184,23.001904,0.998713,0.980566,0.005513,0.280334,-0.000038,-0.000010,-0.000019,0.000000,-0.000048,-62.668644,0.000055,
2266,3028,0.0940755316304127,8.33658136392733,0.00254705254360488,0.000707,0.000273,-0.005527,0.050948,-0.011203,314.461917,24.975017,0.999244,0.991279,0.003778,0.343348,-0.000030,-0.000023,-0.000001,-0.000023,-0.000030,-77.446549,0.000053,
2176,2668,-1.80040408473262,0.505827330906698,-0.0238141159981069,0.000986,0.000480,-0.003724,0.057080,0.015456,320.333247,24.389928,0.999634,0.992984,0.003488,0.385512,-0.000016,-0.000012,-0.000002,-0.000011,-0.000016,-71.000335,0.000027,
2416,2428,3.47096968618454,-4.72522575799445,-0.014198255606118,0.001071,0.000542,-0.007829,0.077874,-0.015724,324.086989,23.566674,0.999492,0.987975,0.004473,0.295971,-0.000027,-0.000014,0.000017,-0.000002,-0.000039,55.625429,0.000046,
2206,2758,-1.1639598919955,2.46647869736833,-0.0235084744107326,0.000824,0.000234,-0.000642,0.040089,0.027772,318.765532,24.478291,0.999374,0.991548,0.003826,0.398735,-0.000025,-0.000022,-0.000001,-0.000022,-0.000025,-75.789397,0.000046,
2131,2368,-2.72888903913239,-6.03999121297083,-0.0122581279052838,0.000966,0.000906,-0.007862,0.068161,0.008262,325.461780,24.278834,0.999027,0.987918,0.004493,0.373652,-0.000013,-0.000006,-0.000010,0.000001,-0.000020,-54.725925,0.000023,
2146,2413,-2.41044542405637,-5.05664612031477,-0.0193971177272374,0.000925,-0.000015,-0.003985,0.054553,-0.018037,324.602719,24.245213,0.998533,0.987606,0.004969,0.359422,-0.000016,-0.000017,-0.000022,0.000006,-0.000039,-44.255121,0.000042,
2116,2398,-3.06030185157137,-5.38527734134703,-0.0125508769722273,0.000956,0.000626,-0.006537,0.063433,-0.005620,325.035354,24.312883,0.998874,0.986682,0.004725,0.386063,-0.000023,-0.000002,-0.000019,0.000009,-0.000034,-59.332126,0.000035,
2146,2533,-2.43061123591395,-2.43739163157892,-0.0220141090051129,0.000769,0.000313,-0.000981,0.038422,0.013052,322.625167,24.320555,0.999140,0.989488,0.004191,0.387966,-0.000016,-0.000020,-0.000006,-0.000012,-0.000024,-35.876347,0.000037,
2221,2803,-0.846296807085093,3.44623249789307,-0.0296209885794383,0.000523,0.000051,-0.003250,0.034494,-0.003162,317.937800,24.521444,0.999225,0.990458,0.004076,0.388486,-0.000024,-0.000020,0.000003,-0.000018,-0.000026,61.321535,0.000044,
2401,2278,3.17168906718597,-8.00545755770181,-0.0161469478305776,0.000615,0.000029,0.000483,0.026457,-0.010598,326.428781,23.239578,0.999768,0.994747,0.003284,0.197373,-0.000038,-0.000003,-0.000016,0.000003,-0.000044,-68.792477,0.000049,
2191,2683,-1.47666572204252,0.83232465464198,-0.0165983385104482,0.000788,0.000361,-0.001788,0.042018,0.023284,320.087258,24.383618,0.999638,0.993997,0.003324,0.408251,-0.000012,0.000000,0.000003,0.000001,-0.000013,75.638022,0.000014,
2191,2548,-1.45415353997866,-2.1099225652839,-0.014791403280185,0.000431,0.000223,0.000944,0.016966,0.028756,322.265608,24.239285,0.999392,0.991206,0.003998,0.422163,-0.000008,-0.000009,0.000005,-0.000004,-0.000013,40.838204,0.000017,
2206,2683,-1.15073854226968,0.834456714790207,-0.0315636987055541,0.001247,0.000932,-0.007054,0.080028,0.017404,319.955986,24.405969,0.999656,0.993706,0.003462,0.376480,-0.000015,0.000003,0.000003,0.000003,-0.000016,81.750667,0.000017,
2461,2743,4.3867098246292,2.15163226795592,-0.0333828558752316,0.000578,-0.000084,-0.002154,0.034586,-0.021580,318.841285,24.534025,0.999664,0.992243,0.003551,0.355540,-0.000065,-0.000004,-0.000010,-0.000002,-0.000067,-80.751870,0.000078,
2446,2713,4.06573065836263,1.49858996961946,-0.0422445940913576,0.000783,0.000740,-0.005800,0.057894,0.014891,319.248322,24.443557,0.999699,0.992829,0.003574,0.373549,-0.000046,0.000006,-0.000015,0.000010,-0.000050,-74.566234,0.000053,
2176,2548,-1.78044124827577,-2.10972858689277,-0.0234761543678133,0.000864,0.000069,-0.002190,0.046519,0.000701,322.270286,24.265960,0.999022,0.989110,0.004304,0.391423,-0.000016,-0.000009,-0.000003,-0.000008,-0.000017,-70.747417,0.000025,
2476,3028,4.65824690572486,8.35228479734711,-0.000235452107972378,0.000623,-0.000030,-0.000366,0.030051,0.008926,314.492134,25.630790,0.999643,0.993696,0.003327,0.362353,-0.000021,0.000010,0.000016,0.000017,-0.000028,67.081776,0.000028,
2341,3283,1.67414501945273,13.8747296062746,-0.00916684231759746,0.000793,0.000023,-0.000800,0.039356,0.004558,310.101684,25.777117,0.999465,0.994398,0.003141,0.392928,-0.000010,-0.000008,0.000007,-0.000003,-0.000016,48.826635,0.000020,
2281,2968,0.430045092638988,7.03589410849064,-0.010402843149393,0.000865,0.000401,-0.006451,0.061605,0.004765,315.320325,24.941446,0.999224,0.991123,0.003875,0.331832,-0.000029,-0.000016,-0.000003,-0.000015,-0.000030,-77.895543,0.000046,
2431,2458,3.79154433013316,-4.06954962576202,-0.0140209598073966,0.000729,0.000745,-0.002874,0.044304,0.022373,323.590805,23.568563,0.999382,0.987871,0.004536,0.392948,-0.000025,-0.000040,0.000009,-0.000021,-0.000044,24.489852,0.000066,
2296,3058,0.740476997318076,8.98953014532377,0.00682604683578347,0.000766,0.000300,-0.004401,0.050304,0.008803,313.965111,25.082791,0.999536,0.993220,0.003445,0.407388,-0.000021,-0.000019,0.000000,-0.000019,-0.000021,81.879816,0.000040,
2236,2833,-0.524714628301066,4.09922384526097,-0.0207801424374452,0.000852,-0.000141,-0.001837,0.045097,-0.007909,317.498659,24.621624,0.999461,0.991892,0.003677,0.339035,-0.000009,-0.000004,0.000003,-0.000003,-0.000010,65.986207,0.000013,
2251,2938,-0.21653723873408,6.38033657972073,-0.00629791779493871,0.000873,-0.000273,0.000950,0.036967,-0.007530,315.870503,24.692999,0.999674,0.994746,0.003091,0.446474,-0.000026,-0.000016,-0.000001,-0.000016,-0.000026,-82.103702,0.000043,
2371,2128,2.54809244204787,-11.2964585426739,0.00957248799159061,0.000743,0.000845,-0.005194,0.052716,0.020396,329.068071,22.782886,0.999171,0.983443,0.005201,0.376664,-0.000026,-0.000011,-0.000006,-0.000009,-0.000028,-71.342691,0.000039,
2311,3058,1.06619757136271,8.9903409871114,0.012647478105805,0.000519,0.000000,-0.000489,0.025535,-0.009931,313.974896,25.162323,0.999696,0.994047,0.003206,0.360144,-0.000019,-0.000018,0.000005,-0.000014,-0.000024,48.224384,0.000038,
2161,2623,-2.1194647190753,-0.473792211335045,-0.0298806144958803,0.001000,0.000457,-0.002665,0.054300,0.015378,321.061241,24.417952,0.999472,0.992191,0.003812,0.332185,-0.000017,-0.000034,-0.000001,-0.000017,-0.000034,-2.221513,0.000052,
2326,3238,1.35941032163846,12.8965513271937,0.018516632870103,0.000829,0.000011,-0.004073,0.052308,-0.004725,311.092279,25.628587,0.999375,0.993429,0.003307,0.348953,-0.000017,-0.000003,0.000002,-0.000003,-0.000017,81.638983,0.000021,
2116,2413,-3.06290440090005,-5.05714191982344,-0.00976543614928005,0.000759,0.000212,-0.003651,0.045743,-0.007838,324.798546,24.401265,0.999140,0.987875,0.004627,0.300408,-0.000019,-0.000012,-0.000024,0.000009,-0.000040,-49.043774,0.000043,
2176,2683,-1.803126289398,0.832207873207771,-0.0281667712713443,0.001077,0.000331,-0.003821,0.061527,0.011353,320.058262,24.345065,0.999461,0.992268,0.003643,0.439272,-0.000019,-0.000005,-0.000003,-0.000005,-0.000019,-79.664622,0.000025,
2416,2443,3.46745030652313,-4.39794559313,-0.0117519591860855,0.000642,0.000450,-0.003543,0.042571,0.008867,323.828992,23.561194,0.999467,0.988595,0.004390,0.375259,-0.000019,-0.000040,0.000017,-0.000009,-0.000049,29.218299,0.000063,
2206,2773,-1.16623253064264,2.79324967053235,-0.0231882546620454,0.000953,0.000308,-0.003017,0.053572,0.027589,318.537669,24.531304,0.999395,0.991274,0.003923,0.362267,-0.000023,-0.000020,-0.000001,-0.000019,-0.000023,-72.784845,0.000042,
2146,2428,-2.41230574587771,-4.72795016699048,-0.0206401538181353,0.001289,0.001157,-0.008652,0.085786,0.019300,324.380520,24.313190,0.999037,0.987716,0.004675,0.338044,-0.000016,-0.000031,-0.000016,-0.000006,-0.000041,-32.066882,0.000052,
2206,2698,-1.15446371436137,1.16085782753369,-0.0399748649975891,0.000923,0.000408,-0.003595,0.053972,-0.005301,319.616661,24.354483,0.999446,0.992876,0.003545,0.422520,-0.000018,-0.000009,0.000006,-0.000006,-0.000021,63.404448,0.000029,
2131,2503,-2.75179066050728,-3.09202378763695,-0.0309407772170402,0.001314,0.000600,-0.004591,0.074333,0.010742,323.132397,24.254926,0.999133,0.987116,0.004603,0.464230,-0.000012,-0.000015,-0.000018,0.000004,-0.000032,-42.027077,0.000034,
2386,2218,2.85841179397517,-9.32333676534218,0.00864425496394006,0.000829,0.000084,-0.004711,0.054851,-0.029775,327.620531,23.048291,0.998966,0.981641,0.005520,0.250366,-0.000036,-0.000015,-0.000018,-0.000004,-0.000047,-60.194117,0.000056,
2161,2458,-2.09096755730428,-4.07445439730032,-0.0150589102078129,0.001046,0.000396,-0.003860,0.060033,0.025587,323.861518,24.191953,0.999048,0.988863,0.004473,0.446867,-0.000013,-0.000029,-0.000019,-0.000001,-0.000041,-33.505194,0.000048,
2221,2833,-0.850806941589735,4.09758703624055,-0.0170363106645937,0.000499,-0.000214,-0.001253,0.026919,-0.012028,317.547746,24.557260,0.999345,0.991525,0.003794,0.381182,-0.000015,-0.000002,0.000006,0.000000,-0.000017,68.804218,0.000020,
2221,2818,-0.847986720459179,3.77216790457969,-0.019743634665133,0.000748,0.000070,-0.003353,0.045220,-0.004580,317.787047,24.585534,0.999486,0.991743,0.003807,0.341658,-0.000019,-0.000009,0.000005,-0.000007,-0.000021,67.990506,0.000029,
2266,3043,0.0917547173078646,8.66189980705323,0.00460722761255283,0.000896,0.000110,-0.006159,0.061650,-0.025927,314.245011,24.995825,0.999450,0.992618,0.003591,0.332459,-0.000030,-0.000022,-0.000005,-0.000019,-0.000032,-65.034735,0.000052,
2461,2758,4.38364755879821,2.47875897451672,-0.0335852098830856,0.000653,0.000161,-0.001000,0.033828,0.007108,318.593961,24.586674,0.999674,0.991077,0.003696,0.386234,-0.000055,-0.000008,-0.000014,-0.000004,-0.000058,-74.557031,0.000070,
2191,2698,-1.4798656462987,1.15817610319522,-0.0197021677276439,0.000297,0.000569,-0.002557,0.021860,0.018324,319.798298,24.305980,0.999691,0.995082,0.003076,0.495986,-0.000014,-0.000012,0.000007,-0.000006,-0.000020,50.023783,0.000028,
2146,2548,-2.43286430532035,-2.11103741344323,-0.0196476482770436,0.000710,0.000341,-0.002600,0.040601,0.002986,322.404763,24.293286,0.998954,0.987695,0.004461,0.413839,-0.000015,-0.000017,-0.000003,-0.000012,-0.000019,-36.493391,0.000032,
2476,3043,4.65521470185046,8.67881730752231,-0.00269452519177094,0.000747,0.000309,-0.001510,0.040284,0.030456,314.235683,25.700658,0.999642,0.993550,0.003427,0.369912,-0.000018,0.000010,0.000021,0.000021,-0.000029,61.926928,0.000030,
2401,2293,3.16897830351028,-7.67829594716412,-0.0157673565868208,0.000822,-0.000111,0.000939,0.034211,0.004430,326.197688,23.163189,0.999500,0.991328,0.003863,0.336520,-0.000037,-0.000002,-0.000014,0.000003,-0.000041,-70.533993,0.000046,
2191,2563,-1.45597636089701,-1.78370144184412,-0.0116904873756312,0.000719,0.000273,-0.002208,0.040067,0.004250,322.072123,24.225496,0.999309,0.990759,0.003982,0.426665,-0.000006,-0.000013,-0.000001,-0.000006,-0.000013,-5.645952,0.000020,
2446,2728,4.06312123706455,1.82392384567618,-0.0340262767709305,0.000754,0.000212,-0.002649,0.044572,-0.006446,319.060129,24.440510,0.999669,0.992667,0.003531,0.407381,-0.000050,-0.000002,-0.000009,0.000000,-0.000052,-79.528710,0.000060,
2341,3298,1.67109915386629,14.2001584871915,-0.0134703627842896,0.000701,0.000198,-0.003551,0.044842,0.011745,309.824491,25.817388,0.999577,0.993825,0.003249,0.394873,-0.000009,-0.000015,0.000006,-0.000006,-0.000019,32.195872,0.000026,
2281,2983,0.427520856975001,7.36131926391826,-0.00995161203394446,0.001192,0.000688,-0.004248,0.069394,0.030970,315.087072,24.905604,0.999286,0.991151,0.003861,0.421083,-0.000030,-0.000016,0.000000,-0.000016,-0.000030,89.196074,0.000046,
2176,2563,-1.78280759246926,-1.78186681687692,-0.0262120813104616,0.001054,0.000481,-0.004358,0.062113,-0.000812,322.019822,24.328643,0.998937,0.988017,0.004454,0.340399,-0.000014,-0.000013,-0.000007,-0.000006,-0.000021,-45.450721,0.000028,
2326,3253,1.35548564747586,13.2217796273138,0.00999608129592389,0.000612,-0.000150,-0.000702,0.030525,-0.012887,310.753014,25.628033,0.999270,0.993571,0.003370,0.374190,-0.000018,-0.000004,0.000002,-0.000004,-0.000019,81.368837,0.000024,
2236,2848,-0.527806771504437,4.42568995425796,-0.0290971154825002,0.000951,-0.000157,-0.002402,0.051540,0.001799,317.191303,24.594557,0.999333,0.992034,0.003682,0.396875,-0.000009,0.000002,0.000004,0.000003,-0.000010,70.217579,0.000011,
2431,2473,3.78874656376076,-3.74198749924238,-0.00828789104849648,0.000481,0.000800,-0.002398,0.031241,0.035948,323.382163,23.639769,0.999286,0.987085,0.004569,0.386330,-0.000033,-0.000047,0.000005,-0.000031,-0.000049,17.682504,0.000081,
2371,2143,2.54548698144336,-10.9674410287094,0.0132293677195889,0.000952,0.000280,-0.002228,0.051575,0.020523,328.855356,22.871784,0.998997,0.981020,0.005472,0.331642,-0.000027,-0.000017,-0.000007,-0.000013,-0.000031,-61.960124,0.000045,
2296,3073,0.738203225770935,9.31531001520338,0.0131017230802399,0.000407,0.000393,-0.009518,0.051152,0.005801,313.773108,25.169455,0.999649,0.994666,0.003249,0.346553,-0.000020,-0.000014,-0.000002,-0.000013,-0.000020,-73.831121,0.000034,
2206,2788,-1.16937965853165,3.11880536112875,-0.0230664094711983,0.000553,-0.000031,-0.000541,0.027182,0.009048,318.269015,24.494023,0.999086,0.989753,0.004227,0.397898,-0.000025,-0.000019,0.000000,-0.000019,-0.000025,-85.880315,0.000044,
2206,2713,-1.1571092497567,1.4867224794467,-0.0309896448113705,0.000403,0.000076,-0.001175,0.022293,-0.005778,319.416758,24.378144,0.998822,0.988439,0.004419,0.415034,-0.000017,-0.000016,0.000005,-0.000011,-0.000022,47.441973,0.000033,
2251,2953,-0.2189538168052,6.70799882613821,-0.00730753388529592,0.000919,0.000308,-0.003094,0.052531,-0.001390,315.632033,24.863708,0.999494,0.992956,0.003480,0.304770,-0.000028,-0.000018,-0.000003,-0.000017,-0.000029,-72.877518,0.000047,
2461,2773,4.38054434459546,2.80549551940054,-0.0364736166055764,0.000543,-0.000017,-0.004293,0.041077,-0.012995,318.332575,24.635693,0.999479,0.989495,0.004001,0.371496,-0.000056,-0.000021,-0.000017,-0.000014,-0.000063,-67.970527,0.000082,
2116,2428,-3.06554849830868,-4.73022246664885,-0.00669117551740328,0.000481,0.000255,-0.000956,0.025029,0.003651,324.561611,24.372091,0.999246,0.988525,0.004465,0.345803,-0.000018,-0.000025,-0.000014,-0.000007,-0.000037,-38.122762,0.000047,
2311,3073,1.06399809516487,9.3165525251597,0.015921990645154,0.000685,0.000219,-0.002781,0.041153,0.006091,313.772204,25.250286,0.999702,0.994963,0.003040,0.319378,-0.000019,-0.000012,0.000003,-0.000011,-0.000020,70.450109,0.000031,
2476,3058,4.65314127962951,9.00364768753166,0.0078423133340948,0.000589,0.000030,-0.004525,0.044303,-0.013509,314.083005,25.767830,0.999522,0.991414,0.003939,0.314170,-0.000012,0.000005,0.000020,0.000018,-0.000025,56.385412,0.000025,
2161,2473,-2.09293648044018,-3.74649209205758,-0.0146577753229167,0.001417,0.000796,-0.005604,0.082532,0.028554,323.644525,24.257236,0.999018,0.987380,0.004818,0.395889,-0.000011,-0.000019,-0.000010,-0.000004,-0.000026,-35.074681,0.000033,
2161,2638,-2.12238295642988,-0.147053610827633,-0.0308975027309089,0.000753,0.000139,-0.001078,0.037974,0.005372,320.793484,24.425454,0.999712,0.994227,0.003403,0.325328,-0.000016,-0.000029,0.000000,-0.000016,-0.000029,-1.378318,0.000046,
2221,2848,-0.85332783458804,4.42491847829547,-0.0248078997526022,0.000992,0.000269,-0.003394,0.056677,0.013339,317.267729,24.597561,0.999253,0.991556,0.003737,0.384973,-0.000014,0.000001,0.000007,0.000004,-0.000017,69.890760,0.000018,
2146,2443,-2.41508692383954,-4.40150467031832,-0.0155563641254162,0.001057,0.000582,-0.002031,0.054928,0.014887,324.150309,24.281374,0.999224,0.987552,0.004682,0.374544,-0.000017,-0.000034,-0.000019,-0.000005,-0.000046,-33.167412,0.000056,
2266,3058,0.0888598961872624,8.98774345946208,0.00692651531898036,0.000729,0.000333,-0.003532,0.045415,0.006341,314.002774,25.023651,0.999462,0.992970,0.003521,0.361341,-0.000029,-0.000026,-0.000004,-0.000023,-0.000032,-54.078962,0.000055,
2416,2458,3.46443486225023,-4.06923632072705,-0.0193805571726102,0.001056,0.000852,-0.005190,0.067720,0.010452,323.546881,23.620446,0.999355,0.987782,0.004556,0.366950,-0.000021,-0.000040,0.000013,-0.000014,-0.000046,26.835611,0.000063,
2236,2908,-0.537403428460944,5.72930742903858,-0.00807463213141091,0.000398,0.000278,-0.003050,0.028355,0.019741,316.366551,24.745687,0.999664,0.993270,0.003460,0.346360,-0.000019,-0.000017,0.000004,-0.000014,-0.000022,51.820656,0.000036,
2326,3268,1.35232275837215,13.5480448675836,0.00245451914844352,0.000800,0.000020,-0.001115,0.040752,0.003899,310.453190,25.708484,0.999409,0.994199,0.003171,0.343585,-0.000017,-0.000005,0.000006,-0.000003,-0.000020,66.209014,0.000025,
2131,2518,-2.7540593547143,-2.76560880141705,-0.0164731850101703,0.000823,0.000188,-0.000122,0.038259,0.005173,322.974631,24.328837,0.999230,0.987681,0.004447,0.390899,-0.000010,-0.000023,-0.000012,-0.000003,-0.000030,-30.659409,0.000037,
2356,1993,2.24662810228712,-14.2612834985226,0.028236522548184,0.000404,-0.000222,-0.000132,0.018849,-0.011965,331.357831,22.557424,0.998773,0.970085,0.006972,0.275804,-0.000026,-0.000035,0.000010,-0.000020,-0.000042,33.156504,0.000063,
2401,2308,3.16637479624024,-7.35046684433723,-0.0179455781138245,0.001110,0.000553,-0.001477,0.056421,0.024059,325.959338,23.122733,0.999755,0.994610,0.003370,0.444299,-0.000038,-0.000005,-0.000010,-0.000002,-0.000041,-74.176564,0.000049,
2176,2578,-1.78554011289625,-1.45550121565383,-0.0269411775736899,0.000864,0.000486,-0.004667,0.054301,-0.010276,321.763444,24.284882,0.999080,0.989198,0.004216,0.387879,-0.000014,-0.000011,-0.000006,-0.000006,-0.000019,-52.331101,0.000026,
2446,2743,4.06066777658211,2.14990895955756,-0.0224607063443045,0.000531,-0.000175,-0.000496,0.026133,-0.015908,318.894305,24.515465,0.999621,0.991932,0.003625,0.374977,-0.000051,-0.000005,-0.000013,-0.000002,-0.000054,-75.105155,0.000064,
2191,2713,-1.48292043408003,1.48729426061893,-0.0371152386500739,0.000832,0.000420,-0.005025,0.054189,0.011044,319.440684,24.419397,0.999284,0.991520,0.003769,0.390265,-0.000013,-0.000017,0.000008,-0.000007,-0.000023,36.815163,0.000032,
2176,2698,-1.80647837235142,1.15946469947097,-0.0284866867522169,0.000494,0.000253,-0.000633,0.024801,0.026134,319.775190,24.400017,0.999455,0.992188,0.003593,0.411702,-0.000020,-0.000016,0.000000,-0.000016,-0.000020,-85.396084,0.000036,
2191,2578,-1.45844422869843,-1.4563975463026,-0.0204097385505975,0.001108,0.000452,-0.006357,0.070989,-0.010544,321.787388,24.202445,0.999315,0.991558,0.003848,0.450353,-0.000008,-0.000008,0.000001,-0.000007,-0.000009,35.660066,0.000016,
2146,2563,-2.43524126098274,-1.78389059140255,-0.0164140189009458,0.000544,0.000532,-0.003169,0.034787,0.015749,322.183004,24.327940,0.998956,0.987336,0.004502,0.400850,-0.000014,-0.000023,-0.000009,-0.000009,-0.000028,-31.638173,0.000039,
2281,2998,0.424501681283203,7.68692190273099,-0.00221228028880205,0.000596,0.000173,-0.000672,0.029780,0.007713,314.867498,24.988998,0.999237,0.990718,0.003903,0.340987,-0.000028,-0.000014,0.000000,-0.000014,-0.000028,-89.964862,0.000043,
2461,2788,4.3783237872271,3.1315416322962,-0.0265444801675017,0.000421,0.000432,-0.005542,0.040382,0.002907,318.170454,24.689482,0.999401,0.988404,0.004111,0.387762,-0.000054,-0.000022,-0.000022,-0.000011,-0.000065,-63.243999,0.000083,
2236,2863,-0.529917092256312,4.75196320923219,-0.024015580404523,0.001017,0.000272,-0.003911,0.059569,-0.001365,316.997424,24.667202,0.999239,0.991940,0.003645,0.341663,-0.000013,0.000002,0.000000,0.000002,-0.000013,-89.245645,0.000014,
2326,3283,1.34883181922322,13.8733942921516,-0.0088154887466203,0.000796,0.000096,-0.003433,0.048626,0.003907,310.120209,25.705687,0.999545,0.995337,0.002884,0.379348,-0.000014,-0.000006,0.000005,-0.000004,-0.000016,65.239888,0.000021,
2386,2233,2.85593304435375,-8.99546467057086,0.0195253807673907,0.000745,-0.000306,-0.000160,0.034555,-0.009702,327.448650,23.117811,0.999253,0.984480,0.005344,0.246388,-0.000034,-0.000007,-0.000013,-0.000002,-0.000040,-67.716824,0.000047,
2476,3073,4.6502749014057,9.32873689292194,0.0116767710897534,0.000638,-0.000042,-0.002220,0.037687,-0.019527,313.863115,25.780490,0.999503,0.991849,0.003797,0.351275,-0.000010,0.000005,0.000016,0.000015,-0.000020,57.618724,0.000021,
2431,2488,3.7851767991542,-3.41516400472113,-0.00875985258568335,0.000335,-0.000318,0.002670,0.005371,-0.007253,323.109568,23.647385,0.999049,0.984889,0.004778,0.386603,-0.000023,-0.000057,-0.000008,-0.000021,-0.000058,-12.073470,0.000082,
2251,2968,-0.221768235676048,7.03393122609603,-0.00369520325472195,0.000652,0.000471,-0.001271,0.034377,0.025281,315.399191,24.891174,0.999537,0.994302,0.003289,0.326717,-0.000031,-0.000019,0.000001,-0.000018,-0.000031,83.328646,0.000050,
2206,2728,-1.15886376337609,1.81399200936819,-0.0308472285757375,0.001101,0.000482,-0.002945,0.060150,0.012759,319.211618,24.443850,0.999199,0.990732,0.003930,0.384688,-0.000020,-0.000024,0.000000,-0.000020,-0.000024,0.506126,0.000044,
2371,2158,2.54283338238595,-10.6386918863164,0.0185013548513666,0.000888,0.000294,-0.000472,0.042431,0.016489,328.648125,22.962452,0.999298,0.983257,0.005325,0.280703,-0.000031,-0.000024,-0.000012,-0.000015,-0.000040,-52.364926,0.000057,
2311,3088,1.06135649305986,9.64142040968152,0.0197422151371143,0.000680,0.000271,-0.000841,0.034306,0.012837,313.552272,25.230802,0.999725,0.995597,0.002930,0.376874,-0.000018,-0.000011,-0.000001,-0.000011,-0.000018,-77.982848,0.000030,
2161,2488,-2.0962724405907,-3.41799504001986,-0.0264907918008248,0.001190,0.001404,-0.008095,0.079939,0.043334,323.300415,24.252867,0.998824,0.987159,0.004844,0.426633,-0.000017,-0.000008,-0.000014,0.000002,-0.000028,-53.516306,0.000031,
2251,2983,-0.223979981083918,7.35902004693752,0.000523940247433075,0.000851,0.000167,-0.000740,0.041732,0.018558,315.197405,24.882028,0.999518,0.993296,0.003513,0.351407,-0.000029,-0.000018,0.000004,-0.000017,-0.000030,72.453765,0.000048,
2116,2443,-3.06823838389616,-4.40435421120321,-0.00788934568123523,0.000380,-0.000116,0.000953,0.014609,-0.004155,324.300004,24.230522,0.999290,0.989152,0.004448,0.484677,-0.000017,-0.000029,-0.000019,-0.000004,-0.000043,-36.240905,0.000052,
2206,2803,-1.17230236617115,3.44553019524409,-0.0270022476676672,0.000495,0.000138,-0.000484,0.024401,0.008823,317.989292,24.519029,0.998594,0.987246,0.004687,0.389072,-0.000026,-0.000023,0.000001,-0.000023,-0.000026,72.902479,0.000049,
2236,2923,-0.540326420760834,6.05472213259576,-0.0174660426720834,0.000844,0.000250,-0.002198,0.046088,0.009288,316.061674,24.657838,0.999653,0.993713,0.003398,0.444552,-0.000023,-0.000018,0.000003,-0.000017,-0.000025,64.932067,0.000042,
2401,2323,3.1638833465559,-7.02318647883257,0.00125962440785088,0.000117,0.000358,-0.000208,0.006263,0.024030,325.826704,23.269337,0.999362,0.988521,0.004272,0.344540,-0.000045,-0.000003,-0.000006,-0.000002,-0.000046,-82.356734,0.000055,
2161,2653,-2.12520486571611,0.179719585642523,-0.035331097168239,0.000769,0.000215,-0.000396,0.036685,0.010173,320.512082,24.397491,0.999673,0.992817,0.003551,0.368753,-0.000016,-0.000017,0.000001,-0.000016,-0.000017,29.321797,0.000033,
2221,2863,-0.855925164761711,4.75127738692463,-0.028485406331356,0.001023,0.000356,-0.006934,0.069432,-0.011422,317.005573,24.634248,0.999280,0.992493,0.003547,0.342199,-0.000016,0.000000,0.000002,0.000000,-0.000016,83.595673,0.000019,
2416,2473,3.46157371565315,-3.74342295914656,-0.0075033265305251,0.000296,0.000517,-0.003779,0.027569,-0.003674,323.363386,23.616004,0.999137,0.986782,0.004715,0.405958,-0.000026,-0.000045,0.000011,-0.000021,-0.000050,24.696626,0.000073,
2176,2593,-1.78804998175886,-1.12874123936621,-0.0234082148476205,0.000757,-0.000019,-0.002870,0.043667,-0.025441,321.539460,24.324631,0.999030,0.989366,0.004214,0.345866,-0.000017,-0.000020,0.000000,-0.000017,-0.000020,6.836140,0.000036,
2446,2758,4.0570003328847,2.47772671813239,-0.0336076160124321,0.000698,0.000128,-0.001438,0.037452,-0.009241,318.567437,24.566307,0.999609,0.990791,0.003810,0.383486,-0.000043,-0.000006,-0.000015,-0.000001,-0.000048,-70.694037,0.000056,
2356,2008,2.24369754364492,-13.9300816787054,0.0220061727046641,0.000723,0.000588,-0.000998,0.036812,0.018815,331.081801,22.654031,0.998646,0.976791,0.006292,0.252828,-0.000021,-0.000033,0.000009,-0.000016,-0.000038,27.330545,0.000055,
2296,3088,0.735594433600745,9.64020295224257,0.014109478936291,0.000827,0.000315,-0.004775,0.054361,0.002211,313.539768,25.144674,0.999586,0.993982,0.003379,0.396942,-0.000019,-0.000015,-0.000005,-0.000011,-0.000023,-56.550769,0.000034,
2266,3073,0.0868136235459609,9.312667476656,0.0180973149286956,0.000621,0.000441,-0.002963,0.038581,0.012248,313.844465,25.053537,0.999408,0.992280,0.003659,0.361915,-0.000027,-0.000020,-0.000007,-0.000016,-0.000032,-58.001077,0.000048,
2176,2713,-1.80846671438286,1.48621998048212,-0.0291668587141203,0.000773,0.000374,-0.005188,0.051790,0.005726,319.552972,24.445483,0.999364,0.991570,0.003727,0.358327,-0.000018,-0.000019,0.000002,-0.000016,-0.000020,38.729559,0.000037,
2461,2803,4.37452758349467,3.4594680581421,-0.0329743826137587,0.000552,-0.000090,-0.001122,0.029585,0.002864,317.860496,24.809573,0.999379,0.988534,0.004189,0.322174,-0.000053,-0.000028,-0.000020,-0.000017,-0.000065,-60.500134,0.000086,
2476,3088,4.6469268076146,9.65487069408844,0.0133883723142958,0.000470,-0.000165,0.001103,0.017384,0.002198,313.610962,25.851787,0.999361,0.992791,0.003617,0.357271,-0.000003,0.000006,0.000013,0.000015,-0.000012,54.434863,0.000016,
2326,3298,1.34563128915922,14.1982269390696,-0.00713350934671553,0.000413,0.000296,-0.001665,0.025008,0.025459,309.864350,25.708531,0.999616,0.995438,0.002906,0.430933,-0.000009,-0.000013,0.000006,-0.000004,-0.000018,34.352691,0.000023,
2131,2533,-2.75646465584867,-2.43795963839428,-0.019862954451412,0.000873,0.000564,-0.003172,0.049843,0.023647,322.715060,24.335002,0.999069,0.987524,0.004496,0.410054,-0.000013,-0.000022,-0.000004,-0.000012,-0.000023,-20.160162,0.000036,
2191,2728,-1.48464603462625,1.81328624343774,-0.0327744844001359,0.001205,0.000633,-0.007328,0.078646,0.009882,319.257944,24.421387,0.999260,0.990988,0.003852,0.401957,-0.000015,-0.000024,0.000005,-0.000013,-0.000026,23.785228,0.000040,
2191,2593,-1.46147593959807,-1.12824081891028,-0.0211992280123923,0.000977,0.000298,-0.002062,0.051472,0.006586,321.517656,24.300469,0.999050,0.989302,0.004206,0.384946,-0.000010,-0.000017,0.000007,-0.000005,-0.000022,32.340270,0.000029,
2281,3013,0.421622463931879,8.01254839695632,-0.00322420961316539,0.000649,-0.000104,0.001111,0.026164,0.007056,314.610509,24.996333,0.999203,0.990283,0.003920,0.360026,-0.000025,-0.000020,-0.000001,-0.000019,-0.000025,-77.451885,0.000045,
2236,2878,-0.531676725624546,5.0767845621882,-0.0112336157760637,0.000990,0.000362,-0.003946,0.058449,-0.003730,316.859346,24.665626,0.999484,0.992525,0.003499,0.361513,-0.000018,0.000000,-0.000001,0.000000,-0.000018,-86.163269,0.000021,
2431,2503,3.78289433643395,-3.08823504461098,-0.00869155126747501,0.000584,-0.000187,-0.002691,0.036589,-0.041791,322.898476,23.665597,0.999245,0.988040,0.004379,0.384916,-0.000024,-0.000059,-0.000011,-0.000021,-0.000062,-16.213089,0.000086,
2251,2998,-0.226500856145517,7.6840179933728,0.00294755277263903,0.000839,0.000226,-0.000629,0.040814,0.014479,314.972312,24.853289,0.999507,0.992484,0.003632,0.398808,-0.000029,-0.000018,0.000003,-0.000018,-0.000030,74.979197,0.000048,
2386,2248,2.85172638528519,-8.66490206321279,0.0011112226992509,0.000855,0.000282,-0.000489,0.041020,0.020732,327.058546,23.126061,0.999195,0.984758,0.005167,0.315087,-0.000032,-0.000013,-0.000012,-0.000007,-0.000037,-65.038154,0.000048,
2146,2578,-2.43842444092585,-1.45571969860759,-0.024593241394939,0.000541,0.000516,-0.000593,0.026860,0.032676,321.863580,24.357078,0.999166,0.989315,0.004275,0.397431,-0.000015,-0.000020,-0.000009,-0.000008,-0.000027,-38.764171,0.000037,
2281,3133,0.401193163691087,10.6156008523012,0.0116985412568624,0.000702,0.000202,-0.002604,0.041075,-0.005704,312.788903,25.173528,0.999648,0.995002,0.003197,0.384309,-0.000021,-0.000009,-0.000004,-0.000008,-0.000022,-73.607653,0.000031,
2206,2818,-1.17431825992085,3.77107699043266,-0.0237717159697581,0.000746,0.000104,-0.001882,0.040350,0.002830,317.788553,24.500956,0.998913,0.989287,0.004279,0.417759,-0.000021,-0.000010,0.000004,-0.000009,-0.000022,72.112647,0.000032,
2401,2338,3.161610661998,-6.69553035264398,0.00338773910794998,0.000384,0.000613,-0.002812,0.028033,0.017633,325.623791,23.290747,0.998934,0.982900,0.004982,0.364085,-0.000043,0.000001,-0.000005,0.000002,-0.000044,-83.492831,0.000050,
2371,2173,2.53981291352219,-10.3114204851444,0.0127867586581374,0.000849,0.000420,-0.004449,0.054777,-0.006300,328.371965,22.824944,0.999259,0.983290,0.005215,0.439311,-0.000030,-0.000015,-0.000011,-0.000009,-0.000036,-61.630370,0.000047,
2311,3103,1.0584900947628,9.96734602304797,0.017342551810259,0.000579,0.000285,-0.003466,0.038623,0.007266,313.290917,25.285429,0.999491,0.993718,0.003393,0.347952,-0.000018,-0.000005,-0.000001,-0.000005,-0.000018,-85.166349,0.000024,
2416,2488,3.4582783198182,-3.41517321665691,-0.0141208507442911,0.000684,0.000125,-0.001269,0.036047,-0.007985,323.073094,23.658920,0.999254,0.988074,0.004428,0.407982,-0.000015,-0.000053,0.000002,-0.000015,-0.000053,2.827604,0.000071,
2296,3208,0.714113264952477,12.2434486314061,0.0221863328685004,0.000896,0.000494,-0.003788,0.054313,0.016589,311.642241,25.417691,0.999761,0.994939,0.002939,0.368248,-0.000010,-0.000015,-0.000004,-0.000008,-0.000017,-28.587888,0.000025,
2236,2938,-0.542885462123756,6.38089642693311,-0.0125113731752435,0.000700,0.000127,-0.000577,0.034145,0.009236,315.846453,24.736210,0.999565,0.993953,0.003337,0.386549,-0.000024,-0.000013,0.000002,-0.000012,-0.000024,82.325893,0.000037,
2116,2458,-3.07030354106632,-4.0750387087713,-0.012668378290698,0.000824,0.000056,-0.002263,0.044573,-0.013896,324.046975,24.377932,0.999314,0.989510,0.004316,0.332336,-0.000013,-0.000028,-0.000021,0.000001,-0.000043,-35.193442,0.000049,
2356,2023,2.24172585862746,-13.6022257007861,0.0239494099981812,0.001421,0.000443,-0.000982,0.068636,0.021022,330.889206,22.572885,0.998752,0.976239,0.006399,0.378311,-0.000018,-0.000017,0.000015,-0.000003,-0.000032,46.816664,0.000039,
2206,2743,-1.16141983913284,2.1404367265292,-0.0291247102888406,0.001157,0.000095,-0.000835,0.055899,0.000867,318.978148,24.481407,0.999424,0.991640,0.003820,0.352215,-0.000023,-0.000024,-0.000002,-0.000021,-0.000026,-42.477042,0.000047,
2341,1993,1.91787664685658,-14.2607783755581,0.0284132401413331,-0.000304,-0.000599,0.001945,-0.020884,-0.032163,331.317241,22.692321,0.998661,0.979103,0.006035,0.227381,-0.000036,-0.000043,-0.000009,-0.000031,-0.000049,-33.819324,0.000081,
2161,2503,-2.09931787412766,-3.0900150127052,-0.0369051030397713,0.001301,0.001081,-0.008522,0.086233,0.022876,322.977273,24.255636,0.998848,0.986182,0.004933,0.414938,-0.000012,-0.000012,-0.000014,0.000003,-0.000026,-45.258780,0.000029,
2161,2668,-2.12577495206305,0.504415974693046,-0.0152342470917688,0.001060,0.000665,-0.004644,0.063235,0.014275,320.463631,24.388515,0.999711,0.994116,0.003251,0.391935,-0.000017,-0.000016,-0.000001,-0.000015,-0.000018,-55.253022,0.000032,
2476,3163,4.63229486830497,11.2837133986347,0.0178636525672005,0.000414,0.000190,-0.002191,0.027481,0.008254,312.428134,26.173293,0.999592,0.991681,0.003554,0.319135,0.000001,-0.000007,0.000012,0.000009,-0.000015,36.071780,0.000015,
2266,3088,0.0839946159034497,9.63801214922673,0.0204613921264922,0.000506,-0.000007,-0.000655,0.025509,0.002860,313.606090,25.083976,0.999575,0.993022,0.003498,0.346685,-0.000025,-0.000021,-0.000009,-0.000014,-0.000033,-51.345046,0.000048,
2461,2818,4.37191984334897,3.78487176281865,-0.0271276697683902,0.000434,-0.000185,-0.001701,0.026272,-0.005804,317.661933,24.804971,0.999234,0.987940,0.004417,0.372264,-0.000059,-0.000036,-0.000022,-0.000023,-0.000072,-58.480080,0.000099,
2221,2878,-0.85819712821036,5.07612186978432,-0.0172503452982937,0.000830,0.000295,-0.003356,0.049042,-0.006287,316.835328,24.616111,0.999352,0.993691,0.003317,0.384045,-0.000019,-0.000004,0.000000,-0.000004,-0.000019,89.327532,0.000025,
2476,3103,4.64465328430619,9.98028631071396,0.0161937704413617,0.000763,-0.000163,-0.001836,0.041993,-0.009666,313.413461,25.900875,0.999322,0.992001,0.003752,0.351813,0.000001,0.000006,0.000018,0.000022,-0.000014,48.692473,0.000022,
2191,2743,-1.4868117919004,2.13933860153298,-0.0245964490602546,0.001171,0.000525,-0.005364,0.070867,0.005247,319.074955,24.466910,0.999391,0.991641,0.003808,0.366018,-0.000017,-0.000026,0.000003,-0.000017,-0.000026,16.754761,0.000043,
2131,2548,-2.75887782114591,-2.11095189543616,-0.0195392707067299,0.000811,0.000727,-0.004099,0.049809,0.013869,322.475168,24.348773,0.998741,0.985534,0.004801,0.392994,-0.000012,-0.000019,-0.000002,-0.000012,-0.000020,-14.977350,0.000032,
2281,3028,0.419711791889913,8.33838388284818,-0.000745207150316674,0.000896,0.000482,-0.004201,0.055515,0.012623,314.415406,25.043956,0.999046,0.989594,0.004019,0.345135,-0.000027,-0.000021,-0.000003,-0.000020,-0.000028,-66.086139,0.000048,
2296,3103,0.73302175963072,9.96587390647768,0.0171714455474898,0.000778,0.000287,-0.004877,0.052382,-0.010612,313.318014,25.217529,0.999320,0.992191,0.003810,0.339872,-0.000018,-0.000010,-0.000005,-0.000008,-0.000021,-65.435679,0.000029,
2296,3223,0.7112758165303,12.5675074557072,0.0224698367261453,0.000880,0.000145,-0.002683,0.049695,0.005245,311.394732,25.353253,0.999833,0.995798,0.002734,0.450338,-0.000011,-0.000005,-0.000007,-0.000001,-0.000016,-56.650916,0.000018,
2311,3283,1.02415179694704,13.8713296693791,0.0024554517742672,0.000826,0.000200,-0.002736,0.047536,0.005414,310.224600,25.623699,0.999528,0.995147,0.002849,0.378346,-0.000026,-0.000003,-0.000002,-0.000003,-0.000027,-84.535757,0.000033,
2191,2608,-1.46407095963673,-0.801064002028241,-0.0237464660133924,0.000979,0.000474,-0.003879,0.057347,0.022543,321.259033,24.299497,0.998734,0.987420,0.004542,0.416879,-0.000011,-0.000023,0.000009,-0.000006,-0.000028,28.222456,0.000036,
2476,3178,4.62963753437539,11.6090935501133,0.0183060175467062,0.000677,0.000399,-0.003209,0.043592,0.023116,312.201780,26.196722,0.999659,0.992807,0.003422,0.366178,-0.000001,-0.000007,0.000010,0.000006,-0.000014,36.649310,0.000014,
2236,2893,-0.534393641168887,5.40247985835768,-0.0030534783480789,0.000583,0.000146,-0.000507,0.028546,0.012689,316.653528,24.694856,0.999719,0.992941,0.003420,0.369380,-0.000021,-0.000005,0.000004,-0.000004,-0.000022,75.162690,0.000029,
2311,3118,1.05592005650688,10.2927921697857,0.0185573517046009,0.000708,0.000221,-0.003349,0.044173,0.009621,313.061147,25.314690,0.999343,0.992366,0.003707,0.351923,-0.000014,-0.000007,0.000000,-0.000007,-0.000014,-89.445859,0.000021,
2341,2008,1.91527953815729,-13.930247649971,0.0250752953017468,-0.000117,0.000477,-0.001612,0.000416,0.007861,331.068887,22.751185,0.998402,0.976966,0.006406,0.248936,-0.000029,-0.000038,-0.000007,-0.000025,-0.000041,-29.046612,0.000067,
2356,2038,2.23850101037788,-13.2725947588478,0.0257230569313265,0.000977,0.000358,0.000074,0.044553,0.032445,330.638203,22.647903,0.998969,0.979658,0.005718,0.357132,-0.000020,-0.000024,0.000012,-0.000010,-0.000034,41.019597,0.000046,
2176,2728,-1.811064136668,1.81222127125064,-0.0333741768092182,0.001067,0.000242,-0.004025,0.061646,-0.003355,319.284526,24.386853,0.999391,0.991459,0.003835,0.420505,-0.000020,-0.000023,0.000001,-0.000019,-0.000023,15.111148,0.000042,
2371,2188,2.53656862764121,-9.98031330735025,0.0092502783898567,0.000724,0.000848,-0.004884,0.050794,0.014956,328.095208,23.022853,0.999138,0.982555,0.005188,0.306759,-0.000030,-0.000009,-0.000013,-0.000002,-0.000036,-64.184626,0.000043,
2401,2353,3.15848496613865,-6.36638329924996,-0.00355619212945157,0.000770,0.000397,-0.002394,0.044122,0.004667,325.338867,23.371326,0.998789,0.983189,0.005057,0.318158,-0.000035,0.000009,0.000002,0.000009,-0.000036,87.064074,0.000037,
2281,3148,0.399059678377693,10.9406708612688,0.0230508555972051,0.000686,0.000207,0.000311,0.030644,0.012225,312.627995,25.221720,0.999521,0.993897,0.003576,0.380515,-0.000020,-0.000008,-0.000004,-0.000007,-0.000021,-73.766238,0.000029,
2251,3013,-0.229384960052695,8.00957730630387,0.0040883224868935,0.000597,0.000007,0.000002,0.027550,0.010858,314.723815,24.870973,0.999321,0.991561,0.003751,0.400185,-0.000027,-0.000024,0.000001,-0.000023,-0.000028,75.793078,0.000051,
2146,2593,-2.4404738500145,-1.12872410283268,-0.0305837936558078,0.000993,0.000755,-0.006024,0.064161,0.022807,321.608047,24.329868,0.999110,0.989146,0.004421,0.423433,-0.000017,-0.000022,-0.000003,-0.000016,-0.000023,-25.898897,0.000039,
2461,2833,4.36876411458863,4.11339042882102,-0.0364244776247915,0.000924,0.000323,-0.003542,0.055929,0.012050,317.367967,24.949684,0.999515,0.991186,0.003756,0.299995,-0.000060,-0.000024,-0.000018,-0.000017,-0.000068,-67.145357,0.000089,
2236,2953,-0.544867374596855,6.70666415887864,-0.00820419852232135,0.000796,0.000297,-0.004342,0.050824,0.001121,315.654555,24.784119,0.999457,0.993274,0.003500,0.350939,-0.000027,-0.000014,-0.000002,-0.000014,-0.000027,-82.972153,0.000042,
2161,2518,-2.10274098126314,-2.7631688647443,-0.0346952535934406,0.000651,0.000206,-0.002038,0.036212,-0.006387,322.703511,24.283437,0.998788,0.987205,0.004805,0.368957,-0.000011,-0.000020,-0.000011,-0.000004,-0.000027,-33.504594,0.000034,
2431,2518,3.78059764032572,-2.76066321777347,-0.00481516466777521,0.000842,0.000429,-0.003976,0.053433,-0.004294,322.703965,23.709955,0.998936,0.986621,0.004663,0.428947,-0.000027,-0.000050,-0.000012,-0.000023,-0.000055,-22.758879,0.000080,
2221,2893,-0.860701554416856,5.40164522841825,-0.00876384580482181,0.000425,0.000170,-0.002295,0.027017,0.004914,316.640070,24.637093,0.999585,0.993672,0.003408,0.392339,-0.000022,-0.000009,0.000005,-0.000008,-0.000024,71.864142,0.000033,
2416,2503,3.45496169933664,-3.08637501048015,-0.0234648186807362,0.001038,0.000039,-0.001675,0.053721,-0.022473,322.768948,23.743312,0.999497,0.991094,0.003960,0.358135,-0.000018,-0.000054,-0.000001,-0.000018,-0.000054,-1.880537,0.000075,
2266,3103,0.0815924342177077,9.96388937497872,0.0163831035318935,0.000911,0.000328,-0.003371,0.053297,0.011597,313.354177,25.108470,0.999682,0.994274,0.003279,0.355598,-0.000026,-0.000017,-0.000008,-0.000012,-0.000031,-58.036769,0.000044,
2116,2473,-3.07299334392041,-3.74693718260775,-0.0197639536908127,0.000761,0.000356,-0.005870,0.052437,-0.005435,323.753148,24.380505,0.999345,0.989901,0.004155,0.343180,-0.000012,-0.000019,-0.000013,-0.000002,-0.000029,-37.293794,0.000035,
2191,2758,-1.48937142694308,2.46581669094788,-0.0250977323421466,0.001111,0.000621,-0.006722,0.072439,0.010110,318.828611,24.476923,0.999375,0.992175,0.003672,0.375491,-0.000017,-0.000025,0.000003,-0.000016,-0.000026,19.078564,0.000043,
2161,2683,-2.12883668692196,0.831696890169852,-0.0253654719423366,0.001176,0.000355,-0.004703,0.068634,-0.004426,320.141144,24.392329,0.999441,0.991966,0.003644,0.380141,-0.000018,-0.000010,-0.000002,-0.000010,-0.000019,-75.539163,0.000029,
2311,3298,1.02066169952394,14.1961024280767,-0.00377092432120207,0.000525,0.000215,-0.003595,0.036601,0.000811,309.915358,25.603620,0.999557,0.995359,0.002846,0.424410,-0.000025,-0.000009,-0.000001,-0.000009,-0.000025,-86.195227,0.000034,
2386,2263,2.84761527659648,-8.33494956534277,-0.0144656184467635,0.000614,0.000724,-0.003660,0.041498,0.033276,326.686301,23.133153,0.999139,0.984866,0.004973,0.366673,-0.000032,-0.000019,-0.000016,-0.000008,-0.000042,-56.524852,0.000054,
2476,3118,4.64166625547303,10.30577715675,0.0175089370161459,0.000759,-0.000032,-0.001235,0.039642,0.007045,313.176178,25.922756,0.999496,0.991724,0.003601,0.402410,0.000005,0.000011,0.000015,0.000023,-0.000007,50.998057,0.000024,
2476,3193,4.62683769095765,11.9342635296305,0.0187573803447094,0.000890,0.000395,-0.003106,0.052985,0.020622,311.968886,26.221962,0.999550,0.992610,0.003435,0.394023,0.000002,-0.000001,0.000009,0.000010,-0.000009,40.115145,0.000011,
2341,2023,1.91319938119309,-13.6017997791535,0.023544178907116,0.000544,0.000697,-0.003776,0.038280,0.010065,330.853255,22.684345,0.998681,0.978781,0.006049,0.358033,-0.000026,-0.000022,0.000000,-0.000022,-0.000026,84.012407,0.000049,
2311,3133,1.05281757083833,10.6181076825009,0.0201773168149089,0.000486,0.000116,-0.000405,0.023789,0.003509,312.808885,25.346697,0.999482,0.993569,0.003424,0.344777,-0.000016,-0.000003,0.000002,-0.000003,-0.000016,81.773951,0.000020,
2296,3118,0.730277061850842,10.2912259877853,0.0189655670636739,0.000858,0.000042,-0.002165,0.046869,-0.004976,313.082099,25.238254,0.999528,0.993797,0.003411,0.353698,-0.000013,-0.000012,-0.000004,-0.000009,-0.000017,-48.939787,0.000026,
2206,2833,-1.17613884907201,4.09694783841438,-0.0103125973682836,0.000723,0.000080,0.000117,0.032926,0.007950,317.649525,24.582649,0.999181,0.990909,0.003954,0.357536,-0.000018,-0.000003,0.000005,-0.000002,-0.000019,72.939896,0.000024,
2341,2038,1.90972453719527,-13.270767822619,0.0126023518777174,0.000889,0.000465,-0.001505,0.046098,0.017033,330.528057,22.748556,0.998982,0.981847,0.005436,0.341448,-0.000028,-0.000027,-0.000003,-0.000025,-0.000030,-50.019221,0.000055,
2176,2743,-1.81292676202814,2.13814283416065,-0.0199354131333394,0.000974,0.000082,-0.001842,0.050546,-0.004641,319.142144,24.458642,0.999505,0.991761,0.003887,0.359523,-0.000022,-0.000025,-0.000001,-0.000022,-0.000025,-14.026120,0.000047,
2296,3238,0.7082600613248,12.8934633002654,0.0165884973206403,0.000883,0.000298,-0.005122,0.058225,0.011922,311.107602,25.414691,0.999639,0.993917,0.003175,0.424003,-0.000012,-0.000012,-0.000010,-0.000002,-0.000022,-44.972461,0.000027,
2281,3163,0.396535300544365,11.2664994035724,0.0242032711822731,0.000879,0.000149,0.001192,0.036615,0.017816,312.397734,25.293216,0.999513,0.993320,0.003474,0.341098,-0.000018,-0.000010,-0.000005,-0.000007,-0.000021,-64.825253,0.000029,
2356,2053,2.23624637397858,-12.9444907262669,0.0347600502499859,0.000600,0.000375,-0.003209,0.038881,-0.013337,330.466827,22.727021,0.999042,0.981459,0.005325,0.274065,-0.000017,-0.000025,0.000006,-0.000014,-0.000028,28.327647,0.000043,
2251,3028,-0.231874294899381,8.33547467553287,0.000782288580978729,0.000790,0.000032,-0.003280,0.047136,-0.009816,314.470778,24.911135,0.999147,0.990817,0.003870,0.361874,-0.000030,-0.000026,-0.000002,-0.000025,-0.000031,-67.524364,0.000056,
2491,2083,5.18085950076745,-12.286886084277,0.0154815681005971,0.000855,0.000836,-0.004882,0.058063,0.012887,330.056853,21.910629,0.999415,0.980004,0.005427,0.360964,-0.000005,-0.000063,0.000041,0.000016,-0.000085,27.346247,0.000090,
2131,2563,-2.76174153431046,-1.7824240318491,-0.0286637102324789,0.001031,0.000543,-0.003439,0.057871,0.016444,322.163840,24.411146,0.999120,0.988643,0.004389,0.339989,-0.000012,-0.000025,-0.000008,-0.000008,-0.000029,-25.621673,0.000038,
2431,2533,3.77701650390373,-2.43188755194686,-0.00677619107301553,0.000342,0.000393,-0.004732,0.033302,-0.014049,322.423270,23.864207,0.999263,0.988756,0.004339,0.316010,-0.000022,-0.000056,-0.000013,-0.000018,-0.000060,-18.984734,0.000082,
2281,3043,0.417149999119982,8.66374728302501,0.00446908919184352,0.000882,0.000045,-0.001481,0.045583,0.001810,314.204191,25.086240,0.999324,0.991595,0.003733,0.318651,-0.000027,-0.000018,-0.000005,-0.000016,-0.000029,-64.584624,0.000046,
2401,2368,3.15541080507779,-6.03862626275568,-0.00595957875867725,0.000845,0.000202,-0.001892,0.045637,-0.011222,325.077783,23.377748,0.998698,0.983048,0.005080,0.343136,-0.000036,0.000004,0.000005,0.000004,-0.000037,82.673840,0.000040,
2191,2623,-1.46675274744899,-0.474261149946344,-0.0228488929867581,0.000642,0.000633,-0.005936,0.048316,0.002113,321.014507,24.334932,0.999192,0.988529,0.004333,0.376251,-0.000011,-0.000025,0.000007,-0.000008,-0.000028,22.382940,0.000038,
2416,2518,3.45231018313531,-2.75968505917594,-0.0195906810876068,0.000752,0.000263,-0.005003,0.052829,-0.027771,322.557340,23.750517,0.999262,0.989131,0.004331,0.394230,-0.000022,-0.000047,-0.000004,-0.000021,-0.000048,-8.545541,0.000070,
2371,2203,2.53419308139067,-9.6511240238682,0.00352719419061032,0.001385,0.001382,-0.008357,0.093568,0.027339,327.848037,23.037197,0.998865,0.980969,0.005481,0.348456,-0.000035,-0.000011,-0.000012,-0.000006,-0.000040,-66.689281,0.000050,
2116,2488,-3.07523306997114,-3.42044014203071,-0.0192703332394899,0.000859,0.000384,-0.006279,0.058148,-0.023185,323.521086,24.337547,0.999227,0.988859,0.004318,0.373083,-0.000019,-0.000010,-0.000016,0.000002,-0.000031,-52.245045,0.000034,
2356,2113,2.22271380123005,-11.6243889378569,0.0141256145011539,0.000277,0.000390,0.000321,0.011716,0.035812,329.299907,22.936972,0.999398,0.983067,0.005077,0.282789,-0.000023,-0.000008,-0.000001,-0.000008,-0.000023,-87.111494,0.000032,
2146,2608,-2.44306935194028,-0.801117828324571,-0.0318778279609546,0.001010,0.000386,-0.005190,0.062308,-0.001463,321.352249,24.418952,0.999343,0.991114,0.004076,0.318693,-0.000019,-0.000025,-0.000001,-0.000018,-0.000025,-11.166639,0.000044,
2491,2323,5.12961957073988,-7.02263323997246,-0.00226309217845255,0.000914,0.000100,-0.001637,0.048169,0.005755,326.016630,22.927599,0.998652,0.983346,0.005225,0.320391,-0.000020,0.000034,0.000008,0.000036,-0.000022,81.503519,0.000036,
2326,1993,1.59122182969369,-14.2591645988448,0.0275241349556836,0.000853,0.000460,0.000538,0.037369,0.022750,331.369243,22.840703,0.998133,0.975154,0.006351,0.239931,-0.000061,-0.000024,-0.000028,-0.000009,-0.000076,-61.601872,0.000093,
2266,3118,0.0792134557457764,10.2887749426451,0.0234308107246193,0.000789,0.000369,-0.002556,0.044982,0.011907,313.159736,25.123706,0.999640,0.994355,0.003258,0.365042,-0.000023,-0.000019,-0.000007,-0.000013,-0.000028,-53.507587,0.000042,
2236,2968,-0.547551848847981,7.03214021701709,-0.00287405356448289,0.000636,0.000286,-0.000780,0.031938,0.019492,315.435641,24.789543,0.999454,0.992970,0.003539,0.384300,-0.000029,-0.000015,0.000003,-0.000014,-0.000029,78.610040,0.000045,
2386,2278,2.8457376817905,-8.00815565456159,0.00511726552633718,0.000372,0.000053,-0.000046,0.017240,0.002306,326.583362,23.258100,0.999639,0.992302,0.003703,0.255575,-0.000032,-0.000010,-0.000011,-0.000005,-0.000037,-67.691510,0.000045,
2221,2908,-0.863167610572685,5.72768050613374,-0.00419162515197513,0.000249,0.000233,-0.002465,0.019529,0.019350,316.426292,24.676809,0.999513,0.992540,0.003828,0.385620,-0.000017,-0.000022,0.000003,-0.000016,-0.000023,23.433086,0.000040,
2206,2848,-1.17907706180752,4.42411842247369,-0.021456256007184,0.000918,0.000502,-0.003226,0.052688,0.020461,317.331605,24.595110,0.999201,0.991768,0.003740,0.374312,-0.000018,0.000000,0.000005,0.000001,-0.000019,75.372450,0.000021,
2476,3133,4.63858574293632,10.632203177429,0.017373108214656,0.000676,0.000034,-0.001969,0.038629,0.004182,312.927620,26.045321,0.999517,0.991023,0.003635,0.332123,0.000006,-0.000004,0.000015,0.000016,-0.000015,35.370231,0.000018,
2476,3208,4.6239456736372,12.2593620918723,0.0235799904129408,0.000592,0.000451,-0.003665,0.041357,0.005302,311.751603,26.282552,0.999357,0.992373,0.003583,0.373107,0.000003,-0.000006,0.000006,0.000006,-0.000009,26.219180,0.000009,
2491,2098,5.17923483520773,-11.9596376711426,0.0357463007745196,0.000628,0.000685,-0.004775,0.047256,-0.020739,329.973431,22.039069,0.999589,0.984995,0.004913,0.259870,-0.000013,-0.000068,0.000020,-0.000006,-0.000075,18.353931,0.000090,
2341,2053,1.90775707544895,-12.9433093019575,0.0305485429324222,0.000452,0.000186,-0.000173,0.021385,-0.011783,330.411808,22.852052,0.999158,0.982500,0.005196,0.248319,-0.000026,-0.000030,-0.000009,-0.000018,-0.000037,-37.900198,0.000057,
2191,2773,-1.49309605954217,2.79333448652016,-0.0397298889765807,0.001121,0.000273,-0.004274,0.065100,0.003809,318.455022,24.487679,0.999272,0.990804,0.004017,0.373161,-0.000015,-0.000024,0.000002,-0.000015,-0.000024,9.933090,0.000039,
2356,2068,2.23325299262254,-12.6152069575982,0.0360400140962724,0.000549,0.000352,-0.000495,0.027009,0.012713,330.223903,22.760228,0.999253,0.981311,0.005237,0.309175,-0.000016,-0.000002,0.000011,0.000004,-0.000022,60.644018,0.000024,
2296,3133,0.727404563583356,10.6166281265275,0.0191521348685342,0.000884,0.000045,-0.000082,0.040959,-0.004442,312.832258,25.262499,0.999690,0.995382,0.003097,0.358835,-0.000014,-0.000009,-0.000003,-0.000008,-0.000015,-67.653981,0.000023,
2311,3148,1.05015327557392,10.9436370747107,0.0191745407708481,0.000627,0.000166,-0.001096,0.032763,0.017215,312.563706,25.366317,0.999564,0.993627,0.003436,0.370180,-0.000014,-0.000005,0.000003,-0.000004,-0.000015,75.353464,0.000021,
2296,3253,0.704805607444502,13.2193763895366,0.0132024458650903,0.000699,0.000184,-0.001692,0.038022,0.007707,310.812661,25.501647,0.999573,0.991963,0.003543,0.361134,-0.000014,-0.000010,-0.000009,-0.000003,-0.000021,-49.974498,0.000026,
2251,3043,-0.234069751900005,8.66144384737422,0.00618035152587026,0.000962,0.000142,-0.002275,0.051808,0.000173,314.275323,24.988986,0.999445,0.992351,0.003571,0.316362,-0.000030,-0.000025,-0.000006,-0.000021,-0.000034,-55.191309,0.000055,
2416,2533,3.44919080801369,-2.431706500707,-0.016458787734507,0.000734,-0.000415,-0.000051,0.033654,-0.031465,322.320479,23.872000,0.999181,0.989234,0.004438,0.317830,-0.000019,-0.000052,-0.000007,-0.000017,-0.000054,-11.265446,0.000074,
2491,2338,5.12556756418234,-6.69357166102404,-0.000913067382839472,-0.000249,0.000639,-0.002722,-0.000730,0.014108,325.735358,23.056688,0.998915,0.986920,0.005111,0.260708,-0.000024,0.000036,0.000015,0.000039,-0.000027,77.001663,0.000040,
2161,2698,-2.13228046587184,1.1585432787634,-0.0252085896385665,0.000533,0.000304,-0.000092,0.024950,0.025829,319.855295,24.397641,0.999305,0.989833,0.003925,0.415403,-0.000019,-0.000019,0.000000,-0.000019,-0.000019,-32.752834,0.000038,
2176,2758,-1.81606945152156,2.46542692961967,-0.0299801162886411,0.000972,0.000270,-0.002944,0.053954,0.007784,318.817688,24.459256,0.999296,0.991081,0.003941,0.383919,-0.000021,-0.000024,0.000000,-0.000021,-0.000024,-4.546148,0.000045,
2371,2218,2.53118743439526,-9.32328526343027,0.00990406979360614,0.000975,0.000641,-0.005431,0.064134,0.001955,327.629927,23.098012,0.998632,0.977186,0.006022,0.305744,-0.000033,-0.000015,-0.000012,-0.000009,-0.000039,-63.432156,0.000051,
2281,3178,0.394041357690583,11.5906560569815,0.0305826355082672,0.000662,-0.000411,0.001295,0.026006,-0.014756,312.195624,25.283387,0.999615,0.994013,0.003169,0.344861,-0.000015,-0.000010,-0.000006,-0.000006,-0.000019,-57.275634,0.000025,
2326,2008,1.58901264219976,-13.9295119871611,0.027790308248143,0.001001,0.001327,-0.004638,0.062246,0.031500,331.154981,22.891596,0.998252,0.975037,0.006457,0.235735,-0.000053,-0.000017,-0.000018,-0.000010,-0.000061,-67.298770,0.000077,
2491,2113,5.17616031944795,-11.6317194500105,0.0384830798345206,0.000342,0.000591,-0.005599,0.037294,-0.032551,329.744737,22.018622,0.999642,0.985096,0.004852,0.330574,-0.000016,-0.000072,0.000013,-0.000013,-0.000075,12.644296,0.000095,
2401,2383,3.15258677437403,-5.71021953028468,-0.00481818184846361,0.000933,0.000135,-0.000902,0.046070,-0.008737,324.844601,23.464806,0.999155,0.985999,0.004762,0.305712,-0.000025,-0.000003,0.000006,-0.000001,-0.000027,76.281018,0.000032,
2131,2578,-2.76498325044987,-1.4546633222621,-0.0347334330182889,0.000757,0.000233,-0.001455,0.039269,0.017133,321.851661,24.437899,0.999557,0.992928,0.003829,0.320655,-0.000013,-0.000021,-0.000009,-0.000007,-0.000027,-34.246134,0.000036,
2191,2638,-1.46897172351963,-0.147504887179274,-0.0269807951390248,0.001135,0.000823,-0.007661,0.076440,-0.005185,320.765021,24.314939,0.999517,0.990009,0.004021,0.403951,-0.000008,-0.000017,0.000008,-0.000004,-0.000022,29.398610,0.000028,
2236,2983,-0.549634117094456,7.35757366389788,0.00585435468241258,0.000662,0.000162,0.000271,0.029709,0.023295,315.261761,24.832150,0.999459,0.993138,0.003549,0.365944,-0.000028,-0.000017,0.000005,-0.000015,-0.000030,69.405104,0.000046,
2476,3223,4.62108756359423,12.5852611096136,0.022503114197491,0.000840,0.000335,-0.004012,0.054004,-0.003591,311.508657,26.379931,0.999316,0.992653,0.003569,0.322025,0.000005,-0.000009,0.000007,0.000008,-0.000012,20.933464,0.000012,
2356,2128,2.2201112596249,-11.2963416119786,0.013907028010351,0.000403,0.000395,-0.001152,0.022635,0.010859,329.067853,22.914830,0.999180,0.983861,0.005082,0.321353,-0.000022,0.000000,-0.000005,0.000001,-0.000023,-77.963429,0.000026,
2116,2503,-3.07765143553952,-3.09279496183661,-0.0240596692747204,0.001024,0.000789,-0.008256,0.071731,-0.008836,323.252122,24.324544,0.999062,0.986784,0.004525,0.405112,-0.000012,-0.000015,-0.000015,0.000002,-0.000029,-42.117782,0.000032,
2281,3058,0.414257826357346,8.98886652035168,0.00513882987610259,0.000670,0.000028,-0.001465,0.035826,0.013617,313.955067,25.057301,0.999433,0.993537,0.003477,0.386405,-0.000026,-0.000022,-0.000003,-0.000020,-0.000028,-62.175462,0.000048,
2206,2863,-1.18109199930738,4.74932400973272,-0.0166256733742216,0.000941,0.000574,-0.006360,0.063695,0.006509,317.139260,24.577444,0.999278,0.992787,0.003490,0.394237,-0.000017,0.000000,0.000001,0.000000,-0.000017,87.595621,0.000019,
2476,3148,4.63532268559001,10.9578756817248,0.0190710895161033,0.000343,0.000152,-0.001642,0.022076,0.004696,312.679141,26.110127,0.999529,0.990754,0.003650,0.323325,0.000002,-0.000015,0.000014,0.000010,-0.000023,29.725413,0.000023,
2146,2623,-2.44565518526146,-0.473972617861591,-0.033470371141334,0.001121,0.000568,-0.003328,0.061824,0.003637,321.095329,24.438839,0.999576,0.992780,0.003758,0.312274,-0.000019,-0.000033,-0.000003,-0.000018,-0.000034,-13.205794,0.000052,
2356,2083,2.22924223261718,-12.2835052442035,0.019921675687101,0.000736,0.000267,0.000918,0.030564,0.016912,329.850812,22.849399,0.999474,0.983043,0.004994,0.267091,-0.000016,-0.000002,0.000009,0.000002,-0.000021,64.443166,0.000023,
2431,2548,3.77451296864815,-2.10484483994654,0.00217380426323643,0.000530,0.000028,0.000708,0.021723,0.001782,322.242812,23.935765,0.999604,0.990999,0.003886,0.310972,-0.000022,-0.000055,-0.000009,-0.000020,-0.000057,-14.701928,0.000080,
2386,2293,2.84331605743408,-7.68049394595443,0.00173057391629072,0.000887,0.000171,-0.002781,0.050637,0.000360,326.346496,23.204783,0.999843,0.994977,0.003179,0.352237,-0.000032,-0.000010,-0.000011,-0.000005,-0.000036,-67.635930,0.000045,
2311,3163,1.04816030780048,11.268379574712,0.024973951405741,0.000889,0.000149,-0.002357,0.049081,0.005508,312.383257,25.383539,0.999623,0.994113,0.003329,0.372194,-0.000012,-0.000009,-0.000001,-0.000009,-0.000012,-80.060032,0.000021,
2341,2068,1.90442632700506,-12.6149257906988,0.0255686945743037,0.000249,0.000132,-0.000755,0.014065,-0.005509,330.122140,22.753641,0.999066,0.978384,0.005599,0.393141,-0.000024,-0.000008,-0.000003,-0.000007,-0.000025,-79.899930,0.000033,
2191,2788,-1.49585459311263,3.11869738748955,-0.030550007258455,0.000624,-0.000009,0.000570,0.026956,0.005649,318.250194,24.483461,0.998985,0.988344,0.004474,0.393693,-0.000019,-0.000024,0.000000,-0.000019,-0.000024,2.866809,0.000043,
2266,3133,0.0764520261775381,10.6129993401884,0.0295724238648631,0.000321,0.000474,-0.002125,0.021981,0.005115,312.943349,25.082518,0.999620,0.995480,0.003082,0.423548,-0.000022,-0.000012,-0.000004,-0.000010,-0.000024,-69.854386,0.000035,
2326,2023,1.58578490592539,-13.6002254496242,0.0197482973255774,0.001196,0.000815,-0.004035,0.068902,0.009396,330.853884,22.851742,0.998588,0.980073,0.005956,0.291827,-0.000051,-0.000002,-0.000009,0.000000,-0.000053,-79.679961,0.000061,
2491,2563,5.07817288155367,-1.77432014473118,-0.0213447651161118,0.000534,0.000155,-0.000756,0.027431,0.001764,321.940266,23.818953,0.999542,0.990368,0.004156,0.390034,-0.000008,-0.000072,-0.000010,-0.000007,-0.000073,-8.398244,0.000089,
2491,2353,5.12388489444188,-6.36642631041033,0.00111319442669355,0.000693,0.001241,-0.006072,0.055490,0.036096,325.565999,23.007770,0.998740,0.986766,0.005307,0.392167,-0.000013,0.000041,0.000027,0.000052,-0.000024,67.554461,0.000052,
2221,2923,-0.86549047596468,6.05420056455068,-0.00791234215836312,0.000755,0.000517,-0.003261,0.045441,0.024442,316.176326,24.714900,0.999458,0.992922,0.003626,0.371006,-0.000021,-0.000021,0.000003,-0.000018,-0.000024,42.627415,0.000042,
2281,3193,0.391389499473316,11.9161716092566,0.0308417698241215,0.000611,0.000099,-0.000314,0.029285,0.014493,311.955058,25.304220,0.999655,0.994218,0.003101,0.379852,-0.000014,-0.000009,-0.000005,-0.000006,-0.000018,-58.406749,0.000024,
2161,2713,-2.13463361719773,1.48553808510779,-0.0272877219736642,0.000730,-0.000017,-0.001529,0.038299,0.008776,319.607730,24.449948,0.999375,0.991392,0.003833,0.356449,-0.000016,-0.000018,0.000001,-0.000015,-0.000018,23.375267,0.000034,
2491,2128,5.17378373589815,-11.30348354026,0.0469851950921338,0.000635,0.000326,-0.002151,0.037382,-0.009293,329.573618,22.059412,0.999637,0.988764,0.004433,0.374472,-0.000013,-0.000066,0.000010,-0.000011,-0.000067,10.576228,0.000085,
2476,3238,4.61729255448623,12.9115427204678,0.00676750131782455,0.001152,0.000447,-0.006972,0.079753,0.009559,311.155470,26.411756,0.999651,0.994414,0.003159,0.358858,0.000007,-0.000007,0.000010,0.000013,-0.000012,28.156363,0.000014,
2296,3148,0.724526095585752,10.9421424601979,0.0239237106559926,0.000439,0.000137,0.000288,0.019329,0.011800,312.604860,25.313165,0.999606,0.994221,0.003351,0.353179,-0.000013,-0.000009,-0.000002,-0.000008,-0.000014,-65.401184,0.000022,
2176,2773,-1.81880188179016,2.79210516276033,-0.0372815554966337,0.001187,0.000143,-0.004164,0.067572,-0.006566,318.526613,24.458215,0.999334,0.991422,0.003997,0.382945,-0.000018,-0.000020,0.000000,-0.000018,-0.000020,5.897149,0.000039,
2491,2998,4.99050728760339,7.70104680853013,-0.00185079587004111,0.000429,-0.000084,-0.001053,0.023652,-0.020614,315.001978,25.558277,0.999389,0.989417,0.003985,0.335746,-0.000011,0.000013,0.000020,0.000025,-0.000023,60.231521,0.000028,
2356,2143,2.21760000237758,-10.9675548377385,0.0161111590895189,0.000675,0.000051,0.000379,0.029586,0.012308,328.851338,22.965225,0.998593,0.980759,0.005610,0.314398,-0.000023,-0.000010,-0.000006,-0.000007,-0.000026,-69.361465,0.000035,
2416,2548,3.44576592252895,-2.10393422536961,-0.021797061826021,0.000649,-0.000224,-0.000478,0.031422,-0.027216,322.029956,23.895831,0.999290,0.989192,0.004325,0.347056,-0.000019,-0.000049,-0.000004,-0.000018,-0.000049,-7.554737,0.000070,
2371,2233,2.52787182484607,-8.99429714811813,0.00678762247065379,0.000848,0.000294,-0.004423,0.054610,-0.016041,327.352145,23.162728,0.998729,0.980819,0.005728,0.266464,-0.000034,-0.000010,-0.000009,-0.000008,-0.000037,-71.746250,0.000047,
2296,3268,0.702100296817935,13.5445732826952,0.0086308981603338,0.000956,0.000287,-0.003588,0.056389,0.014892,310.546511,25.508713,0.999539,0.993501,0.003286,0.389893,-0.000015,-0.000006,-0.000005,-0.000003,-0.000017,-64.051209,0.000022,
2401,2398,3.14974711155391,-5.38225067827306,-0.00629347265487468,0.000902,0.000485,-0.003755,0.055115,-0.002484,324.598387,23.487814,0.999375,0.986708,0.004627,0.336061,-0.000024,-0.000005,0.000011,0.000000,-0.000029,65.927720,0.000034,
2236,2998,-0.552136016333048,7.68296717162796,0.00417072790298789,0.000928,0.000269,0.000242,0.042052,0.015133,315.015447,24.815414,0.999391,0.992160,0.003705,0.395029,-0.000029,-0.000017,0.000004,-0.000016,-0.000030,70.758424,0.000047,
2251,3058,-0.235265060284387,8.98544246588925,0.0220472781583112,0.001001,0.000693,-0.006552,0.067812,0.010940,314.179592,24.955767,0.999558,0.993446,0.003357,0.382772,-0.000027,-0.000028,-0.000006,-0.000022,-0.000033,-41.691144,0.000055,
2431,2563,3.77116643182346,-1.77698825834125,-0.00450493355987192,0.000780,0.000024,0.001700,0.029523,0.014887,321.950959,23.950658,0.999473,0.990347,0.004013,0.360363,-0.000024,-0.000042,-0.000010,-0.000020,-0.000046,-23.321982,0.000068,
2491,2803,5.02832371219644,3.46070192636859,-0.0318018846697328,0.000733,0.000266,-0.002020,0.041517,0.002066,317.955751,24.816194,0.999281,0.988454,0.004356,0.341274,-0.000068,-0.000041,-0.000034,-0.000019,-0.000090,-55.664118,0.000117,
2356,2098,2.22576370791943,-11.9533971593207,0.0114373259544323,0.000696,0.000427,0.000264,0.031101,0.027145,329.538728,22.878471,0.999390,0.982452,0.005133,0.290417,-0.000021,-0.000012,0.000002,-0.000011,-0.000021,76.848011,0.000033,
2191,2653,-1.47176685954005,0.179717418439409,-0.0262306283007092,0.001109,0.000473,-0.003770,0.062950,-0.002916,320.514320,24.374393,0.999524,0.990906,0.003906,0.361796,-0.000007,-0.000008,0.000009,0.000002,-0.000017,42.211221,0.000019,
2206,2878,-1.18429026039352,5.07573968259964,-0.0181198082890432,0.000685,0.000092,-0.002866,0.040694,0.000788,316.859494,24.620204,0.999533,0.994463,0.003200,0.362045,-0.000018,-0.000002,0.000000,-0.000002,-0.000018,-88.346194,0.000022,
2476,3253,4.61344252357101,13.2366910701845,0.00440788895070909,0.000785,0.000141,-0.004020,0.051526,0.000396,310.860985,26.441980,0.999689,0.994204,0.003102,0.374367,0.000009,-0.000003,0.000011,0.000016,-0.000009,30.709399,0.000016,
2266,3148,0.073633394190793,10.939205681504,0.02234676017639,0.000660,0.000316,-0.003225,0.041266,0.013747,312.656196,25.130400,0.999202,0.992529,0.003726,0.408953,-0.000020,-0.000009,-0.000005,-0.000007,-0.000022,-70.051165,0.000030,
2491,2368,5.12052248628725,-6.03704419491912,-0.00703182010954606,0.001122,0.001240,-0.005935,0.074622,0.037532,325.273566,23.090441,0.998355,0.984828,0.005365,0.371885,-0.000017,0.000048,0.000040,0.000066,-0.000036,64.670031,0.000066,
2491,3013,4.9872642388435,8.0278947623035,-0.00848132543484326,0.000556,0.000119,-0.004149,0.041458,-0.020533,314.718266,25.642394,0.999609,0.993416,0.003353,0.309864,-0.000015,0.000022,0.000018,0.000029,-0.000022,67.661397,0.000031,
2326,2038,1.58237523165235,-13.2686932905199,0.00973191389476824,0.001002,0.001493,-0.008322,0.075001,0.016612,330.534425,22.971788,0.999159,0.984619,0.005059,0.217309,-0.000051,-0.000007,-0.000010,-0.000005,-0.000054,-77.352041,0.000065,
2146,2638,-2.44813287736012,-0.148143613321295,-0.0325947118320755,0.001202,0.000152,-0.001065,0.058558,-0.001875,320.856816,24.374361,0.999667,0.993274,0.003517,0.379756,-0.000018,-0.000028,-0.000003,-0.000017,-0.000029,-15.476536,0.000047,
2386,2308,2.83984933913517,-7.35148827106227,-0.00812130102667652,0.001079,0.000467,-0.002854,0.059860,0.011733,326.030808,23.202275,0.999790,0.994693,0.003289,0.411990,-0.000034,-0.000014,-0.000006,-0.000012,-0.000036,-74.084097,0.000050,
2311,3178,1.04525296502326,11.5936760616755,0.0258142194770699,0.000746,0.000081,-0.001774,0.040474,-0.000483,312.136003,25.419872,0.999675,0.994252,0.003290,0.360675,-0.000011,-0.000009,-0.000001,-0.000008,-0.000011,-59.098843,0.000020,
2491,2578,5.07604143600925,-1.447087785319,-0.011704167181847,0.000959,0.000214,0.002624,0.034006,0.019019,321.783380,23.922364,0.998987,0.983423,0.005041,0.363423,-0.000015,-0.000054,-0.000011,-0.000012,-0.000057,-14.704931,0.000074,
2176,2788,-1.82121237120537,3.11812159915753,-0.030095551781983,0.000963,0.000064,-0.002123,0.050963,0.003642,318.326290,24.489699,0.999314,0.990603,0.004099,0.373891,-0.000022,-0.000020,-0.000001,-0.000020,-0.000022,-64.559476,0.000042,
2341,2083,1.90159966553823,-12.2829629445808,0.0180083660985701,0.000570,0.000600,-0.004048,0.040359,0.007057,329.842638,22.952966,0.999398,0.982591,0.005145,0.246489,-0.000023,-0.000009,-0.000005,-0.000007,-0.000025,-72.851789,0.000034,
2491,2143,5.16898887118227,-10.9701884877517,0.0258618661867445,0.000699,0.000530,-0.002626,0.042238,0.010603,329.158351,22.251482,0.999186,0.982611,0.005302,0.264976,-0.000010,-0.000045,0.000021,0.000001,-0.000055,25.430372,0.000063,
2491,3238,4.94347511521842,12.9125834224957,0.0113957992378459,0.000820,0.000351,-0.007676,0.067361,-0.002185,311.219717,26.491265,0.999542,0.993001,0.003544,0.345420,0.000015,-0.000004,0.000017,0.000025,-0.000015,30.577808,0.000025,
2161,2728,-2.1370640375885,1.81157683562907,-0.0289075123044995,0.000923,0.000133,-0.001323,0.046585,0.008841,319.359252,24.405996,0.999436,0.991517,0.003873,0.410597,-0.000019,-0.000020,0.000000,-0.000019,-0.000020,-15.379812,0.000039,
2296,3163,0.722538263106845,11.2673236596222,0.0313868076068502,0.000522,0.000276,-0.001572,0.029478,0.011450,312.431917,25.368923,0.999651,0.993977,0.003293,0.325734,-0.000011,-0.000012,-0.000005,-0.000007,-0.000017,-42.563186,0.000024,
2416,2563,3.44268027959205,-1.77634691647557,-0.0223564173665523,0.000484,0.000090,-0.001368,0.027251,0.000241,321.777230,23.927093,0.999034,0.985945,0.004564,0.391866,-0.000021,-0.000037,-0.000005,-0.000019,-0.000039,-17.333759,0.000059,
2281,3073,0.411280252089441,9.31560763612149,-0.00293867426836414,0.000661,0.000426,-0.006315,0.051788,0.007827,313.657677,25.143016,0.999536,0.993489,0.003478,0.321859,-0.000025,-0.000015,-0.000006,-0.000012,-0.000028,-65.080138,0.000041,
2221,2938,-0.86843179737199,6.38037434867533,-0.0136712858603687,0.000783,0.000618,-0.004088,0.049387,0.017311,315.887577,24.723802,0.999478,0.994077,0.003357,0.373640,-0.000022,-0.000015,0.000002,-0.000014,-0.000022,77.208418,0.000037,
2191,2803,-1.49827792653682,3.44559474008338,-0.0305301954678043,0.000484,0.000558,-0.003502,0.033481,0.018669,318.012612,24.541691,0.998857,0.988462,0.004469,0.362628,-0.000020,-0.000029,0.000002,-0.000020,-0.000029,12.585616,0.000049,
2431,2578,3.76776745848598,-1.44846154118559,-0.0117055236959231,0.000693,0.000136,-0.001405,0.037043,0.005167,321.654136,24.051007,0.999737,0.994188,0.003415,0.301199,-0.000024,-0.000026,-0.000007,-0.000018,-0.000033,-40.844403,0.000052,
2476,3268,4.60980248270807,13.5624866570342,0.00452121746508283,0.000606,-0.000133,0.001103,0.023682,0.004027,310.587153,26.536869,0.999846,0.996063,0.002657,0.338330,0.000016,-0.000021,0.000022,0.000027,-0.000031,25.127727,0.000034,
2356,2158,2.21558492324179,-10.6383736830873,0.0190459644618954,0.001096,0.000552,-0.001857,0.056898,0.013503,328.660963,23.064631,0.999074,0.983269,0.005296,0.257351,-0.000029,-0.000020,-0.000011,-0.000012,-0.000036,-56.091354,0.000051,
2491,2383,5.11659704067434,-5.70994212158062,-0.00137651543252559,0.000563,-0.000130,0.003015,0.014212,0.001466,325.017597,23.141291,0.998540,0.983299,0.005338,0.345292,0.000001,0.000042,0.000034,0.000061,-0.000018,60.709862,0.000063,
2236,3013,-0.555012865831362,8.00884551845887,0.00339905875603108,0.000673,0.000332,-0.000990,0.034368,0.021963,314.756358,24.838870,0.999295,0.990857,0.003868,0.398580,-0.000026,-0.000023,0.000003,-0.000021,-0.000028,61.573167,0.000049,
2281,3208,0.389321113373406,12.2415876719566,0.038546617987663,0.000528,0.000435,-0.002917,0.034242,0.010100,311.778659,25.396291,0.999836,0.995945,0.002669,0.309683,-0.000013,-0.000010,-0.000005,-0.000007,-0.000017,-52.944755,0.000024,
2401,2413,3.14657733102666,-5.05421570573493,-0.00479442483606363,0.000601,0.000747,-0.002892,0.038332,0.029408,324.350836,23.524805,0.999477,0.987173,0.004531,0.378350,-0.000033,-0.000008,0.000013,-0.000003,-0.000038,66.821211,0.000046,
2296,3283,0.698933676079896,13.8700701162006,0.00413032332915009,0.000844,0.000539,-0.004186,0.053398,0.032826,310.259318,25.537536,0.999434,0.993636,0.003232,0.407507,-0.000014,0.000004,-0.000005,0.000005,-0.000016,-74.775385,0.000016,
2491,2818,5.02585254285098,3.78657612033081,-0.0300068893911885,0.001019,0.000188,-0.003975,0.062122,-0.003787,317.746970,24.821330,0.999360,0.989180,0.004316,0.389161,-0.000071,-0.000041,-0.000026,-0.000026,-0.000086,-59.531859,0.000118,
2251,3073,-0.239082181090662,9.31172464452308,0.0128159094603006,0.000839,0.000416,-0.002220,0.046081,0.013421,313.835217,24.981966,0.999529,0.992771,0.003469,0.381443,-0.000026,-0.000022,-0.000008,-0.000016,-0.000032,-51.903817,0.000048,
2326,2053,1.57970515599279,-12.9422659511004,0.0191140804327574,0.000914,0.000179,-0.001284,0.046296,-0.000752,330.343719,22.874383,0.999541,0.988310,0.004423,0.334948,-0.000047,-0.000016,-0.000014,-0.000010,-0.000053,-69.001410,0.000068,
2506,2158,5.49337377660516,-10.6406213407296,0.019480122485561,0.000651,0.001004,-0.003255,0.042748,0.030482,328.908515,22.204759,0.999201,0.979958,0.005440,0.311255,-0.000020,-0.000052,0.000001,-0.000020,-0.000052,2.318488,0.000075,
2371,2248,2.52383818449393,-8.66418440877693,-0.00651746883607984,0.000703,0.000745,-0.004586,0.048760,0.013272,326.992462,23.184152,0.999165,0.984575,0.005325,0.318488,-0.000034,-0.000017,-0.000008,-0.000014,-0.000037,-69.023202,0.000052,
2491,3253,4.93927699176891,13.23814360516,0.00327375161452892,0.000604,0.000195,-0.004877,0.046562,-0.012712,310.884084,26.528561,0.999721,0.994027,0.003248,0.354765,0.000020,0.000002,0.000020,0.000032,-0.000010,32.624648,0.000033,
2266,3163,0.071123537203384,11.264878625401,0.0288449974731293,0.000585,0.000255,-0.000592,0.029011,0.013163,312.452613,25.225617,0.999266,0.991391,0.003857,0.337261,-0.000018,-0.000008,-0.000005,-0.000006,-0.000020,-66.879124,0.000027,
2386,2323,2.83573521008205,-7.02232060092884,-0.0133346976073199,0.000427,0.000488,-0.000878,0.022903,0.033594,325.707236,23.256777,0.999697,0.993134,0.003700,0.425107,-0.000041,-0.000012,-0.000002,-0.000012,-0.000041,-85.194315,0.000056,
2491,2593,5.07288506063626,-1.11970414278748,-0.0160554276920948,0.000727,0.000155,-0.003610,0.047241,-0.006026,321.516457,23.964144,0.999842,0.994769,0.003378,0.356161,-0.000016,-0.000039,-0.000013,-0.000010,-0.000044,-24.156874,0.000058,
2491,2158,5.16585437077823,-10.6407079389312,0.0195815580521526,0.000976,0.001059,-0.005118,0.064659,0.014806,328.886021,22.277582,0.999206,0.981281,0.005412,0.305056,-0.000017,-0.000052,0.000009,-0.000015,-0.000054,13.910953,0.000073,
2206,2893,-1.18727756776244,5.40244809028067,-0.0291383857991718,0.001041,-0.000005,-0.003114,0.057793,-0.016186,316.540050,24.636350,0.999757,0.995515,0.003067,0.345413,-0.000020,-0.000005,0.000005,-0.000004,-0.000022,74.524927,0.000027,
2476,3283,4.60762140673405,13.8869773902304,0.0151922666847781,0.000361,0.000039,-0.001505,0.022354,0.000744,310.429120,26.579115,0.999852,0.996429,0.002667,0.347527,0.000023,-0.000041,0.000027,0.000033,-0.000050,19.890754,0.000051,
2311,3193,1.04292603904918,11.9187389377725,0.0292365823592604,0.000948,0.000118,-0.001775,0.049806,0.006617,311.928254,25.440383,0.999689,0.994438,0.003164,0.378151,-0.000012,-0.000009,0.000000,-0.000009,-0.000012,-81.347757,0.000020,
2191,2668,-1.47457158215969,0.506970491432931,-0.0232115439419545,0.000853,0.000367,-0.000844,0.041986,0.009019,320.274916,24.450421,0.999745,0.994931,0.003117,0.312725,-0.000008,-0.000006,0.000005,-0.000002,-0.000012,50.856990,0.000015,
2296,3178,0.719515502419767,11.5924524158023,0.0266999800330154,0.000542,0.000080,-0.002435,0.033235,-0.000308,312.150902,25.362066,0.999655,0.994061,0.003236,0.349841,-0.000009,-0.000012,-0.000006,-0.000005,-0.000017,-36.607520,0.000023,
2491,2398,5.11332176408183,-5.3812769858348,-0.00451849881136468,0.000464,-0.000140,0.000865,0.017880,-0.011889,324.751595,23.232407,0.999318,0.988791,0.004469,0.301257,0.000005,0.000026,0.000039,0.000056,-0.000025,52.600653,0.000056,
2416,2578,3.4398195471997,-1.44802996205705,-0.0275403527990079,0.000740,-0.000265,-0.004550,0.050476,-0.035459,321.513209,24.052781,0.999393,0.990218,0.004021,0.279315,-0.000021,-0.000023,-0.000004,-0.000018,-0.000026,-40.167399,0.000044,
2146,2653,-2.45053531245736,0.17802386876135,-0.0306480158548652,0.001015,0.000168,-0.002945,0.055681,-0.001971,320.627320,24.348972,0.999650,0.992306,0.003611,0.413358,-0.000018,-0.000015,-0.000003,-0.000014,-0.000019,-56.414696,0.000033,
2506,2173,5.49053017797287,-10.3120683824975,0.0203193461422302,0.000795,0.001183,-0.003974,0.052186,0.028654,328.682729,22.234061,0.998865,0.978440,0.005685,0.343779,-0.000038,-0.000011,-0.000010,-0.000007,-0.000042,-72.026778,0.000053,
2431,2593,3.76495420592534,-1.12273725351331,-0.00869840817216527,0.000398,0.000749,-0.003859,0.032818,0.017252,321.431953,23.966588,0.999575,0.992344,0.003746,0.448550,-0.000023,-0.000026,-0.000010,-0.000014,-0.000035,-40.108365,0.000051,
2281,3223,0.38657001785938,12.5656681823592,0.0411009341890463,0.000497,0.000089,-0.000602,0.024991,0.013472,311.545487,25.330773,0.999816,0.995639,0.002836,0.405039,-0.000013,0.000000,-0.000007,0.000003,-0.000016,-66.208426,0.000017,
2341,2098,1.89848608567041,-11.9538195156512,0.013611280730629,0.000742,0.000468,-0.002090,0.041379,0.018241,329.565505,22.937771,0.999554,0.984168,0.004885,0.312918,-0.000027,-0.000018,-0.000009,-0.000013,-0.000032,-58.228162,0.000046,
2491,3268,4.93566351870092,13.5641613437309,0.00155650686997433,0.000544,-0.000128,-0.000812,0.028113,-0.006963,310.604142,26.631981,0.999837,0.995710,0.002773,0.314378,0.000029,-0.000022,0.000031,0.000044,-0.000037,25.197321,0.000047,
2176,2803,-1.82377494764899,3.44413451824342,-0.0246583291475986,0.000302,0.000927,-0.006017,0.032924,0.033135,318.109788,24.491632,0.999458,0.991008,0.004046,0.413529,-0.000020,-0.000024,0.000000,-0.000020,-0.000024,7.237991,0.000044,
2191,2818,-1.50041366317426,3.77072369039496,-0.0264172342789948,0.000678,0.000064,-0.002775,0.039929,-0.008865,317.810109,24.513437,0.998390,0.987251,0.004668,0.377625,-0.000017,-0.000015,0.000004,-0.000012,-0.000021,49.603714,0.000033,
2281,3088,0.409483055986659,9.63953706801583,0.0101263963030647,0.000690,0.000093,-0.005585,0.050549,-0.006210,313.521303,25.117336,0.999652,0.993473,0.003528,0.360022,-0.000024,-0.000016,-0.000009,-0.000010,-0.000029,-57.072868,0.000041,
2491,3028,4.98433479841683,8.35399136227144,-0.00955848290254835,0.000863,0.000280,-0.003242,0.052167,-0.006009,314.474171,25.684714,0.999678,0.994755,0.003167,0.340304,-0.000007,0.000017,0.000015,0.000024,-0.000014,64.026048,0.000024,
2371,2263,2.52125746850914,-8.33600860622688,-0.0018404196025017,0.000639,0.000606,-0.004377,0.045023,0.018004,326.785371,23.243309,0.999336,0.987689,0.004613,0.307485,-0.000034,-0.000023,-0.000013,-0.000014,-0.000043,-56.072536,0.000060,
2221,2953,-0.870973311765642,6.7057961105945,-0.0090911757956178,0.000598,0.000185,-0.003344,0.038319,-0.004422,315.670554,24.755283,0.999411,0.992933,0.003560,0.338534,-0.000024,-0.000013,-0.000002,-0.000013,-0.000024,-79.134013,0.000038,
2356,2173,2.21217302437274,-10.310983761659,0.0160540278718031,0.000653,0.000424,-0.002919,0.040311,-0.009714,328.378451,22.967158,0.999160,0.983130,0.005291,0.373475,-0.000025,-0.000012,-0.000010,-0.000007,-0.000031,-61.174999,0.000040,
2476,3298,4.60386606651645,14.2132077983062,-0.000994158140372292,0.000696,0.000415,-0.005084,0.051614,0.011538,310.075302,26.626017,0.999615,0.994143,0.003333,0.366858,0.000011,-0.000045,0.000022,0.000018,-0.000053,18.865186,0.000054,
2326,2068,1.57634364247636,-12.6139206771392,0.0147724104389795,0.000631,-0.000321,-0.001495,0.033895,-0.041676,330.054529,22.827327,0.999389,0.983706,0.005033,0.379017,-0.000045,0.000005,-0.000007,0.000006,-0.000046,-82.560800,0.000049,
2491,2833,5.02271250253122,4.11294024127041,-0.0288740342720644,0.000848,0.000176,-0.004098,0.054705,-0.009851,317.504219,24.871006,0.999435,0.989711,0.004065,0.391926,-0.000066,-0.000025,-0.000017,-0.000019,-0.000071,-70.450592,0.000095,
2386,2338,2.83410137071156,-6.69517780104909,-4.85380729742246E-05,0.000547,0.000558,-0.002031,0.032592,0.029608,325.585325,23.339507,0.999129,0.986794,0.004607,0.382973,-0.000038,-0.000008,-0.000002,-0.000008,-0.000038,-86.893094,0.000049,
2236,3028,-0.557012898161467,8.33407482585975,0.00640452845834716,0.000949,0.000042,-0.003343,0.054545,-0.008905,314.557078,24.869308,0.999416,0.992173,0.003592,0.357597,-0.000028,-0.000026,0.000001,-0.000026,-0.000028,66.678093,0.000054,
2401,2428,3.14324543426203,-4.72661728653222,-0.00601620510013845,0.000286,0.000433,-0.002900,0.023779,0.009331,324.083253,23.552850,0.999473,0.986933,0.004520,0.377092,-0.000031,-0.000021,0.000013,-0.000012,-0.000040,55.053728,0.000054,
2251,3088,-0.241937619356609,9.63717993332207,0.00926610500266634,0.000920,-0.000082,-0.002253,0.049746,-0.007317,313.564132,24.996441,0.999557,0.992061,0.003527,0.368403,-0.000025,-0.000022,-0.000008,-0.000016,-0.000032,-49.855943,0.000048,
2491,2413,5.10998919886341,-5.05394246711445,-0.0160825320844538,0.000411,0.000239,-0.008294,0.050646,-0.028358,324.445222,23.130060,0.999366,0.989314,0.004382,0.447777,-0.000001,0.000016,0.000044,0.000053,-0.000038,50.523347,0.000054,
2491,3283,4.93247140192326,13.8887693471467,-0.00141832230741556,0.000583,-0.000033,-0.001770,0.033600,-0.010327,310.338324,26.611326,0.999861,0.996245,0.002678,0.389188,0.000037,-0.000050,0.000032,0.000047,-0.000060,18.415153,0.000064,
2506,2188,5.48678156937191,-9.98267352653368,0.0162452452442494,0.000717,0.000320,-0.001720,0.039555,-0.006938,328.393569,22.327588,0.998937,0.977665,0.005841,0.278530,-0.000025,0.000008,-0.000009,0.000010,-0.000027,-75.701054,0.000027,
2506,2638,5.38968222812118,-0.137365002128469,-0.019772276289018,0.000050,0.000146,-0.002908,0.013616,-0.005741,320.763169,24.082376,0.999692,0.992796,0.003686,0.405539,-0.000040,-0.000038,-0.000022,-0.000017,-0.000061,-46.705431,0.000082,
2491,2173,5.16341496405834,-10.3133238623299,0.0266808127646527,0.001113,0.000841,-0.004089,0.066866,0.020166,328.705651,22.259193,0.998539,0.973360,0.006186,0.390038,-0.000024,-0.000019,-0.000003,-0.000017,-0.000025,-67.172019,0.000043,
2491,2608,5.0700101631188,-0.793420690005753,-0.00853635112929396,0.000503,0.000050,-0.001158,0.027527,0.006125,321.315881,23.975161,0.999850,0.994499,0.003455,0.416796,-0.000017,-0.000035,-0.000013,-0.000011,-0.000041,-27.455836,0.000055,
2506,2398,5.44089667767248,-5.38092041769333,-0.00622770698464592,0.000597,0.000194,0.000238,0.026502,0.018666,324.790396,23.156030,0.998706,0.984463,0.005018,0.361426,0.000002,0.000016,0.000038,0.000048,-0.000029,50.183896,0.000048,
2491,1993,5.20042386808762,-14.2655022725055,0.0324403007379033,0.000623,0.000508,-0.002078,0.036615,0.016573,331.628686,21.598779,0.998974,0.970051,0.006771,0.302197,-0.000013,-0.000181,0.000077,0.000017,-0.000210,21.222145,0.000234,
2266,3178,0.0685788424151781,11.589289453032,0.0281037591165614,0.000763,-0.000044,-0.001181,0.039002,-0.010721,312.211336,25.187713,0.999426,0.992826,0.003455,0.375796,-0.000015,-0.000007,-0.000005,-0.000005,-0.000017,-65.067838,0.000023,
2296,3298,0.694856769641987,14.1956940874497,-0.00882014989144864,0.000806,0.000061,0.000060,0.037005,0.009768,309.888008,25.578024,0.999649,0.995143,0.002967,0.372117,-0.000008,0.000001,-0.000006,0.000004,-0.000010,-64.211878,0.000010,
2296,3193,0.716990137562476,11.9179479069136,0.0262097892368729,0.000797,0.000152,-0.002661,0.045855,0.010628,311.913472,25.395423,0.999679,0.994004,0.003191,0.355936,-0.000010,-0.000013,-0.000005,-0.000006,-0.000016,-35.913638,0.000023,
2326,2083,1.57339763899568,-12.2809895706862,0.00655369590310784,0.000763,0.000690,-0.005978,0.055755,-0.004781,329.764544,23.083998,0.999499,0.984771,0.005101,0.197223,-0.000044,0.000002,-0.000009,0.000003,-0.000045,-79.637724,0.000051,
2491,3043,4.98114089904729,8.68076896335312,-0.00972085376162113,0.000852,0.000420,-0.002097,0.047351,0.008663,314.221739,25.799970,0.999665,0.993916,0.003452,0.297722,-0.000001,0.000011,0.000021,0.000027,-0.000017,52.906405,0.000027,
2281,3238,0.383178970963918,12.8920159035381,0.0248769806191831,0.000742,0.000124,-0.004603,0.049704,0.001798,311.187884,25.386662,0.999802,0.994722,0.003060,0.363927,-0.000013,-0.000007,-0.000009,0.000000,-0.000020,-54.432067,0.000023,
2506,2878,5.34061795014975,5.09227117473687,-0.0145401035372288,0.000320,0.000051,-0.001430,0.020240,-0.000368,316.897959,25.061677,0.999688,0.993775,0.003304,0.410773,-0.000053,0.000006,0.000000,0.000006,-0.000053,-89.998092,0.000058,
2506,2413,5.43850841437814,-5.05356479699989,-0.00385854510977879,0.000681,0.000720,-0.004888,0.050374,0.015764,324.591093,23.174662,0.999088,0.985043,0.004960,0.402591,0.000000,0.000007,0.000046,0.000050,-0.000043,47.454020,0.000054,
2491,3298,4.92942538740919,14.2144500784168,-0.000601642266360614,0.000533,0.000226,-0.001779,0.031467,0.005148,310.095958,26.695407,0.999744,0.994232,0.003185,0.377907,0.000023,-0.000057,0.000018,0.000027,-0.000061,12.185057,0.000061,
2491,2008,5.19729889583759,-13.9360514716769,0.0313554566150742,0.000583,0.000439,-0.003347,0.039610,-0.001313,331.381072,21.643967,0.999141,0.975041,0.006175,0.301515,-0.000004,-0.000137,0.000051,0.000013,-0.000154,18.803072,0.000171,
2311,3208,1.0404915480175,12.2444353538147,0.0341255142086538,0.000888,0.000620,-0.002388,0.049316,0.020835,311.722540,25.524071,0.999696,0.994010,0.003164,0.339689,-0.000013,-0.000012,0.000000,-0.000012,-0.000013,-83.161333,0.000026,
2491,2428,5.10701306783543,-4.72498546709463,-0.0129652348414879,0.000550,0.000409,-0.004917,0.044206,0.003876,324.220682,23.272850,0.999330,0.987994,0.004524,0.397800,-0.000003,0.000004,0.000049,0.000049,-0.000048,47.253103,0.000056,
2491,2848,5.01952526109579,4.44035248225659,-0.0249135887120246,0.000399,0.000236,-0.004207,0.034573,-0.003881,317.271687,25.030507,0.999613,0.992665,0.003523,0.296981,-0.000060,-0.000018,-0.000016,-0.000012,-0.000066,-71.040423,0.000084,
2416,2593,3.43647523373188,-1.1207969486246,-0.0301381719327196,0.000429,0.000380,-0.006015,0.041803,-0.016454,321.239018,24.052348,0.999537,0.992214,0.003737,0.347319,-0.000020,-0.000026,-0.000006,-0.000016,-0.000030,-31.921158,0.000046,
2506,2653,5.38603418375413,0.191731831240247,-0.0273518670351791,0.000378,0.000151,-0.000362,0.018839,0.016545,320.459718,24.227874,0.999522,0.989582,0.004265,0.344357,-0.000041,-0.000020,-0.000028,0.000000,-0.000061,-55.068982,0.000070,
2281,3103,0.406722168848365,9.96542033414205,0.00816150210079059,0.000943,0.000194,-0.003710,0.055921,-0.004027,313.264676,25.163244,0.999603,0.993797,0.003412,0.342976,-0.000023,-0.000012,-0.000007,-0.000008,-0.000027,-63.796568,0.000037,
2506,2203,5.48355519730018,-9.65463038882644,0.0197448873699955,0.000368,0.000308,-0.001045,0.021002,0.008398,328.161845,22.331806,0.999035,0.976453,0.005951,0.353383,-0.000026,-0.000022,-0.000017,-0.000007,-0.000041,-47.834145,0.000052,
2386,2353,2.83152469178905,-6.3677543072852,-0.00318506093555015,0.000967,0.000423,-0.003782,0.058020,0.014155,325.342388,23.302066,0.998824,0.984285,0.005056,0.449860,-0.000030,0.000001,0.000006,0.000002,-0.000031,78.909412,0.000035,
2431,2608,3.76119451617365,-0.794014597929277,-0.0224426347372173,0.000893,0.000144,-0.001902,0.048046,-0.006644,321.088031,24.053638,0.999327,0.989307,0.004240,0.388600,-0.000028,-0.000027,-0.000011,-0.000017,-0.000039,-46.543778,0.000057,
2206,2908,-1.18894572351508,5.72693450659031,-0.0137749720362876,0.000831,0.000137,-0.004119,0.051408,-0.001127,316.418235,24.611754,0.999549,0.993718,0.003484,0.401341,-0.000016,-0.000018,0.000003,-0.000014,-0.000020,35.108203,0.000035,
2491,2188,5.15893161489327,-9.98219972887441,0.0148520035774027,0.000817,0.000513,-0.003127,0.049535,-0.006153,328.346401,22.419200,0.998546,0.973831,0.006144,0.265797,-0.000008,-0.000002,-0.000005,0.000001,-0.000011,-58.968975,0.000013,
2341,2113,1.89611711923021,-11.626072890674,0.0239580519943274,0.000601,0.000062,0.000778,0.024855,0.012238,329.393871,22.978744,0.999490,0.984651,0.004881,0.305379,-0.000028,-0.000014,-0.000009,-0.000009,-0.000032,-63.571939,0.000044,
2311,1993,1.26343928608706,-14.2590798008345,0.0266067639061021,0.000677,0.000387,-0.003056,0.041509,-0.003669,331.372429,22.931030,0.999292,0.980062,0.005942,0.229390,-0.000072,-0.000009,-0.000036,0.000008,-0.000089,-65.537991,0.000098,
2221,2968,-0.87332672577303,7.03118971819503,-0.00132031157966139,0.000658,0.000009,0.001396,0.025838,0.008824,315.478515,24.774866,0.999365,0.991166,0.003820,0.350340,-0.000025,-0.000011,0.000002,-0.000010,-0.000025,82.080277,0.000036,
2491,2623,5.06662373969872,-0.4662780277094,-0.0141585981235721,0.000680,0.000000,-0.001012,0.035046,0.001101,321.032475,23.973785,0.999843,0.994567,0.003350,0.472891,-0.000026,-0.000039,-0.000017,-0.000015,-0.000050,-34.098639,0.000068,
2356,2188,2.20905320910435,-9.98102846238957,0.0172308080986454,0.000468,0.000050,-0.000607,0.023582,-0.011709,328.128858,23.132363,0.999089,0.984003,0.005141,0.247822,-0.000026,-0.000008,-0.000011,-0.000002,-0.000032,-64.595303,0.000038,
2191,2833,-1.50274474532036,4.09679717600497,-0.0241275970349761,0.000756,0.000106,-0.002768,0.043465,-0.013223,317.588820,24.538906,0.999061,0.991234,0.003916,0.362218,-0.000016,-0.000007,0.000006,-0.000004,-0.000018,64.624484,0.000024,
2236,3043,-0.559215920006029,8.6599640950102,0.0120532135022131,0.001135,0.000184,-0.001473,0.057118,0.001200,314.361693,24.940674,0.999627,0.992523,0.003465,0.316572,-0.000027,-0.000028,-0.000002,-0.000025,-0.000030,-37.402830,0.000056,
2371,2278,2.51942796485966,-8.00916834787461,0.0130057772796022,0.000459,0.000168,-0.005104,0.039162,-0.023994,326.661527,23.334437,0.999805,0.994617,0.003376,0.216960,-0.000035,-0.000013,-0.000010,-0.000009,-0.000039,-68.580930,0.000051,
2281,3253,0.379263405703934,13.2182724635415,0.0104920812476621,0.000769,0.000207,-0.002571,0.044154,0.002701,310.815311,25.437999,0.999714,0.993872,0.003242,0.339741,-0.000014,-0.000004,-0.000006,-0.000001,-0.000016,-65.173742,0.000019,
2506,2428,5.43613786367244,-4.72589390531692,-0.00169846186992118,0.000965,0.000809,-0.008138,0.075981,0.002613,324.391589,23.235093,0.998900,0.982786,0.005360,0.391225,-0.000001,0.000001,0.000052,0.000052,-0.000052,45.488249,0.000060,
2491,2863,5.0166369170747,4.76621213645441,-0.0255259188027139,0.000530,0.000345,-0.005428,0.045322,0.004647,317.032581,25.014389,0.999580,0.992246,0.003587,0.380369,-0.000048,-0.000005,-0.000012,-0.000002,-0.000051,-74.825227,0.000061,
2506,2893,5.3379309156764,5.41942854667226,-0.00960992665494587,0.000227,0.000279,-0.002507,0.020261,0.013998,316.693585,25.207603,0.999522,0.991523,0.003853,0.339784,-0.000044,0.000006,0.000002,0.000006,-0.000044,87.560900,0.000048,
2506,1993,5.52905441132222,-14.2655116645824,0.0341070203305662,0.000709,0.000670,-0.002787,0.043380,0.024346,331.695201,21.543787,0.999065,0.975079,0.006196,0.257731,0.000029,-0.000205,0.000054,0.000041,-0.000217,12.321504,0.000231,
2251,3103,-0.243915614489499,9.96241221858392,0.0177668341019057,0.000963,0.000189,-0.003006,0.054361,0.011321,313.394572,25.031207,0.999568,0.993146,0.003432,0.374628,-0.000027,-0.000017,-0.000006,-0.000014,-0.000030,-64.001179,0.000045,
2491,2023,5.19486349761906,-13.6062620833582,0.0355608458444294,0.000538,0.001149,-0.007611,0.054107,0.004397,331.188531,21.761864,0.999171,0.973953,0.006163,0.251611,-0.000003,-0.000095,0.000044,0.000015,-0.000113,21.727136,0.000123,
2491,3058,4.97903556595319,9.00512392245155,0.000453870039223148,0.000794,0.000245,-0.004036,0.052068,-0.003309,314.066777,25.789623,0.999601,0.992383,0.003817,0.353862,0.000003,0.000005,0.000018,0.000022,-0.000014,46.385370,0.000022,
2266,3193,0.0657579047524912,11.9154614447651,0.0244419379712326,0.000800,0.000373,-0.002863,0.046564,0.017950,311.941937,25.246594,0.999491,0.992910,0.003375,0.369865,-0.000015,-0.000008,-0.000004,-0.000006,-0.000017,-66.015660,0.000024,
2326,2098,1.57115568437688,-11.9550763813071,0.0112346894824782,0.000996,0.000585,-0.004900,0.062675,-0.003478,329.570413,22.883960,0.999460,0.983855,0.005094,0.435759,-0.000047,-0.000006,-0.000011,-0.000003,-0.000050,-75.403934,0.000059,
2311,2008,1.26109648619664,-13.9299737127822,0.0274524605358124,0.001064,0.000433,-0.002307,0.056719,-0.001378,331.153666,22.945063,0.999273,0.981409,0.005809,0.253440,-0.000068,-0.000010,-0.000025,-0.000001,-0.000077,-69.818023,0.000090,
2401,2443,3.1405087201331,-4.39919300528138,-0.00248033510843015,0.000203,0.000273,-0.002724,0.019263,0.010234,323.865243,23.593558,0.999403,0.988210,0.004487,0.384031,-0.000022,-0.000044,0.000014,-0.000015,-0.000051,26.370282,0.000069,
2506,3073,5.30182220630818,9.33208371372675,-0.00518909979831506,0.000785,0.000297,-0.003744,0.050724,0.000942,313.814757,25.847942,0.999616,0.992612,0.003844,0.411119,0.000005,0.000011,0.000007,0.000015,0.000000,58.199825,0.000018,
2506,2218,5.4802465549665,-9.32599675075085,0.0150707592444519,0.000593,-0.000335,-0.000903,0.030460,-0.030890,327.890091,22.364288,0.999109,0.977636,0.005768,0.345117,-0.000033,-0.000023,-0.000012,-0.000015,-0.000041,-56.816584,0.000058,
2491,2443,5.10434590559931,-4.39653829294786,-0.00872739304219294,0.000705,0.000547,-0.003890,0.047400,0.011076,324.015452,23.408943,0.999169,0.985105,0.004707,0.329019,0.000009,-0.000045,0.000042,0.000032,-0.000067,28.591091,0.000067,
2506,2668,5.38388236107911,0.517939280448751,-0.0258491612313492,0.000861,0.000554,-0.004328,0.056493,0.023747,320.266150,24.204088,0.999398,0.987995,0.004496,0.436999,-0.000051,-0.000002,-0.000027,0.000010,-0.000063,-65.823796,0.000068,
2311,3223,1.03738324207337,12.5690310209616,0.0332561057977045,0.000599,0.000436,-0.002793,0.037347,0.015696,311.457709,25.495788,0.999584,0.994259,0.003098,0.393511,-0.000017,-0.000004,-0.000003,-0.000003,-0.000018,-79.334925,0.000023,
2506,2008,5.52548467366501,-13.9360803104511,0.0275700289807901,0.000383,0.001082,-0.007905,0.048385,0.015684,331.404273,21.515980,0.999170,0.977487,0.006025,0.341827,0.000028,-0.000157,0.000029,0.000033,-0.000161,8.797570,0.000170,
2491,2203,5.15562511149561,-9.6533257929273,0.0124389555322182,0.000765,0.000564,-0.003615,0.049068,0.006159,328.083264,22.440396,0.998582,0.975456,0.005991,0.318544,-0.000010,-0.000028,-0.000012,-0.000005,-0.000033,-26.912394,0.000042,
2506,2443,5.43201610228513,-4.39783165784776,-0.00261517754319129,0.000284,0.000429,-0.005242,0.033425,-0.002622,324.097739,23.299618,0.998988,0.983801,0.005157,0.384121,0.000008,-0.000048,0.000043,0.000032,-0.000071,28.494397,0.000071,
2491,2638,5.06234052720428,-0.136484656305903,-0.0291117332062072,0.000771,0.000003,-0.000728,0.038180,0.013284,320.665187,24.125282,0.999419,0.990136,0.004048,0.393460,-0.000033,-0.000035,-0.000020,-0.000014,-0.000054,-43.103403,0.000072,
2506,2908,5.33414790554413,5.74646074498852,-0.0182927498421463,0.000373,0.000438,-0.001394,0.022689,0.006911,316.377788,25.269155,0.999437,0.990248,0.004027,0.332070,-0.000035,0.000002,0.000003,0.000002,-0.000035,85.912915,0.000040,
2386,2368,2.82751313962126,-6.03816447824537,-0.0105764682991776,0.000560,0.000431,-0.002218,0.033785,0.017711,325.013014,23.408327,0.998760,0.984535,0.005024,0.392818,-0.000029,-0.000003,0.000009,0.000000,-0.000031,72.290847,0.000036,
2491,2038,5.19157190415258,-13.2777847947719,0.0377798454637173,0.000333,0.001100,-0.005426,0.036406,0.016682,330.947797,21.736274,0.999129,0.974293,0.006277,0.351741,-0.000008,-0.000072,0.000054,0.000022,-0.000102,29.801153,0.000108,
2416,2608,3.43376162349457,-0.79341916304277,-0.0313188347200253,0.000795,0.000237,-0.005563,0.056917,-0.011430,321.000372,24.096331,0.999402,0.990376,0.004009,0.356816,-0.000024,-0.000027,-0.000006,-0.000020,-0.000032,-39.520328,0.000052,
2206,2923,-1.19156638499892,6.05366687722464,-0.0112045603829642,0.000826,0.000272,-0.001335,0.042376,0.011426,316.185817,24.707218,0.999191,0.991357,0.003919,0.334409,-0.000019,-0.000018,0.000005,-0.000013,-0.000024,47.055643,0.000038,
2431,2623,3.75757792891357,-0.466728024310804,-0.0243834668244745,0.000475,-0.000269,-0.001109,0.025754,-0.017400,320.805588,24.103086,0.999423,0.989989,0.004047,0.379078,-0.000033,-0.000019,-0.000014,-0.000011,-0.000042,-57.993633,0.000055,
2341,2128,1.8931937895849,-11.2960686395511,0.0132541355875446,0.000910,0.000685,-0.004311,0.056925,-0.014420,329.094982,23.022598,0.999559,0.988177,0.004440,0.274566,-0.000025,-0.000005,-0.000011,0.000000,-0.000030,-66.476300,0.000035,
2491,3073,4.97593250699562,9.3303028690956,0.000223636307055131,0.000856,0.000042,-0.003091,0.051185,-0.018096,313.818539,25.793881,0.999537,0.991934,0.003878,0.392860,0.000004,0.000006,0.000014,0.000019,-0.000010,47.275153,0.000019,
2236,3058,-0.561049543970075,8.98493013896814,0.014445604442642,0.001387,0.000595,-0.007115,0.087187,0.004206,314.166944,24.916158,0.999630,0.993568,0.003267,0.364387,-0.000025,-0.000032,-0.000004,-0.000023,-0.000034,-24.279427,0.000057,
2506,3088,5.2996797456768,9.65804859162838,0.0030845325902078,0.000833,0.000558,-0.006139,0.062343,0.014756,313.649659,25.954603,0.999683,0.993732,0.003328,0.378408,0.000010,0.000011,0.000008,0.000018,0.000003,47.838521,0.000023,
2491,2878,5.01369074672612,5.09058838064547,-0.0132694329682863,0.000010,-0.000184,-0.000797,0.003397,-0.017497,316.849169,24.991332,0.999496,0.993479,0.003428,0.439434,-0.000050,0.000011,-0.000010,0.000012,-0.000051,-81.264846,0.000053,
2191,2848,-1.50498231632305,4.42266706078426,-0.0180203995787451,0.000699,0.000273,-0.002267,0.039396,0.004303,317.391698,24.556412,0.999094,0.991820,0.003777,0.376387,-0.000015,-0.000003,0.000006,0.000000,-0.000017,68.303397,0.000020,
2311,2023,1.2579464172296,-13.6012509610977,0.0276996173214457,0.000724,0.000414,-0.001054,0.036880,0.010713,330.894989,22.913194,0.999099,0.983311,0.005383,0.333416,-0.000065,0.000004,-0.000015,0.000007,-0.000068,-78.004749,0.000075,
2506,2023,5.52235301997182,-13.6052554332011,0.0228322111762509,0.000916,0.001047,-0.006464,0.067182,0.010555,331.141253,21.638486,0.999215,0.973728,0.006323,0.278880,0.000019,-0.000102,0.000024,0.000024,-0.000106,10.747432,0.000112,
2506,2683,5.37956185120876,0.846449231291579,-0.0373809124636182,0.000696,0.000211,-0.003586,0.045879,0.003169,319.914118,24.316813,0.999632,0.991319,0.003756,0.365236,-0.000056,0.000008,-0.000019,0.000013,-0.000061,-74.761583,0.000064,
2221,2983,-0.875367334093479,7.35698325705152,-0.00385665081353181,0.001052,0.000235,-0.003888,0.060988,-0.000921,315.247750,24.786601,0.999375,0.992296,0.003672,0.347168,-0.000025,-0.000012,0.000002,-0.000012,-0.000025,78.992276,0.000038,
2281,3268,0.376244417892284,13.5431491780965,0.00548995261516438,0.000972,0.000165,-0.001003,0.048258,0.010501,310.531494,25.412533,0.999711,0.994244,0.003210,0.399223,-0.000014,0.000002,-0.000004,0.000003,-0.000015,-78.317340,0.000016,
2491,2053,5.18676653228605,-12.9452492486152,0.0166310086918884,0.000614,0.000297,-0.003240,0.040572,-0.025085,330.532960,21.879311,0.999116,0.978927,0.005748,0.230013,-0.000008,-0.000072,0.000052,0.000022,-0.000101,29.302028,0.000106,
2266,3208,0.0629876691757154,12.2409760621266,0.0229177681749206,0.000853,0.000123,-0.002915,0.049048,-0.000127,311.685864,25.308221,0.999712,0.995245,0.002949,0.314345,-0.000014,-0.000009,-0.000003,-0.000007,-0.000016,-62.955125,0.000023,
2401,2458,3.13748575250734,-4.07059003485202,-0.0126985910977737,0.000810,0.000661,-0.003996,0.051878,0.011439,323.569150,23.618544,0.999436,0.987878,0.004582,0.407477,-0.000023,-0.000042,0.000012,-0.000017,-0.000048,25.180601,0.000067,
2371,2293,2.51696233075779,-7.6813572926045,0.0160192800306049,0.000787,0.000279,-0.002921,0.046511,-0.002336,326.451664,23.334881,0.999792,0.994901,0.003296,0.281117,-0.000035,-0.000013,-0.000009,-0.000009,-0.000038,-71.015282,0.000051,
2356,2203,2.20556942699661,-9.65099829875932,0.00110163999647739,0.000854,0.000516,-0.003295,0.050891,0.002578,327.779387,23.112074,0.998976,0.983569,0.005204,0.324292,-0.000034,-0.000011,-0.000013,-0.000005,-0.000040,-66.282777,0.000049,
2491,2458,5.1010510398438,-4.06861223930802,-0.00956672569952843,0.000812,0.000373,-0.000970,0.041081,0.016954,323.758566,23.455830,0.999277,0.986743,0.004476,0.348299,0.000014,-0.000048,0.000036,0.000030,-0.000064,24.750914,0.000064,
2251,3118,-0.246636588518971,10.2878077680687,0.0195435578860383,0.000775,0.000158,-0.003367,0.046906,0.016509,313.156653,25.055494,0.999499,0.992418,0.003639,0.377597,-0.000027,-0.000017,-0.000005,-0.000015,-0.000029,-67.542250,0.000044,
2506,2458,5.42867760493831,-4.06923888608434,-0.00764678862077517,0.000760,0.000216,-0.002057,0.042866,0.008498,323.821300,23.363057,0.999160,0.987378,0.004533,0.394488,0.000018,-0.000052,0.000036,0.000033,-0.000067,22.747548,0.000067,
2491,2653,5.05940436111313,0.19077810330657,-0.0248487923223024,0.000703,0.000051,0.000998,0.028466,0.022248,320.446713,24.215472,0.999363,0.989646,0.004197,0.371401,-0.000036,-0.000022,-0.000031,0.000003,-0.000061,-51.681761,0.000069,
2491,3088,4.9733149642177,9.65660674036004,0.00622918023594821,0.000756,0.000371,-0.003668,0.049044,0.012059,313.620403,25.900592,0.999453,0.992174,0.003641,0.373954,0.000010,0.000007,0.000013,0.000022,-0.000004,41.465560,0.000023,
2326,2113,1.56856304002007,-11.6265271741374,0.0208128750896321,0.000806,-0.000319,-0.000339,0.037936,-0.027558,329.383874,23.007835,0.999449,0.983190,0.005121,0.324991,-0.000048,-0.000001,-0.000011,0.000001,-0.000050,-77.255586,0.000057,
2506,2233,5.47668912416198,-8.99525226807481,0.0114857857228685,-0.000189,0.000762,-0.008703,0.025257,-0.014018,327.611221,22.550849,0.999000,0.981386,0.005402,0.239225,-0.000026,0.000022,0.000002,0.000022,-0.000026,87.047345,0.000028,
2281,3118,0.403783159795189,10.290878162805,0.00726757980118009,0.001047,-0.000308,-0.000385,0.049380,-0.018601,313.005332,25.197594,0.999759,0.995249,0.003031,0.320652,-0.000020,-0.000014,-0.000006,-0.000010,-0.000023,-59.058040,0.000034,
2506,2923,5.33011640593397,6.07421604460656,-0.032572338189425,0.000675,0.000321,-0.001162,0.035691,0.018841,316.025170,25.343899,0.999207,0.988216,0.004237,0.330007,-0.000033,0.000002,0.000005,0.000002,-0.000033,81.601268,0.000037,
2506,2038,5.51918912661008,-13.2774411808105,0.031594518203633,0.000518,0.000460,-0.001886,0.031134,0.010609,330.936791,21.639215,0.999150,0.972386,0.006412,0.342758,0.000010,-0.000068,0.000036,0.000024,-0.000082,21.504997,0.000084,
2491,2218,5.15233017100174,-9.32285169303231,0.00335033373551141,0.001112,0.000560,-0.006335,0.075338,-0.000930,327.790568,22.563368,0.999088,0.982053,0.005401,0.249920,-0.000017,-0.000029,-0.000009,-0.000013,-0.000034,-27.900668,0.000048,
2206,2938,-1.19391894606692,6.37932983913008,-0.0112987319131435,0.000851,0.000751,-0.004597,0.053999,0.014847,315.952254,24.698471,0.999296,0.993014,0.003622,0.362792,-0.000020,-0.000013,0.000005,-0.000011,-0.000022,61.575010,0.000034,
2311,3238,1.03386951039039,12.8953258631088,0.0218222607936127,0.000656,0.000421,-0.003761,0.043280,0.013115,311.121336,25.565893,0.999350,0.993187,0.003362,0.351492,-0.000020,-0.000010,-0.000005,-0.000008,-0.000022,-68.503435,0.000031,
2431,2638,3.75461222091373,-0.13939688753905,-0.0246199764839048,0.000518,-0.000005,-0.000904,0.027087,-0.009274,320.560827,24.157017,0.999562,0.991484,0.003858,0.383816,-0.000042,-0.000016,-0.000014,-0.000010,-0.000048,-66.086140,0.000062,
2506,3103,5.2969640969918,9.98302999779603,0.00523689210717748,0.001007,0.000406,-0.006351,0.071047,-0.002688,313.430928,25.966199,0.999679,0.993506,0.003301,0.409431,0.000010,0.000011,0.000017,0.000027,-0.000007,45.374051,0.000028,
2281,3283,0.372843305992816,13.8684667507706,0.00143619059554112,0.000629,0.000321,-0.000743,0.031688,0.023802,310.234633,25.431876,0.999388,0.993538,0.003307,0.419605,-0.000015,0.000009,-0.000004,0.000010,-0.000016,-80.477431,0.000016,
2341,2143,1.88888011078733,-10.9655207097253,0.000890891284029749,0.000814,0.000253,0.001745,0.031315,0.015009,328.723988,23.049385,0.999155,0.985083,0.005027,0.317578,-0.000027,-0.000014,-0.000011,-0.000007,-0.000033,-60.736516,0.000043,
2386,2383,2.82495642794045,-5.71040287526905,-0.00752714550435485,0.000740,0.000101,-0.001164,0.038147,0.003646,324.800094,23.471371,0.998898,0.985498,0.005037,0.360633,-0.000018,-0.000007,0.000010,-0.000001,-0.000024,59.537184,0.000029,
2491,2893,5.01022949414756,5.41907473195867,-0.0242855721503474,0.000557,-0.000310,-0.000806,0.028526,-0.022281,316.535977,25.162627,0.998885,0.989044,0.004155,0.321959,-0.000043,0.000010,-0.000007,0.000011,-0.000044,-83.028523,0.000046,
2491,2068,5.18315210863016,-12.6146912822525,0.00803272424059287,0.000673,0.000787,-0.005034,0.050324,0.007889,330.228528,21.914821,0.999258,0.980407,0.005648,0.290023,-0.000007,-0.000066,0.000043,0.000016,-0.000089,27.851572,0.000095,
2491,2668,5.05672571148451,0.517292420016368,-0.0272583250045955,0.000815,0.000422,-0.004782,0.055888,0.010429,320.210170,24.206114,0.999264,0.988503,0.004355,0.428337,-0.000047,-0.000005,-0.000031,0.000011,-0.000063,-62.169636,0.000067,
2491,3103,4.97071689518154,9.98230821845057,0.00867286121535926,0.000913,0.000543,-0.004953,0.061230,0.008690,313.407191,25.965990,0.999431,0.991314,0.003639,0.363181,0.000014,0.000009,0.000019,0.000031,-0.000008,41.705602,0.000032,
2506,2053,5.51493227379948,-12.9474835116642,0.032247044150381,0.000100,-0.000913,0.006955,-0.022623,-0.005636,330.646079,21.765644,0.999263,0.983126,0.005312,0.264570,0.000006,-0.000076,0.000038,0.000021,-0.000092,21.432332,0.000096,
2191,2863,-1.50774517827888,4.74904411586791,-0.0225641340692277,0.000681,0.000278,-0.004244,0.044756,0.000074,317.114906,24.566884,0.999245,0.992558,0.003547,0.375925,-0.000012,-0.000001,0.000003,0.000000,-0.000013,74.037500,0.000015,
2506,2698,5.3770125003367,1.17240992241496,-0.0274543515381538,0.000478,0.000125,-0.002727,0.032515,-0.011259,319.739821,24.370713,0.999574,0.992060,0.003653,0.358123,-0.000060,0.000027,-0.000024,0.000033,-0.000067,-75.677455,0.000067,
2506,2473,5.42511925572915,-3.7400728344196,-0.015250741562113,0.000731,0.000575,-0.004822,0.052396,0.019959,323.523101,23.460647,0.999346,0.986569,0.004470,0.371095,-0.000003,-0.000072,0.000029,0.000008,-0.000083,20.111937,0.000092,
2236,3073,-0.564946606738442,9.31080122641605,0.00918441544297366,0.000958,0.000141,-0.000970,0.047325,0.004459,313.837928,24.932528,0.999595,0.993296,0.003332,0.368372,-0.000024,-0.000026,-0.000006,-0.000019,-0.000032,-40.671388,0.000051,
2506,2938,5.32850269857957,6.39893366306806,-0.0153734524171227,0.000824,0.000029,0.000336,0.036569,0.004245,315.925537,25.393636,0.999477,0.991422,0.003769,0.325867,-0.000029,-0.000001,0.000009,0.000002,-0.000032,73.884592,0.000036,
2311,2038,1.25528773524015,-13.2702098352656,0.0231906480752855,0.000705,0.001370,-0.007042,0.056726,0.028440,330.635198,23.038940,0.999526,0.988246,0.004422,0.261141,-0.000062,-0.000004,-0.000016,0.000000,-0.000066,-75.954461,0.000076,
2491,2473,5.09805831249496,-3.74074795707653,-0.0119653554812658,0.000772,0.000587,-0.004936,0.054549,0.016776,323.508499,23.493687,0.999325,0.986759,0.004498,0.370448,-0.000009,-0.000066,0.000029,0.000003,-0.000078,22.830309,0.000088,
2266,3223,0.0601991168098941,12.5657663142686,0.0219335460658385,0.000891,0.000178,-0.002355,0.048983,0.006254,311.431891,25.285759,0.999793,0.996093,0.002883,0.367181,-0.000013,0.000001,-0.000005,0.000003,-0.000015,-71.898642,0.000016,
2356,2218,2.20283442740253,-9.32343258011519,0.0106674413936503,0.000395,0.000190,-0.000935,0.021464,0.001335,327.587851,23.156957,0.998534,0.980342,0.005721,0.319372,-0.000034,-0.000017,-0.000013,-0.000010,-0.000041,-62.272083,0.000054,
2506,2248,5.47400548692269,-8.66851867658642,0.0166751002593628,0.000567,-0.000233,0.000356,0.024447,-0.017276,327.411880,22.486509,0.998940,0.981700,0.005493,0.363610,-0.000026,0.000027,-0.000003,0.000027,-0.000026,-86.408722,0.000031,
2221,2998,-0.877630124376171,7.68274689351872,-0.00180022834274496,0.001365,0.000570,-0.002564,0.071302,0.019032,315.030339,24.801629,0.999304,0.992159,0.003769,0.370418,-0.000027,-0.000011,0.000002,-0.000010,-0.000027,82.843543,0.000039,
2371,2308,2.51322789308976,-7.35264542590181,0.00539644238261872,0.000810,0.000300,-0.002027,0.044438,0.004434,326.118511,23.301278,0.999863,0.996052,0.002907,0.365205,-0.000038,-0.000017,-0.000004,-0.000016,-0.000039,-78.920707,0.000057,
2401,2473,3.13495560400149,-3.74272026854999,-0.0103156372715603,0.000712,0.001054,-0.007782,0.061205,0.006762,323.355016,23.704785,0.999328,0.988428,0.004482,0.363192,-0.000025,-0.000046,0.000011,-0.000020,-0.000051,23.550236,0.000073,
2506,3118,5.2937763394293,10.3090666273667,0.0106382705717465,0.000853,-0.000121,-0.001689,0.045751,0.003591,313.204586,26.075379,0.999519,0.992790,0.003535,0.366342,0.000002,0.000024,0.000013,0.000030,-0.000005,64.839037,0.000032,
2281,3298,0.369630624283079,14.1943847679473,-0.00482796531224494,0.000620,0.000183,-0.000749,0.031221,0.014557,309.935078,25.521468,0.999568,0.994988,0.003021,0.346811,-0.000009,0.000008,-0.000009,0.000011,-0.000013,-66.431102,0.000014,
2251,3133,-0.249392427804413,10.6129065475058,0.0236527026144131,0.000690,0.000047,0.000526,0.030145,0.016277,312.929053,25.075863,0.999279,0.992667,0.003668,0.379188,-0.000026,-0.000009,-0.000002,-0.000009,-0.000027,-83.144212,0.000037,
2491,2233,5.14817302662843,-8.99477450875286,0.00164223930454455,0.000520,0.000151,-0.002370,0.032921,-0.004830,327.491527,22.547075,0.998983,0.981873,0.005608,0.324123,-0.000011,0.000007,0.000001,0.000007,-0.000011,86.291988,0.000011,
2491,2908,5.00738302428237,5.74551900767716,-0.0163395096488443,0.000217,-0.000188,0.000379,0.008384,-0.021634,316.337012,25.282876,0.999018,0.988090,0.004390,0.260645,-0.000039,0.000007,-0.000004,0.000007,-0.000039,-84.652603,0.000042,
2311,3253,1.03023623838274,13.2208934091719,0.0144527171011646,0.000554,0.000206,-0.001184,0.029696,0.013986,310.799741,25.593550,0.999408,0.993221,0.003358,0.355566,-0.000023,-0.000010,-0.000004,-0.000009,-0.000025,-73.500596,0.000035,
2491,2683,5.05298327720365,0.845057696299271,-0.0340668515873972,0.000758,0.000136,-0.004429,0.051818,0.000369,319.904546,24.278753,0.999615,0.991454,0.003734,0.405114,-0.000053,0.000006,-0.000023,0.000013,-0.000060,-70.995446,0.000063,
2506,2068,5.51355601220312,-12.6188069114447,0.0439042834999555,0.000280,0.000100,0.000142,0.012284,0.008826,330.536172,21.871541,0.999348,0.984868,0.005060,0.236987,0.000003,-0.000081,0.000026,0.000010,-0.000088,15.729003,0.000096,
2506,2263,5.47049535065154,-8.33840883173625,0.0101709604679741,0.000886,-0.000347,0.002078,0.032379,-0.012605,327.122105,22.608309,0.998525,0.978290,0.005821,0.310059,-0.000030,0.000008,-0.000009,0.000010,-0.000032,-77.464385,0.000032,
2206,2953,-1.19685412900845,6.70532561630586,-0.0167501512204922,0.000983,0.000756,-0.003300,0.056044,0.034546,315.664066,24.670978,0.999344,0.993217,0.003562,0.426129,-0.000021,-0.000012,0.000002,-0.000011,-0.000021,79.746601,0.000033,
2491,2488,5.09570658628797,-3.41340243322793,-0.0077078250347995,0.001026,0.000691,-0.006363,0.071669,0.000348,323.317853,23.566337,0.999462,0.986760,0.004411,0.341175,-0.000001,-0.000078,0.000009,-0.000001,-0.000079,6.375564,0.000091,
2506,2953,5.32630646150423,6.72408095333468,-0.00812978431514466,0.000819,-0.000101,-0.003073,0.049414,-0.024177,315.754345,25.429008,0.999491,0.991970,0.003751,0.322561,-0.000023,0.000011,0.000014,0.000017,-0.000028,69.998994,0.000028,
2326,2128,1.56611488551364,-11.2968660603858,0.0208831086011401,0.000595,0.000747,-0.007380,0.052906,-0.012512,329.157321,23.095245,0.999347,0.985406,0.004928,0.289969,-0.000045,0.000006,-0.000013,0.000010,-0.000048,-76.103210,0.000051,
2341,2158,1.88656125243421,-10.6381229757867,0.00068438553927308,0.000955,0.000965,-0.002737,0.053636,0.028873,328.503464,22.940727,0.999245,0.985931,0.004956,0.479509,-0.000033,-0.000020,-0.000015,-0.000011,-0.000042,-56.394032,0.000056,
2491,3118,4.96793584843991,10.3077696800618,0.0106035073515045,0.001129,0.000302,-0.003878,0.066929,0.006184,313.183217,26.008847,0.999526,0.991883,0.003527,0.375710,0.000013,0.000019,0.000016,0.000033,-0.000001,50.424089,0.000037,
2431,2653,3.75209993677687,0.187179462310056,-0.0182486690567316,0.000495,-0.000063,-0.000502,0.024555,-0.001632,320.367655,24.202200,0.999581,0.991216,0.003884,0.396426,-0.000045,-0.000012,-0.000020,-0.000003,-0.000054,-65.274619,0.000064,
2506,3133,5.29044163416327,10.6349441340756,0.00871739688028583,0.000802,0.000091,-0.001332,0.042160,0.016507,312.938597,26.121411,0.999512,0.992731,0.003517,0.393336,0.000000,0.000000,0.000013,0.000013,-0.000013,45.217897,0.000015,
2506,2488,5.42233754855576,-3.4129357816299,-0.0119912190706373,0.000950,0.000328,-0.002855,0.054695,0.004801,323.309337,23.504202,0.999460,0.986681,0.004486,0.374302,0.000005,-0.000082,0.000004,0.000006,-0.000082,2.868741,0.000092,
2296,1993,0.935689318257438,-14.2585404333276,0.0240986475206455,0.000890,0.000559,-0.002866,0.050584,0.014085,331.371293,23.000578,0.999246,0.967856,0.006988,0.283809,-0.000072,-0.000017,-0.000028,-0.000005,-0.000084,-67.146513,0.000100,
2506,2713,5.37431120406904,1.50029068407842,-0.0272365476735672,0.000669,0.000543,-0.005060,0.050503,0.006949,319.514615,24.492845,0.999528,0.991682,0.003759,0.315752,-0.000074,0.000020,-0.000015,0.000022,-0.000077,-81.294767,0.000079,
2236,3088,-0.567803686987563,9.63628312295667,0.0138822317986751,0.000432,-0.000065,-0.000923,0.022850,-0.010208,313.607712,24.995825,0.999511,0.993207,0.003368,0.310330,-0.000024,-0.000027,-0.000007,-0.000019,-0.000032,-38.357830,0.000052,
2491,2923,5.00336144986668,6.07313408978452,-0.0314034889885306,0.000388,0.000177,-0.001386,0.023222,0.005753,315.979712,25.323378,0.999362,0.988192,0.004178,0.306281,-0.000034,0.000001,0.000001,0.000001,-0.000034,88.285825,0.000039,
2386,2398,2.82248289321855,-5.38349411341333,-0.0018697297347785,0.000539,0.000336,-0.003309,0.036696,0.005986,324.603356,23.469486,0.999244,0.986988,0.004696,0.409409,-0.000018,-0.000008,0.000015,0.000003,-0.000029,53.545176,0.000032,
2221,3013,-0.880318039486994,8.00807976145216,0.00252142562368363,0.000945,0.000582,-0.003400,0.054677,0.026767,314.805184,24.808275,0.999377,0.992471,0.003611,0.389509,-0.000025,-0.000015,0.000000,-0.000015,-0.000025,87.310629,0.000040,
2491,2248,5.14491089508536,-8.66630348044265,0.00289487588275961,0.000507,0.000437,0.000801,0.020315,0.017537,327.246598,22.576242,0.999044,0.982224,0.005397,0.378624,-0.000009,0.000010,-0.000003,0.000011,-0.000010,-80.588430,0.000012,
2491,2698,5.04977452930732,1.17297939901344,-0.0361518096839859,0.000688,0.000257,-0.005861,0.054125,-0.011402,319.644610,24.411622,0.999632,0.991323,0.003786,0.319712,-0.000056,0.000018,-0.000025,0.000026,-0.000064,-72.842179,0.000065,
2401,2488,3.13173395889858,-3.41494423977937,-0.00832460433559845,0.000635,0.000483,-0.003011,0.040233,0.009298,323.107221,23.776329,0.999332,0.989531,0.004261,0.340850,-0.000016,-0.000052,0.000005,-0.000015,-0.000052,7.754972,0.000071,
2251,3148,-0.251739065707888,10.9380037217395,0.0227906378405578,0.000765,0.000121,-0.004042,0.048577,-0.001015,312.695010,25.086153,0.998403,0.989348,0.004390,0.373925,-0.000024,-0.000005,-0.000003,-0.000005,-0.000025,-80.469180,0.000032,
2311,2053,1.25257881660336,-12.9422085906691,0.0263991881107586,0.000821,0.000804,-0.002636,0.046849,0.016283,330.411328,23.009757,0.999441,0.985999,0.004707,0.313507,-0.000058,-0.000012,-0.000018,-0.000005,-0.000064,-70.916829,0.000078,
2356,2233,2.19993081425532,-8.99411055829495,0.00356218174061951,0.000638,0.000532,-0.004013,0.043506,-0.002160,327.308313,23.196149,0.997868,0.977035,0.006220,0.318269,-0.000038,-0.000018,-0.000011,-0.000013,-0.000043,-65.611196,0.000059,
2191,2878,-1.51012744854047,5.07574382197014,-0.0169563086664084,0.000674,0.000021,-0.001517,0.035863,0.008565,316.908287,24.673700,0.999745,0.995858,0.002925,0.291549,-0.000011,-0.000003,0.000002,-0.000002,-0.000011,74.380767,0.000015,
2371,2323,2.50936015972447,-7.02480788333838,0.00629118346370205,-0.000003,-0.000053,0.001330,-0.004888,0.003269,325.834245,23.316540,0.999576,0.992731,0.003707,0.391902,-0.000045,-0.000016,-0.000001,-0.000016,-0.000045,-88.184949,0.000064,
2266,3238,0.0574183782145639,12.8902466657638,0.0192870807718464,0.000766,0.000086,-0.005834,0.054695,-0.011200,311.169970,25.252984,0.999790,0.995435,0.002958,0.406928,-0.000013,-0.000005,-0.000008,0.000000,-0.000017,-59.507024,0.000020,
2506,2083,5.51049541013169,-12.2898410336757,0.032278270892391,0.000833,0.001083,-0.005550,0.059887,0.046492,330.245288,21.727747,0.999432,0.985957,0.004743,0.482993,0.000001,-0.000078,0.000024,0.000007,-0.000085,15.371655,0.000094,
2506,2278,5.46724805144035,-8.00933552890227,0.0061921182643232,0.000832,0.000294,-0.001022,0.042150,0.004322,326.855585,22.654712,0.998829,0.979492,0.005431,0.343891,-0.000036,-0.000012,-0.000004,-0.000011,-0.000037,-80.595800,0.000050,
2506,2503,5.41881480878122,-3.08403305330192,-0.0181837802052769,0.000798,0.000775,-0.006049,0.060281,0.011537,323.018924,23.606383,0.999254,0.986941,0.004776,0.341642,0.000001,-0.000077,-0.000010,0.000002,-0.000078,-7.042484,0.000089,
2491,2503,5.09186292555308,-3.08518267953999,-0.0116407825235569,0.000715,0.000592,-0.005001,0.052145,-0.007322,323.021582,23.640466,0.999413,0.987395,0.004482,0.319597,-0.000003,-0.000075,-0.000001,-0.000003,-0.000075,-1.157058,0.000088,
2491,3133,4.96446329455467,10.6334896805829,0.0100967512578904,0.000813,0.000177,-0.003328,0.050284,0.004507,312.916187,26.063521,0.999470,0.991792,0.003525,0.376897,0.000013,0.000000,0.000016,0.000024,-0.000011,33.860223,0.000024,
2506,2968,5.3233079028419,7.05067057918122,-0.00741363530192984,0.000841,0.000329,-0.003248,0.051363,0.007942,315.516439,25.494832,0.999497,0.991266,0.003933,0.349636,-0.000018,0.000020,0.000021,0.000029,-0.000027,66.360400,0.000033,
2506,3148,5.28772957513668,10.9605131709899,0.0153099037610218,0.000594,0.000206,-0.001668,0.033882,0.004144,312.739501,26.220119,0.999422,0.991967,0.003666,0.341978,-0.000002,-0.000016,0.000013,0.000006,-0.000024,30.419562,0.000025,
2491,2938,5.00097414583546,6.39904008953071,-0.0227911615735934,0.000482,0.000027,0.000193,0.021502,0.019751,315.804850,25.393240,0.999423,0.991164,0.003697,0.308713,-0.000031,-0.000003,0.000005,-0.000002,-0.000032,80.085789,0.000038,
2311,3268,1.02744843028173,13.5462900554276,0.00791210637532913,0.000895,0.000250,-0.003162,0.052207,0.009942,310.521168,25.619555,0.999439,0.994162,0.003158,0.356292,-0.000026,-0.000009,-0.000001,-0.000009,-0.000026,-87.495876,0.000036,
2431,2668,3.74821130122478,0.516618575850174,-0.0354849085591127,0.000684,-0.000072,-0.004256,0.047081,-0.006556,320.001021,24.330326,0.999570,0.991304,0.003968,0.314168,-0.000047,-0.000004,-0.000022,0.000005,-0.000056,-67.289591,0.000062,
2506,2728,5.37161896877253,1.82658824971404,-0.0261303262147976,0.000759,0.000546,-0.007713,0.064884,-0.002529,319.294095,24.508803,0.999390,0.990764,0.003912,0.351319,-0.000080,0.000002,-0.000005,0.000002,-0.000080,-86.591719,0.000091,
2296,2008,0.933134473327399,-13.929470612958,0.0254366312831849,0.000982,0.000312,-0.002388,0.053106,0.005295,331.144037,23.027992,0.999026,0.980032,0.005705,0.281260,-0.000069,-0.000017,-0.000018,-0.000011,-0.000075,-72.739056,0.000093,
2491,2263,5.14224862159341,-8.33766504353936,0.00434896192660972,0.000549,0.000321,-0.002413,0.034463,-0.011914,327.030239,22.679518,0.998808,0.980741,0.005285,0.306824,-0.000014,-0.000003,-0.000008,0.000001,-0.000018,-62.018018,0.000021,
2491,2713,5.04626226689688,1.49945568446617,-0.0372690747482238,0.000553,0.000276,-0.003368,0.038389,0.002442,319.375208,24.398822,0.999586,0.990843,0.004066,0.405584,-0.000068,0.000013,-0.000018,0.000016,-0.000072,-78.206138,0.000076,
2341,2173,1.88345720544822,-10.3086711869905,0.00339943135992371,0.000619,0.000563,-0.000633,0.030779,0.017939,328.260931,23.080863,0.999037,0.984204,0.005135,0.367966,-0.000029,-0.000012,-0.000012,-0.000005,-0.000035,-62.232361,0.000044,
2506,2098,5.50610080242683,-11.9565648388569,0.021070997242191,0.000703,0.000771,-0.003786,0.047028,0.022287,329.895077,22.051283,0.999500,0.986970,0.004762,0.200062,-0.000011,-0.000072,0.000003,-0.000011,-0.000072,2.553893,0.000091,
2506,2518,5.41541656079261,-2.75680638614843,-0.0183446576294841,0.000841,0.000325,-0.002303,0.047603,0.010885,322.761324,23.622364,0.999319,0.988003,0.004610,0.387194,-0.000016,-0.000060,-0.000013,-0.000013,-0.000064,-15.516546,0.000082,
2506,2293,5.46397804163018,-7.6804460582015,0.00581494342998212,0.000628,0.000296,-0.002082,0.036906,0.000944,326.604078,22.746616,0.999120,0.980771,0.005308,0.312059,-0.000029,0.000002,-0.000001,0.000002,-0.000029,-87.331679,0.000032,
2326,2143,1.56272333302009,-10.9665674594673,0.0116727926497333,0.000989,0.000552,-0.003299,0.056820,0.023077,328.842189,23.126117,0.999223,0.985467,0.005101,0.332651,-0.000046,-0.000005,-0.000014,-0.000001,-0.000050,-72.123328,0.000059,
2236,3103,-0.570351683218725,9.96104350110984,0.0122429819635954,0.000614,0.000044,-0.001539,0.033337,0.001790,313.359517,24.929501,0.999534,0.993830,0.003284,0.408757,-0.000027,-0.000022,-0.000005,-0.000019,-0.000030,-56.571346,0.000049,
2221,3028,-0.883208042675346,8.33342290649612,-0.00116447152265664,0.000829,0.000203,-0.005034,0.054481,0.007979,314.529571,24.792670,0.999594,0.994494,0.003166,0.404495,-0.000025,-0.000018,-0.000002,-0.000017,-0.000026,-74.020687,0.000043,
2266,3253,0.0542926041910157,13.2159834689842,0.0197670420956797,0.000680,-0.000040,-0.000942,0.034500,0.007752,310.907453,25.321411,0.999771,0.994560,0.003156,0.381319,-0.000013,-0.000001,-0.000005,0.000000,-0.000015,-70.605910,0.000017,
2506,2983,5.32000291118813,7.37648545687195,-0.00736144049477616,0.000831,-0.000024,-0.000847,0.041476,0.005781,315.261596,25.523122,0.999304,0.989655,0.004120,0.379374,-0.000011,0.000022,0.000023,0.000034,-0.000023,62.728975,0.000035,
2491,2518,5.08860859055975,-2.75763018754841,-0.0179979556497187,0.001141,0.000548,-0.004231,0.068699,0.001679,322.741449,23.620143,0.999514,0.987532,0.004298,0.409263,-0.000017,-0.000063,-0.000005,-0.000016,-0.000064,-6.573898,0.000084,
2401,2503,3.1281292751067,-3.08618266568345,-0.0190195533825204,0.000790,0.000243,-0.003229,0.047995,-0.004713,322.781968,23.844097,0.999458,0.990388,0.004082,0.306185,-0.000019,-0.000053,0.000004,-0.000019,-0.000053,6.613873,0.000074,
2251,3163,-0.254075707770333,11.2634669310552,0.0320691423256676,0.000708,0.000028,-0.000491,0.034288,0.004055,312.512759,25.172782,0.999104,0.991402,0.003834,0.314018,-0.000022,-0.000005,-0.000004,-0.000004,-0.000023,-77.838414,0.000029,
2506,2743,5.3670064284725,2.15524514953863,-0.0347823375141161,0.000539,0.000197,-0.001276,0.029771,0.005274,318.940968,24.651280,0.999622,0.991388,0.003749,0.278193,-0.000092,-0.000012,-0.000015,-0.000009,-0.000095,-79.698064,0.000115,
2356,2248,2.19661074185134,-8.66542010050474,0.00302680262467447,0.000486,0.000318,-0.000230,0.023211,0.008853,327.041179,23.236910,0.998814,0.983058,0.005341,0.329644,-0.000038,-0.000029,-0.000011,-0.000021,-0.000046,-56.635244,0.000069,
2506,3163,5.28483976703653,11.2857204875052,0.0133329083603826,0.000738,0.000244,-0.004302,0.050718,-0.000551,312.493802,26.229261,0.999531,0.993156,0.003406,0.388165,-0.000004,-0.000008,0.000009,0.000003,-0.000016,38.857439,0.000017,
2311,2068,1.24950553436947,-12.6125750494334,0.0177652492185416,0.001054,0.000841,-0.003724,0.061243,-0.006388,330.112627,23.013565,0.999451,0.983360,0.005009,0.322929,-0.000056,0.000010,-0.000010,0.000012,-0.000057,-81.550263,0.000061,
2491,2953,4.99883168568723,6.7243029868165,-0.0186424199638395,0.000837,0.000098,-0.002452,0.047910,-0.001376,315.621267,25.410704,0.999370,0.990834,0.003808,0.328328,-0.000025,0.000005,0.000012,0.000009,-0.000029,70.671343,0.000029,
2491,2278,5.13986971742266,-8.00859526968685,0.00616745224493798,0.000983,0.000596,-0.003953,0.060376,0.016191,326.828137,22.773332,0.999153,0.983149,0.004962,0.301993,-0.000024,-0.000014,-0.000005,-0.000012,-0.000026,-68.552919,0.000039,
2491,2728,5.04348483348977,1.82719988481583,-0.0386814965033864,0.000817,0.000390,-0.005271,0.057867,0.003994,319.137964,24.517061,0.999545,0.992681,0.003528,0.347884,-0.000075,-0.000002,-0.000009,0.000000,-0.000076,-83.057771,0.000088,
2431,2683,3.74564299665981,0.843474972892523,-0.0336212373462672,0.000854,0.000516,-0.005244,0.058796,0.013357,319.784117,24.360902,0.999520,0.990439,0.004004,0.354005,-0.000043,0.000002,-0.000016,0.000007,-0.000048,-72.037927,0.000052,
2491,3148,4.96139273393545,10.9592338918434,0.0161476297236618,0.000479,0.000246,-0.001238,0.026891,0.012807,312.697224,26.154261,0.999465,0.991330,0.003654,0.352006,0.000010,-0.000013,0.000018,0.000019,-0.000023,28.490573,0.000024,
2386,2413,2.81981628689546,-5.05570265403087,0.00191828601481348,0.000568,0.000618,-0.001995,0.033463,0.029585,324.388635,23.513639,0.999395,0.986534,0.004621,0.433702,-0.000025,-0.000012,0.000017,0.000000,-0.000037,55.597568,0.000043,
2506,2308,5.46095329473338,-7.35288510417791,0.00771074833909324,0.000332,0.000263,-0.004731,0.033543,-0.031213,326.374129,22.773610,0.999113,0.982568,0.005184,0.315709,-0.000026,0.000030,0.000004,0.000030,-0.000026,86.261466,0.000033,
2506,2113,5.5028744252349,-11.6292331137556,0.0202554091858929,0.000579,0.000401,-0.004703,0.044786,-0.025369,329.645021,21.975605,0.999606,0.987110,0.004715,0.292009,-0.000018,-0.000082,-0.000005,-0.000018,-0.000083,-4.872094,0.000107,
2506,2533,5.41239969034246,-2.42863494747912,-0.0171409442568802,0.000953,0.000254,-0.000950,0.047478,0.020098,322.527072,23.732160,0.999471,0.989956,0.004197,0.348532,-0.000007,-0.000062,-0.000006,-0.000006,-0.000062,-6.502194,0.000076,
2371,2338,2.50700345316787,-6.69564342317794,-0.00197470012113854,0.000759,0.000253,-0.003714,0.048051,-0.010510,325.575379,23.380213,0.999059,0.986856,0.004690,0.357417,-0.000042,-0.000013,-0.000001,-0.000013,-0.000042,-87.048694,0.000058,
2506,2998,5.31695716698416,7.70300224518201,-0.00698988035719594,0.000638,0.000301,-0.003351,0.042444,0.009037,315.019843,25.616949,0.999410,0.990797,0.003856,0.349246,-0.000009,0.000022,0.000022,0.000033,-0.000020,62.773308,0.000034,
2341,2188,1.88090476943666,-9.97999679421855,0.0057390992419073,0.000546,-0.000073,-0.002664,0.034215,-0.047355,328.042159,23.205176,0.999082,0.986758,0.004879,0.217328,-0.000032,-0.000005,-0.000012,-0.000001,-0.000037,-68.626086,0.000043,
2491,2533,5.08505529436475,-2.43019456944127,-0.0156744839673593,0.000719,0.000100,-0.001361,0.038197,-0.010707,322.486603,23.693996,0.999702,0.990725,0.003730,0.382694,-0.000010,-0.000067,0.000000,-0.000010,-0.000067,-0.167482,0.000084,
2506,2758,5.36347952301791,2.48091900873132,-0.0339909139365773,0.000367,-0.000216,0.002551,0.006896,0.006012,318.680548,24.606736,0.999659,0.991995,0.003607,0.384849,-0.000091,-0.000035,-0.000026,-0.000024,-0.000102,-68.424304,0.000133,
2326,2158,1.55965553416065,-10.6384265100644,0.0116859914875818,0.000819,0.000632,-0.001546,0.043064,0.039284,328.587064,23.084521,0.999114,0.984785,0.005105,0.427834,-0.000048,-0.000013,-0.000016,-0.000007,-0.000054,-68.587771,0.000067,
2506,3178,5.28258158780322,11.6111901808609,0.0216615621692426,0.000820,0.000236,-0.004843,0.056564,-0.002838,312.323283,26.325479,0.999575,0.993767,0.003334,0.349314,-0.000008,-0.000010,0.000010,0.000000,-0.000019,42.065608,0.000022,
2491,2743,5.04003415458773,2.15406408079549,-0.0409068985570684,0.000713,0.000280,-0.004288,0.049298,0.005367,318.866173,24.552953,0.999685,0.992593,0.003511,0.372528,-0.000081,-0.000010,-0.000017,-0.000006,-0.000085,-77.194741,0.000102,
2251,3178,-0.256487848458235,11.5879287652328,0.0372195543690168,0.000699,0.000094,0.000677,0.030044,0.010375,312.306407,25.143933,0.999334,0.992991,0.003419,0.371532,-0.000020,-0.000002,-0.000004,-0.000002,-0.000020,-78.979734,0.000025,
2491,2293,5.13636403732056,-7.68106333793958,0.00624862179284946,0.000733,0.000247,-0.001849,0.040707,0.006143,326.566771,22.752241,0.999136,0.983741,0.004942,0.374153,-0.000020,-0.000002,-0.000006,0.000000,-0.000022,-74.427093,0.000025,
2356,2263,2.19388419582363,-8.33713703487509,0.00366294918740095,0.000366,0.000710,-0.002520,0.025871,0.022370,326.806857,23.255050,0.999236,0.986698,0.004777,0.366339,-0.000040,-0.000036,-0.000018,-0.000020,-0.000056,-48.236397,0.000078,
2506,2323,5.45781709391988,-7.02455602926301,0.0041126632871169,0.000665,0.000349,-0.004153,0.046619,-0.007315,326.114184,22.765155,0.998984,0.985129,0.004912,0.411303,-0.000032,0.000047,0.000011,0.000048,-0.000034,82.386016,0.000050,
2491,3163,4.95840943957926,11.28430597565,0.0178929973537265,0.000390,0.000113,-0.001536,0.023906,0.009718,312.462955,26.171512,0.999564,0.992514,0.003409,0.389352,0.000007,-0.000006,0.000015,0.000017,-0.000015,33.434539,0.000019,
2506,2128,5.49934003528227,-11.2998220826326,0.0175792651185134,0.000637,0.000262,-0.001903,0.036548,-0.001601,329.371976,22.003762,0.999619,0.986479,0.004796,0.351995,-0.000020,-0.000077,-0.000008,-0.000019,-0.000078,-7.889614,0.000103,
2506,2548,5.41031571677617,-2.1019565198815,-0.00417413720560944,0.000675,0.000346,-0.003344,0.044009,0.009838,322.388412,23.833437,0.999792,0.991554,0.003763,0.298623,-0.000007,-0.000082,-0.000010,-0.000006,-0.000083,-7.416457,0.000100,
2491,2968,4.99637448347412,7.0499853528713,-0.0140816496469824,0.000663,0.000551,-0.007244,0.058495,0.007167,315.424824,25.443657,0.999327,0.989312,0.004123,0.362354,-0.000021,0.000012,0.000017,0.000019,-0.000029,66.877236,0.000029,
2401,2518,3.12539512731949,-2.76032066066336,-0.0163637263732994,0.000839,0.000249,-0.002142,0.046381,0.018461,322.559825,23.735504,0.999433,0.989576,0.004261,0.484611,-0.000024,-0.000046,0.000002,-0.000024,-0.000046,4.312776,0.000071,
2311,2083,1.24645937935885,-12.2814112327106,0.0143776962041215,0.001032,0.000767,-0.003584,0.059723,0.021889,329.840371,23.170569,0.999389,0.984042,0.005091,0.229985,-0.000054,0.000003,-0.000011,0.000005,-0.000056,-79.078913,0.000062,
2506,3013,5.31421170130183,8.02893470264468,-0.0056108677893576,0.000726,0.000398,-0.005051,0.053122,0.008070,314.796511,25.671936,0.999390,0.991610,0.003674,0.353485,-0.000017,0.000031,0.000017,0.000036,-0.000023,72.085466,0.000037,
2491,2548,5.08152701660641,-2.10219108134429,-0.0198377297883781,0.000383,0.000248,-0.004256,0.033929,-0.012178,322.203519,23.755878,0.999722,0.990019,0.003920,0.379265,-0.000012,-0.000082,-0.000003,-0.000012,-0.000082,-2.306208,0.000102,
2386,2428,2.81690110810917,-4.72749381150757,-0.0013825265335754,0.000609,0.000372,-0.004548,0.044381,0.005439,324.128987,23.581304,0.999449,0.989000,0.004376,0.386599,-0.000024,-0.000025,0.000017,-0.000007,-0.000041,44.368244,0.000052,
2506,2773,5.36097846488233,2.80744363058455,-0.0335693272372737,0.000508,0.000109,-0.002434,0.032745,-0.007353,318.465456,24.655808,0.999674,0.992212,0.003604,0.383437,-0.000092,-0.000044,-0.000029,-0.000030,-0.000106,-64.626685,0.000143,
2371,2353,2.50466722287255,-6.36850570924407,0.00185373173718517,0.000935,0.000214,-0.004334,0.058307,-0.011812,325.375318,23.370548,0.998975,0.986746,0.004759,0.408578,-0.000035,-0.000003,0.000006,-0.000002,-0.000036,80.194391,0.000044,
2506,3193,5.27946217406429,11.9361425602929,0.0273299927267203,0.000713,0.000048,-0.000076,0.033067,-0.001691,312.101196,26.357716,0.999578,0.993840,0.003337,0.377979,-0.000008,-0.000007,0.000009,0.000002,-0.000016,46.933799,0.000018,
2506,2338,5.45453198764062,-6.6942998714653,0.00301512961613071,0.000322,0.001219,-0.007456,0.044035,0.025732,325.858193,22.954285,0.999186,0.986840,0.005003,0.318499,-0.000035,0.000036,0.000018,0.000040,-0.000039,76.655443,0.000045,
2341,2203,1.87842040148717,-9.65079509272174,-0.000282708353779526,0.000846,0.001052,-0.008886,0.069993,0.011652,327.785366,23.170881,0.998920,0.984346,0.005229,0.350053,-0.000038,-0.000008,-0.000013,-0.000003,-0.000043,-69.247107,0.000052,
2491,2758,5.03731514815809,2.47974288830812,-0.0326070713989566,0.000618,0.000196,-0.001315,0.033495,0.007997,318.675634,24.566499,0.999569,0.990417,0.003802,0.420487,-0.000074,-0.000026,-0.000026,-0.000014,-0.000085,-66.059400,0.000108,
2491,3178,4.95670789446715,11.6093466452376,0.0284193071994991,0.000685,0.000190,-0.003747,0.045995,0.005275,312.327407,26.242785,0.999583,0.992081,0.003575,0.371190,0.000004,-0.000006,0.000015,0.000014,-0.000017,35.199683,0.000018,
2491,2308,5.13329236660649,-7.35175992430728,0.00505057520337004,0.000620,0.000407,-0.004705,0.046538,-0.001546,326.319296,22.883149,0.998801,0.982136,0.005272,0.296443,-0.000015,0.000018,-0.000002,0.000018,-0.000015,-86.740075,0.000020,
2506,2563,5.40719137397194,-1.77658793066485,0.0029284619140526,0.000787,-0.000315,0.005395,0.015119,0.024753,322.175827,23.740771,0.999802,0.992036,0.003721,0.468211,-0.000005,-0.000077,-0.000018,-0.000001,-0.000081,-13.330313,0.000094,
2506,2143,5.49615500298708,-10.969943059124,0.0212805794877227,0.000546,0.000284,0.001328,0.019955,0.013144,329.143256,22.158037,0.999143,0.977843,0.005796,0.276572,-0.000016,-0.000053,0.000012,-0.000012,-0.000056,15.870058,0.000073,
2491,2983,4.99315381236295,7.37644017378481,-0.0130645758782748,0.000693,0.000084,-0.004136,0.047772,0.000062,315.176950,25.542796,0.999223,0.989293,0.004085,0.314026,-0.000014,0.000013,0.000021,0.000024,-0.000025,61.395733,0.000028,
2506,3028,5.31145400271433,8.35432321518243,-0.00178190348856333,0.000705,0.000473,-0.005420,0.053577,0.006529,314.583653,25.697545,0.999485,0.993389,0.003476,0.386604,-0.000008,0.000022,0.000011,0.000026,-0.000012,72.345952,0.000026,
2356,2278,2.19001006019522,-8.00742974978969,-0.0138356674242459,0.000388,0.000586,-0.006314,0.040164,-0.002047,326.432779,23.262883,0.999426,0.990076,0.004204,0.375696,-0.000041,-0.000026,-0.000016,-0.000016,-0.000051,-58.398221,0.000070,
2401,2533,3.12277950889549,-2.43151972194452,-0.0179051692218763,0.000975,0.000463,-0.005931,0.066376,-0.004464,322.322925,23.909290,0.999361,0.989896,0.004332,0.334317,-0.000022,-0.000051,-0.000002,-0.000022,-0.000051,-3.047565,0.000075,
2506,2788,5.35830892597019,3.13412201116782,-0.0286264624733121,0.000699,-0.000004,-0.000350,0.033417,-0.003023,318.262667,24.740883,0.999534,0.991666,0.003806,0.363542,-0.000083,-0.000040,-0.000032,-0.000023,-0.000100,-61.897612,0.000131,
2506,2353,5.45225334982311,-6.36678492841551,0.00470419768794272,0.000932,0.001058,-0.008417,0.075611,0.015512,325.661242,22.968062,0.999121,0.986434,0.005110,0.357211,-0.000019,0.000032,0.000030,0.000046,-0.000033,65.503581,0.000047,
2506,3208,5.2758044579938,12.2627209509591,0.0208021402531244,0.000571,0.000043,-0.001617,0.032528,-0.008369,311.798962,26.480267,0.999346,0.992750,0.003579,0.308376,-0.000008,-0.000009,0.000005,-0.000004,-0.000013,42.947259,0.000018,
2386,2443,2.81298088139199,-4.39907792960668,-0.0104399798480017,0.000609,-0.000124,-0.000586,0.029962,-0.008770,323.795801,23.609688,0.999235,0.989433,0.004457,0.389188,-0.000017,-0.000043,0.000019,-0.000007,-0.000053,28.075416,0.000065,
2506,2578,5.40264138914924,-1.44625773804658,-0.0170154441472619,0.000587,-0.000128,-0.000103,0.027314,0.030264,321.776096,23.880362,0.999666,0.985871,0.004678,0.396672,-0.000015,-0.000057,-0.000022,-0.000006,-0.000067,-23.243511,0.000081,
2371,2368,2.50088191633576,-6.03820910365447,-0.00723576706883478,0.000774,0.001018,-0.003758,0.049209,0.039537,325.046434,23.476683,0.998621,0.985311,0.004925,0.397281,-0.000033,-0.000006,0.000008,-0.000004,-0.000035,74.115849,0.000043,
2506,3043,5.30821767246448,8.681260391534,-0.00177054722877301,0.000715,0.000335,-0.003672,0.047208,-0.000487,314.331121,25.849933,0.999657,0.993386,0.003634,0.287173,0.000000,0.000010,0.000014,0.000020,-0.000009,54.587338,0.000020,
2491,2773,5.03441294117424,2.80750945309342,-0.0352758770049491,0.000620,0.000632,-0.006089,0.052074,0.012124,318.426712,24.687922,0.999220,0.988691,0.004148,0.362116,-0.000077,-0.000038,-0.000031,-0.000021,-0.000094,-61.037305,0.000122,
2491,3193,4.95422914287103,11.9343002114192,0.0358738374497989,0.000806,0.000152,-0.001839,0.044222,0.011460,312.142093,26.279851,0.999488,0.992249,0.003593,0.397725,0.000008,-0.000002,0.000014,0.000018,-0.000012,35.735888,0.000018,
2341,2218,1.87549453142774,-9.32315047313111,0.0058235791530592,0.000473,0.000613,-0.006040,0.042888,0.008772,327.567424,23.188557,0.998661,0.983577,0.005437,0.368538,-0.000037,-0.000017,-0.000013,-0.000011,-0.000044,-63.462111,0.000058,
2506,2803,5.3544303405059,3.46151449000781,-0.0315349905603171,0.000312,0.000130,0.001316,0.009288,0.010090,317.968851,24.826402,0.999036,0.988005,0.004741,0.352385,-0.000075,-0.000047,-0.000030,-0.000028,-0.000095,-57.313854,0.000128,
2506,2368,5.44955347649343,-6.03886772193366,-4.79127814401181E-05,0.001676,0.001318,-0.009237,0.112959,0.032937,325.416009,22.933299,0.998517,0.981137,0.005819,0.472530,-0.000022,0.000038,0.000043,0.000060,-0.000044,62.590068,0.000062,
2356,2293,2.18798780042076,-7.67778159181835,-0.0113695937034208,0.001167,0.000587,-0.004431,0.069276,0.005400,326.239242,23.441629,0.999659,0.993957,0.003722,0.245142,-0.000041,-0.000024,-0.000015,-0.000016,-0.000050,-60.077640,0.000069,
2506,3223,5.27266691237049,12.5879402738578,0.0209840825778542,0.000523,0.000087,-0.001419,0.029570,-0.007472,311.551155,26.512859,0.999499,0.992585,0.003609,0.336498,-0.000009,-0.000018,0.000007,-0.000005,-0.000022,27.541855,0.000029,
2506,2593,5.3987819460372,-1.11650346142227,-0.0299776979151716,0.000575,0.000530,-0.004472,0.043881,0.015808,321.439296,24.055118,0.999851,0.994551,0.003423,0.269442,-0.000018,-0.000032,-0.000025,0.000000,-0.000051,-37.157113,0.000059,
2506,3058,5.30559827945052,9.00564402492876,0.0051227922837711,0.000692,0.000171,-0.002575,0.041868,0.000178,314.138479,25.807909,0.999686,0.993017,0.003770,0.390292,0.000005,0.000006,0.000009,0.000015,-0.000004,48.014411,0.000015,
2386,2458,2.8102484083647,-4.06984761819368,-0.0143202725193987,0.001121,0.000386,-0.000068,0.051796,0.017037,323.541287,23.726849,0.999286,0.988558,0.004515,0.342487,-0.000018,-0.000039,0.000019,-0.000008,-0.000050,30.224694,0.000063,
2491,2788,5.03130178814004,3.13419198521203,-0.0326126922436742,0.000583,0.000219,-0.003479,0.040190,0.000867,318.192378,24.771330,0.999278,0.989247,0.004100,0.326009,-0.000073,-0.000035,-0.000036,-0.000013,-0.000095,-58.729659,0.000118,
2491,3208,4.95068351998024,12.2605305813078,0.0302526565632206,0.000810,0.000226,-0.001722,0.044005,0.011739,311.847979,26.367803,0.999378,0.992707,0.003613,0.367875,0.000009,-0.000005,0.000011,0.000015,-0.000011,28.837924,0.000016,
2371,2383,2.49791881228954,-5.7101981830224,-0.0056583417431284,0.000629,0.000656,-0.002813,0.039096,0.033851,324.806653,23.539653,0.999015,0.986116,0.004846,0.371153,-0.000022,-0.000010,0.000009,-0.000005,-0.000026,62.729571,0.000034,
2506,2818,5.35226769605885,3.78839585340489,-0.0324822145007033,0.000984,0.000281,-0.002796,0.056098,0.007119,317.762854,24.900472,0.999286,0.989981,0.004195,0.336342,-0.000078,-0.000046,-0.000021,-0.000035,-0.000089,-63.050654,0.000128,
2506,2383,5.4451699638346,-5.71044571010684,0.0051284495125401,0.000711,0.000247,-0.000619,0.035049,0.001564,325.137727,23.095438,0.998498,0.982653,0.005380,0.341703,-0.000004,0.000039,0.000031,0.000055,-0.000020,62.074707,0.000056,
2506,3238,5.26980198802445,12.913308700643,0.0147943039329448,0.001026,0.000363,-0.004304,0.063994,-0.001321,311.287188,26.521614,0.999510,0.992340,0.003628,0.393773,-0.000007,-0.000009,0.000011,0.000004,-0.000019,42.330125,0.000020,
2341,2233,1.87290450454372,-8.99435126875878,0.00611340584123354,0.000609,0.001067,-0.006780,0.051854,0.022845,327.336475,23.238977,0.998412,0.980531,0.005709,0.371188,-0.000042,-0.000021,-0.000013,-0.000015,-0.000048,-65.136017,0.000066,
2506,2608,5.39590628198107,-0.790595137860286,-0.0259646910932361,0.000507,0.000573,-0.003888,0.038502,0.013369,321.224046,24.017231,0.999845,0.994267,0.003516,0.366894,-0.000021,-0.000030,-0.000025,0.000000,-0.000051,-39.672141,0.000059,
2356,2308,2.18542350005963,-7.35189263742971,-0.000176815433576394,0.000733,0.000572,-0.002188,0.041502,0.013337,326.063256,23.368218,0.999380,0.992008,0.003828,0.367165,-0.000044,-0.000029,-0.000007,-0.000026,-0.000047,-68.122801,0.000074,
2491,3223,4.94744414804965,12.5865381000086,0.0253595972387188,0.000877,0.000268,-0.003773,0.054961,0.002251,311.571247,26.453676,0.999386,0.992336,0.003683,0.329921,0.000011,-0.000011,0.000012,0.000017,-0.000016,23.562481,0.000019,
2506,2833,5.34934616094683,4.1141042184477,-0.0232524539962355,0.000400,0.000476,-0.002508,0.028301,0.024046,317.567578,24.928285,0.999521,0.990962,0.003902,0.386181,-0.000068,-0.000027,-0.000008,-0.000026,-0.000070,-78.897094,0.000099,
2506,3253,5.26641748722328,13.2392360358613,0.0102809400793262,0.001069,0.000265,-0.004838,0.068014,-0.009161,311.006490,26.610066,0.999694,0.993941,0.003293,0.357008,-0.000001,-0.000001,0.000015,0.000014,-0.000016,45.201007,0.000018,
2506,2623,5.393174728477,-0.46593784591829,-0.0165164231574977,0.000239,0.000099,-0.001868,0.018216,-0.006145,321.039895,23.932009,0.999856,0.994823,0.003262,0.493992,-0.000033,-0.000044,-0.000026,-0.000012,-0.000065,-38.781694,0.000083,
2506,2848,5.3460875176247,4.44138778584757,-0.0242839133468351,0.000164,0.000419,-0.004506,0.025187,0.008492,317.310496,25.059851,0.999693,0.992934,0.003417,0.299862,-0.000062,-0.000023,-0.000004,-0.000023,-0.000062,-83.844294,0.000088,
2506,3268,5.26254268149187,13.5652423499962,0.00670672703546416,0.000902,-0.000241,-0.001150,0.045868,-0.009219,310.707256,26.707682,0.999841,0.996187,0.002698,0.318873,0.000009,-0.000029,0.000028,0.000023,-0.000043,27.905343,0.000043,
2506,2863,5.34265565943499,4.7679707218053,-0.0341640525597882,0.000701,0.000430,-0.004120,0.048338,0.016674,317.005877,25.042099,0.999720,0.993159,0.003390,0.387217,-0.000052,-0.000012,-0.000001,-0.000012,-0.000052,-88.222995,0.000069,
2506,3283,5.25911701601923,13.890145687579,0.0024564793059767,0.000904,-0.000235,-0.001363,0.046762,-0.017183,310.425971,26.711774,0.999846,0.996546,0.002538,0.366376,0.000017,-0.000061,0.000028,0.000027,-0.000070,18.039645,0.000071,
2506,3298,5.25618598396057,14.2155085521103,0.00550097042906827,0.000715,0.000119,-0.002394,0.042236,0.001076,310.200028,26.775532,0.999777,0.994747,0.002959,0.380420,-0.000001,-0.000072,0.000006,0.000000,-0.000072,4.392251,0.000084,
