Image X[Pixel],Image Y[Pixel],X[mm],Y[mm],Z[mm],Horizontal Displacement U[mm],Vertical Displacement V[mm],Out-Of-Plane: W[mm],Horizontal: u[Pixel],Vertical: v[Pixel],Horizontal: q[Pixel],Vertical: r[Pixel],Correlation Value 2D,Correlation Value Persp,Sigma,Epipolar Distance,Strain-global frame: Exx,Strain-global frame: Eyy,Strain-global frame: Exy,Maximum Principal Strain: EI,Minimum Principal Strain: EII,Shear Angle Gamma,Von Mises Equivalent Strain,
2025,2006,-5.12535574747454,-14.1075895260964,0.0122250489396265,-0.000584,0.002303,-0.004370,-0.014191,0.090017,331.898098,25.081381,0.998809,0.982141,0.005430,0.180790,-0.000086,-0.000163,-0.000057,-0.000055,-0.000193,-27.921797,0.000261,
2040,2036,-4.80292987937947,-13.4481642687783,0.00580804257725731,-0.000368,0.002858,-0.005860,0.000189,0.113555,331.277976,25.034212,0.999193,0.985765,0.004753,0.140615,-0.000090,-0.000063,-0.000023,-0.000049,-0.000103,-60.250673,0.000156,
2055,2066,-4.4808436297266,-12.7901811602053,-0.000173139713865567,-0.000427,0.002832,-0.007387,0.001968,0.086877,330.653609,24.936289,0.998584,0.980594,0.005268,0.109427,-0.000048,-0.000042,-0.000004,-0.000040,-0.000050,-60.412789,0.000090,
2070,2096,-4.1572024828451,-12.1346618209543,0.0145220849526595,-0.000003,0.002613,-0.006896,0.020243,0.092388,330.221581,24.836804,0.999058,0.981003,0.005122,0.119110,-0.000043,-0.000037,0.000010,-0.000030,-0.000050,54.417171,0.000081,
2085,2126,-3.83625992987786,-11.4756442069656,-0.00341211352787241,-0.000264,0.002755,-0.008262,0.012491,0.103226,329.495518,24.711762,0.999138,0.985472,0.004863,0.169927,-0.000040,-0.000024,0.000017,-0.000013,-0.000051,57.933423,0.000068,
2130,2216,-2.86975493815132,-9.50638059811536,0.00415996151002673,-0.000403,0.002808,-0.007381,0.004429,0.088482,327.867210,24.489507,0.998612,0.982995,0.005149,0.169579,-0.000029,0.000004,0.000012,0.000009,-0.000033,71.397150,0.000034,
2460,2966,4.17440629214927,6.8657775160229,-0.0174098931391882,-0.000737,0.002678,-0.006108,-0.009735,0.110042,314.889399,25.642586,0.999424,0.992420,0.003721,0.181765,-0.000031,-0.000017,-0.000018,-0.000005,-0.000043,-55.177949,0.000053,
2505,3056,5.13643916651275,8.82301424089457,-0.00142425192632345,-0.000616,0.002554,-0.007189,0.000658,0.107309,313.641466,26.009992,0.999759,0.993878,0.003456,0.284805,-0.000040,-0.000007,-0.000006,-0.000006,-0.000042,-79.928263,0.000052,
2115,2186,-3.19200001220496,-10.1617739337669,-0.00186046487840485,-0.000255,0.002632,-0.007248,0.010470,0.100582,328.379994,24.590732,0.998914,0.983320,0.005068,0.141601,-0.000039,0.000003,0.000006,0.000004,-0.000040,82.304772,0.000043,
2205,2456,-1.27811891437488,-4.25763580609674,-0.0149178662136364,-0.000536,0.003010,-0.006867,-0.001849,0.105885,323.486033,24.350446,0.999103,0.986939,0.004725,0.258242,-0.000032,-0.000026,0.000005,-0.000023,-0.000034,59.520143,0.000058,
2340,2726,1.60968890860117,1.63745921877021,-0.0387911221523041,-0.000339,0.002616,-0.009655,0.019044,0.087255,318.629283,24.751069,0.999368,0.990454,0.003888,0.170783,-0.000027,-0.000024,0.000012,-0.000014,-0.000037,47.773342,0.000053,
2235,2516,-0.63652926075186,-2.94534629519673,-0.0282583854931318,-0.000472,0.002535,-0.005927,-0.001592,0.118700,322.307466,24.410084,0.999568,0.991270,0.003735,0.225444,-0.000035,-0.000038,0.000001,-0.000035,-0.000039,21.737571,0.000074,
2220,2486,-0.956744031578609,-3.60180436063017,-0.0163274828036606,-0.000590,0.002826,-0.010049,0.006031,0.095422,322.946601,24.406121,0.999424,0.989465,0.004057,0.194853,-0.000042,-0.000020,0.000002,-0.000020,-0.000042,85.268460,0.000063,
2250,2546,-0.31537320244804,-2.29087534082438,-0.029104361018824,-0.000434,0.002499,-0.006230,0.001373,0.101925,321.776173,24.396097,0.999779,0.994406,0.003183,0.242359,-0.000043,-0.000040,-0.000007,-0.000034,-0.000049,-49.677520,0.000083,
2190,2426,-1.59907871550988,-4.91332041310696,-0.00999670015556831,-0.000615,0.003028,-0.009347,0.001996,0.110798,324.070097,24.368749,0.998971,0.989095,0.004416,0.250906,-0.000022,-0.000026,0.000007,-0.000017,-0.000031,37.001102,0.000049,
2025,2021,-5.12672937855672,-13.7782291300165,0.0114937118959233,0.000028,0.002952,-0.008761,0.026091,0.096566,331.686483,25.090113,0.998947,0.983060,0.005285,0.172095,-0.000105,-0.000096,-0.000042,-0.000058,-0.000144,-48.090773,0.000208,
2295,2636,0.648117073656039,-0.327594013427415,-0.0217059559444124,-0.000427,0.002464,-0.004919,-0.002057,0.111453,320.275589,24.490492,0.999334,0.988847,0.004026,0.267609,-0.000032,-0.000028,-0.000005,-0.000025,-0.000035,-55.745410,0.000060,
2280,2606,0.326317024677611,-0.980550426662667,-0.0327319861760884,-0.000825,0.002887,-0.009771,-0.004201,0.108549,320.696540,24.499280,0.999018,0.988300,0.004391,0.210835,-0.000034,-0.000018,-0.000004,-0.000017,-0.000035,-76.803322,0.000053,
2055,2096,-4.48470413254392,-12.1330669468919,0.000523394458525672,-0.000011,0.003324,-0.011055,0.031480,0.103720,330.197260,24.881597,0.999141,0.983534,0.004964,0.176047,-0.000046,-0.000041,0.000008,-0.000035,-0.000052,52.062354,0.000088,
2490,3026,4.81513651596529,8.17144341519666,-0.0132994860479698,-0.000815,0.002306,-0.007324,-0.008299,0.101721,313.992726,25.911463,0.999753,0.994996,0.003024,0.211200,-0.000044,-0.000004,-0.000010,-0.000002,-0.000047,-77.131973,0.000055,
2370,2786,2.25149595688562,2.94522369867213,-0.0255848384277328,-0.000537,0.002311,-0.005858,-0.002904,0.098254,317.721398,24.988323,0.999840,0.995260,0.003113,0.112207,-0.000029,-0.000035,-0.000001,-0.000029,-0.000035,-14.466956,0.000064,
2415,2876,3.21335744693341,4.90530087458823,-0.0229628063140126,-0.000399,0.002598,-0.006300,0.005832,0.116504,316.287769,25.194275,0.999529,0.992116,0.003502,0.241739,-0.000036,-0.000035,-0.000014,-0.000021,-0.000050,-46.481467,0.000073,
2175,2381,-1.91814021915608,-5.89546259928085,-0.019990240011623,-0.000116,0.003336,-0.010011,0.026721,0.112222,324.801740,24.370013,0.999121,0.990161,0.004248,0.251999,-0.000025,-0.000008,0.000011,-0.000002,-0.000030,63.784320,0.000036,
2445,2936,3.85342120881959,6.21235473041989,-0.0280842019003558,-0.000742,0.002334,-0.007977,-0.003372,0.086581,315.279041,25.444082,0.999574,0.993211,0.003562,0.216477,-0.000031,-0.000026,-0.000023,-0.000006,-0.000051,-48.530869,0.000063,
2025,2036,-5.12864790880221,-13.4494096883194,0.0131820150597832,0.000041,0.003189,-0.011687,0.034720,0.096149,331.463631,25.089964,0.999175,0.986094,0.004723,0.165525,-0.000114,-0.000091,-0.000063,-0.000038,-0.000166,-50.138421,0.000217,
2130,2231,-2.87203943889699,-9.17805492922027,0.0034569761091916,-0.000190,0.002339,-0.007241,0.013614,0.080254,327.623867,24.498993,0.998860,0.983231,0.005088,0.159749,-0.000031,-0.000013,0.000007,-0.000011,-0.000033,71.740100,0.000046,
2085,2141,-3.83830109073585,-11.1469247341383,-0.00811581260586536,0.000307,0.002861,-0.008628,0.039774,0.105395,329.237500,24.670190,0.999156,0.985964,0.004727,0.215443,-0.000043,-0.000017,0.000018,-0.000008,-0.000052,63.229730,0.000065,
2130,2246,-2.87486194488125,-8.84940800064209,-0.000879028184158415,-0.000236,0.002276,-0.006446,0.009114,0.067321,327.336532,24.510054,0.999062,0.983449,0.005051,0.143882,-0.000028,-0.000003,0.000008,-0.000001,-0.000031,74.338078,0.000036,
2385,2816,2.5707991203681,3.5989311582869,-0.0367533053210423,-0.000732,0.002300,-0.003547,-0.019917,0.108489,317.118851,24.972904,0.999666,0.992652,0.003640,0.235171,-0.000035,-0.000030,-0.000014,-0.000018,-0.000047,-50.751859,0.000067,
2310,2666,0.96831902150748,0.327992666098893,-0.0274926920543521,-0.000796,0.002604,-0.006658,-0.012826,0.110763,319.704101,24.600436,0.999773,0.993536,0.003357,0.210973,-0.000017,-0.000014,0.000001,-0.000014,-0.000017,75.231184,0.000031,
2055,2081,-4.48334901641186,-12.4613823055973,-0.000652708453287687,-0.000492,0.002709,-0.005143,-0.007326,0.096786,330.394580,24.917597,0.999095,0.982676,0.005001,0.135843,-0.000049,-0.000037,-0.000001,-0.000037,-0.000049,-86.989043,0.000086,
2265,2576,0.00631833699997486,-1.63642593606292,-0.0254089622036986,-0.000163,0.002872,-0.007200,0.017379,0.119676,321.299392,24.406622,0.999329,0.989615,0.004146,0.277648,-0.000033,-0.000031,-0.000005,-0.000026,-0.000037,-50.800989,0.000064,
2100,2156,-3.51308875348847,-10.8215880883939,0.0193146633086485,-0.000471,0.002558,-0.004592,-0.007433,0.110723,329.100334,24.606764,0.998970,0.983272,0.005215,0.203868,-0.000043,-0.000003,0.000018,0.000004,-0.000049,69.128791,0.000055,
2040,2066,-4.80916014939613,-12.7888055844298,-0.0177722885482012,-0.000637,0.002631,-0.005060,-0.014418,0.102913,330.576431,24.914791,0.999753,0.994005,0.003214,0.242040,-0.000074,-0.000059,-0.000022,-0.000042,-0.000090,-54.294617,0.000135,
2205,2471,-1.28128422303214,-3.92945137451489,-0.0235942670167901,-0.000500,0.002718,-0.006931,-0.000100,0.092312,323.167379,24.363395,0.999375,0.988235,0.004560,0.249791,-0.000032,-0.000023,0.000008,-0.000019,-0.000036,60.160047,0.000056,
2085,2156,-3.8411238673124,-10.8183426112856,-0.00617279420487193,-0.000222,0.002759,-0.007484,0.012189,0.097290,328.979933,24.704704,0.999108,0.985080,0.004889,0.174743,-0.000045,-0.000003,0.000015,0.000002,-0.000050,71.805400,0.000056,
2115,2201,-3.1940805301382,-9.83382537881998,-0.00244795637411244,-0.000049,0.003250,-0.009580,0.026999,0.114677,328.145246,24.534160,0.998295,0.980605,0.005414,0.217919,-0.000036,0.000012,0.000006,0.000012,-0.000037,83.392857,0.000038,
2400,2846,2.89228492565519,4.25209392144579,-0.0315303984043567,-0.000679,0.002744,-0.010322,0.007280,0.087118,316.701840,25.085900,0.999564,0.991269,0.003718,0.206256,-0.000035,-0.000035,-0.000015,-0.000020,-0.000051,-45.045303,0.000073,
2190,2441,-1.60195560858415,-4.58453351409374,-0.017195137189276,-0.000295,0.002674,-0.007509,0.010847,0.106315,323.770701,24.429989,0.999080,0.987338,0.004618,0.201037,-0.000023,-0.000027,0.000011,-0.000014,-0.000036,39.331895,0.000051,
2220,2501,-0.959383373741105,-3.27390792390786,-0.0215351492830678,-0.000251,0.003017,-0.010310,0.022510,0.106309,322.671277,24.411868,0.999494,0.990238,0.003921,0.220128,-0.000041,-0.000028,0.000003,-0.000028,-0.000041,77.543566,0.000070,
2115,2216,-3.19681518771414,-9.50509204226863,-0.0037940963196661,-0.000164,0.002797,-0.007713,0.016109,0.093205,327.876560,24.582131,0.998619,0.983011,0.005185,0.154390,-0.000032,0.000007,0.000012,0.000010,-0.000035,73.697579,0.000036,
2355,2756,1.92952020377031,2.29076071571221,-0.0372346425167507,-0.000886,0.002333,-0.004260,-0.024787,0.106464,318.098616,24.753493,0.999478,0.991460,0.003601,0.267153,-0.000027,-0.000029,0.000008,-0.000020,-0.000035,41.053015,0.000056,
2325,2696,1.28906151620019,0.981797324032911,-0.0323396963908067,-0.000421,0.002818,-0.005596,0.001030,0.111921,319.169808,24.573868,0.999564,0.991987,0.003729,0.301333,-0.000015,-0.000022,0.000001,-0.000015,-0.000023,8.670441,0.000038,
2295,2651,0.644429070850141,-3.93483919012283E-05,-0.0303526625962718,-0.000648,0.002103,-0.004256,-0.014593,0.090200,319.941802,24.521259,0.999194,0.988117,0.004169,0.245890,-0.000033,-0.000019,-0.000003,-0.000018,-0.000033,-78.378498,0.000052,
2040,2051,-4.80700726333652,-13.1157923127298,-0.0193374784163325,-0.000584,0.002298,-0.004554,-0.013489,0.084219,330.809154,25.088735,0.999763,0.994529,0.003132,0.053676,-0.000086,-0.000082,-0.000040,-0.000044,-0.000124,-46.649643,0.000174,
2160,2306,-2.23151719099554,-7.53573732050111,-0.00449286595863896,-0.000316,0.002951,-0.007607,0.009734,0.118585,326.202317,24.441634,0.999049,0.985325,0.004768,0.175872,-0.000020,0.000010,-0.000001,0.000010,-0.000020,-88.938483,0.000020,
2295,2666,0.641690252179888,0.327108995826997,-0.0259979175814351,-0.001000,0.002317,-0.005221,-0.027456,0.093066,319.716077,24.607054,0.999559,0.991375,0.003725,0.193171,-0.000029,-0.000014,-0.000002,-0.000014,-0.000029,-84.054994,0.000044,
2085,2186,-3.84596145177281,-10.1621163725146,0.00303705685246314,-0.000695,0.002648,-0.003425,-0.021226,0.119277,328.530604,24.722428,0.999079,0.984811,0.004892,0.181991,-0.000039,0.000003,0.000010,0.000006,-0.000041,76.970432,0.000044,
2145,2276,-2.55445356411883,-8.19226205365439,-0.0156498220608796,-0.000723,0.002598,-0.006941,-0.011397,0.110220,326.639028,24.342356,0.998806,0.983488,0.005197,0.306890,-0.000031,0.000005,-0.000004,0.000006,-0.000031,-83.625849,0.000033,
2475,2996,4.49536958548802,7.51771178393415,-0.010355457683545,-0.000478,0.002175,-0.005000,-0.002050,0.087132,314.488521,25.739432,0.999549,0.991968,0.003499,0.210846,-0.000042,-0.000016,-0.000015,-0.000009,-0.000048,-66.021325,0.000062,
2130,2276,-2.88045303418413,-8.19366537051663,-0.00117268001378079,-0.000775,0.002119,-0.004107,-0.022616,0.089496,326.809009,24.446654,0.998893,0.983527,0.005270,0.245185,-0.000029,0.000003,-0.000004,0.000003,-0.000029,-83.726887,0.000032,
2130,2261,-2.87722165514202,-8.52207754428826,0.00394462585967403,-0.000394,0.002019,-0.005254,-0.001767,0.072351,327.119312,24.483859,0.998995,0.984071,0.005093,0.182801,-0.000030,0.000002,0.000002,0.000002,-0.000030,85.643831,0.000034,
2505,3071,5.13263235993793,9.14943006738311,-0.00575987139978906,-0.000740,0.002387,-0.005152,-0.013037,0.090356,313.339918,26.102579,0.999760,0.993586,0.003443,0.234938,-0.000042,-0.000007,-0.000002,-0.000006,-0.000042,-86.536184,0.000053,
2070,2126,-4.16251605842836,-11.4770005258942,0.00852643067401004,-0.000244,0.002441,-0.005566,0.005362,0.088604,329.665051,24.799620,0.999141,0.985621,0.004873,0.152421,-0.000049,-0.000027,0.000012,-0.000022,-0.000054,66.511039,0.000078,
2250,2561,-0.31813038134457,-1.96425855618169,-0.0279103608689866,-0.000591,0.002567,-0.006262,-0.005742,0.109236,321.530818,24.368180,0.999615,0.992015,0.003614,0.301637,-0.000040,-0.000044,-0.000005,-0.000037,-0.000047,-34.526326,0.000084,
2040,2081,-4.80938121704507,-12.4622894239924,0.0118966605032256,-0.000508,0.002772,-0.006595,-0.004245,0.107051,330.587362,25.031955,0.999155,0.985371,0.004683,0.123122,-0.000067,-0.000053,-0.000015,-0.000043,-0.000077,-57.503885,0.000121,
2175,2396,-1.92061113245641,-5.56792706793657,-0.0137731820533418,-0.000211,0.003184,-0.006226,0.010665,0.141198,324.589794,24.397971,0.999172,0.989966,0.004159,0.266509,-0.000020,-0.000016,0.000008,-0.000009,-0.000026,50.965210,0.000037,
2430,2906,3.53274236270157,5.55891381329078,-0.0263317748870122,-0.000972,0.002341,-0.004527,-0.026894,0.108725,315.746451,25.304787,0.999659,0.992432,0.003425,0.246248,-0.000030,-0.000039,-0.000018,-0.000015,-0.000053,-38.185459,0.000072,
2385,2831,2.56823916818796,3.92577667782178,-0.0367678233515107,-0.000523,0.002519,-0.005767,-0.002244,0.117512,316.886178,25.039799,0.999567,0.989970,0.003926,0.220187,-0.000036,-0.000032,-0.000016,-0.000017,-0.000050,-49.036098,0.000070,
2175,2411,-1.92308264821894,-5.2408143482334,-0.00895000984792205,-0.000328,0.002639,-0.004183,-0.001220,0.119845,324.370818,24.428136,0.999159,0.989629,0.004110,0.228573,-0.000020,-0.000019,0.000006,-0.000013,-0.000026,48.752995,0.000039,
2100,2186,-3.51806352946843,-10.1629150356258,0.00487684579741199,0.000011,0.003144,-0.007985,0.024749,0.113906,328.519150,24.609938,0.999081,0.984719,0.004975,0.212010,-0.000035,0.000003,0.000012,0.000006,-0.000039,74.119349,0.000042,
2025,2051,-5.13085262688209,-13.1209532740473,0.0246252843340926,-0.000346,0.002576,-0.006878,0.003655,0.089135,331.282084,25.179260,0.999756,0.993919,0.003294,0.062148,-0.000105,-0.000113,-0.000080,-0.000029,-0.000189,-43.617764,0.000237,
2280,2621,0.324157638148368,-0.654484941986347,-0.0301286909157739,-0.000395,0.002778,-0.009280,0.013844,0.088645,320.488053,24.479744,0.999291,0.988871,0.004130,0.238573,-0.000033,-0.000026,-0.000004,-0.000024,-0.000034,-67.923933,0.000059,
2160,2321,-2.23417322020683,-7.20849080688776,-0.00976517477340622,-0.000159,0.002793,-0.008187,0.018631,0.101333,325.920733,24.348437,0.999187,0.987219,0.004499,0.263749,-0.000024,0.000015,-0.000003,0.000015,-0.000024,-84.874023,0.000025,
2025,2066,-5.13314077541424,-12.793645013768,0.0238174233636528,-0.000384,0.002904,-0.006783,0.001785,0.106390,331.028741,25.005915,0.999756,0.993542,0.003351,0.246334,-0.000086,-0.000092,-0.000055,-0.000034,-0.000145,-43.519906,0.000189,
2055,2111,-4.48723110979757,-11.804841609599,0.00154212058919256,-0.000242,0.003127,-0.009694,0.017036,0.100976,329.945683,24.850845,0.999127,0.984701,0.004954,0.201868,-0.000050,-0.000040,0.000014,-0.000030,-0.000060,55.119063,0.000092,
2040,2096,-4.81082597859008,-12.1345284170635,0.0174620495826616,-0.000257,0.003153,-0.010007,0.016816,0.114489,330.409051,24.992631,0.999182,0.985112,0.004774,0.165040,-0.000059,-0.000054,-0.000004,-0.000052,-0.000062,-60.296634,0.000114,
2145,2261,-2.55113569192241,-8.51973148276596,-0.0110997958100256,-0.000230,0.002931,-0.007802,0.013944,0.098020,326.948648,24.453497,0.999014,0.982970,0.005213,0.173438,-0.000032,0.000003,0.000000,0.000003,-0.000032,89.919629,0.000035,
2310,2681,0.965754929800038,0.653491656008953,-0.0240733727796965,-0.000744,0.002360,-0.005692,-0.013822,0.109253,319.483204,24.535711,0.999719,0.992861,0.003498,0.306561,-0.000018,-0.000012,0.000000,-0.000012,-0.000018,-87.727058,0.000030,
2340,2741,1.60710594674974,1.96258776558263,-0.0280015334225254,-0.000594,0.002536,-0.005768,-0.006207,0.107593,318.445324,24.709413,0.999549,0.991883,0.003614,0.269154,-0.000026,-0.000020,0.000011,-0.000012,-0.000034,51.958898,0.000048,
2115,2231,-3.19906210287703,-9.1769742163792,-0.00175328875718606,-0.000182,0.002864,-0.008470,0.017521,0.103279,327.648282,24.583529,0.998791,0.983749,0.005151,0.168731,-0.000036,-0.000011,0.000007,-0.000009,-0.000038,75.352498,0.000050,
2400,2861,2.88938078569264,4.57803535032277,-0.0269980525666824,-0.000798,0.002201,-0.008098,-0.006395,0.090735,316.476108,25.118381,0.999571,0.992011,0.003524,0.222490,-0.000034,-0.000037,-0.000015,-0.000020,-0.000051,-42.590901,0.000073,
2055,2126,-4.48969738103142,-11.4760492878991,0.00301600323484763,-0.000354,0.002427,-0.007114,0.004427,0.078906,329.699380,24.901287,0.998995,0.985037,0.005109,0.126851,-0.000047,-0.000034,0.000014,-0.000025,-0.000056,58.379034,0.000083,
2415,2891,3.21017602911353,5.23139222200241,-0.021694745030004,-0.000636,0.002282,-0.005642,-0.007624,0.094523,316.034827,25.249556,0.999457,0.991954,0.003622,0.211369,-0.000037,-0.000032,-0.000016,-0.000018,-0.000051,-48.773329,0.000071,
2505,3086,5.13004588699446,9.4750169464736,0.00150604817133626,-0.000773,0.002189,-0.004850,-0.015769,0.094922,313.146851,26.177748,0.999733,0.993783,0.003240,0.224244,-0.000047,0.000005,0.000000,0.000005,-0.000047,89.689213,0.000051,
2490,3041,4.81239496319511,8.4972187457521,-0.0102061994170413,-0.000546,0.002004,-0.005524,-0.003036,0.082122,313.772995,25.989511,0.999740,0.994100,0.003316,0.171270,-0.000042,-0.000007,-0.000010,-0.000004,-0.000045,-75.221653,0.000054,
2370,2801,2.24876469267577,3.26983995775603,-0.0197875292308254,-0.000500,0.002158,-0.001816,-0.015611,0.107960,317.508255,24.885467,0.999831,0.995442,0.003160,0.265425,-0.000028,-0.000036,-0.000007,-0.000024,-0.000040,-29.554842,0.000064,
2100,2171,-3.51608952604166,-10.4918104864084,0.0108851659603033,-0.000568,0.002793,-0.004777,-0.011285,0.114221,328.779676,24.630506,0.999067,0.984843,0.004942,0.187894,-0.000036,-0.000005,0.000012,0.000000,-0.000040,70.754503,0.000047,
2475,3011,4.49266847295835,7.84398314026114,-0.00768541486047525,-0.000597,0.002577,-0.008486,0.005927,0.101449,314.267716,25.818063,0.999674,0.992207,0.003385,0.202085,-0.000037,-0.000010,-0.000013,-0.000005,-0.000042,-67.720983,0.000052,
2265,2591,0.00306974848805197,-1.30925166847007,-0.027330385842447,-0.000444,0.002486,-0.005712,-0.000554,0.116426,321.016834,24.422310,0.999133,0.989630,0.004299,0.285017,-0.000029,-0.000030,-0.000004,-0.000025,-0.000034,-38.627998,0.000059,
2205,2486,-1.28378915527652,-3.60159072475349,-0.0235008224885291,-0.000475,0.002706,-0.007950,0.004238,0.086600,322.924266,24.426831,0.999375,0.988681,0.004319,0.198538,-0.000033,-0.000022,0.000006,-0.000019,-0.000035,66.537738,0.000055,
2325,2711,1.28609373445287,1.3103054029435,-0.0357813943707015,-0.000389,0.002652,-0.006964,0.007158,0.106928,318.897020,24.741414,0.999141,0.988044,0.004380,0.163394,-0.000018,-0.000024,0.000002,-0.000017,-0.000025,18.372020,0.000042,
2190,2486,-1.6106718463243,-3.60178017835729,-0.023975487028963,-0.000687,0.002489,-0.005493,-0.013515,0.104569,322.946164,24.446350,0.999157,0.985859,0.004835,0.230111,-0.000026,-0.000017,0.000013,-0.000008,-0.000035,54.646942,0.000045,
2040,2126,-4.81599929115047,-11.4783385159413,0.0118848080527982,-0.000298,0.001598,-0.005086,0.000876,0.052720,329.856223,24.882070,0.998829,0.983720,0.005315,0.205011,-0.000057,-0.000046,0.000007,-0.000043,-0.000060,64.181576,0.000103,
2115,2246,-3.2014851672783,-8.84918036221568,-0.00100691142438336,-0.000056,0.002712,-0.005540,0.014637,0.105662,327.405120,24.554557,0.998921,0.985339,0.004912,0.205951,-0.000035,0.000000,0.000009,0.000002,-0.000037,76.251867,0.000042,
2295,2696,0.636089476990968,0.981209256793875,-0.0345147636227807,-0.000482,0.002523,-0.006109,-0.000552,0.101567,319.173389,24.625989,0.999733,0.993147,0.003450,0.243286,-0.000025,-0.000019,-0.000002,-0.000018,-0.000026,-71.770447,0.000044,
2430,2921,3.53040388691544,5.885098842715,-0.0235312369766802,-0.000466,0.002084,-0.003909,-0.006094,0.091360,315.540357,25.384119,0.999642,0.993198,0.003435,0.198920,-0.000028,-0.000038,-0.000019,-0.000013,-0.000053,-37.565448,0.000070,
2460,2981,4.17188540963769,7.19120394185556,-0.0121698007793043,-0.000585,0.002382,-0.005662,-0.004519,0.104395,314.688080,25.673658,0.999517,0.992267,0.003615,0.198497,-0.000030,-0.000017,-0.000013,-0.000008,-0.000038,-58.094358,0.000049,
2205,2516,-1.28885147941782,-2.94765147017316,-0.0234721193224914,-0.000284,0.002569,-0.007220,0.010706,0.099871,322.435079,24.379255,0.999503,0.990796,0.003873,0.294646,-0.000032,-0.000036,-0.000002,-0.000031,-0.000037,-23.366493,0.000067,
2130,2291,-2.88321325234594,-7.86493233989896,-0.00582016979331001,-0.000777,0.002286,-0.003986,-0.023040,0.086851,326.522758,24.469136,0.998942,0.986123,0.004809,0.227847,-0.000024,0.000004,0.000002,0.000004,-0.000024,85.255157,0.000026,
2250,2606,-0.326079888176029,-0.982391135255106,-0.0298401178912968,-0.000420,0.002795,-0.007606,0.006651,0.123563,320.780975,24.456370,0.999153,0.988513,0.004345,0.299618,-0.000036,-0.000020,-0.000004,-0.000018,-0.000037,-75.367363,0.000056,
2190,2456,-1.60470040477356,-4.25712641883531,-0.017442978460565,-0.000380,0.002975,-0.006433,0.003716,0.125184,323.513662,24.413564,0.999105,0.986868,0.004735,0.252153,-0.000024,-0.000019,0.000011,-0.000010,-0.000032,50.588851,0.000045,
2130,2306,-2.8857020162603,-7.53629392506684,-0.00478217242419987,-0.000727,0.002430,-0.001575,-0.027874,0.108833,326.279111,24.522060,0.999071,0.987585,0.004610,0.204625,-0.000021,0.000007,0.000004,0.000007,-0.000022,81.340348,0.000022,
2280,2636,0.321300251996647,-0.327582200565779,-0.0269242976606847,-0.000438,0.002335,-0.005205,-0.001832,0.101904,320.250208,24.513613,0.999363,0.987520,0.004181,0.246091,-0.000032,-0.000026,-0.000004,-0.000024,-0.000034,-62.672895,0.000058,
2085,2171,-3.84379653087626,-10.4905104344583,0.00246677510801874,-0.000855,0.002455,-0.003670,-0.027887,0.100763,328.765655,24.736638,0.999125,0.985216,0.004790,0.147945,-0.000038,-0.000004,0.000011,-0.000001,-0.000042,73.517633,0.000049,
2070,2111,-4.16035205605783,-11.8055319639271,0.00988364624066662,-0.000701,0.002736,-0.009241,-0.005118,0.096939,329.911775,24.818065,0.999099,0.983675,0.005002,0.142603,-0.000049,-0.000035,0.000013,-0.000027,-0.000057,58.890603,0.000086,
2175,2426,-1.92584794840223,-4.91322971369792,-0.0134396554809655,-0.000335,0.002343,-0.005483,0.002383,0.096941,324.089578,24.417902,0.999235,0.989003,0.004251,0.229804,-0.000021,-0.000026,0.000010,-0.000014,-0.000034,38.116004,0.000049,
2085,2201,-3.84814647994974,-9.83389453509958,0.00130869202121175,-0.000485,0.002657,-0.004377,-0.008843,0.118564,328.282296,24.692480,0.999061,0.984057,0.004810,0.212677,-0.000037,0.000013,0.000007,0.000014,-0.000038,82.319744,0.000038,
2265,2606,9.87120231243921E-05,-0.981494756776364,-0.0302851125628081,-0.000618,0.002761,-0.007644,-0.002106,0.110982,320.741635,24.489558,0.999167,0.988979,0.004286,0.238251,-0.000028,-0.000016,-0.000006,-0.000014,-0.000031,-68.072593,0.000046,
2280,2666,0.315504537645694,0.327074642868801,-0.0250548843412162,-0.000717,0.002254,-0.003196,-0.021430,0.097956,319.747887,24.664118,0.999611,0.992227,0.003763,0.147726,-0.000026,-0.000015,-0.000003,-0.000014,-0.000027,-73.855081,0.000042,
2025,2096,-5.13854550957395,-12.133714360957,0.0137648331338482,-0.000606,0.002585,-0.004515,-0.014705,0.107286,330.436568,25.099580,0.999112,0.983701,0.005006,0.141015,-0.000063,-0.000080,-0.000029,-0.000042,-0.000101,-36.779360,0.000147,
2025,2081,-5.13627323643889,-12.4622094827219,0.0130089283760526,-0.000341,0.002429,-0.001806,-0.009992,0.114349,330.680559,25.111357,0.998985,0.983195,0.005100,0.142958,-0.000074,-0.000084,-0.000043,-0.000035,-0.000122,-41.799219,0.000165,
2100,2201,-3.52057049198625,-9.8347896400993,0.00252451288258726,0.000088,0.002593,-0.007104,0.025544,0.092518,328.254242,24.585368,0.998803,0.983519,0.005056,0.219024,-0.000033,0.000012,0.000010,0.000014,-0.000035,78.042112,0.000035,
2235,2531,-0.638362872411435,-2.61894228249537,-0.0194966760464013,-0.000410,0.002852,-0.007927,0.007856,0.124194,322.141956,24.423570,0.999760,0.993244,0.003297,0.239307,-0.000039,-0.000035,-0.000005,-0.000031,-0.000043,-54.288924,0.000075,
2505,3101,5.12735597755946,9.80036533477442,0.00262134112779222,-0.000461,0.002433,-0.005339,0.000588,0.106139,312.921382,26.187468,0.999711,0.993568,0.003252,0.285705,-0.000042,0.000007,0.000006,0.000007,-0.000042,83.347417,0.000045,
2220,2516,-0.962261584627139,-2.94726039928626,-0.0200377255304147,-0.000392,0.002589,-0.007291,0.006253,0.109211,322.419684,24.378587,0.999489,0.990305,0.003857,0.276042,-0.000039,-0.000035,-0.000003,-0.000033,-0.000040,-62.797339,0.000074,
2040,2141,-4.81767105835602,-11.1491506783898,0.0101286019707345,0.000367,0.002438,-0.005413,0.032559,0.084712,329.626743,24.883559,0.998622,0.981667,0.005614,0.230703,-0.000060,-0.000032,0.000010,-0.000029,-0.000063,71.430244,0.000094,
2145,2291,-2.55652378300772,-7.86455033740269,-0.00462120755742035,-0.000767,0.002186,-0.002732,-0.026234,0.096123,326.468993,24.444611,0.998674,0.985714,0.004865,0.200310,-0.000027,0.000008,0.000001,0.000008,-0.000027,89.156038,0.000028,
2445,2951,3.85043822204492,6.53870543513053,-0.0278999276487752,-0.000847,0.002525,-0.009829,-0.001181,0.098492,315.031972,25.499277,0.999648,0.994162,0.003405,0.224505,-0.000034,-0.000021,-0.000023,-0.000003,-0.000051,-53.046742,0.000061,
2295,2681,0.638978263551046,0.653228373959415,-0.0271247685502658,-0.000875,0.002184,-0.005490,-0.020804,0.096937,319.464593,24.555244,0.999660,0.991621,0.003611,0.279286,-0.000028,-0.000013,-0.000003,-0.000012,-0.000028,-80.374149,0.000042,
2100,2216,-3.52339861790558,-9.5062457544518,-0.00144508780027763,0.000004,0.002144,-0.005382,0.016533,0.063329,327.965886,24.595356,0.998776,0.984694,0.005026,0.183658,-0.000029,0.000008,0.000016,0.000014,-0.000035,69.959725,0.000035,
2235,2546,-0.641502702162494,-2.29100175611149,-0.0295797313539197,-0.000142,0.002618,-0.007500,0.018689,0.096088,321.820260,24.444459,0.999731,0.993334,0.003316,0.212316,-0.000041,-0.000037,-0.000006,-0.000033,-0.000046,-53.629470,0.000079,
2475,3026,4.48961692140611,8.16948265926668,-0.0039639721666731,-0.000677,0.002269,-0.006224,-0.006441,0.104424,314.035710,25.847965,0.999757,0.993910,0.003149,0.230894,-0.000037,-0.000006,-0.000010,-0.000003,-0.000040,-73.856373,0.000048,
2325,2726,1.28327684644507,1.63622395122103,-0.0362157323344832,-0.000418,0.002561,-0.007937,0.009140,0.092492,318.646497,24.710448,0.999390,0.990275,0.003957,0.214203,-0.000018,-0.000029,0.000004,-0.000016,-0.000030,16.816706,0.000048,
2070,2141,-4.16498397270115,-11.1485318321542,0.00711235429815815,-0.000302,0.002487,-0.005366,0.002136,0.084670,329.404139,24.776141,0.999093,0.985636,0.004888,0.171939,-0.000053,-0.000019,0.000013,-0.000015,-0.000057,71.225198,0.000076,
2160,2336,-2.23704219906134,-6.87898214503002,-0.0179823315989438,-0.000158,0.003321,-0.011050,0.027574,0.107649,325.613321,24.414836,0.999319,0.990252,0.004054,0.215928,-0.000030,0.000005,-0.000004,0.000005,-0.000030,-84.110816,0.000033,
2055,2156,-4.49492120028927,-10.8174450236615,-0.00837942747739362,-0.000527,0.003295,-0.010618,0.006567,0.108755,329.114110,24.881552,0.999380,0.988059,0.004588,0.171783,-0.000048,-0.000007,0.000007,-0.000006,-0.000049,80.259855,0.000060,
2025,2156,-5.14749697471999,-10.8183571928565,0.00384027617968741,-0.000342,0.002997,-0.008945,0.009674,0.089269,329.394710,25.080752,0.999310,0.986781,0.004602,0.114623,-0.000057,-0.000016,-0.000011,-0.000014,-0.000060,-76.406255,0.000078,
2115,2276,-3.20675803049306,-8.19338032218595,-0.00357420932232344,-0.000268,0.002094,-0.004472,0.001564,0.068616,326.877668,24.531376,0.998976,0.985584,0.004880,0.203354,-0.000034,-0.000001,-0.000003,-0.000001,-0.000035,-84.846838,0.000040,
2160,2366,-2.24261744097531,-6.22457730462634,-0.00992222905733797,-0.000746,0.002011,-0.003425,-0.023091,0.089451,325.135859,24.417993,0.999048,0.989948,0.004164,0.217754,-0.000027,-0.000003,0.000003,-0.000003,-0.000027,83.102514,0.000033,
2055,2141,-4.4919754113168,-11.1478314714218,0.00151291283418686,-0.000330,0.002928,-0.008170,0.008656,0.100427,329.445213,24.828675,0.998895,0.985092,0.005130,0.218511,-0.000049,-0.000024,0.000015,-0.000016,-0.000056,64.587272,0.000076,
2490,3056,4.80967568390048,8.82260555152549,-0.00456786435580625,-0.000778,0.002281,-0.007370,-0.006462,0.099650,313.565802,26.015369,0.999644,0.993041,0.003620,0.220677,-0.000040,-0.000008,-0.000008,-0.000007,-0.000042,-77.248606,0.000053,
2385,2846,2.56549822806288,4.25176385749513,-0.0316135975402858,-0.000707,0.002746,-0.005475,-0.011652,0.130998,316.669948,25.067452,0.999597,0.991165,0.003692,0.248964,-0.000037,-0.000036,-0.000017,-0.000020,-0.000053,-46.422277,0.000075,
2220,2546,-0.967461155624914,-2.2930810533049,-0.0154917811001951,-0.000481,0.002416,-0.005006,-0.005212,0.099526,321.949760,24.436454,0.999702,0.992786,0.003392,0.247900,-0.000043,-0.000027,-0.000009,-0.000023,-0.000048,-65.764424,0.000072,
2265,2636,-0.00571182679819415,-0.328236284433828,-0.0259651767775608,-0.000933,0.002016,-0.002604,-0.033491,0.099947,320.249153,24.521355,0.999246,0.989349,0.004096,0.247578,-0.000026,-0.000024,-0.000005,-0.000020,-0.000030,-51.705372,0.000051,
2190,2471,-1.60773287602116,-3.92961425331874,-0.0213121693983567,-0.000483,0.002580,-0.005125,-0.005236,0.121869,323.224664,24.399878,0.999231,0.986855,0.004734,0.278209,-0.000025,-0.000018,0.000014,-0.000007,-0.000035,52.247080,0.000046,
2505,3116,5.12427801566103,10.1266138078998,0.0024793314995577,-0.000389,0.002187,-0.005419,0.004108,0.102584,312.672021,26.290898,0.999458,0.992955,0.003516,0.238385,-0.000033,0.000008,-0.000001,0.000008,-0.000033,-89.207931,0.000034,
2175,2441,-1.92901131433102,-4.58516570430607,-0.018327684231167,-0.000431,0.001922,-0.002682,-0.010812,0.109173,323.787758,24.418422,0.999436,0.988493,0.004281,0.255217,-0.000019,-0.000027,0.000016,-0.000007,-0.000039,38.568585,0.000049,
2040,2111,-4.81384245426333,-11.8067764102816,0.0158078921519973,-0.000702,0.002073,-0.006301,-0.014177,0.066907,330.119444,24.932461,0.999053,0.985414,0.004896,0.173301,-0.000062,-0.000050,0.000005,-0.000048,-0.000064,68.642899,0.000112,
2130,2366,-2.89533221749921,-6.22493095276682,-0.0109378498738693,-0.000618,0.002958,-0.008593,-0.001781,0.096918,325.265501,24.490178,0.999386,0.987061,0.004396,0.254169,-0.000031,-0.000012,0.000000,-0.000012,-0.000031,-89.316332,0.000044,
2400,2876,2.88628832793682,4.90440324077285,-0.0311427519677636,-0.000491,0.002327,-0.006759,0.002898,0.093234,316.200521,25.129658,0.999547,0.993008,0.003349,0.258809,-0.000035,-0.000035,-0.000015,-0.000020,-0.000050,-44.917245,0.000072,
2130,2321,-2.88752143135863,-7.20844404916037,-0.00297858575913779,-0.000447,0.002753,-0.005092,-0.004419,0.128403,326.070330,24.518033,0.999308,0.988587,0.004342,0.235563,-0.000028,0.000007,-0.000004,0.000007,-0.000028,-84.107552,0.000029,
2085,2216,-3.85045510262585,-9.50652917082753,0.00442032101921086,-0.000576,0.002405,-0.003293,-0.016206,0.096491,328.054898,24.662478,0.998954,0.985489,0.004716,0.222254,-0.000034,0.000010,0.000013,0.000014,-0.000038,74.991669,0.000038,
2115,2261,-3.20437992672116,-8.52070693310384,-0.00737758012127188,-0.000254,0.002874,-0.007497,0.011354,0.101749,327.102130,24.525322,0.999011,0.986337,0.004836,0.237071,-0.000037,0.000001,0.000004,0.000002,-0.000038,83.851410,0.000043,
2205,2531,-1.29079400797206,-2.62100367001558,-0.0129397090606744,-0.000144,0.002184,-0.004275,0.007698,0.088365,322.271895,24.447347,0.999479,0.990913,0.003840,0.232388,-0.000035,-0.000028,-0.000008,-0.000023,-0.000040,-56.237653,0.000064,
2415,2906,3.20684298705737,5.55787004309236,-0.0234506861398813,-0.000895,0.002438,-0.006379,-0.016750,0.101100,315.760490,25.293740,0.999576,0.992748,0.003463,0.220924,-0.000034,-0.000037,-0.000017,-0.000018,-0.000052,-42.696894,0.000073,
2340,2756,1.60384719298999,2.28894593804883,-0.0267743765143109,-0.000832,0.002086,-0.002432,-0.028873,0.105574,318.183532,24.728840,0.999575,0.992006,0.003645,0.284198,-0.000027,-0.000020,0.000013,-0.000010,-0.000037,52.082786,0.000049,
2250,2576,-0.320287548750898,-1.63695784949284,-0.0234243027852585,-0.000370,0.002638,-0.006184,0.004184,0.105220,321.329494,24.448181,0.999420,0.989767,0.004022,0.241595,-0.000041,-0.000036,-0.000006,-0.000032,-0.000045,-55.535881,0.000078,
2205,2501,-1.28615343190423,-3.27436410808977,-0.0213319604444564,-0.000402,0.003047,-0.008150,0.008396,0.112307,322.698327,24.425041,0.999544,0.991166,0.003824,0.243842,-0.000033,-0.000030,0.000005,-0.000026,-0.000037,53.087161,0.000063,
2355,2771,1.92724034751354,2.61687543474439,-0.0321456357895045,-0.000811,0.001933,-0.006109,-0.015043,0.070923,317.901652,24.820164,0.999518,0.991834,0.003535,0.203424,-0.000025,-0.000030,0.000005,-0.000022,-0.000034,31.824885,0.000056,
2295,2711,0.633413033046832,1.30824343364697,-0.0427727912077671,-0.000107,0.002820,-0.010666,0.032161,0.098074,318.887829,24.616398,0.999766,0.993672,0.003358,0.279742,-0.000026,-0.000020,-0.000002,-0.000019,-0.000026,-74.809017,0.000045,
2490,3071,4.80640865792752,9.14790631797867,-0.00483428789829077,-0.000761,0.002378,-0.005594,-0.012474,0.096886,313.306611,26.017890,0.999654,0.992701,0.003591,0.273143,-0.000044,-0.000009,-0.000005,-0.000009,-0.000045,-81.379840,0.000057,
2310,2696,0.962932867821852,0.980385632973096,-0.0240009755568735,-0.000767,0.002661,-0.005686,-0.014821,0.104621,319.233591,24.578364,0.999732,0.993174,0.003494,0.291483,-0.000018,-0.000018,0.000000,-0.000018,-0.000018,-65.472826,0.000036,
2325,2741,1.28083307935514,1.96198455049838,-0.0284986296426837,-0.000551,0.002556,-0.007112,0.000199,0.100620,318.452966,24.713551,0.999592,0.991813,0.003670,0.253600,-0.000015,-0.000021,0.000004,-0.000014,-0.000023,26.454248,0.000037,
2055,2216,-4.50332222574551,-9.50713700420167,0.00796318513340566,-0.000521,0.002618,-0.006202,-0.005693,0.080820,328.254042,24.787870,0.998891,0.984373,0.004974,0.225702,-0.000030,0.000006,0.000008,0.000007,-0.000031,77.546684,0.000033,
2145,2306,-2.55860793247596,-7.53732592583797,0.00175640212802364,-0.000783,0.002313,-0.002452,-0.027781,0.087565,326.273779,24.453238,0.999070,0.986750,0.004634,0.192322,-0.000023,0.000007,0.000002,0.000007,-0.000023,85.742296,0.000024,
2145,2321,-2.56101764246853,-7.20891571084796,-0.00145627642166346,-0.000595,0.002377,-0.003851,-0.014883,0.105209,326.012538,24.451591,0.999487,0.988377,0.004293,0.221562,-0.000028,0.000008,-0.000004,0.000009,-0.000029,-83.657130,0.000029,
2070,2156,-4.16706117981812,-10.8195953469747,0.00363514508262597,0.000023,0.002743,-0.007412,0.022950,0.092170,329.149658,24.767055,0.999181,0.985868,0.004823,0.187946,-0.000054,-0.000005,0.000008,-0.000004,-0.000055,81.168716,0.000066,
2085,2276,-3.86024120128368,-8.19163304006754,-0.0102783849179104,-0.000356,0.003022,-0.008735,0.009731,0.120525,326.971109,24.695515,0.999380,0.990362,0.004080,0.218690,-0.000038,0.000002,-0.000004,0.000002,-0.000038,-84.009429,0.000043,
2280,2651,0.318807997844708,-0.000582322197814733,-0.0264689847670638,-0.000239,0.002493,-0.005554,0.008512,0.104938,320.015355,24.547245,0.999400,0.989711,0.004020,0.243690,-0.000031,-0.000019,-0.000004,-0.000017,-0.000032,-72.623412,0.000050,
2430,2936,3.52750179745066,6.21111008871384,-0.0205349023781309,-0.000788,0.002332,-0.006319,-0.011820,0.109807,315.309157,25.417126,0.999665,0.992425,0.003576,0.233408,-0.000030,-0.000025,-0.000021,-0.000007,-0.000048,-48.819410,0.000060,
2025,2111,-5.14076544344032,-11.8054077909077,0.0124362731251608,-0.000523,0.002414,-0.004389,-0.011280,0.094060,330.183463,25.059087,0.998828,0.983006,0.005248,0.161578,-0.000059,-0.000071,-0.000016,-0.000048,-0.000082,-34.715681,0.000132,
2040,2156,-4.82126487447175,-10.8178655496846,0.0013654716959195,-0.000307,0.002652,-0.003418,-0.003817,0.118433,329.270372,25.004485,0.999434,0.987936,0.004514,0.139131,-0.000061,-0.000010,0.000000,-0.000010,-0.000061,89.550545,0.000077,
2280,2681,0.313065671378162,0.653047348498809,-0.0275977526971474,-0.000218,0.002037,-0.003118,0.001186,0.092893,319.500700,24.595488,0.999604,0.992415,0.003626,0.239531,-0.000025,-0.000013,-0.000004,-0.000012,-0.000027,-71.479086,0.000040,
2040,2186,-4.82592514033567,-10.162892744544,0.00565648788176532,-0.000777,0.002220,-0.004332,-0.023007,0.086938,328.795694,24.905573,0.999033,0.984331,0.005066,0.196554,-0.000037,0.000003,-0.000004,0.000003,-0.000038,-83.693654,0.000042,
2295,2726,0.630754363085714,1.63482647023326,-0.0361492335264302,-0.000333,0.002782,-0.008760,0.015349,0.109114,318.677003,24.679123,0.999578,0.991870,0.003684,0.258096,-0.000024,-0.000022,-0.000001,-0.000022,-0.000024,-65.201456,0.000046,
2370,2816,2.24587781531316,3.59637230933039,-0.0227421445940763,-0.000435,0.002154,-0.004283,-0.003864,0.095781,317.245502,24.915934,0.999848,0.995619,0.003149,0.263812,-0.000032,-0.000029,-0.000012,-0.000018,-0.000042,-48.735220,0.000062,
2100,2246,-3.52836301207582,-8.84820762135505,-0.0053032033248428,-0.000079,0.002945,-0.007445,0.019005,0.115319,327.442064,24.652173,0.998821,0.987822,0.004611,0.186157,-0.000034,0.000003,0.000010,0.000006,-0.000037,75.772034,0.000040,
2460,2996,4.16938667915342,7.51570586895985,-0.00486405213302987,-0.000568,0.002318,-0.004990,-0.006295,0.098682,314.497461,25.637510,0.999538,0.992228,0.003536,0.282315,-0.000023,-0.000017,-0.000011,-0.000008,-0.000031,-52.400768,0.000041,
2175,2471,-1.93320968750545,-3.93033037605292,-0.0156526913650623,-0.000082,0.002629,-0.008005,0.021908,0.105437,323.347054,24.463072,0.999286,0.986458,0.004807,0.233543,-0.000021,-0.000017,0.000016,-0.000004,-0.000035,48.110114,0.000042,
2025,2126,-5.14272854789259,-11.4767808361375,0.00827613690756834,-0.000110,0.002554,-0.005918,0.011886,0.076304,329.926304,25.026758,0.998818,0.982628,0.005405,0.169188,-0.000048,-0.000067,-0.000014,-0.000040,-0.000075,-27.645400,0.000117,
2115,2291,-3.20893705748805,-7.86375179870524,-0.0104211930798215,0.000118,0.002824,-0.009084,0.033114,0.076048,326.604531,24.602844,0.999132,0.987668,0.004491,0.144908,-0.000028,-0.000001,0.000004,-0.000001,-0.000029,81.861058,0.000034,
2085,2231,-3.8529317732457,-9.17751739259479,-0.00103769752774951,-0.000409,0.002411,-0.004153,-0.006039,0.087160,327.772909,24.684823,0.999167,0.988564,0.004216,0.192003,-0.000038,-0.000008,0.000006,-0.000006,-0.000039,79.122468,0.000049,
2100,2231,-3.52563932878441,-9.17782062812659,0.00176373590454659,-0.000173,0.002683,-0.007131,0.013677,0.094902,327.742822,24.615172,0.998889,0.986207,0.004751,0.198897,-0.000033,-0.000010,0.000009,-0.000007,-0.000037,71.377745,0.000046,
2445,2966,3.84779375825085,6.86478573002971,-0.0210991560759908,-0.000786,0.002699,-0.007167,-0.008237,0.106804,314.831105,25.584441,0.999636,0.993609,0.003424,0.199108,-0.000033,-0.000018,-0.000022,-0.000001,-0.000049,-54.228153,0.000057,
2070,2186,-4.1727922879663,-10.1623266074567,0.000857398231232764,-0.000563,0.002230,-0.001971,-0.019531,0.117123,328.591590,24.746608,0.999050,0.985252,0.004992,0.232664,-0.000044,0.000006,0.000006,0.000007,-0.000045,83.302330,0.000048,
2505,3131,5.12123259548026,10.4519089818087,0.00188531630317357,-0.000372,0.002201,-0.006909,0.010564,0.079646,312.422336,26.326944,0.999543,0.992897,0.003417,0.239112,-0.000024,-0.000005,-0.000001,-0.000005,-0.000024,-86.331433,0.000031,
2130,2381,-2.89824628744725,-5.89691466934811,-0.0104031340545134,-0.000829,0.002536,-0.004288,-0.024433,0.103590,324.999883,24.522452,0.999104,0.986979,0.004495,0.235904,-0.000028,-0.000016,0.000005,-0.000014,-0.000030,70.059510,0.000045,
2055,2231,-4.50590631424785,-9.17687985089529,-0.00523737161216786,-0.000072,0.002603,-0.007511,0.018576,0.074709,327.921369,24.838401,0.999346,0.989511,0.004320,0.166339,-0.000030,-0.000009,0.000004,-0.000008,-0.000031,78.204699,0.000041,
2355,2786,1.92483322360416,2.94359615737271,-0.0281459343794381,-0.000564,0.002294,-0.005132,-0.006905,0.106367,317.693219,24.866842,0.999693,0.994166,0.003276,0.231007,-0.000025,-0.000033,-0.000001,-0.000025,-0.000033,-8.651929,0.000059,
2160,2381,-2.24530263076158,-5.89581019203051,-0.0150356022650726,-0.000749,0.002711,-0.005985,-0.015180,0.110439,324.853222,24.449623,0.999103,0.989464,0.004208,0.219013,-0.000024,-0.000006,0.000006,-0.000004,-0.000026,72.664440,0.000033,
2490,3086,4.8039727919077,9.4734098521111,0.00320278314381994,-0.000753,0.002060,-0.005607,-0.012202,0.087439,313.123166,26.104196,0.999541,0.991687,0.003628,0.235052,-0.000048,0.000002,-0.000004,0.000002,-0.000048,-85.495383,0.000055,
2220,2531,-0.964789710856937,-2.61946390191507,-0.0197377271845198,-0.000317,0.002645,-0.007471,0.010305,0.106522,322.177722,24.449811,0.999608,0.991812,0.003596,0.221909,-0.000041,-0.000027,-0.000008,-0.000023,-0.000045,-65.498856,0.000069,
2475,3041,4.48642142400671,8.49542345793284,-0.00404770584412972,-0.000522,0.001903,-0.003220,-0.010898,0.091698,313.779532,25.912168,0.999705,0.993889,0.003287,0.209409,-0.000034,-0.000009,-0.000010,-0.000005,-0.000037,-70.301847,0.000046,
2025,2171,-5.14948880085749,-10.4905222620978,0.00447577648776587,-0.000219,0.002830,-0.010143,0.018518,0.089427,329.163037,25.027852,0.999384,0.988478,0.004343,0.160544,-0.000039,-0.000018,-0.000014,-0.000011,-0.000046,-63.817288,0.000060,
2235,2576,-0.64668796912547,-1.63741402310109,-0.024679048015571,-0.000353,0.002674,-0.007556,0.009173,0.099298,321.355041,24.459085,0.999398,0.990258,0.003930,0.244626,-0.000039,-0.000036,-0.000007,-0.000031,-0.000044,-49.961298,0.000076,
2175,2456,-1.93116532853303,-4.25825550892642,-0.0144518049660292,-0.000484,0.002524,-0.005286,-0.005009,0.105517,323.578303,24.417756,0.999309,0.987917,0.004480,0.265715,-0.000019,-0.000020,0.000014,-0.000006,-0.000033,44.465349,0.000042,
2055,2171,-4.49778438278001,-10.4898058327382,-0.00616358313760657,-0.001024,0.002643,-0.007053,-0.026436,0.103903,328.853929,24.834504,0.999256,0.986847,0.004729,0.211314,-0.000035,-0.000006,0.000003,-0.000005,-0.000036,84.608566,0.000045,
2235,2561,-0.643840887029164,-1.96550545654072,-0.0182138417189321,-0.000518,0.002570,-0.005949,-0.003579,0.122230,321.645002,24.386273,0.999685,0.992899,0.003393,0.318430,-0.000039,-0.000043,-0.000005,-0.000036,-0.000046,-34.255539,0.000082,
2040,2201,-4.82807994299712,-9.8338878741498,-0.00150029269502738,-0.000316,0.002400,-0.005627,0.001829,0.079851,328.514577,24.894457,0.998821,0.984815,0.004987,0.195814,-0.000031,0.000009,-0.000006,0.000010,-0.000032,-81.016117,0.000032,
2160,2351,-2.23990681345023,-6.55133235002766,-0.0151867648465327,-0.000470,0.002685,-0.007615,0.002580,0.100634,325.364471,24.440666,0.999110,0.988094,0.004392,0.194684,-0.000030,0.000007,0.000001,0.000007,-0.000030,88.635310,0.000031,
2190,2516,-1.6149576888468,-2.9490007874874,-0.0139139396663381,-0.000723,0.002694,-0.008516,-0.005651,0.092432,322.542637,24.409595,0.999500,0.990801,0.003971,0.285454,-0.000026,-0.000030,0.000003,-0.000024,-0.000032,31.225102,0.000057,
2115,2336,-3.2167847665973,-6.88012169823182,-0.0148572623497216,-0.000022,0.002533,-0.006505,0.019010,0.106061,325.812596,24.528376,0.999328,0.988993,0.004272,0.265437,-0.000037,-0.000006,-0.000004,-0.000006,-0.000038,-82.768626,0.000047,
2205,2606,-1.30531534318089,-0.984299239321537,-0.0248641484089376,-0.000810,0.002465,-0.004560,-0.021878,0.115746,320.900550,24.505074,0.999050,0.987080,0.004461,0.289435,-0.000036,-0.000010,-0.000006,-0.000009,-0.000037,-78.105798,0.000049,
2400,2891,2.88389763849719,5.23020040663594,-0.0227534482494889,-0.000547,0.002276,-0.006341,-0.001208,0.089390,316.016577,25.193153,0.999539,0.992991,0.003418,0.236327,-0.000035,-0.000032,-0.000016,-0.000017,-0.000049,-47.162587,0.000069,
2070,2171,-4.17029148133937,-10.4911615741855,0.00357650535642051,-0.000602,0.002055,-0.002836,-0.018915,0.086525,328.861361,24.768222,0.999153,0.985796,0.004834,0.180787,-0.000044,-0.000004,0.000006,-0.000003,-0.000045,82.113342,0.000054,
2265,2621,-0.00261440724644402,-0.655687972828872,-0.0257051145039213,-0.000730,0.002416,-0.004658,-0.017263,0.089307,320.516649,24.464981,0.999363,0.989474,0.004109,0.267228,-0.000027,-0.000024,-0.000004,-0.000021,-0.000030,-53.164107,0.000052,
2190,2501,-1.61323864019721,-3.27490841781122,-0.0179549675925728,-0.000785,0.002366,-0.001010,-0.032022,0.118419,322.729946,24.459400,0.999343,0.988970,0.004281,0.246303,-0.000027,-0.000025,0.000011,-0.000015,-0.000037,48.102143,0.000053,
2265,2651,-0.00866861617171466,-0.000681948322167614,-0.0270669039936706,-0.000996,0.001881,-0.001394,-0.040414,0.103335,319.983831,24.591924,0.999431,0.990981,0.003967,0.206166,-0.000024,-0.000018,-0.000005,-0.000015,-0.000027,-60.957653,0.000042,
2295,2741,0.628701388160653,1.96075292941042,-0.0279363803281854,-0.000336,0.002916,-0.010412,0.020844,0.107859,318.502055,24.710362,0.999496,0.991198,0.003812,0.255379,-0.000017,-0.000015,-0.000002,-0.000014,-0.000018,-60.331609,0.000032,
2340,2771,1.60159667220631,2.61555483856989,-0.0236806040462625,-0.000697,0.002014,-0.005614,-0.011698,0.074827,317.977094,24.819172,0.999601,0.993276,0.003426,0.199464,-0.000026,-0.000021,0.000012,-0.000011,-0.000035,50.953558,0.000049,
2310,2711,0.960302857885491,1.30801645695266,-0.0278049863618435,-0.000509,0.002888,-0.008435,0.006498,0.105301,318.973441,24.655812,0.999524,0.991419,0.003781,0.247103,-0.000021,-0.000019,0.000000,-0.000019,-0.000021,-81.591055,0.000040,
2430,2951,3.52377605717166,6.53763057625751,-0.0294219483722031,-0.000836,0.002491,-0.007036,-0.011374,0.102689,314.984480,25.441229,0.999742,0.993928,0.003319,0.251768,-0.000033,-0.000019,-0.000020,-0.000005,-0.000047,-54.472420,0.000058,
2505,3146,5.11878408611532,10.7781998844463,0.0115004640553025,-0.000484,0.002483,-0.006813,0.005309,0.112465,312.245621,26.467155,0.999475,0.992321,0.003516,0.191457,-0.000021,-0.000018,0.000003,-0.000016,-0.000023,61.628669,0.000039,
2490,3101,4.80124132670606,9.79935805536651,0.00413257483029383,-0.000650,0.002378,-0.008029,0.002013,0.099708,312.893704,26.166733,0.999441,0.991242,0.003636,0.242390,-0.000044,0.000007,0.000001,0.000007,-0.000044,88.713510,0.000047,
2295,2786,0.619540944153201,2.94085574713164,-0.0317826799354179,-0.000589,0.002849,-0.006670,-0.003436,0.122022,317.697017,24.794196,0.999354,0.991314,0.003816,0.275445,-0.000018,-0.000023,-0.000002,-0.000018,-0.000024,-19.983620,0.000041,
2385,2861,2.56315451685653,4.57726913478876,-0.0254868275421245,-0.000778,0.002346,-0.007861,-0.006533,0.105812,316.476767,25.100432,0.999629,0.992369,0.003429,0.233468,-0.000036,-0.000037,-0.000017,-0.000019,-0.000054,-44.073230,0.000075,
2130,2336,-2.88967339505651,-6.88074899326365,-0.00494454229146868,-0.000299,0.002871,-0.009327,0.015017,0.105721,325.826467,24.509154,0.999408,0.989304,0.004160,0.229294,-0.000035,-0.000004,-0.000005,-0.000003,-0.000035,-81.753734,0.000043,
2205,2546,-1.29433957432284,-2.2928846395968,-0.0201002130514212,-0.000520,0.002282,-0.003354,-0.012472,0.102992,321.943404,24.467546,0.999543,0.991722,0.003707,0.244520,-0.000038,-0.000028,-0.000010,-0.000022,-0.000045,-58.096185,0.000068,
2100,2306,-3.53801720440414,-7.53657647396152,-0.00714813257019387,-0.000087,0.002689,-0.007646,0.019152,0.089431,326.440167,24.615589,0.999212,0.987343,0.004727,0.210075,-0.000021,0.000004,0.000005,0.000005,-0.000022,79.546943,0.000023,
2280,2756,0.299072134334306,2.2874330528323,-0.0344779307820886,-0.000394,0.002991,-0.009302,0.014119,0.111702,318.209463,24.745813,0.999473,0.990437,0.003790,0.247016,-0.000018,-0.000011,0.000002,-0.000010,-0.000018,78.172194,0.000029,
2055,2186,-4.50000157802738,-10.1620355427782,0.00279416046612369,-0.001156,0.002232,-0.001377,-0.048501,0.109819,328.660232,24.865829,0.999029,0.982738,0.005215,0.182849,-0.000032,0.000006,0.000002,0.000006,-0.000032,86.711742,0.000034,
2220,2576,-0.972798114626226,-1.63831282217419,-0.0242152525663073,0.000004,0.002251,-0.005896,0.019884,0.091257,321.405195,24.446682,0.999211,0.990284,0.003907,0.268821,-0.000040,-0.000027,-0.000009,-0.000023,-0.000044,-62.587554,0.000068,
2145,2351,-2.56558996252461,-6.55270486882046,-0.0053051574714118,-0.000215,0.002864,-0.007773,0.014539,0.113464,325.515215,24.462027,0.999393,0.988306,0.004231,0.238603,-0.000033,0.000000,-0.000002,0.000000,-0.000033,-86.138240,0.000038,
2220,2561,-0.970688513290565,-1.96461401367717,-0.025938216598604,-0.000491,0.002772,-0.007186,0.001437,0.116160,321.620320,24.462748,0.999544,0.992137,0.003561,0.258066,-0.000041,-0.000033,-0.000008,-0.000028,-0.000046,-58.171127,0.000075,
2370,2831,2.24223171800963,3.9239962578371,-0.0317118648280825,-0.000680,0.002359,-0.007044,-0.005255,0.096921,316.918611,24.991938,0.999690,0.992281,0.003574,0.229712,-0.000032,-0.000031,-0.000014,-0.000018,-0.000046,-46.014806,0.000066,
2445,2981,3.84525431435676,7.19064337407983,-0.0178959403716021,-0.000543,0.002846,-0.007149,0.002961,0.121137,314.618418,25.621029,0.999631,0.992384,0.003600,0.228263,-0.000033,-0.000018,-0.000017,-0.000007,-0.000044,-57.289087,0.000055,
2415,2921,3.20446296431809,5.88439811629537,-0.0192763169308705,-0.000710,0.002471,-0.007585,-0.003811,0.102204,315.557772,25.395890,0.999643,0.993562,0.003350,0.167091,-0.000031,-0.000038,-0.000017,-0.000017,-0.000052,-39.664288,0.000072,
2040,2171,-4.82350253611596,-10.4908428645083,0.00704329927401659,-0.000743,0.002610,-0.005113,-0.019139,0.104595,329.056862,24.946402,0.999373,0.987853,0.004508,0.178289,-0.000045,-0.000012,-0.000005,-0.000011,-0.000046,-81.336489,0.000061,
2145,2336,-2.56338930042371,-6.88037457529661,-0.00917634398768996,-0.000213,0.002699,-0.007405,0.013471,0.099374,325.729230,24.445733,0.999402,0.989060,0.004184,0.231236,-0.000035,-0.000002,-0.000005,-0.000001,-0.000035,-80.686333,0.000042,
2130,2396,-2.89985521828168,-5.56924488950306,-0.00409381747886073,-0.000516,0.002940,-0.006152,-0.004369,0.110450,324.824841,24.583946,0.998665,0.986333,0.004696,0.188179,-0.000021,-0.000024,0.000007,-0.000015,-0.000029,38.344526,0.000045,
2505,3161,5.11558001884148,11.1033187541995,0.0136847263099185,-0.000694,0.002427,-0.006325,-0.006280,0.108080,312.000973,26.493092,0.999631,0.993464,0.003278,0.220942,-0.000018,-0.000013,-0.000005,-0.000010,-0.000022,-57.256851,0.000033,
2190,2531,-1.61773476246517,-2.62055656381794,-0.0232295414198802,-0.000165,0.002386,-0.006867,0.014720,0.088741,322.236707,24.452435,0.999367,0.990247,0.004024,0.254426,-0.000031,-0.000022,-0.000003,-0.000021,-0.000032,-72.199461,0.000054,
2025,2186,-5.15250965064,-10.1615285731508,-0.000635331888645396,-0.000522,0.002548,-0.007133,-0.003717,0.088627,328.852200,25.025448,0.999104,0.985910,0.004886,0.155213,-0.000028,0.000001,-0.000010,0.000005,-0.000032,-72.514144,0.000034,
2265,2666,-0.0116194487923167,0.325933930997152,-0.030634370955795,-0.001072,0.002285,-0.002812,-0.039118,0.104612,319.706573,24.562405,0.999468,0.991628,0.003823,0.262895,-0.000019,-0.000016,-0.000004,-0.000013,-0.000021,-56.781307,0.000035,
2250,2621,-0.328447514550028,-0.656374620841888,-0.0226320639363848,-0.000467,0.002645,-0.005578,-0.002221,0.110883,320.584038,24.464623,0.999110,0.988705,0.004261,0.302224,-0.000033,-0.000028,-0.000004,-0.000026,-0.000035,-63.060120,0.000061,
2115,2351,-3.21905272373116,-6.55138096664039,-0.0161826132593887,0.000111,0.002640,-0.008251,0.030282,0.094410,325.565244,24.616271,0.999318,0.986876,0.004554,0.171221,-0.000036,-0.000002,-0.000003,-0.000002,-0.000036,-85.558882,0.000043,
2070,2201,-4.17483232110018,-9.83355065714136,-0.0065125920087894,-0.000314,0.002930,-0.009790,0.014295,0.096762,328.317724,24.726515,0.998971,0.984646,0.004891,0.231730,-0.000043,0.000015,0.000002,0.000015,-0.000043,87.577554,0.000044,
2025,2141,-5.14429967964127,-11.1485592538445,0.0042211306780473,0.000505,0.002923,-0.010483,0.052726,0.085934,329.687574,24.937320,0.998577,0.979722,0.005629,0.261462,-0.000052,-0.000049,-0.000006,-0.000044,-0.000056,-50.019181,0.000101,
2055,2246,-4.50864273516527,-8.84926386571249,-0.00404581940051685,-0.000358,0.002286,-0.003744,-0.005219,0.087223,327.661336,24.786860,0.999363,0.989174,0.004356,0.227296,-0.000032,0.000011,0.000008,0.000012,-0.000033,80.002102,0.000033,
2385,2876,2.56033699894902,4.90387143099976,-0.0267106778247808,-0.000632,0.002429,-0.008808,0.003566,0.090762,316.226419,25.172467,0.999588,0.993286,0.003348,0.189249,-0.000036,-0.000035,-0.000016,-0.000019,-0.000052,-46.214604,0.000074,
2100,2261,-3.53046568401965,-8.52056047663276,-0.00396111220493367,-0.000127,0.003278,-0.011204,0.027846,0.112021,327.215567,24.626771,0.998955,0.986706,0.004686,0.211512,-0.000037,0.000003,0.000004,0.000004,-0.000037,84.076884,0.000041,
2475,3056,4.48418098942332,8.82095609060586,0.00542689997263324,-0.000698,0.002347,-0.006100,-0.007858,0.102976,313.610957,25.982729,0.999495,0.991638,0.003844,0.205623,-0.000032,-0.000010,-0.000008,-0.000007,-0.000035,-71.229356,0.000045,
2115,2306,-3.21131731610476,-7.53582749748106,-0.012900304777304,0.000118,0.003433,-0.012076,0.042109,0.099289,326.345897,24.553579,0.999170,0.987919,0.004533,0.222923,-0.000023,0.000005,0.000006,0.000006,-0.000025,78.149213,0.000026,
2460,3011,4.16626835449781,7.84230949363561,-0.00304097785937074,-0.000850,0.002376,-0.006027,-0.015352,0.094433,314.252453,25.758985,0.999521,0.991429,0.003585,0.210058,-0.000017,-0.000012,-0.000009,-0.000006,-0.000024,-52.462620,0.000031,
2325,2756,1.27749231128519,2.28880783828029,-0.0322870313246995,-0.000578,0.002162,-0.004561,-0.009963,0.100696,318.161596,24.732881,0.999616,0.992960,0.003535,0.268922,-0.000016,-0.000018,0.000007,-0.000010,-0.000024,42.691267,0.000035,
2310,2726,0.957464848382948,1.63491902969906,-0.0283757132964979,-0.000487,0.002902,-0.008308,0.007061,0.108009,318.719806,24.696192,0.999458,0.990788,0.003891,0.241854,-0.000020,-0.000023,0.000001,-0.000020,-0.000023,16.211015,0.000043,
2280,2696,0.310463528410633,0.979674663349911,-0.0240703946906251,-0.000467,0.002298,-0.005043,-0.003764,0.092647,319.276145,24.637962,0.999775,0.994122,0.003337,0.224432,-0.000022,-0.000016,-0.000005,-0.000013,-0.000025,-62.818752,0.000039,
2085,2291,-3.86311861958844,-7.86387982286912,-0.0126418366730832,-0.000549,0.002330,-0.005932,-0.007415,0.099987,326.687913,24.669541,0.999669,0.993320,0.003693,0.225184,-0.000032,-0.000003,0.000003,-0.000003,-0.000032,84.276537,0.000039,
2400,2906,2.88101844097322,5.55710778193263,-0.0198574832759846,-0.000808,0.002362,-0.007912,-0.007506,0.093322,315.783809,25.313718,0.999545,0.993043,0.003453,0.164467,-0.000033,-0.000036,-0.000017,-0.000018,-0.000051,-42.064313,0.000071,
2265,2726,-0.0218170711588392,1.63311576081327,-0.0328837585176416,-0.000641,0.002599,-0.008854,0.000781,0.093760,318.731215,24.676461,0.999473,0.991811,0.003676,0.240679,-0.000020,-0.000022,-0.000004,-0.000017,-0.000025,-36.415094,0.000042,
2085,2246,-3.85512953305046,-8.84922388361425,-0.00427742085071259,-0.000218,0.002875,-0.006783,0.010427,0.100311,327.515746,24.648414,0.999050,0.987782,0.004412,0.242760,-0.000040,0.000007,0.000008,0.000009,-0.000041,80.939477,0.000043,
2250,2591,-0.323287688725987,-1.30927820692103,-0.0297450273205868,-0.000311,0.002575,-0.007408,0.010905,0.113630,321.034629,24.459197,0.999246,0.988998,0.004266,0.263128,-0.000035,-0.000035,-0.000003,-0.000032,-0.000038,-47.665565,0.000070,
2415,2936,3.20158255841952,6.20984094106767,-0.0149329062080596,-0.000885,0.002529,-0.006796,-0.014695,0.115850,315.333036,25.390658,0.999673,0.993094,0.003434,0.232896,-0.000033,-0.000025,-0.000018,-0.000010,-0.000048,-51.217333,0.000062,
2235,2606,-0.652509569644515,-0.982431636494027,-0.0316226134503381,-0.000388,0.003041,-0.008077,0.009397,0.116518,320.799762,24.501563,0.999123,0.987359,0.004469,0.262926,-0.000036,-0.000018,-0.000006,-0.000016,-0.000037,-74.065466,0.000055,
2025,2201,-5.15479170563299,-9.83274273520334,-0.00892352480155978,-0.000158,0.003039,-0.008419,0.016693,0.102549,328.557382,24.961564,0.999088,0.987224,0.004699,0.226012,-0.000019,0.000005,-0.000015,0.000013,-0.000026,-63.988219,0.000026,
2025,2216,-5.15706969203443,-9.5052518078353,-0.000482883997051431,-0.000531,0.002698,-0.005449,-0.008677,0.110063,328.356180,24.969352,0.998971,0.984696,0.004903,0.218213,-0.000015,0.000000,-0.000006,0.000002,-0.000017,-70.787011,0.000018,
2205,2621,-1.30754338045297,-0.657463475144141,-0.0205702801087568,-0.000792,0.002409,-0.005589,-0.017832,0.103929,320.691902,24.561052,0.999374,0.987600,0.004385,0.238506,-0.000032,-0.000017,-0.000006,-0.000015,-0.000034,-71.893727,0.000050,
2490,3116,4.79821618794452,10.1247867796891,0.00585929884323377,-0.000575,0.001989,-0.006503,-0.000558,0.091083,312.654396,26.211332,0.999455,0.992267,0.003497,0.246775,-0.000038,0.000009,-0.000003,0.000009,-0.000038,-86.922428,0.000040,
2040,2216,-4.82993417496131,-9.50540453514544,0.00198836731402707,-0.000111,0.002597,-0.005511,0.010974,0.095853,328.306071,24.931643,0.998680,0.981980,0.005198,0.169152,-0.000028,0.000002,0.000003,0.000003,-0.000028,84.697202,0.000031,
2280,2771,0.296890541771109,2.6134334335974,-0.0273036426547151,-0.000280,0.002730,-0.008434,0.016354,0.105172,318.022457,24.788442,0.999314,0.990519,0.003882,0.225434,-0.000020,-0.000014,0.000001,-0.000014,-0.000021,80.112168,0.000035,
2100,2276,-3.53309145323525,-8.19278312002722,-0.00363045879691981,-0.000237,0.002999,-0.008821,0.015746,0.109045,326.959681,24.607669,0.998869,0.984805,0.004923,0.230868,-0.000032,-0.000001,-0.000003,0.000000,-0.000032,-83.672662,0.000037,
2505,3176,5.11285198579382,11.4285334306938,0.0165221229278245,-0.000631,0.002374,-0.007591,0.001448,0.094365,311.781100,26.544774,0.999630,0.993649,0.003285,0.215094,-0.000016,-0.000015,-0.000010,-0.000005,-0.000025,-45.878220,0.000033,
2445,2996,3.84300210988901,7.5159003260652,-0.008900793333396,-0.000597,0.002728,-0.008512,0.005481,0.113008,314.445890,25.668848,0.999414,0.989757,0.003884,0.223515,-0.000027,-0.000018,-0.000015,-0.000007,-0.000038,-52.829068,0.000049,
2055,2261,-4.51121113658458,-8.52117185144242,-0.00197168236996959,-0.000756,0.002280,-0.003740,-0.023511,0.090339,327.413785,24.802320,0.999514,0.990065,0.004273,0.211880,-0.000039,0.000007,0.000004,0.000007,-0.000040,84.956735,0.000042,
2205,2561,-1.29685485411858,-1.96574806085209,-0.0204138059676779,-0.000568,0.002516,-0.005685,-0.007195,0.104844,321.697748,24.477725,0.999577,0.992579,0.003551,0.253772,-0.000038,-0.000031,-0.000008,-0.000025,-0.000043,-57.288914,0.000069,
2130,2411,-2.9029329896027,-5.24026161681573,-0.019057316698138,-0.000213,0.002918,-0.007024,0.012146,0.109588,324.468880,24.571768,0.999021,0.989037,0.004399,0.206967,-0.000020,-0.000024,0.000003,-0.000018,-0.000026,31.950885,0.000044,
2070,2216,-4.17643203035747,-9.50566904539961,-0.00256643254687106,-0.000005,0.003086,-0.012444,0.036068,0.077571,328.125967,24.749652,0.998813,0.984640,0.004811,0.188364,-0.000043,0.000010,0.000008,0.000011,-0.000044,81.211114,0.000046,
2355,2801,1.92256576058246,3.26921568791884,-0.0199784018598166,-0.000543,0.002277,-0.004719,-0.007432,0.096157,317.511670,24.894675,0.999787,0.995248,0.003201,0.231521,-0.000025,-0.000035,-0.000007,-0.000021,-0.000039,-26.824572,0.000061,
2220,2591,-0.976179898834918,-1.31020060555945,-0.0295225157081518,-0.000445,0.002552,-0.007037,0.003011,0.107642,321.095059,24.497988,0.999129,0.987982,0.004311,0.253582,-0.000034,-0.000027,-0.000005,-0.000024,-0.000037,-61.836064,0.000062,
2475,3071,4.48100575228488,9.14659020068633,0.0075846612770647,-0.000927,0.002388,-0.005681,-0.019898,0.112391,313.365844,26.019000,0.999576,0.992728,0.003567,0.234367,-0.000036,-0.000016,-0.000006,-0.000014,-0.000037,-74.877140,0.000053,
2160,2456,-2.2577141795181,-4.25877374039482,-0.0143785907900451,-0.000633,0.002746,-0.005893,-0.010112,0.106934,323.626211,24.429112,0.999409,0.989850,0.004098,0.293131,-0.000020,-0.000027,0.000011,-0.000012,-0.000035,35.873163,0.000049,
2295,2756,0.625008078585349,2.28719174155277,-0.0322774781373028,-0.000615,0.002447,-0.006170,-0.006499,0.089527,318.189300,24.707858,0.999489,0.991499,0.003749,0.269462,-0.000016,-0.000012,0.000003,-0.000010,-0.000018,60.056413,0.000029,
2175,2486,-1.93621825575096,-3.60265306924098,-0.0213489031469294,-0.000153,0.002546,-0.007935,0.018389,0.085461,323.048236,24.468888,0.999205,0.987002,0.004660,0.221135,-0.000022,-0.000015,0.000015,-0.000004,-0.000034,51.235003,0.000041,
2100,2321,-3.54024350591709,-7.20893191680399,0.000583747693156056,-0.000448,0.002586,-0.008182,0.004113,0.110331,326.242421,24.650985,0.999270,0.988903,0.004385,0.198397,-0.000027,-0.000001,-0.000006,0.000001,-0.000028,-78.390743,0.000032,
2235,2591,-0.649524560141106,-1.30954654183788,-0.0282326804970126,-0.000372,0.002903,-0.008997,0.013054,0.116163,321.080288,24.503200,0.999277,0.988083,0.004398,0.239191,-0.000034,-0.000035,-0.000004,-0.000030,-0.000038,-43.384822,0.000069,
2250,2636,-0.331538073849455,-0.328313803798949,-0.0264106505005657,-0.000595,0.002355,-0.005719,-0.007710,0.116227,320.297701,24.551271,0.998826,0.989421,0.004125,0.244763,-0.000032,-0.000028,-0.000006,-0.000024,-0.000036,-54.168401,0.000060,
2145,2411,-2.57659540775171,-5.24060544954368,-0.0167448961162791,-0.000490,0.002936,-0.007152,0.000078,0.102833,324.415629,24.509325,0.998888,0.989030,0.004638,0.218655,-0.000022,-0.000024,0.000001,-0.000022,-0.000024,17.898846,0.000046,
2265,2681,-0.0140064799271329,0.653097627705094,-0.0346794358000011,-0.000573,0.002338,-0.004629,-0.010157,0.092115,319.452644,24.597956,0.999371,0.991689,0.003793,0.240790,-0.000019,-0.000013,-0.000004,-0.000011,-0.000021,-62.992508,0.000032,
2385,2891,2.5579059593512,5.22953543520543,-0.0252330974822144,-0.000341,0.002701,-0.010082,0.021556,0.088986,316.006884,25.169577,0.999608,0.993957,0.003247,0.233076,-0.000034,-0.000031,-0.000017,-0.000016,-0.000049,-47.705528,0.000068,
2085,2261,-3.85748021581452,-8.52147407330846,-0.00610453632810959,-0.000312,0.003052,-0.010126,0.015740,0.103327,327.259432,24.592890,0.999121,0.987860,0.004376,0.302756,-0.000044,0.000007,0.000002,0.000007,-0.000044,87.693564,0.000048,
2295,2801,0.616770119703336,3.26727385321185,-0.0348167297335067,-0.000444,0.002637,-0.007917,0.007352,0.108609,317.432973,24.809834,0.999190,0.989685,0.004073,0.276115,-0.000016,-0.000027,-0.000003,-0.000016,-0.000028,-14.743829,0.000044,
2370,2846,2.23935802909605,4.2507190055539,-0.032008455931873,-0.000675,0.002540,-0.007823,-0.002177,0.111491,316.668968,25.043806,0.999626,0.991051,0.003694,0.233128,-0.000033,-0.000035,-0.000013,-0.000021,-0.000047,-43.902592,0.000070,
2460,3026,4.16395613536609,8.16789443320603,0.00359987742211842,-0.000759,0.002233,-0.007470,-0.005796,0.085908,314.066926,25.827590,0.999716,0.993305,0.003356,0.186033,-0.000018,-0.000009,-0.000005,-0.000007,-0.000020,-66.112841,0.000028,
2040,2246,-4.8347871664526,-8.84964040346433,-0.00160160237248874,-0.000095,0.002430,-0.003417,0.005868,0.090205,327.778839,24.838261,0.999374,0.987227,0.004448,0.246561,-0.000023,0.000015,0.000013,0.000019,-0.000027,72.957535,0.000028,
2085,2306,-3.86564222223051,-7.53557778842726,-0.0110958376538406,-0.000590,0.002545,-0.002437,-0.019263,0.118653,326.441828,24.699822,0.999487,0.990343,0.004198,0.214580,-0.000025,0.000006,0.000005,0.000007,-0.000026,81.232418,0.000027,
2430,2966,3.52131216505135,6.86316113832992,-0.0258762524987333,-0.000578,0.002369,-0.007141,0.000792,0.090063,314.776046,25.473430,0.999841,0.995471,0.002970,0.255745,-0.000032,-0.000017,-0.000020,-0.000004,-0.000046,-55.156607,0.000055,
2070,2246,-4.18139530256389,-8.84926218668099,-0.00135104815302611,-0.000053,0.002297,-0.006968,0.018058,0.076409,327.625131,24.762492,0.999090,0.986884,0.004444,0.172621,-0.000047,0.000011,0.000004,0.000011,-0.000047,86.284561,0.000049,
2175,2531,-1.9443173514381,-2.62094269152149,-0.0208177673246155,-0.000573,0.002543,-0.006962,-0.003915,0.097184,322.286354,24.488938,0.999073,0.988663,0.004243,0.252605,-0.000032,-0.000025,-0.000002,-0.000025,-0.000033,-74.148283,0.000058,
2130,2351,-2.89235097274781,-6.55260912644578,-0.00813113404853993,-0.000326,0.002932,-0.009445,0.014191,0.104695,325.551859,24.512702,0.999376,0.987887,0.004335,0.232026,-0.000034,0.000000,-0.000002,0.000000,-0.000034,-86.404179,0.000039,
2115,2321,-3.21411076617164,-7.20748193873668,-0.0122259744957205,-0.000067,0.002836,-0.008556,0.023061,0.103328,326.085273,24.599369,0.999266,0.989081,0.004305,0.186433,-0.000030,0.000003,-0.000003,0.000003,-0.000030,-84.598285,0.000033,
2115,2366,-3.22139152706906,-6.22462144107323,-0.0104493877472009,-0.000133,0.002819,-0.007521,0.016990,0.107671,325.352861,24.573447,0.999231,0.986743,0.004568,0.232187,-0.000032,-0.000013,-0.000001,-0.000013,-0.000032,-87.834191,0.000046,
2490,3131,4.79527095353652,10.4499660098995,0.00885191389716056,-0.000597,0.001762,-0.005794,-0.004421,0.075103,312.424497,26.252067,0.999507,0.992462,0.003348,0.247445,-0.000030,-0.000003,-0.000002,-0.000003,-0.000030,-85.218672,0.000037,
2325,2771,1.2750878570787,2.6159405676207,-0.0284339723559697,-0.000577,0.002344,-0.006446,-0.003417,0.079131,317.950579,24.868470,0.999684,0.994943,0.003267,0.145952,-0.000017,-0.000019,0.000007,-0.000010,-0.000025,41.149936,0.000036,
2055,2201,-4.50159540896723,-9.83382601500372,-0.0048944554434911,-0.000384,0.002638,-0.007754,0.004920,0.073002,328.403646,24.806557,0.998961,0.984635,0.004951,0.202439,-0.000028,0.000013,0.000001,0.000013,-0.000028,88.779287,0.000028,
2145,2366,-2.56848333051769,-6.22512798332544,-0.00556249372834827,-0.000491,0.002491,-0.005953,-0.003723,0.096599,325.247787,24.464581,0.999225,0.988353,0.004279,0.228737,-0.000030,-0.000011,0.000000,-0.000011,-0.000030,-88.835223,0.000042,
2190,2576,-1.62522932284506,-1.64015005024739,-0.0170040720324209,-0.000465,0.003090,-0.008547,0.006464,0.120429,321.535871,24.428816,0.999409,0.991410,0.003739,0.355301,-0.000034,-0.000019,-0.000004,-0.000018,-0.000035,-75.355623,0.000054,
2505,3191,5.10961835286658,11.7536045161258,0.0178857978854126,-0.000699,0.002134,-0.005898,-0.008351,0.088049,311.531241,26.570497,0.999653,0.993587,0.003303,0.242565,-0.000017,-0.000030,-0.000003,-0.000017,-0.000031,-13.691198,0.000049,
2190,2546,-1.62009274794821,-2.29355563976925,-0.0168894335810137,-0.000420,0.002674,-0.007489,0.005057,0.102920,322.031649,24.493221,0.999415,0.990611,0.004043,0.242900,-0.000034,-0.000023,-0.000007,-0.000020,-0.000037,-64.930072,0.000057,
2220,2636,-0.98492968702616,-0.329459954931835,-0.0384357256351677,-0.000556,0.002160,-0.005655,-0.006648,0.096765,320.265482,24.475658,0.999020,0.987511,0.004604,0.323420,-0.000029,-0.000020,-0.000009,-0.000014,-0.000035,-58.228214,0.000050,
2055,2276,-4.5130161875584,-8.19168453318825,-0.00501975485695993,-0.000345,0.002929,-0.008237,0.008165,0.105263,327.172584,24.885424,0.999865,0.995418,0.003221,0.140222,-0.000030,0.000000,0.000000,0.000000,-0.000030,89.635109,0.000035,
2250,2696,-0.34191317794826,0.978421341086658,-0.0255410227961761,-0.000242,0.002499,-0.005659,0.008307,0.102915,319.325621,24.613076,0.999319,0.992415,0.003542,0.264178,-0.000022,-0.000022,-0.000005,-0.000016,-0.000027,-45.064541,0.000044,
2160,2471,-2.25989598951409,-3.93112434931292,-0.0145276878816389,-0.000300,0.002564,-0.006144,0.005874,0.104692,323.393006,24.460981,0.999320,0.988231,0.004470,0.269963,-0.000021,-0.000023,0.000013,-0.000009,-0.000036,42.757003,0.000047,
2175,2501,-1.93938164639105,-3.27448890988362,-0.0237576012433465,-0.000394,0.002766,-0.004848,-0.002140,0.105592,322.759241,24.515532,0.999169,0.988056,0.004494,0.208263,-0.000025,-0.000024,0.000012,-0.000013,-0.000036,45.676916,0.000051,
2445,3011,3.83948283743201,7.84184510383289,-0.00945847501520802,-0.000757,0.002332,-0.005200,-0.014353,0.107634,314.170533,25.714504,0.999157,0.987976,0.004065,0.223637,-0.000022,-0.000016,-0.000014,-0.000004,-0.000033,-51.371049,0.000041,
2310,2741,0.954887924631191,1.96102037283485,-0.0249626063658752,-0.000583,0.002931,-0.009234,0.005847,0.112463,318.497961,24.698395,0.999540,0.991719,0.003733,0.276283,-0.000016,-0.000015,0.000001,-0.000015,-0.000016,64.814712,0.000031,
2025,2231,-5.15904907878679,-9.17623073345294,-0.000680229412409972,-0.000371,0.002663,-0.007342,0.003857,0.103423,328.120290,25.044109,0.999473,0.987708,0.004405,0.129151,-0.000010,-0.000002,-0.000001,-0.000002,-0.000011,-80.443133,0.000014,
2340,2786,1.59889527028924,2.94250681533489,-0.0241820519775615,-0.000520,0.002328,-0.005897,-0.002427,0.097330,317.732195,24.863482,0.999627,0.994321,0.003255,0.214156,-0.000025,-0.000025,0.000006,-0.000020,-0.000031,45.591455,0.000051,
2070,2261,-4.18427146124493,-8.52045640162907,-0.00724771479815445,-0.000274,0.002496,-0.007573,0.009731,0.084296,327.320987,24.755875,0.999397,0.990069,0.004106,0.186669,-0.000052,0.000009,0.000000,0.000009,-0.000052,-89.570987,0.000055,
2475,3086,4.47805097330952,9.47219298064143,0.00789413771070713,-0.000925,0.002200,-0.007005,-0.014865,0.100738,313.122405,26.065089,0.999462,0.992620,0.003555,0.232059,-0.000039,-0.000005,-0.000003,-0.000005,-0.000039,-84.341920,0.000049,
2025,2336,-5.17487919038033,-6.88081231613001,-0.0084927081241517,-0.000212,0.003202,-0.010220,0.019185,0.108631,326.345066,24.894811,0.999140,0.987467,0.004441,0.229884,-0.000021,-0.000012,0.000000,-0.000012,-0.000021,-89.384505,0.000033,
2400,2921,2.87835242710038,5.88232677658439,-0.0163580097996032,-0.000573,0.002294,-0.005184,-0.006594,0.096018,315.564110,25.288451,0.999535,0.993042,0.003457,0.237208,-0.000029,-0.000037,-0.000017,-0.000016,-0.000050,-38.239227,0.000069,
2040,2261,-4.83700964059814,-8.5217738851033,0.0037444804809752,-0.000472,0.002576,-0.005049,-0.006910,0.097116,327.564030,24.862727,0.999535,0.991761,0.003945,0.223391,-0.000032,0.000005,0.000009,0.000007,-0.000034,76.978921,0.000035,
2130,2546,-2.92597584092822,-2.29494775093386,-0.019636068865168,-0.000974,0.002507,-0.005946,-0.026137,0.109656,322.196607,24.565286,0.998990,0.987197,0.004441,0.274200,-0.000031,-0.000022,-0.000006,-0.000019,-0.000034,-65.421214,0.000054,
2280,2711,0.307703956077656,1.30577659667017,-0.0212142928775165,-0.000770,0.002371,-0.006194,-0.013799,0.092193,319.041110,24.631025,0.999700,0.993371,0.003446,0.258885,-0.000024,-0.000015,-0.000003,-0.000014,-0.000025,-72.528552,0.000040,
2085,2336,-3.87004397129276,-6.88046919835613,-0.00673956276096987,-0.000634,0.002495,-0.003881,-0.017137,0.108581,325.986595,24.698503,0.999046,0.988897,0.004363,0.207208,-0.000039,-0.000008,-0.000005,-0.000007,-0.000040,-80.267691,0.000050,
2295,2816,0.614314248624858,3.59357782372745,-0.0306477656326365,-0.000488,0.002453,-0.008809,0.008271,0.096033,317.219172,24.875269,0.999473,0.992100,0.003626,0.227567,-0.000020,-0.000021,-0.000005,-0.000015,-0.000026,-40.901933,0.000041,
2505,3206,5.1062082819315,12.0795995157486,0.0137747329799254,-0.000705,0.002120,-0.006883,-0.004898,0.069144,311.248243,26.665060,0.999481,0.992366,0.003549,0.188589,-0.000016,-0.000029,0.000000,-0.000016,-0.000029,1.908547,0.000045,
2040,2231,-4.8327213069193,-9.17539275009673,-0.00918890562036268,-0.000052,0.002587,-0.007239,0.018434,0.097619,327.973590,24.973366,0.999249,0.985637,0.004764,0.124401,-0.000024,-0.000006,0.000005,-0.000004,-0.000025,74.767522,0.000032,
2205,2636,-1.3101253032515,-0.330773378375071,-0.0241884824670819,-0.000527,0.002242,-0.005829,-0.004968,0.094470,320.426143,24.537156,0.999272,0.988456,0.004350,0.270112,-0.000030,-0.000017,-0.000007,-0.000014,-0.000033,-67.376302,0.000048,
2385,2906,2.55460047883841,5.55642858135231,-0.0285571561913116,-0.000340,0.002816,-0.008776,0.016997,0.104290,315.723820,25.231550,0.999494,0.993125,0.003432,0.229021,-0.000032,-0.000034,-0.000017,-0.000016,-0.000050,-42.812728,0.000069,
2460,3041,4.16108298640057,8.49305911745027,0.00356487396743432,-0.000444,0.001992,-0.006014,0.003095,0.080096,313.824944,25.812926,0.999515,0.991943,0.003624,0.248475,-0.000015,-0.000012,-0.000006,-0.000008,-0.000019,-53.108963,0.000028,
2220,2606,-0.979207581990998,-0.983080550407955,-0.0325218445511837,-0.000508,0.002768,-0.005358,-0.005223,0.107823,320.813263,24.500272,0.998962,0.985428,0.004671,0.270808,-0.000035,-0.000012,-0.000007,-0.000010,-0.000037,-74.460120,0.000050,
2235,2621,-0.655035359550642,-0.655627340844532,-0.0282967923372439,-0.000356,0.002862,-0.006310,0.005097,0.123637,320.574568,24.528389,0.999098,0.987411,0.004463,0.264714,-0.000033,-0.000024,-0.000007,-0.000021,-0.000037,-61.414256,0.000058,
2280,2786,0.29401048259988,2.94009386192329,-0.0255861028521736,-0.000485,0.002934,-0.007825,0.005014,0.121918,317.775817,24.828759,0.999214,0.989749,0.004029,0.229471,-0.000020,-0.000022,-0.000004,-0.000017,-0.000025,-36.855817,0.000042,
2055,2291,-4.51513013178598,-7.86501034230778,-0.00326714785273907,-0.000304,0.003021,-0.008704,0.011417,0.103721,326.944390,24.783025,0.999865,0.995396,0.003190,0.237686,-0.000016,-0.000011,0.000011,-0.000003,-0.000025,51.448011,0.000030,
2130,2426,-2.9054935986745,-4.91252424778012,-0.0211754982931325,-0.000180,0.002891,-0.007079,0.013810,0.108554,324.205350,24.576348,0.999218,0.990953,0.004040,0.208362,-0.000021,-0.000029,0.000007,-0.000017,-0.000033,29.191011,0.000051,
2070,2231,-4.17887930943535,-9.17710110395054,-0.00208183252902927,0.000063,0.002445,-0.008943,0.029061,0.063668,327.876429,24.798685,0.999104,0.987400,0.004448,0.124609,-0.000045,-0.000007,0.000002,-0.000007,-0.000045,87.687053,0.000057,
2025,2351,-5.17751687786139,-6.55282777977,-0.00779588314890134,-0.000220,0.002721,-0.003243,-0.000408,0.114600,326.084398,24.913933,0.999337,0.988229,0.004395,0.208508,-0.000015,-0.000004,0.000000,-0.000004,-0.000015,-88.768311,0.000020,
2100,2291,-3.53581572125865,-7.86462564382931,-0.00566897550982048,-0.000338,0.002444,-0.007191,0.006223,0.082922,326.686528,24.627285,0.999220,0.988284,0.004458,0.188767,-0.000026,-0.000003,0.000003,-0.000003,-0.000027,83.448559,0.000033,
2025,2246,-5.16108657419437,-8.84997711529414,-0.000659966611294749,-0.000269,0.003013,-0.008710,0.012365,0.104164,327.883563,24.866727,0.999498,0.988604,0.004255,0.299686,-0.000014,0.000024,0.000009,0.000025,-0.000015,77.639834,0.000026,
2265,2696,-0.0160680344235971,0.979745995967541,-0.0297800997327613,-0.000431,0.002559,-0.006950,0.004117,0.093910,319.258729,24.651977,0.999534,0.993023,0.003522,0.213965,-0.000018,-0.000015,-0.000005,-0.000011,-0.000021,-51.887355,0.000033,
2115,2396,-3.22681653503473,-5.56868937643075,-0.0159726425309259,-0.000325,0.002839,-0.007155,0.007129,0.112029,324.802291,24.577802,0.999099,0.987589,0.004450,0.242400,-0.000019,-0.000023,0.000009,-0.000012,-0.000030,39.451617,0.000043,
2355,2816,1.91975235441917,3.59569028149092,-0.0194416495060636,-0.000636,0.002425,-0.006362,-0.005875,0.098824,317.267879,24.932087,0.999689,0.993807,0.003355,0.235200,-0.000030,-0.000029,-0.000012,-0.000017,-0.000041,-46.089276,0.000060,
2205,2576,-1.29871633336464,-1.6399197331392,-0.0170779140653963,-0.000073,0.002177,-0.005942,0.016248,0.086705,321.501285,24.425278,0.999316,0.990602,0.003866,0.305065,-0.000038,-0.000023,-0.000007,-0.000020,-0.000041,-68.752651,0.000062,
2085,2321,-3.86778158465176,-7.20781251077042,-0.015543817668231,-0.000413,0.002730,-0.007566,0.003692,0.111269,326.180985,24.651448,0.999284,0.988476,0.004438,0.256522,-0.000030,-0.000001,-0.000006,0.000000,-0.000031,-79.238449,0.000036,
2445,3026,3.83720554566392,8.16740583298654,-0.00240955389432429,-0.000660,0.002309,-0.006353,-0.005600,0.105365,313.987617,25.777703,0.999416,0.990225,0.003807,0.209083,-0.000021,-0.000014,-0.000009,-0.000008,-0.000027,-55.449037,0.000036,
2250,2651,-0.333816357384134,-0.00145166605695835,-0.0250580405094638,-0.000278,0.002470,-0.005767,0.007029,0.105447,320.074930,24.593198,0.999266,0.990526,0.004005,0.215765,-0.000028,-0.000024,-0.000007,-0.000019,-0.000034,-53.769253,0.000053,
2190,2591,-1.6277987569464,-1.31163114125735,-0.0218028032945199,-0.000205,0.003027,-0.009869,0.022534,0.114117,321.262823,24.543335,0.999091,0.988937,0.004182,0.249424,-0.000033,-0.000021,-0.000002,-0.000020,-0.000033,-81.824634,0.000054,
2160,2396,-2.24688617398758,-5.56942533021945,-0.00669927618207566,-0.000442,0.003079,-0.006829,0.001602,0.122621,324.692338,24.408992,0.999167,0.989648,0.004095,0.282868,-0.000019,-0.000015,0.000005,-0.000011,-0.000023,53.489765,0.000034,
2490,3146,4.79259157347784,10.7760664243038,0.0119282979752597,-0.000555,0.002120,-0.007425,0.003906,0.079330,312.206855,26.361668,0.999489,0.991762,0.003536,0.199633,-0.000029,-0.000011,0.000002,-0.000010,-0.000029,84.202956,0.000041,
2175,2546,-1.94723665116322,-2.29359950424435,-0.0212071088554353,-0.000620,0.002028,-0.002658,-0.019525,0.097340,322.019320,24.513752,0.999168,0.988758,0.004235,0.241012,-0.000034,-0.000025,-0.000006,-0.000022,-0.000037,-62.558052,0.000060,
2295,2771,0.622498499498228,2.61387371089992,-0.0297911533833144,-0.000409,0.002056,-0.004626,-0.002385,0.078155,317.964691,24.780461,0.999373,0.991282,0.003835,0.215174,-0.000019,-0.000016,0.000003,-0.000014,-0.000021,60.068157,0.000035,
2115,2381,-3.22423587024961,-5.89702049001605,-0.0111861090401248,-0.000366,0.002536,-0.005368,-0.000128,0.102271,325.082530,24.566975,0.999293,0.986426,0.004563,0.238212,-0.000029,-0.000016,0.000006,-0.000014,-0.000032,68.717950,0.000047,
2280,2726,0.304757171502455,1.63332886987819,-0.0257203317476637,-0.000615,0.002501,-0.005974,-0.007319,0.115319,318.760199,24.677399,0.999591,0.991824,0.003674,0.263517,-0.000024,-0.000020,-0.000002,-0.000019,-0.000025,-68.296811,0.000044,
2220,2651,-0.987463815029226,-0.00277185642649158,-0.0330940080127675,-0.000752,0.002422,-0.004640,-0.018798,0.112711,320.049130,24.509550,0.999268,0.989993,0.004172,0.324459,-0.000025,-0.000020,-0.000012,-0.000011,-0.000034,-51.067274,0.000047,
2325,2786,1.27224761850609,2.94140785293014,-0.0319427627862297,-0.000466,0.002493,-0.008320,0.008199,0.083561,317.683814,24.770637,0.999519,0.993894,0.003429,0.282602,-0.000016,-0.000023,0.000002,-0.000015,-0.000024,15.450616,0.000040,
2430,2981,3.51919285332631,7.18815795791747,-0.011045307642803,-0.000762,0.002351,-0.005683,-0.013002,0.103232,314.636143,25.513878,0.999662,0.992287,0.003509,0.277550,-0.000033,-0.000018,-0.000014,-0.000009,-0.000041,-58.706560,0.000054,
2070,2276,-4.18670940725204,-8.19127266417625,-0.0111690103396427,-0.000278,0.002762,-0.009873,0.016151,0.102507,327.047525,24.799822,0.999863,0.995466,0.003330,0.159872,-0.000043,0.000004,-0.000004,0.000004,-0.000043,-84.775356,0.000048,
2145,2426,-2.57898154594114,-4.91334937182873,-0.0139632445922757,-0.000364,0.002482,-0.003995,-0.003819,0.102530,324.187471,24.516341,0.999207,0.989677,0.004273,0.220433,-0.000023,-0.000030,0.000004,-0.000021,-0.000032,24.632979,0.000054,
2160,2486,-2.26338732739159,-3.60293875103107,-0.0278343698560093,-0.000332,0.002427,-0.005404,0.002122,0.099105,323.030403,24.427654,0.999208,0.987637,0.004504,0.309386,-0.000022,-0.000020,0.000014,-0.000007,-0.000034,46.949172,0.000044,
2040,2276,-4.83863543000675,-8.19337356735322,0.00307195305560981,0.000101,0.002539,-0.006944,0.024657,0.097678,327.343102,24.884637,0.999860,0.994468,0.003455,0.196423,-0.000023,-0.000005,0.000004,-0.000004,-0.000024,77.217297,0.000030,
2055,2396,-4.53313661547246,-5.56926708903045,-0.0265375177941678,-0.000491,0.002398,-0.004973,-0.007823,0.117833,325.002999,24.657201,0.999205,0.990131,0.004235,0.352842,-0.000006,-0.000025,0.000010,-0.000002,-0.000029,23.781227,0.000035,
2400,2936,2.87559164739897,6.20790156059959,-0.0081550582995078,-0.000864,0.002230,-0.003249,-0.026977,0.108635,315.362125,25.323975,0.999571,0.992734,0.003485,0.258989,-0.000030,-0.000024,-0.000017,-0.000010,-0.000044,-49.526327,0.000058,
2415,2951,3.19802352647336,6.53653873050882,-0.0242899141208568,-0.000748,0.002411,-0.007388,-0.006355,0.094532,315.012369,25.441298,0.999813,0.993655,0.003325,0.207992,-0.000036,-0.000019,-0.000017,-0.000009,-0.000047,-58.470936,0.000059,
2025,2261,-5.16370077438063,-8.52084650972056,-0.00108310292625902,-0.000502,0.002782,-0.006883,-0.003391,0.100817,327.617421,24.956595,0.998978,0.984627,0.004791,0.199092,-0.000025,0.000013,0.000007,0.000015,-0.000027,79.889388,0.000027,
2235,2666,-0.662240612323931,0.323843340527119,-0.0145470274410968,-0.000533,0.002643,-0.006367,-0.002882,0.116288,319.935486,24.608729,0.999376,0.991185,0.003896,0.241126,-0.000022,-0.000023,-0.000009,-0.000013,-0.000032,-43.128707,0.000046,
2025,2366,-5.17972340433749,-6.22572165911542,-0.00947469672013312,-0.000339,0.002951,-0.007618,0.006163,0.095080,325.830536,24.859678,0.999401,0.988066,0.004354,0.235220,-0.000010,-0.000006,-0.000013,0.000005,-0.000021,-50.132226,0.000022,
2295,2831,0.611989843979906,3.91927038918385,-0.0236317629907035,-0.000551,0.002595,-0.008852,0.005547,0.098595,317.025665,24.895304,0.999684,0.994166,0.003315,0.239731,-0.000018,-0.000030,-0.000006,-0.000016,-0.000033,-23.660867,0.000050,
2100,2336,-3.5431598067593,-6.88087514766565,-0.00487353336200158,-0.000552,0.002810,-0.007007,-0.004031,0.108418,325.941944,24.618764,0.999320,0.990713,0.004070,0.231863,-0.000034,-0.000008,-0.000006,-0.000007,-0.000036,-77.135250,0.000045,
2055,2306,-4.51783968708936,-7.53710700085396,-0.00369184525072797,-0.000533,0.002695,-0.006243,-0.006106,0.094930,326.676777,24.782971,0.999772,0.992190,0.003875,0.225815,-0.000010,0.000005,0.000009,0.000009,-0.000014,65.592266,0.000015,
2085,2351,-3.87201825814408,-6.55341998881975,-0.00443351111067614,-0.000474,0.002408,-0.005198,-0.006045,0.092386,325.770211,24.671317,0.998662,0.987467,0.004618,0.218751,-0.000035,-0.000004,-0.000005,-0.000003,-0.000036,-80.390917,0.000043,
2040,2366,-4.85404917816774,-6.22562496440963,-0.010928982050018,-0.000687,0.002252,-0.005037,-0.016917,0.082003,325.704806,24.806647,0.999302,0.986520,0.004523,0.225017,-0.000007,-0.000005,-0.000008,0.000003,-0.000014,-48.469937,0.000015,
2475,3101,4.47542749049701,9.79783621702177,0.0115971319954156,-0.000673,0.002332,-0.005901,-0.007469,0.101244,312.909610,26.128734,0.999411,0.991814,0.003733,0.224202,-0.000036,0.000001,0.000004,0.000002,-0.000037,83.722831,0.000042,
2385,2921,2.55203604668079,5.88200101220144,-0.0171262056101114,-0.000610,0.002442,-0.005596,-0.006915,0.104427,315.545469,25.299862,0.999380,0.992831,0.003541,0.203501,-0.000028,-0.000035,-0.000017,-0.000014,-0.000048,-39.291220,0.000066,
2370,2861,2.2368107887645,4.5760234609527,-0.0221706485764344,-0.000844,0.001960,-0.004881,-0.020615,0.092932,316.483335,25.079775,0.999608,0.992350,0.003508,0.219044,-0.000032,-0.000034,-0.000014,-0.000019,-0.000047,-42.488849,0.000068,
2085,2456,-3.88904857808651,-4.25941498192622,-0.0211661591522443,-0.000109,0.002531,-0.009394,0.022867,0.086784,323.928642,24.622121,0.999413,0.990702,0.004014,0.266219,-0.000013,-0.000028,0.000003,-0.000013,-0.000029,12.246135,0.000042,
2055,2411,-4.53465062846605,-5.2424121552287,-0.0144369878959765,-0.000445,0.002758,-0.005150,-0.005127,0.120281,324.859250,24.708844,0.998229,0.983597,0.005228,0.299307,-0.000009,-0.000018,0.000002,-0.000009,-0.000018,10.203054,0.000028,
2145,2381,-2.57125624968992,-5.89723410476414,-0.00371836255510516,-0.000861,0.002635,-0.005324,-0.022591,0.112547,324.996785,24.489162,0.999074,0.988097,0.004326,0.229605,-0.000027,-0.000014,0.000004,-0.000013,-0.000028,73.740114,0.000042,
2430,2996,3.51687274870655,7.51408865275549,-0.00542483814007255,-0.000639,0.002482,-0.007184,-0.001724,0.107199,314.443747,25.587495,0.999330,0.986442,0.004334,0.256921,-0.000028,-0.000019,-0.000014,-0.000008,-0.000038,-53.520995,0.000050,
2175,2516,-1.94144372200987,-2.94777270478919,-0.0235285137869141,-0.000287,0.003037,-0.010212,0.019408,0.101861,322.534909,24.482727,0.999240,0.989249,0.004220,0.250541,-0.000025,-0.000031,0.000004,-0.000023,-0.000034,26.785704,0.000057,
2265,2741,-0.0239908632441583,1.95915875919982,-0.0321204189659738,-0.000305,0.002599,-0.011077,0.023539,0.078184,318.511438,24.671239,0.999319,0.989788,0.003927,0.255949,-0.000015,-0.000016,-0.000004,-0.000011,-0.000020,-41.718981,0.000031,
2130,2441,-2.90762823393822,-4.58558793006183,-0.0226333080333347,0.000115,0.002770,-0.008951,0.032940,0.115189,323.964991,24.511565,0.999342,0.990593,0.004118,0.286647,-0.000014,-0.000031,0.000011,-0.000009,-0.000037,26.622675,0.000048,
2460,3056,4.15796661944453,8.81943754557809,0.00222306254119076,-0.000462,0.002341,-0.006990,0.006089,0.091048,313.565299,25.888835,0.999352,0.990509,0.003966,0.236697,-0.000017,-0.000012,-0.000005,-0.000009,-0.000020,-59.149879,0.000029,
2115,2411,-3.22926649022463,-5.24093691491007,-0.0162483462233922,-0.000263,0.002474,-0.006188,0.006970,0.080598,324.552529,24.626150,0.999313,0.989831,0.004222,0.167479,-0.000018,-0.000021,0.000004,-0.000015,-0.000024,34.647704,0.000039,
2220,2666,-0.989373064236823,0.324102514181142,-0.0270678175943431,-0.000508,0.002471,-0.005651,-0.004365,0.100756,319.864968,24.598027,0.999503,0.993848,0.003512,0.243123,-0.000020,-0.000020,-0.000010,-0.000010,-0.000030,-43.885911,0.000042,
2265,2711,-0.0189386040228889,1.30610711565504,-0.0249235152595588,-0.000900,0.002442,-0.006589,-0.018700,0.091243,319.027525,24.687832,0.999670,0.993867,0.003416,0.201129,-0.000019,-0.000016,-0.000004,-0.000013,-0.000022,-56.222118,0.000036,
2040,2381,-4.85630158557545,-5.89722452083119,-0.0136305991480867,-0.000523,0.002598,-0.005586,-0.007752,0.107844,325.443987,24.821196,0.999412,0.989795,0.004022,0.230429,-0.000005,-0.000021,0.000000,-0.000005,-0.000021,0.527743,0.000028,
2355,2831,1.91644158721867,3.92291020774444,-0.0266903134776726,-0.000652,0.002575,-0.008362,0.000465,0.099361,316.963367,24.984378,0.999720,0.992486,0.003526,0.222131,-0.000030,-0.000032,-0.000014,-0.000017,-0.000045,-43.525910,0.000064,
2025,2276,-5.1655347095765,-8.19267340884553,-0.005360732522945,0.000003,0.003020,-0.009494,0.027050,0.106773,327.365641,24.915343,0.998732,0.984571,0.005040,0.238532,-0.000017,-0.000004,0.000002,-0.000003,-0.000017,79.584997,0.000022,
2235,2636,-0.657644339823353,-0.328749491292477,-0.0301320761865327,-0.000290,0.002752,-0.008050,0.013725,0.114818,320.319240,24.537547,0.999073,0.988607,0.004338,0.268280,-0.000031,-0.000026,-0.000009,-0.000019,-0.000038,-53.128060,0.000057,
2085,2366,-3.87454976871507,-6.22449257817848,-0.0159712215284458,-0.000175,0.002811,-0.009413,0.019950,0.105711,325.452569,24.654372,0.998608,0.985347,0.004912,0.250205,-0.000028,-0.000015,-0.000005,-0.000014,-0.000030,-70.778512,0.000045,
2160,2411,-2.24939156951187,-5.24078989200631,-0.0115919044407633,-0.000109,0.003012,-0.006937,0.017198,0.118692,324.419193,24.466194,0.999147,0.989275,0.004260,0.233386,-0.000020,-0.000018,0.000003,-0.000016,-0.000022,53.815922,0.000039,
2205,2591,-1.30195075225305,-1.31165976466882,-0.017086075417069,-0.000713,0.002335,-0.006289,-0.012027,0.102409,321.223877,24.536909,0.999066,0.988134,0.004268,0.226582,-0.000035,-0.000023,-0.000004,-0.000021,-0.000037,-73.348256,0.000059,
2340,2801,1.59575436221762,3.26919109321433,-0.0275108093215408,-0.000589,0.002412,-0.006462,-0.003607,0.096314,317.453413,24.889067,0.999485,0.993303,0.003467,0.224255,-0.000026,-0.000029,-0.000001,-0.000026,-0.000029,-18.549650,0.000055,
2310,2756,0.952108408690322,2.28752347837847,-0.0247760890039217,-0.000387,0.002528,-0.006813,0.006475,0.111278,318.250770,24.721163,0.999613,0.993076,0.003558,0.284503,-0.000014,-0.000012,0.000007,-0.000007,-0.000020,48.921039,0.000028,
2130,2561,-2.92890212178476,-1.96735434233009,-0.0275734994390859,-0.000831,0.001889,-0.004800,-0.023239,0.077015,321.885321,24.581811,0.999198,0.989247,0.004236,0.231404,-0.000031,-0.000020,-0.000004,-0.000019,-0.000032,-71.214127,0.000052,
2415,2966,3.19614220683549,6.86162215384567,-0.012714667003479,-0.000475,0.002131,-0.006279,0.002040,0.089693,314.867579,25.481023,0.999843,0.994813,0.003121,0.210250,-0.000035,-0.000018,-0.000016,-0.000008,-0.000045,-59.631140,0.000057,
2055,2321,-4.52001434218343,-7.21047512404538,0.00239929448633802,-0.000605,0.002245,-0.003378,-0.017606,0.092333,326.469727,24.731558,0.999274,0.989337,0.004163,0.270630,-0.000014,-0.000003,0.000000,-0.000003,-0.000014,-87.472948,0.000019,
2325,2801,1.26961945231411,3.26807203460659,-0.0286291252267006,-0.000439,0.002392,-0.007432,0.006348,0.086377,317.459850,24.843133,0.999124,0.991770,0.003866,0.247000,-0.000017,-0.000027,-0.000002,-0.000016,-0.000027,-12.787522,0.000044,
2205,2651,-1.31352140148383,-0.00300318890412399,-0.0269742676302371,-0.000953,0.002113,-0.003546,-0.031797,0.099867,320.126996,24.610010,0.999201,0.988529,0.004411,0.219866,-0.000028,-0.000017,-0.000009,-0.000012,-0.000033,-60.286640,0.000047,
2505,3221,5.10300762259842,12.4052416672115,0.0138527143222404,-0.000777,0.002149,-0.006919,-0.008029,0.075769,310.993748,26.730773,0.999535,0.992283,0.003626,0.189022,-0.000012,-0.000031,-0.000003,-0.000011,-0.000032,-9.212843,0.000045,
2220,2621,-0.981744850158847,-0.656357571594626,-0.0316846425455992,-0.000518,0.002621,-0.006122,-0.003227,0.114733,320.573703,24.497976,0.999114,0.986988,0.004531,0.299584,-0.000032,-0.000019,-0.000008,-0.000015,-0.000036,-65.170265,0.000052,
2100,2351,-3.54572368963291,-6.55189941016665,-0.0163049872483612,-0.000170,0.003040,-0.009819,0.021783,0.099516,325.625135,24.623827,0.999056,0.987916,0.004501,0.221282,-0.000031,-0.000005,-0.000006,-0.000004,-0.000032,-78.417123,0.000040,
2250,2666,-0.336937923966804,0.324793390464322,-0.0223049378320184,-0.000838,0.002490,-0.004872,-0.021668,0.105608,319.820659,24.584180,0.999460,0.991616,0.003768,0.248469,-0.000023,-0.000024,-0.000006,-0.000018,-0.000029,-43.939142,0.000047,
2445,3041,3.83484325945964,8.49213311402981,0.00211318361937174,-0.000329,0.002145,-0.006075,0.008485,0.096358,313.789283,25.756924,0.999286,0.990068,0.003888,0.272160,-0.000017,-0.000017,-0.000008,-0.000009,-0.000025,-46.450733,0.000035,
2280,2741,0.302066621553081,1.96023488305211,-0.0297945570397928,-0.000490,0.002764,-0.009204,0.009306,0.113004,318.493397,24.698551,0.999470,0.990812,0.003801,0.267955,-0.000018,-0.000014,-0.000002,-0.000012,-0.000019,-65.767537,0.000032,
2130,2456,-2.91093913425214,-4.25580934753922,-0.0280565096218197,-0.000361,0.002909,-0.008829,0.010719,0.092475,323.649062,24.703885,0.999476,0.990324,0.004155,0.078854,-0.000015,-0.000030,0.000008,-0.000012,-0.000034,23.909036,0.000047,
2190,2561,-1.62258122926738,-1.96728498433404,-0.0137612462577295,-0.000567,0.002925,-0.007782,-0.000687,0.117765,321.804080,24.441562,0.999363,0.990624,0.003921,0.324426,-0.000033,-0.000024,-0.000006,-0.000021,-0.000035,-63.937572,0.000057,
2250,2711,-0.345186714205216,1.30580651180131,-0.0315604773634277,-0.000476,0.002531,-0.006947,0.001806,0.102689,319.019517,24.649781,0.999384,0.992337,0.003575,0.250903,-0.000022,-0.000022,-0.000004,-0.000018,-0.000026,-45.860959,0.000044,
2025,2381,-5.18175978461929,-5.89789821905352,-0.00779319266649736,-0.000215,0.002811,-0.007562,0.011699,0.107174,325.602879,24.877740,0.999554,0.990604,0.003775,0.220824,-0.000008,-0.000022,-0.000005,-0.000006,-0.000023,-18.445515,0.000031,
2115,2426,-3.2315685377892,-4.91445914669534,-0.0092512623337484,-0.000424,0.002387,-0.003600,-0.008077,0.101420,324.348668,24.580833,0.999301,0.990442,0.004112,0.238162,-0.000018,-0.000026,0.000007,-0.000014,-0.000030,30.026130,0.000045,
2085,2471,-3.89120895654975,-3.93088071897101,-0.0242473542451194,0.000308,0.002971,-0.009384,0.042173,0.118388,323.673942,24.672657,0.999381,0.989997,0.004116,0.247443,-0.000012,-0.000026,0.000005,-0.000011,-0.000028,16.945077,0.000039,
2100,2366,-3.54773819520848,-6.22516937671678,-0.00687008071162154,-0.000365,0.003053,-0.009369,0.011504,0.105730,325.446559,24.621574,0.998926,0.986610,0.004760,0.232398,-0.000025,-0.000016,-0.000004,-0.000014,-0.000026,-69.104301,0.000041,
2490,3161,4.78947663920242,11.1017456802188,0.0132299456972191,-0.000632,0.002126,-0.007051,-0.001046,0.086632,311.961139,26.421966,0.999576,0.992827,0.003336,0.204057,-0.000025,-0.000009,-0.000004,-0.000008,-0.000026,-76.035375,0.000036,
2430,3011,3.51346874788581,7.84077170585405,-0.00643138789649811,-0.000739,0.002392,-0.004695,-0.015553,0.112002,314.170253,25.687463,0.999387,0.987895,0.004095,0.210621,-0.000024,-0.000018,-0.000014,-0.000007,-0.000035,-51.757003,0.000045,
2385,2936,2.54956878700109,6.20808817746923,-0.0136857177785146,-0.000498,0.002476,-0.006790,0.002551,0.111481,315.333317,25.353393,0.999399,0.991713,0.003702,0.199374,-0.000029,-0.000024,-0.000018,-0.000009,-0.000044,-49.372320,0.000057,
2160,2501,-2.26688975199902,-3.27408484938939,-0.0334840822835645,-0.000529,0.002219,0.000572,-0.025224,0.131615,322.707285,24.495306,0.999228,0.988521,0.004358,0.285595,-0.000024,-0.000028,0.000011,-0.000014,-0.000037,39.603699,0.000053,
2055,2426,-4.53756443609471,-4.91463374847709,-0.018174652129801,-0.000674,0.002067,-0.002964,-0.021982,0.090741,324.564222,24.728197,0.998758,0.986829,0.004670,0.246650,-0.000009,-0.000022,0.000008,-0.000006,-0.000026,24.784162,0.000034,
2475,3116,4.47235807434062,10.1237158699822,0.0106077697842579,-0.000643,0.002471,-0.006790,-0.002615,0.107543,312.654701,26.181924,0.999458,0.992572,0.003485,0.232710,-0.000035,0.000003,0.000002,0.000003,-0.000035,87.333164,0.000039,
2370,2876,2.23429569984237,4.90317500650099,-0.0252682670900981,-0.000623,0.002551,-0.010308,0.009025,0.093606,316.236543,25.172039,0.999567,0.993808,0.003367,0.168069,-0.000033,-0.000032,-0.000013,-0.000020,-0.000045,-46.781812,0.000067,
2400,2951,2.87200943086269,6.53506027847844,-0.018451681833767,-0.000841,0.002293,-0.005531,-0.017643,0.095871,315.034361,25.401091,0.999643,0.992921,0.003471,0.214045,-0.000033,-0.000018,-0.000016,-0.000008,-0.000043,-57.982390,0.000054,
2295,2846,0.608935866826183,4.24532463277832,-0.0250695517902955,-0.000553,0.002314,-0.006660,-0.001995,0.100972,316.756490,24.887520,0.999705,0.994468,0.003266,0.279371,-0.000018,-0.000036,-0.000008,-0.000015,-0.000039,-20.365760,0.000056,
2070,2291,-4.18957558343619,-7.86393859871165,-0.0180658189753444,-0.000298,0.002675,-0.008347,0.010856,0.098187,326.738742,24.672816,0.999795,0.994103,0.003536,0.281416,-0.000033,-0.000004,0.000005,-0.000003,-0.000034,80.597440,0.000041,
2055,2336,-4.52333731806283,-6.88025947742469,-0.0106973839522766,-0.000774,0.002542,-0.002809,-0.026862,0.105706,326.103746,24.803713,0.999071,0.988163,0.004286,0.208804,-0.000026,-0.000008,0.000000,-0.000008,-0.000026,-89.603047,0.000035,
2040,2396,-4.85796118294727,-5.57011281195047,-0.0165818302660341,0.000057,0.002750,-0.009231,0.029084,0.101709,325.209346,24.752758,0.999344,0.990177,0.003960,0.286535,0.000006,-0.000027,0.000010,0.000009,-0.000030,16.160951,0.000031,
2040,2291,-4.84058823795881,-7.86609932463891,0.00794775317172025,-0.000041,0.003450,-0.009541,0.025610,0.127422,327.138086,24.836871,0.999872,0.994653,0.003411,0.268202,-0.000004,-0.000020,0.000015,0.000005,-0.000029,30.926807,0.000031,
2145,2396,-2.57412514000839,-5.56910624734619,-0.00967594824351181,-0.000843,0.002618,-0.005183,-0.022195,0.102109,324.700106,24.490217,0.998948,0.988277,0.004439,0.227602,-0.000021,-0.000023,0.000004,-0.000018,-0.000026,35.571109,0.000044,
2190,2606,-1.63102965581193,-0.98466095317734,-0.027114002090002,-0.000437,0.003036,-0.009097,0.009471,0.121965,320.957111,24.502908,0.998799,0.987158,0.004520,0.313046,-0.000033,-0.000011,-0.000003,-0.000010,-0.000033,-81.979319,0.000045,
2115,2516,-3.24678514703568,-2.94824049017957,-0.0254909952722073,-0.000205,0.002702,-0.007194,0.012716,0.105549,322.747335,24.650965,0.999251,0.989179,0.004190,0.199806,-0.000018,-0.000028,0.000005,-0.000015,-0.000030,22.582868,0.000046,
2070,2306,-4.19229147284235,-7.5357740881133,-0.0175585488676688,-0.000459,0.002328,-0.004284,-0.008185,0.099656,326.477086,24.697214,0.999785,0.992232,0.003933,0.257444,-0.000024,0.000007,0.000004,0.000008,-0.000025,82.143323,0.000026,
2340,2816,1.59268738249802,3.59562616385425,-0.0289700367862338,-0.000688,0.002421,-0.006526,-0.007955,0.091497,317.187137,24.915100,0.999403,0.991874,0.003546,0.229649,-0.000032,-0.000022,-0.000006,-0.000019,-0.000035,-63.681843,0.000055,
2175,2591,-1.95460265536721,-1.3115013583389,-0.0264685482713389,-0.000092,0.002302,-0.004571,0.010760,0.101046,321.260422,24.584207,0.999089,0.989045,0.004202,0.213105,-0.000032,-0.000021,-0.000001,-0.000021,-0.000032,-83.473980,0.000054,
2160,2426,-2.2519683783182,-4.91294884920624,-0.0131877673366034,-0.000160,0.003172,-0.008366,0.019280,0.118485,324.160276,24.484489,0.999374,0.988794,0.004198,0.226422,-0.000022,-0.000028,0.000007,-0.000017,-0.000032,33.857407,0.000050,
2265,2786,-0.0324804431532506,2.93958935887873,-0.0307350007471996,-0.000319,0.002757,-0.005750,0.005413,0.112267,317.756165,24.806243,0.999210,0.990496,0.003999,0.231347,-0.000017,-0.000025,-0.000004,-0.000016,-0.000027,-23.310521,0.000043,
2280,2816,0.288588360513966,3.5922013212986,-0.0224703746155228,-0.000651,0.002575,-0.008242,-0.001413,0.091299,317.296828,24.872137,0.999290,0.990585,0.003832,0.210217,-0.000023,-0.000021,-0.000005,-0.000017,-0.000027,-50.085745,0.000044,
2505,3236,5.10005838821633,12.7301501769189,0.00819041352133354,-0.000242,0.002304,-0.008443,0.022537,0.078547,310.725190,26.702828,0.999570,0.992543,0.003508,0.279642,-0.000007,-0.000047,-0.000009,-0.000005,-0.000049,-12.119436,0.000059,
2130,2576,-2.93169449230385,-1.63904783841583,-0.0354772862157233,-0.000656,0.002196,-0.005176,-0.013906,0.102318,321.579946,24.612152,0.999553,0.992638,0.003839,0.233053,-0.000034,-0.000018,-0.000004,-0.000017,-0.000035,-77.106630,0.000053,
2295,2966,0.587443478607454,6.85407049802756,-0.0136619492418504,-0.000510,0.002372,-0.005744,-0.003128,0.100703,314.850494,25.200459,0.999368,0.992502,0.003485,0.200758,-0.000021,-0.000022,0.000000,-0.000021,-0.000022,40.165186,0.000043,
2280,2801,0.291081111820507,3.26644230971453,-0.0258505135740279,-0.000568,0.002671,-0.006885,-0.002070,0.112776,317.517102,24.854918,0.999196,0.990080,0.004049,0.221676,-0.000020,-0.000025,-0.000004,-0.000018,-0.000027,-26.498629,0.000045,
2205,2786,-1.33644167585726,2.93585651689817,-0.0283712107604401,-0.000402,0.002414,-0.006578,0.003202,0.089141,317.909694,24.723036,0.999191,0.990059,0.004100,0.246666,-0.000016,-0.000030,0.000000,-0.000016,-0.000030,0.326935,0.000047,
2325,2816,1.26721631477075,3.59426879455344,-0.0232507903878627,-0.000368,0.002350,-0.006858,0.007624,0.087931,317.256428,24.894054,0.999525,0.993068,0.003459,0.231708,-0.000023,-0.000019,-0.000007,-0.000014,-0.000028,-52.357421,0.000043,
2265,2756,-0.0278649265441793,2.28687273541046,-0.0392552826296537,-0.000649,0.002622,-0.007173,-0.005188,0.090238,318.173268,24.732789,0.999278,0.990307,0.003898,0.232045,-0.000015,-0.000011,0.000001,-0.000011,-0.000015,80.775389,0.000026,
2085,2381,-3.87699106371015,-5.89513244889866,-0.0211846517285608,-0.000068,0.003699,-0.011838,0.032135,0.133219,325.173245,24.731649,0.998675,0.984858,0.004922,0.201110,-0.000028,-0.000021,0.000002,-0.000020,-0.000029,72.648744,0.000049,
2145,2441,-2.58146974200333,-4.5854840714272,-0.0215177278289502,-0.000048,0.002601,-0.006755,0.019086,0.114336,323.899672,24.473031,0.999346,0.989929,0.004217,0.285025,-0.000018,-0.000032,0.000009,-0.000014,-0.000037,26.658276,0.000052,
2115,2441,-3.23400365876194,-4.58618675478125,-0.0201562559512922,-0.000130,0.003509,-0.009835,0.024187,0.126408,324.042179,24.528741,0.999326,0.991166,0.004062,0.320206,-0.000012,-0.000029,0.000011,-0.000006,-0.000034,26.523097,0.000044,
2100,2486,-3.5680083190346,-3.60390970556411,-0.0235655916317796,-0.000245,0.002905,-0.007783,0.012386,0.115713,323.328700,24.596617,0.999276,0.991426,0.003840,0.288390,-0.000014,-0.000019,0.000007,-0.000009,-0.000024,35.755163,0.000034,
2490,3176,4.78695542127382,11.4265803283268,0.0195873283418564,-0.000747,0.002176,-0.009120,0.001587,0.076642,311.765886,26.456281,0.999593,0.992326,0.003509,0.216950,-0.000023,-0.000012,-0.000006,-0.000009,-0.000026,-66.195875,0.000037,
2505,3251,5.09636800687659,13.0561953213803,0.00624221431570504,-0.000652,0.002236,-0.008729,0.004713,0.068678,310.438658,26.818737,0.999750,0.994975,0.003046,0.212861,-0.000002,-0.000049,-0.000012,0.000000,-0.000051,-13.235708,0.000059,
2310,2771,0.949522415979192,2.6138838166608,-0.0212757373938075,-0.000471,0.002382,-0.007426,0.004604,0.085349,318.028860,24.786590,0.999577,0.993461,0.003497,0.225004,-0.000015,-0.000016,0.000006,-0.000010,-0.000022,43.569299,0.000032,
2130,2471,-2.91329461400905,-3.93005225513554,-0.0255327231556066,-0.000413,0.002835,-0.008599,0.007656,0.106280,323.420077,24.572218,0.999405,0.989348,0.004294,0.231000,-0.000017,-0.000025,0.000010,-0.000010,-0.000032,34.476979,0.000044,
2115,2531,-3.24931352664698,-2.62123460665341,-0.0287407809105957,-0.000114,0.002927,-0.007640,0.018280,0.117504,322.477993,24.601260,0.999071,0.987674,0.004555,0.265883,-0.000022,-0.000017,0.000002,-0.000017,-0.000022,73.241546,0.000039,
2025,2396,-5.18396004749229,-5.57089049331648,-0.0109988439565996,-0.000088,0.002485,-0.009581,0.022931,0.081396,325.340880,24.816240,0.999507,0.990929,0.003757,0.248480,0.000002,-0.000032,0.000006,0.000003,-0.000033,9.419750,0.000037,
2415,2981,3.19310445381986,7.18687485624805,-0.0114586224229924,-0.000438,0.001992,-0.003948,-0.004788,0.094166,314.620982,25.457172,0.999846,0.994853,0.003134,0.285273,-0.000036,-0.000018,-0.000010,-0.000014,-0.000041,-66.642872,0.000057,
2205,2666,-1.31589432922433,0.324312342660136,-0.0286682527622588,-0.000695,0.002340,-0.005056,-0.015103,0.100543,319.880517,24.660100,0.999529,0.992972,0.003569,0.187377,-0.000023,-0.000016,-0.000007,-0.000012,-0.000028,-57.157991,0.000040,
2100,2381,-3.55052167599531,-5.89626137739619,-0.010269094677767,-0.000464,0.002994,-0.008361,0.004014,0.114615,325.163007,24.693623,0.999005,0.986415,0.004641,0.172152,-0.000024,-0.000020,0.000003,-0.000018,-0.000026,60.973139,0.000044,
2355,2846,1.91318164494927,4.25007630836541,-0.0333025378777165,-0.000479,0.002662,-0.007929,0.006957,0.113614,316.664179,25.028395,0.999664,0.992282,0.003536,0.230983,-0.000031,-0.000035,-0.000013,-0.000019,-0.000046,-41.452863,0.000068,
2040,2411,-4.86070363446786,-5.24164436491157,-0.0244295976456215,0.000000,0.003124,-0.010539,0.030203,0.098147,324.897741,24.764032,0.998947,0.986093,0.004652,0.265880,0.000002,-0.000019,0.000000,0.000002,-0.000019,0.570834,0.000021,
2235,2681,-0.665549512143485,0.651382740516453,-0.0227798968374486,-0.000543,0.002572,-0.005763,-0.005355,0.113236,319.615139,24.632541,0.999194,0.989190,0.004141,0.235866,-0.000020,-0.000020,-0.000006,-0.000014,-0.000026,-44.017989,0.000040,
2220,2696,-0.994891556138583,0.977313343524784,-0.0283441626264676,-0.000676,0.002563,-0.006024,-0.010879,0.097814,319.350222,24.605053,0.999595,0.994297,0.003227,0.271314,-0.000017,-0.000024,-0.000006,-0.000014,-0.000028,-31.082464,0.000042,
2250,2681,-0.339379319684891,0.651614410174339,-0.025297792854019,-0.000327,0.002525,-0.004283,-0.000075,0.106237,319.568305,24.583249,0.999336,0.991227,0.003811,0.273692,-0.000022,-0.000021,-0.000004,-0.000017,-0.000025,-49.144173,0.000043,
2085,2396,-3.87967177845318,-5.56829138724608,-0.0165926193904511,-0.000398,0.002892,-0.007555,0.004410,0.113563,324.937057,24.727142,0.998886,0.986192,0.004698,0.186515,-0.000016,-0.000025,0.000007,-0.000013,-0.000028,29.024255,0.000042,
2430,3026,3.51105418870697,8.16617834169593,-0.00177751911661517,-0.000664,0.002116,-0.006596,-0.005233,0.094466,313.969042,25.734993,0.999507,0.989551,0.003920,0.194459,-0.000023,-0.000018,-0.000008,-0.000012,-0.000028,-53.947456,0.000042,
2085,2486,-3.89402070114236,-3.60445561525157,-0.0225756600225964,-0.000164,0.002831,-0.008303,0.017301,0.113047,323.415968,24.616913,0.999310,0.991058,0.003943,0.298026,-0.000016,-0.000020,0.000005,-0.000012,-0.000023,36.132511,0.000036,
2160,2441,-2.25513759484645,-4.58589153908441,-0.016502307080259,-0.000349,0.002417,-0.004715,-0.000765,0.119564,323.865350,24.418768,0.999391,0.989267,0.004198,0.304882,-0.000018,-0.000031,0.000013,-0.000010,-0.000039,31.879520,0.000052,
2055,2441,-4.5396895643828,-4.58709444352232,-0.0149704864877549,-0.000839,0.002430,-0.005617,-0.021992,0.107889,324.343363,24.750815,0.999265,0.990335,0.004086,0.236796,-0.000012,-0.000021,0.000013,-0.000003,-0.000030,35.808286,0.000037,
2190,2636,-1.63649293377116,-0.330610591357875,-0.0265618332473423,-0.000558,0.002717,-0.006113,-0.005549,0.115577,320.449561,24.567066,0.999494,0.990185,0.004001,0.272141,-0.000026,-0.000014,-0.000004,-0.000013,-0.000027,-74.096111,0.000040,
2460,3071,4.1542894737969,9.14587274077711,0.000277122111469907,-0.000879,0.002465,-0.006624,-0.014364,0.111514,313.276927,25.960895,0.999563,0.993286,0.003459,0.238469,-0.000023,-0.000019,-0.000003,-0.000017,-0.000024,-63.375453,0.000041,
2265,2801,-0.0351459973484189,3.26578572674758,-0.0303035783578025,-0.000369,0.002491,-0.006933,0.006894,0.096786,317.511957,24.830314,0.999088,0.990299,0.004260,0.217007,-0.000018,-0.000029,-0.000004,-0.000017,-0.000030,-17.214025,0.000047,
2370,2891,2.23131314077785,5.2279356112358,-0.0216783441570101,-0.000757,0.002352,-0.007494,-0.007218,0.087769,316.000944,25.105651,0.999544,0.993383,0.003371,0.269138,-0.000032,-0.000028,-0.000013,-0.000018,-0.000043,-49.485239,0.000062,
2235,2651,-0.659788087799487,-0.00170088377389987,-0.017715786444171,-0.000549,0.002773,-0.006776,-0.002293,0.111228,320.157857,24.684257,0.999347,0.990085,0.004161,0.138967,-0.000028,-0.000024,-0.000011,-0.000015,-0.000037,-49.979939,0.000053,
2250,2726,-0.347846374834131,1.6326507232401,-0.0344594319088287,-0.000434,0.002897,-0.009814,0.013257,0.113405,318.757477,24.656964,0.999310,0.991766,0.003688,0.277746,-0.000022,-0.000026,-0.000003,-0.000020,-0.000027,-28.453488,0.000048,
2175,2561,-1.95021531252692,-1.96552847388704,-0.0281013005104001,-0.000720,0.002300,-0.004792,-0.017460,0.099382,321.715300,24.549818,0.999051,0.987894,0.004353,0.220116,-0.000032,-0.000026,-0.000005,-0.000023,-0.000035,-60.455027,0.000058,
2475,3131,4.46924535391892,10.4495812114192,0.0119360039888079,-0.000733,0.002421,-0.006312,-0.008660,0.100378,312.408293,26.266138,0.999481,0.991302,0.003554,0.196616,-0.000029,-0.000007,0.000002,-0.000007,-0.000029,85.607293,0.000038,
2295,2861,0.606040130923542,4.57200051870238,-0.0250130010156226,-0.000569,0.002385,-0.005359,-0.007139,0.100706,316.501794,24.955486,0.999639,0.994149,0.003284,0.240700,-0.000016,-0.000032,-0.000007,-0.000014,-0.000034,-20.104511,0.000050,
2325,2831,1.2634022029187,3.92268611743484,-0.0339048586922672,-0.000531,0.002576,-0.006787,-0.000010,0.093474,316.908943,25.025004,0.999845,0.994666,0.003144,0.140403,-0.000021,-0.000024,-0.000008,-0.000014,-0.000031,-39.375704,0.000046,
2100,2501,-3.57103290933223,-3.2760556768162,-0.0252391615964029,-0.000517,0.002489,-0.004157,-0.010815,0.117173,323.043669,24.638969,0.999250,0.990380,0.003974,0.249581,-0.000017,-0.000023,0.000005,-0.000014,-0.000026,30.516002,0.000041,
2445,3056,3.8316653026718,8.819003697291,-0.00384368054801598,-0.000318,0.002454,-0.010275,0.024742,0.087507,313.504152,25.867051,0.999482,0.992069,0.003623,0.204322,-0.000019,-0.000015,-0.000007,-0.000010,-0.000024,-51.205923,0.000035,
2025,2291,-5.16794973361072,-7.86459874252662,-0.00711957190958401,-0.000096,0.003270,-0.010021,0.023991,0.108531,327.101404,24.900984,0.998756,0.985853,0.004858,0.246987,0.000001,-0.000027,0.000016,0.000008,-0.000034,24.080134,0.000036,
2400,2966,2.8705904665738,6.86036545695551,-0.00393616133231944,-0.000607,0.002583,-0.007589,0.000713,0.109184,314.923954,25.463345,0.999873,0.995273,0.003056,0.209744,-0.000032,-0.000017,-0.000014,-0.000009,-0.000040,-58.885744,0.000053,
2025,2411,-5.18694487453596,-5.24250737497695,-0.0164832301853153,-0.000419,0.002789,-0.008489,0.004855,0.099599,325.029807,24.820230,0.999195,0.987674,0.004423,0.254513,-0.000006,-0.000027,-0.000005,-0.000005,-0.000028,-12.088744,0.000036,
2205,2801,-1.33906940167203,3.26258141093483,-0.0302136664133172,-0.000356,0.002502,-0.007754,0.009156,0.111212,317.650657,24.739093,0.998991,0.987271,0.004464,0.269312,-0.000018,-0.000032,0.000000,-0.000018,-0.000032,-0.223776,0.000051,
2115,2546,-3.25236418830798,-2.29441960914755,-0.0303747946055637,-0.000670,0.002743,-0.008444,-0.004944,0.109861,322.193530,24.573648,0.999264,0.989876,0.004133,0.290116,-0.000021,-0.000019,0.000000,-0.000019,-0.000021,-80.723796,0.000040,
2505,3266,5.09279827865194,13.3825678769167,-0.00217876145040918,-0.000560,0.002322,-0.010969,0.017715,0.074075,310.128363,26.916776,0.999831,0.996513,0.002575,0.179880,0.000001,-0.000071,-0.000013,0.000004,-0.000073,-10.098340,0.000082,
2355,2861,1.91055848636015,4.57578263907253,-0.0305743177871136,-0.000363,0.002634,-0.007108,0.009441,0.119017,316.439748,25.023263,0.999611,0.992171,0.003544,0.279927,-0.000030,-0.000034,-0.000013,-0.000019,-0.000045,-41.238393,0.000065,
2040,2426,-4.86343850829013,-4.91396756897853,-0.020420273351192,-0.000352,0.002512,-0.005063,-0.001329,0.102636,324.652338,24.814984,0.999035,0.986641,0.004526,0.213046,0.000005,-0.000020,0.000008,0.000007,-0.000022,17.022936,0.000023,
2115,2456,-3.2366805048554,-4.25780790608639,-0.0199711228650017,-0.000266,0.003004,-0.008108,0.012688,0.104014,323.784303,24.645219,0.999389,0.990466,0.004080,0.185888,-0.000013,-0.000029,0.000009,-0.000009,-0.000034,24.085926,0.000045,
2340,2831,1.59029265507277,3.92219172589201,-0.0252965946005475,-0.000553,0.002471,-0.007242,0.000774,0.091122,316.976632,24.993000,0.999667,0.993111,0.003399,0.187525,-0.000031,-0.000025,-0.000008,-0.000019,-0.000037,-54.270609,0.000057,
2130,2591,-2.93367370774946,-1.31311236353134,-0.0324239468095016,-0.000346,0.002532,-0.004872,-0.000518,0.099028,321.371040,24.556512,0.999502,0.991932,0.003891,0.291252,-0.000035,-0.000016,-0.000002,-0.000016,-0.000035,-84.491131,0.000051,
2280,2936,0.266652492309536,6.20080359704416,-0.0169553406647083,-0.000637,0.002295,-0.004643,-0.012861,0.108960,315.332916,25.039736,0.999571,0.993635,0.003325,0.278293,-0.000021,-0.000027,-0.000001,-0.000021,-0.000027,-5.952341,0.000048,
2220,2681,-0.992271050803215,0.650443731857209,-0.0278657712233894,-0.000607,0.002613,-0.004187,-0.013543,0.117533,319.600445,24.555404,0.999491,0.992942,0.003539,0.321762,-0.000017,-0.000019,-0.000006,-0.000012,-0.000025,-40.937102,0.000038,
2055,2456,-4.5419389780086,-4.2596774552733,-0.0239340906466055,-0.000497,0.002621,-0.010160,0.006494,0.079644,324.050034,24.696816,0.999398,0.989663,0.004209,0.258739,-0.000013,-0.000023,0.000010,-0.000007,-0.000029,31.604321,0.000038,
2220,2711,-0.997333700713373,1.30412178634089,-0.0272310949331995,-0.000597,0.002763,-0.006706,-0.005018,0.097414,319.116297,24.647714,0.999329,0.991202,0.003712,0.247389,-0.000017,-0.000025,-0.000006,-0.000014,-0.000029,-28.632897,0.000044,
2070,2426,-4.21037705531816,-4.91475046482026,-0.00811850468357989,-0.000546,0.002699,-0.006341,-0.006215,0.109133,324.581029,24.736205,0.998852,0.987387,0.004431,0.215198,-0.000015,-0.000024,0.000004,-0.000014,-0.000025,19.051561,0.000040,
2130,2486,-2.91567422017399,-3.6035894742259,-0.0213030123205726,-0.000594,0.002887,-0.008379,-0.001323,0.117953,323.198936,24.527747,0.999375,0.988260,0.004455,0.293731,-0.000020,-0.000020,0.000010,-0.000010,-0.000029,45.358142,0.000041,
2160,2516,-2.26869554652685,-2.94650055250381,-0.0382531325767559,-0.000132,0.002950,-0.008970,0.022344,0.102575,322.467010,24.521604,0.999218,0.989477,0.004170,0.241251,-0.000023,-0.000034,0.000005,-0.000021,-0.000036,19.979884,0.000058,
2295,2981,0.585094256313358,7.17935519772249,-0.00756259162818651,-0.000653,0.002298,-0.007556,-0.003574,0.096041,314.651083,25.221109,0.999079,0.991265,0.003791,0.204583,-0.000023,-0.000024,0.000003,-0.000020,-0.000026,38.927025,0.000047,
2145,2471,-2.58655285968031,-3.93106023439869,-0.0170805927133983,-0.000390,0.002488,-0.005913,0.000793,0.111468,323.423152,24.495233,0.999377,0.988981,0.004469,0.277751,-0.000021,-0.000023,0.000009,-0.000013,-0.000031,42.080261,0.000046,
2085,2411,-3.88177446831089,-5.24230387258175,-0.00806643680402885,-0.000513,0.002562,-0.005048,-0.008210,0.110312,324.748843,24.670643,0.998877,0.986194,0.004600,0.239919,-0.000018,-0.000020,0.000000,-0.000018,-0.000020,-15.719452,0.000038,
2370,2906,2.22833271529686,5.55429549523968,-0.0212462147548536,-0.000739,0.002325,-0.006017,-0.011678,0.089904,315.749779,25.158960,0.999443,0.992670,0.003486,0.258509,-0.000031,-0.000032,-0.000014,-0.000018,-0.000046,-43.958000,0.000065,
2040,2306,-4.84405951245498,-7.53747967634702,0.00333365055865897,-0.000756,0.002764,-0.006293,-0.016431,0.110040,326.811102,24.867225,0.999754,0.991679,0.003995,0.215207,-0.000001,0.000006,0.000012,0.000015,-0.000010,52.953417,0.000015,
2280,2831,0.285597871828958,3.91884675429204,-0.0273181626745327,-0.000579,0.002751,-0.008926,0.004226,0.089972,317.012190,24.891120,0.999483,0.992872,0.003553,0.217417,-0.000021,-0.000032,-0.000004,-0.000019,-0.000033,-17.815471,0.000053,
2025,2306,-5.17171953338832,-7.53514621114339,-0.0135304426604534,-0.000871,0.002615,-0.004068,-0.028094,0.104475,326.749087,24.976632,0.998933,0.986205,0.004711,0.159860,0.000006,0.000000,0.000013,0.000016,-0.000010,38.595443,0.000016,
2415,2996,3.1905217413521,7.51355657583604,-0.00979769978437162,-0.000531,0.002546,-0.008605,0.008137,0.092224,314.396759,25.578160,0.999583,0.989871,0.003837,0.209227,-0.000032,-0.000019,-0.000010,-0.000014,-0.000037,-61.593485,0.000052,
2490,3191,4.78411752156575,11.7517476601844,0.025800310089835,-0.000640,0.001969,-0.004931,-0.009612,0.088491,311.555189,26.501686,0.999523,0.992540,0.003483,0.240709,-0.000025,-0.000026,-0.000001,-0.000025,-0.000027,-23.648886,0.000051,
2055,2351,-4.52563488505651,-6.55315798220958,-0.0124116252500244,-0.000651,0.001879,-0.002685,-0.021762,0.104090,325.848042,24.726488,0.999090,0.986981,0.004623,0.280863,-0.000018,0.000000,0.000002,0.000001,-0.000018,83.299617,0.000020,
2475,3146,4.4664925961817,10.7749863654723,0.0127009323285847,-0.000603,0.002482,-0.008045,0.003898,0.093018,312.175967,26.308325,0.999505,0.991150,0.003586,0.202355,-0.000030,-0.000012,0.000003,-0.000012,-0.000030,80.718245,0.000044,
2100,2396,-3.55321267812985,-5.56937195243936,-0.00897186979858589,-0.000570,0.002506,-0.004092,-0.013431,0.108269,324.909576,24.647693,0.999128,0.987767,0.004319,0.214415,-0.000014,-0.000024,0.000007,-0.000010,-0.000027,26.257267,0.000039,
2145,2456,-2.58508997146298,-4.25705028255059,-0.0241378058599935,-0.000802,0.002322,-0.003761,-0.024728,0.091055,323.586179,24.569715,0.999402,0.989771,0.004235,0.174177,-0.000020,-0.000029,0.000007,-0.000016,-0.000033,27.879200,0.000050,
2040,2441,-4.86501639517147,-4.5874311649007,-0.00950978892564081,-0.000541,0.003103,-0.008976,0.001023,0.134571,324.498275,24.804429,0.998799,0.987352,0.004682,0.249041,0.000005,-0.000011,0.000015,0.000014,-0.000020,31.158610,0.000021,
2460,3086,4.1510254927201,9.47205255428931,-0.00424406711096026,-0.000792,0.002468,-0.007705,-0.006306,0.099036,312.995770,26.029780,0.999642,0.994908,0.003230,0.210389,-0.000028,-0.000010,-0.000001,-0.000010,-0.000028,-87.371323,0.000040,
2160,2636,-2.28887585251302,-0.330336810297965,-0.0345517477591102,-0.000171,0.002456,-0.006590,0.013149,0.093580,320.502592,24.657553,0.999729,0.993965,0.003410,0.181639,-0.000027,-0.000013,-0.000004,-0.000012,-0.000028,-74.985130,0.000041,
2235,2696,-0.668468202791505,0.978507256141214,-0.0298882738389921,-0.000397,0.002594,-0.007320,0.006399,0.101567,319.318516,24.642054,0.999336,0.991801,0.003641,0.236122,-0.000020,-0.000023,-0.000006,-0.000015,-0.000028,-39.984510,0.000043,
2265,2771,-0.0297134519319329,2.6133764034068,-0.0335851756527745,-0.000222,0.002764,-0.007792,0.016567,0.099111,317.992883,24.794259,0.999196,0.990606,0.003874,0.204790,-0.000017,-0.000015,0.000001,-0.000015,-0.000017,77.716807,0.000032,
2265,2816,-0.0376404456611752,3.59149241120952,-0.0276489953442365,-0.000448,0.002346,-0.008640,0.008797,0.076093,317.286922,24.836348,0.999292,0.990961,0.003975,0.215412,-0.000020,-0.000025,-0.000004,-0.000017,-0.000027,-27.948671,0.000045,
2070,2321,-4.19392618191184,-7.20913320802089,-0.0112999291678761,-0.000336,0.002572,-0.007159,0.005748,0.105061,326.296626,24.641530,0.999315,0.989744,0.004215,0.316925,-0.000029,-0.000003,-0.000006,-0.000002,-0.000031,-76.923412,0.000037,
2025,2321,-5.17288244573657,-7.20800472056948,-0.0113423569493989,-0.000209,0.003054,-0.008846,0.015547,0.105691,326.564275,24.928439,0.998921,0.987512,0.004544,0.201088,-0.000001,-0.000003,0.000003,0.000001,-0.000005,35.608179,0.000005,
2325,2846,1.26107480471499,4.24701795330634,-0.0240160863401115,-0.000552,0.002085,-0.003862,-0.011228,0.091469,316.731532,24.951161,0.999757,0.993908,0.003308,0.246209,-0.000022,-0.000029,-0.000008,-0.000016,-0.000034,-33.739971,0.000051,
2190,2621,-1.63367647812385,-0.657635051806352,-0.0245318498649567,-0.000546,0.002830,-0.007255,-0.001396,0.118159,320.719236,24.553379,0.999248,0.988597,0.004260,0.273647,-0.000027,-0.000015,-0.000002,-0.000015,-0.000028,-80.311327,0.000043,
2175,2606,-1.95715196440032,-0.984291641840777,-0.0337592466146361,0.000165,0.002774,-0.008159,0.033783,0.101401,320.974154,24.555766,0.999182,0.989667,0.004136,0.255143,-0.000031,-0.000014,-0.000003,-0.000013,-0.000032,-80.812592,0.000046,
2085,2501,-3.89677652659205,-3.27745899472932,-0.0172852917640967,-0.000644,0.002367,-0.004730,-0.015179,0.109442,323.180089,24.649922,0.999033,0.990359,0.004000,0.261227,-0.000021,-0.000024,0.000002,-0.000020,-0.000025,23.927068,0.000044,
2190,2651,-1.63914104651151,-0.00309657679083841,-0.029666072904547,-0.000440,0.002944,-0.006636,0.001619,0.121824,320.181833,24.612626,0.999513,0.991510,0.003787,0.247772,-0.000025,-0.000015,-0.000006,-0.000012,-0.000028,-65.076137,0.000041,
2070,2441,-4.21336635221155,-4.58786750251855,-0.00778689975555835,-0.001074,0.002290,-0.004157,-0.036827,0.101953,324.306322,24.695415,0.999257,0.989997,0.004113,0.246880,-0.000013,-0.000024,0.000007,-0.000010,-0.000028,26.441311,0.000039,
2040,2456,-4.86818436818299,-4.25993553097116,-0.0186758623593732,-0.000693,0.002446,-0.006256,-0.013737,0.115549,324.160244,24.745988,0.998974,0.986651,0.004729,0.282224,0.000002,-0.000012,0.000008,0.000005,-0.000016,24.084328,0.000016,
2250,2741,-0.350057734381423,1.95933578770425,-0.0328877571309931,-0.000111,0.002994,-0.010597,0.030649,0.107490,318.538729,24.707529,0.999217,0.990313,0.003959,0.244638,-0.000016,-0.000017,-0.000004,-0.000013,-0.000020,-42.476740,0.000033,
2055,2471,-4.54319171956991,-3.9317108296527,-0.0189345123512226,0.000106,0.002765,-0.012862,0.041858,0.077913,323.878945,24.803972,0.999457,0.990043,0.004347,0.145389,-0.000009,-0.000021,0.000012,-0.000002,-0.000028,30.969860,0.000033,
2490,3206,4.78096720988546,12.0779387798605,0.0254260363622052,-0.000690,0.002400,-0.005485,-0.009620,0.103329,311.299830,26.602251,0.999458,0.993014,0.003465,0.212457,-0.000024,-0.000024,0.000003,-0.000021,-0.000027,48.347576,0.000048,
2205,2681,-1.31850522128797,0.650637959485451,-0.0322467049705892,-0.000405,0.002328,-0.004483,-0.003543,0.109803,319.613595,24.599908,0.999671,0.994433,0.003277,0.273796,-0.000022,-0.000016,-0.000003,-0.000015,-0.000023,-64.903922,0.000038,
2220,2726,-0.999777149803212,1.63083194695107,-0.0282404002584826,-0.000360,0.002571,-0.007261,0.007627,0.098555,318.871405,24.666836,0.999423,0.991380,0.003600,0.248246,-0.000018,-0.000028,-0.000004,-0.000016,-0.000030,-20.239174,0.000046,
2040,2321,-4.84677668691246,-7.20912111363042,-0.00802159893538601,-0.000548,0.002736,-0.006938,-0.005119,0.105932,326.481255,24.798212,0.999182,0.988573,0.004217,0.274945,-0.000007,0.000001,0.000001,0.000001,-0.000007,79.602568,0.000008,
2100,2516,-3.573218259535,-2.94801887817225,-0.0301779660399575,-0.000223,0.002684,-0.008085,0.014220,0.105455,322.779387,24.686175,0.999580,0.993145,0.003562,0.193104,-0.000016,-0.000028,0.000003,-0.000016,-0.000028,12.347031,0.000045,
2250,2756,-0.35391474010957,2.28685722282419,-0.0397593975293944,-0.000483,0.002722,-0.006562,0.000307,0.112517,318.201337,24.760350,0.999123,0.990398,0.003998,0.220086,-0.000016,-0.000010,0.000001,-0.000010,-0.000016,78.056806,0.000026,
2385,2951,2.54647579594644,6.5343197944489,-0.0174098437498742,-0.000485,0.002754,-0.008408,0.009058,0.114513,315.058138,25.376713,0.999315,0.990021,0.004018,0.221690,-0.000033,-0.000017,-0.000016,-0.000007,-0.000043,-58.438582,0.000055,
2280,2951,0.264260127795684,6.52663846995409,-0.0156979976402454,-0.000473,0.002013,-0.006258,-0.000055,0.084310,315.106284,25.088524,0.999324,0.991151,0.003767,0.231895,-0.000023,-0.000018,0.000001,-0.000017,-0.000023,82.574197,0.000041,
2295,2996,0.582827403983647,7.50444043279004,-0.00272771913904535,-0.000575,0.002384,-0.008759,0.004050,0.088234,314.449204,25.221072,0.999315,0.992357,0.003587,0.225963,-0.000021,-0.000018,0.000004,-0.000015,-0.000024,56.628524,0.000039,
2370,2921,2.22560400231738,5.88030911272764,-0.0170115334402681,-0.000899,0.002227,-0.006258,-0.018154,0.094815,315.528476,25.209722,0.999366,0.992304,0.003593,0.252923,-0.000028,-0.000033,-0.000014,-0.000016,-0.000044,-39.626225,0.000063,
2190,2756,-1.6575446881484,2.28237466324624,-0.025945849538914,-0.000698,0.002155,-0.003017,-0.021873,0.103507,318.447850,24.688279,0.999419,0.992263,0.003606,0.255742,-0.000015,-0.000021,0.000000,-0.000015,-0.000021,4.713204,0.000036,
2445,3071,3.82840306896749,9.14482814997366,0.000198047202502494,-0.000516,0.002300,-0.005978,-0.000401,0.101140,313.261637,25.929485,0.999683,0.994997,0.003071,0.206360,-0.000023,-0.000022,-0.000005,-0.000018,-0.000028,-46.341689,0.000046,
2400,2981,2.86678453174943,7.18641373632163,-0.00851411123534263,-0.000798,0.002169,-0.004003,-0.021220,0.101807,314.613112,25.482852,0.999721,0.992903,0.003483,0.227445,-0.000032,-0.000018,-0.000008,-0.000015,-0.000036,-64.735581,0.000052,
2460,3101,4.14890712220234,9.79662873715391,0.00660358280896389,-0.000678,0.002356,-0.006974,-0.003915,0.092881,312.838445,26.048610,0.999573,0.993444,0.003422,0.238437,-0.000028,-0.000004,0.000006,-0.000002,-0.000029,76.334524,0.000035,
2130,2606,-2.93552255453006,-0.986004628504233,-0.0296870843109218,-0.000183,0.002824,-0.009265,0.020220,0.105250,321.166074,24.600348,0.999587,0.992920,0.003727,0.259812,-0.000034,-0.000015,-0.000005,-0.000013,-0.000035,-75.611309,0.000050,
2055,2366,-4.52776252671001,-6.22473388138831,-0.0189296609115104,-0.000245,0.001977,-0.005609,0.005113,0.076776,325.573468,24.753505,0.999131,0.986542,0.004667,0.222868,-0.000013,-0.000007,-0.000002,-0.000006,-0.000014,-72.081262,0.000020,
2145,2486,-2.58948340650217,-3.6033059577971,-0.0219193919820668,-0.000311,0.002225,-0.002939,-0.004618,0.121820,323.129485,24.485399,0.999319,0.988449,0.004423,0.306986,-0.000022,-0.000018,0.000009,-0.000011,-0.000029,51.144273,0.000042,
2085,2426,-3.88380498699309,-4.91470502883151,-0.0125335700872142,-0.000069,0.002480,-0.007925,0.020438,0.088152,324.492993,24.659252,0.999117,0.988525,0.004285,0.229625,-0.000017,-0.000025,0.000003,-0.000016,-0.000026,21.584041,0.000042,
2175,2576,-1.95262831700607,-1.63877376899669,-0.0281923985186268,-0.000437,0.002204,-0.002768,-0.010723,0.105332,321.473114,24.527787,0.999184,0.989115,0.004129,0.260986,-0.000033,-0.000021,-0.000004,-0.000019,-0.000034,-72.467993,0.000054,
2160,2651,-2.29179340078961,-0.00375865616299365,-0.0372360529799494,-0.000429,0.002699,-0.007364,0.003717,0.101421,320.222375,24.619378,0.999697,0.993059,0.003465,0.238158,-0.000029,-0.000012,-0.000006,-0.000010,-0.000031,-72.970405,0.000043,
2490,3221,4.77731555524247,12.4037137318701,0.0202875010769503,-0.000869,0.002336,-0.006358,-0.014556,0.096771,310.999807,26.661630,0.999494,0.992444,0.003577,0.203707,-0.000022,-0.000023,-0.000001,-0.000022,-0.000023,-36.629685,0.000045,
2115,2561,-3.25464529048378,-1.96653700786996,-0.0334833184023182,-0.000348,0.002795,-0.009160,0.011963,0.109403,321.936065,24.628335,0.999328,0.989796,0.004209,0.239268,-0.000021,-0.000018,0.000002,-0.000017,-0.000022,65.428106,0.000039,
2205,2816,-1.34126758033075,3.5882597709682,-0.0253099452662013,-0.000272,0.002773,-0.007801,0.013251,0.115916,317.446584,24.733680,0.999177,0.989229,0.004117,0.295836,-0.000017,-0.000033,-0.000001,-0.000017,-0.000033,-2.034394,0.000051,
2310,2786,0.9468743768671,2.93968755410562,-0.0191125844594353,-0.000583,0.002688,-0.008863,0.004472,0.100528,317.797522,24.753279,0.999640,0.994541,0.003328,0.305627,-0.000015,-0.000023,0.000001,-0.000015,-0.000023,4.515048,0.000038,
2145,2591,-2.60766120863445,-1.31199409543928,-0.0345244365204849,-0.000343,0.002538,-0.005559,0.001915,0.111579,321.294146,24.571214,0.999322,0.989904,0.004204,0.272033,-0.000034,-0.000018,-0.000004,-0.000017,-0.000035,-76.521934,0.000052,
2415,3011,3.1870998850821,7.83995158130749,-0.00939573088811585,-0.000811,0.002611,-0.006360,-0.012874,0.111064,314.127976,25.647427,0.999555,0.987611,0.004061,0.205726,-0.000028,-0.000019,-0.000009,-0.000013,-0.000033,-58.616309,0.000048,
2505,3281,5.08914259656385,13.7075089083043,-0.00469355730768939,-0.000591,0.002142,-0.007701,0.003583,0.085655,309.841050,26.914711,0.999834,0.996798,0.002440,0.252683,0.000007,-0.000103,-0.000013,0.000009,-0.000104,-6.795686,0.000116,
2355,2876,1.90818877933389,4.90171148936864,-0.0226727252513683,-0.000444,0.002514,-0.007024,0.005362,0.106899,316.251891,25.099035,0.999589,0.992870,0.003465,0.230258,-0.000031,-0.000032,-0.000011,-0.000021,-0.000042,-44.933705,0.000064,
2235,2726,-0.673935383781224,1.63198955034365,-0.031138270532324,-0.000539,0.002747,-0.008886,0.004975,0.107352,318.808443,24.685181,0.999272,0.990937,0.003792,0.241158,-0.000021,-0.000025,-0.000003,-0.000019,-0.000027,-28.384005,0.000046,
2040,2471,-4.86959349853435,-3.93265300596045,-0.0156517488489385,-0.000035,0.002305,-0.007019,0.018612,0.091694,323.970261,24.793367,0.999212,0.989066,0.004394,0.204479,0.000008,-0.000008,0.000008,0.000011,-0.000011,21.933904,0.000013,
2475,3161,4.4631384123738,11.1009871591986,0.0108046020039296,-0.000653,0.002383,-0.007389,-0.000874,0.098662,311.903492,26.379958,0.999542,0.991814,0.003553,0.191731,-0.000027,-0.000010,-0.000003,-0.000010,-0.000027,-81.481519,0.000039,
2265,2906,-0.0536332463893174,5.5482849176709,-0.0156950781786236,-0.000591,0.002085,-0.004427,-0.011693,0.098842,315.867872,25.016684,0.999650,0.993982,0.003254,0.208071,-0.000016,-0.000027,0.000001,-0.000016,-0.000027,5.896339,0.000044,
2430,3041,3.5076232531317,8.49205666517684,-0.00294753992949381,-0.000740,0.001881,-0.003588,-0.019849,0.101809,313.693629,25.765434,0.999497,0.991069,0.003752,0.220358,-0.000020,-0.000021,-0.000006,-0.000014,-0.000026,-43.421645,0.000041,
2025,2426,-5.18939504598278,-4.91502949450337,-0.017321954620968,-0.000282,0.002320,-0.003918,-0.001527,0.084300,324.769436,24.825182,0.999160,0.987515,0.004445,0.226045,0.000001,-0.000026,0.000006,0.000003,-0.000027,12.779614,0.000030,
2325,2861,1.25824257400748,4.57311109110383,-0.0248911238758183,-0.000745,0.002452,-0.007331,-0.008035,0.083183,316.477655,24.966833,0.999667,0.993089,0.003505,0.256197,-0.000022,-0.000026,-0.000008,-0.000016,-0.000032,-36.715988,0.000048,
2115,2471,-3.23937478171754,-3.93075200664637,-0.0218896957313746,-0.000283,0.002903,-0.006226,0.006343,0.115102,323.514527,24.592511,0.999393,0.989828,0.004095,0.254307,-0.000014,-0.000025,0.000011,-0.000007,-0.000032,32.107091,0.000042,
2130,2501,-2.91878967634378,-3.27533276704301,-0.0360702992199435,-0.000202,0.002395,-0.007239,0.013144,0.087040,322.842430,24.518359,0.999261,0.988268,0.004340,0.279214,-0.000025,-0.000025,0.000007,-0.000018,-0.000032,44.165569,0.000051,
2235,2711,-0.671358809803461,1.30553897748461,-0.0338349185027482,-0.000471,0.002729,-0.009249,0.009257,0.098450,319.039275,24.666394,0.999237,0.991299,0.003655,0.229816,-0.000021,-0.000023,-0.000005,-0.000017,-0.000027,-38.626239,0.000044,
2220,2816,-1.0152916211585,3.58910746584807,-0.0208966323612572,-0.000435,0.002566,-0.006604,0.002075,0.106516,317.431785,24.801794,0.999546,0.991169,0.003786,0.233668,-0.000015,-0.000030,0.000000,-0.000015,-0.000030,-1.218240,0.000046,
2250,2876,-0.373945729036823,4.89581689515153,-0.0240151808114888,-0.000108,0.002549,-0.008182,0.022770,0.097390,316.359849,24.935918,0.999647,0.992027,0.003464,0.213512,-0.000009,-0.000022,0.000003,-0.000008,-0.000022,12.459004,0.000032,
2040,2336,-4.8490978166847,-6.88073273536213,-0.00811742208520627,-0.000561,0.002876,-0.006573,-0.006666,0.118247,326.231750,24.835080,0.999316,0.988202,0.004247,0.244443,-0.000021,-0.000007,-0.000002,-0.000007,-0.000022,-83.179716,0.000030,
2070,2336,-4.19625434892259,-6.88147548675958,-0.00245340923152071,-0.000530,0.002181,-0.001588,-0.019123,0.102196,326.098442,24.717285,0.998918,0.988931,0.004326,0.236836,-0.000037,-0.000010,-0.000006,-0.000009,-0.000038,-78.831272,0.000050,
2385,2966,2.5435826929477,6.86051575186666,-0.0196212862467178,-0.000276,0.002657,-0.008593,0.019247,0.097935,314.799334,25.431868,0.999588,0.991659,0.003749,0.192547,-0.000033,-0.000019,-0.000014,-0.000010,-0.000042,-57.866886,0.000055,
2190,2666,-1.64163070177704,0.324100413435573,-0.025333696633993,-0.000617,0.002823,-0.006422,-0.007261,0.120593,319.960162,24.704929,0.999741,0.995077,0.003075,0.168905,-0.000019,-0.000015,-0.000004,-0.000012,-0.000022,-58.490819,0.000034,
2085,2516,-3.89866513626628,-2.95034152186656,-0.0128649742405287,-0.000361,0.002335,-0.003711,-0.005137,0.109879,322.979126,24.685986,0.999415,0.992124,0.003740,0.225579,-0.000021,-0.000029,0.000000,-0.000021,-0.000029,-2.906375,0.000050,
2025,2456,-5.19488245294774,-4.25995010821099,-0.028515471313824,-0.000693,0.002525,-0.005938,-0.014813,0.099942,324.168631,24.725764,0.999498,0.991209,0.003805,0.324251,0.000001,-0.000016,0.000013,0.000008,-0.000022,28.531409,0.000023,
2280,2846,0.28259822233187,4.24680139154215,-0.0331751126255995,-0.000358,0.002599,-0.008575,0.013214,0.101691,316.721628,25.014842,0.999685,0.995098,0.003261,0.133036,-0.000019,-0.000037,-0.000004,-0.000018,-0.000038,-12.467299,0.000057,
2100,2531,-3.57580466400568,-2.62114549327939,-0.0399685221798336,-0.000027,0.002928,-0.012021,0.034744,0.086498,322.470833,24.595498,0.999488,0.992124,0.003772,0.267117,-0.000020,-0.000016,0.000001,-0.000016,-0.000020,80.769712,0.000035,
2100,2411,-3.55565012897465,-5.24188349294172,-0.0082943170876888,-0.000528,0.002143,-0.002195,-0.017145,0.105946,324.664240,24.651338,0.999166,0.988402,0.004316,0.210957,-0.000014,-0.000020,0.000001,-0.000014,-0.000020,6.452772,0.000034,
2025,2441,-5.19155078625094,-4.58613751476192,-0.0250848257369967,-0.000099,0.003159,-0.010476,0.025121,0.098377,324.483451,24.869214,0.999372,0.991074,0.003929,0.187573,0.000006,-0.000013,0.000019,0.000018,-0.000025,31.712441,0.000026,
2295,3011,0.580059796819047,7.83050803453027,-0.00538741420240285,-0.000528,0.002637,-0.011121,0.014306,0.092077,314.186643,25.251749,0.999135,0.990126,0.003946,0.228110,-0.000020,-0.000019,0.000004,-0.000016,-0.000023,48.919692,0.000039,
2475,3176,4.46030508755116,11.4258077213842,0.0134470569789755,-0.000726,0.002422,-0.008686,0.000699,0.090909,311.676041,26.388041,0.999589,0.993101,0.003408,0.231093,-0.000025,-0.000013,-0.000003,-0.000013,-0.000026,-77.165864,0.000040,
2295,2876,0.603789363391428,4.89743522719373,-0.0214142427860224,-0.000401,0.002447,-0.006707,0.005141,0.096501,316.294670,24.944227,0.999626,0.993467,0.003392,0.277218,-0.000017,-0.000030,-0.000002,-0.000017,-0.000030,-8.964668,0.000048,
2265,2831,-0.0407071011815638,3.91840466196265,-0.0357477243096014,-0.000247,0.002362,-0.009349,0.020433,0.082587,316.980987,24.847031,0.999271,0.991637,0.003803,0.236776,-0.000019,-0.000036,-0.000003,-0.000018,-0.000037,-10.780905,0.000056,
2490,3236,4.77380013292268,12.729088409975,0.0110118147346157,-0.000500,0.002020,-0.006427,0.002611,0.088722,310.687347,26.665920,0.999616,0.993206,0.003390,0.248875,-0.000020,-0.000036,-0.000004,-0.000019,-0.000037,-14.193590,0.000057,
2055,2381,-4.53084054075572,-5.89619844959244,-0.02197231368649,-0.000494,0.002033,-0.000277,-0.021268,0.123212,325.274245,24.757576,0.999418,0.990039,0.004162,0.261675,-0.000017,-0.000021,0.000004,-0.000014,-0.000023,31.938071,0.000038,
2370,2936,2.2236619737804,6.20643997913365,-0.0107826489457921,-0.000539,0.002470,-0.007946,0.004502,0.101610,315.352845,25.287456,0.999329,0.991268,0.003763,0.222327,-0.000030,-0.000023,-0.000015,-0.000011,-0.000042,-51.184746,0.000056,
2460,3116,4.14591125004281,10.1222692741619,0.00528845165041503,-0.000514,0.002267,-0.007155,0.004314,0.092669,312.584376,26.084344,0.999507,0.992664,0.003510,0.255931,-0.000027,-0.000004,0.000003,-0.000003,-0.000027,82.284930,0.000033,
2040,2486,-4.87230473075603,-3.6053971794108,-0.0168025217528225,-0.000237,0.002587,-0.004636,0.002813,0.111856,323.697462,24.760306,0.999548,0.991303,0.003890,0.251335,0.000005,-0.000003,0.000005,0.000007,-0.000005,24.853320,0.000007,
2055,2486,-4.54653221998478,-3.60544460512047,-0.0176044074205493,-0.000462,0.002260,-0.004165,-0.008814,0.094228,323.592557,24.708041,0.999501,0.990553,0.004154,0.253254,-0.000010,-0.000016,0.000010,-0.000003,-0.000023,37.185688,0.000029,
2505,3296,5.0861911073319,14.0329319068585,-0.00359411591858816,-0.000563,0.002318,-0.008441,0.007845,0.090959,309.602233,26.987586,0.999738,0.994949,0.002930,0.244520,0.000032,-0.000113,-0.000003,0.000032,-0.000113,-1.329055,0.000117,
2160,2666,-2.29322245553628,0.321083722897946,-0.0181326353053919,-0.000522,0.002504,-0.006137,-0.004310,0.116809,320.125753,24.604554,0.999752,0.993927,0.003207,0.278352,-0.000025,-0.000013,-0.000005,-0.000012,-0.000027,-71.550974,0.000039,
2340,2846,1.58726069114758,4.24899698785624,-0.0292401226631114,-0.000374,0.002604,-0.006624,0.006911,0.101770,316.699637,25.027565,0.999700,0.993420,0.003380,0.200074,-0.000031,-0.000029,-0.000008,-0.000022,-0.000039,-48.505061,0.000062,
2115,2576,-3.25660099519335,-1.640179673296,-0.0262648359738478,-0.000339,0.002696,-0.009377,0.012996,0.098942,321.749436,24.650597,0.999431,0.991221,0.003959,0.210369,-0.000023,-0.000018,0.000003,-0.000017,-0.000025,67.044763,0.000042,
2355,2891,1.90561221167053,5.22766196938104,-0.0192812334544783,-0.000481,0.002510,-0.008191,0.007736,0.103710,316.032660,25.137543,0.999560,0.993097,0.003382,0.226644,-0.000030,-0.000028,-0.000010,-0.000019,-0.000040,-48.093930,0.000060,
2130,2621,-2.93822955134534,-0.659526256241897,-0.0246106151297454,-0.000493,0.002649,-0.005417,-0.005618,0.100900,320.934498,24.621958,0.999503,0.991677,0.003837,0.239901,-0.000029,-0.000017,-0.000003,-0.000016,-0.000030,-77.197280,0.000047,
2475,3191,4.45737713562677,11.7513707816292,0.0119781996235133,-0.000644,0.002680,-0.011125,0.013907,0.114292,311.425133,26.412196,0.999468,0.992578,0.003460,0.285712,-0.000026,-0.000028,0.000003,-0.000024,-0.000030,32.819950,0.000054,
2310,2801,0.94346203224049,3.26749080683977,-0.0290775182598964,-0.000449,0.002717,-0.009009,0.011154,0.102424,317.470682,24.825742,0.999420,0.992490,0.003637,0.267176,-0.000013,-0.000027,-0.000002,-0.000013,-0.000027,-7.545769,0.000040,
2325,2876,1.25571208104448,4.89938676148662,-0.0205418580393371,-0.000568,0.002167,-0.004752,-0.008830,0.104831,316.263100,25.013239,0.999537,0.992343,0.003605,0.265217,-0.000023,-0.000026,-0.000005,-0.000019,-0.000030,-35.923215,0.000049,
2145,2606,-2.61051291241343,-0.984593138221328,-0.036251135551538,-0.000498,0.002364,-0.004402,-0.008769,0.108702,321.020600,24.612426,0.999507,0.992171,0.003825,0.236335,-0.000033,-0.000015,-0.000007,-0.000013,-0.000035,-71.551644,0.000050,
2175,2621,-1.96017754016011,-0.657672177116581,-0.0316146046081371,-0.000358,0.002388,-0.006846,0.005582,0.091979,320.715639,24.571032,0.999324,0.989444,0.004135,0.243115,-0.000026,-0.000017,-0.000002,-0.000017,-0.000027,-78.846804,0.000044,
2025,2471,-5.19603300197429,-3.93197601486129,-0.0256827255662415,0.000174,0.002948,-0.007330,0.029025,0.113689,323.987944,24.797456,0.999095,0.987490,0.004399,0.257608,0.000003,-0.000009,0.000011,0.000010,-0.000016,31.971005,0.000016,
2400,2996,2.86398988454521,7.51345468384067,-0.0147560088304886,-0.000502,0.002595,-0.008734,0.009638,0.094768,314.340575,25.586566,0.999600,0.990578,0.003820,0.161555,-0.000027,-0.000019,-0.000008,-0.000014,-0.000032,-58.600991,0.000047,
2490,3251,4.76983085251461,13.0550799807328,0.00240119253828652,-0.000593,0.001842,-0.005954,-0.003608,0.071897,310.356645,26.745031,0.999744,0.994969,0.003014,0.210009,-0.000018,-0.000041,-0.000005,-0.000017,-0.000042,-12.804825,0.000060,
2070,2456,-4.21562468267446,-4.26024482194136,-0.0131762584686612,-0.000822,0.002656,-0.006934,-0.017247,0.095911,324.033554,24.671768,0.999520,0.991564,0.003949,0.262783,-0.000015,-0.000026,0.000004,-0.000014,-0.000028,19.218654,0.000042,
2205,2696,-1.32188922394986,0.977295182753458,-0.0402330474177006,-0.000533,0.001979,-0.003243,-0.013498,0.088575,319.288378,24.568957,0.999514,0.992936,0.003466,0.300666,-0.000023,-0.000020,-0.000003,-0.000018,-0.000024,-56.503564,0.000043,
2385,2981,2.54093969917237,7.18538030932949,-0.0119032423098133,-0.000441,0.002223,-0.006772,0.004974,0.091797,314.599679,25.428444,0.999565,0.990907,0.003922,0.232254,-0.000032,-0.000021,-0.000009,-0.000016,-0.000037,-60.620686,0.000055,
2205,2831,-1.34365511212885,3.91419139102319,-0.0167118219518443,-0.000583,0.002497,-0.007224,-0.003062,0.094609,317.252915,24.809849,0.999317,0.991122,0.003791,0.214285,-0.000019,-0.000042,-0.000001,-0.000019,-0.000042,-1.458641,0.000062,
2145,2501,-2.59268785799094,-3.27473978988613,-0.0318543280173458,-0.000151,0.001694,0.000212,-0.006947,0.105246,322.796127,24.535171,0.999316,0.988917,0.004263,0.249919,-0.000025,-0.000025,0.000006,-0.000019,-0.000032,44.975873,0.000051,
2235,2741,-0.676900413457158,1.95859126311294,-0.0316750622909581,-0.000676,0.002538,-0.007260,-0.006658,0.095827,318.543261,24.716135,0.999116,0.989301,0.004224,0.219852,-0.000016,-0.000017,-0.000004,-0.000012,-0.000020,-43.389000,0.000033,
2100,2546,-3.57939762030147,-2.2943791668286,-0.0474674846732341,-0.000645,0.002715,-0.010693,0.002375,0.084549,322.128549,24.505226,0.999669,0.994838,0.003326,0.357805,-0.000019,-0.000019,0.000000,-0.000019,-0.000019,-60.873818,0.000038,
2445,3086,3.82585111179194,9.47012154639597,0.00871225087041694,-0.000634,0.002269,-0.004923,-0.009808,0.095884,313.072661,25.994549,0.999684,0.994556,0.003208,0.187064,-0.000027,-0.000015,-0.000003,-0.000015,-0.000027,-77.918155,0.000042,
2130,2516,-2.92016087842111,-2.94909050266572,-0.0192836431455135,-0.000226,0.002896,-0.007554,0.013146,0.112695,322.734480,24.565036,0.999242,0.989308,0.004150,0.264437,-0.000025,-0.000030,0.000002,-0.000024,-0.000031,15.468583,0.000055,
2250,2771,-0.35567158528016,2.611942697451,-0.0286659120569652,-0.000518,0.002798,-0.009132,0.007127,0.109310,318.052113,24.746879,0.999193,0.990750,0.003897,0.253510,-0.000015,-0.000012,0.000001,-0.000012,-0.000015,77.722397,0.000027,
2190,2771,-1.66097879192915,2.60989042245461,-0.0383669324805851,-0.000838,0.002626,-0.005273,-0.021117,0.110023,318.095328,24.698045,0.999252,0.991071,0.003954,0.267301,-0.000016,-0.000024,0.000000,-0.000016,-0.000024,0.263096,0.000040,
2430,3056,3.50450850893531,8.81836562465212,-0.00769781676206094,-0.000779,0.002251,-0.007629,-0.006649,0.089227,313.415887,25.835777,0.999606,0.992703,0.003567,0.186276,-0.000022,-0.000020,-0.000006,-0.000014,-0.000028,-50.958329,0.000043,
2085,2441,-3.88689989475933,-4.5861933633951,-0.0223548880832709,-0.000165,0.002425,-0.007896,0.015950,0.086926,324.159031,24.665244,0.999390,0.990702,0.003985,0.222997,-0.000012,-0.000026,0.000006,-0.000010,-0.000028,20.911148,0.000040,
2070,2351,-4.1990905120207,-6.5529437155931,-0.0128945169590793,-0.000591,0.002151,-0.005022,-0.012198,0.083545,325.771453,24.700627,0.998710,0.986457,0.004729,0.233692,-0.000031,-0.000004,-0.000005,-0.000004,-0.000032,-80.468221,0.000039,
2175,2711,-1.97560335829742,1.30349770208357,-0.0347356829768728,-0.000323,0.002821,-0.008797,0.013415,0.117468,319.204845,24.673772,0.999424,0.991143,0.003725,0.240960,-0.000023,-0.000017,0.000001,-0.000017,-0.000023,77.747039,0.000040,
2160,2531,-2.27068640663232,-2.61996579818685,-0.0276644173328577,-0.000221,0.002883,-0.007667,0.014281,0.112054,322.299294,24.559187,0.999196,0.988872,0.004183,0.223686,-0.000030,-0.000029,-0.000001,-0.000028,-0.000030,-54.521228,0.000058,
2475,3206,4.45465125162303,12.0766083194786,0.0195448070199404,-0.000664,0.002403,-0.008193,0.001715,0.105060,311.224821,26.497115,0.999384,0.992611,0.003486,0.246259,-0.000025,-0.000026,0.000006,-0.000020,-0.000032,42.888842,0.000052,
2280,2966,0.261319139601358,6.85293696757604,-0.0156857789792753,-0.000557,0.002209,-0.004992,-0.008019,0.101069,314.847955,25.134001,0.999274,0.990897,0.003845,0.230062,-0.000022,-0.000021,0.000005,-0.000017,-0.000026,46.231735,0.000043,
2040,2351,-4.85156242100206,-6.5532520768616,-0.00995961043844318,-0.000463,0.002391,-0.003738,-0.010148,0.099143,325.966385,24.808152,0.999261,0.987199,0.004508,0.246719,-0.000012,0.000002,-0.000001,0.000002,-0.000012,-86.567517,0.000013,
2025,2696,-5.23176029458489,0.972373243665402,-0.051220535998084,0.000096,0.002835,-0.009852,0.032404,0.119477,320.060613,24.646847,0.999794,0.995963,0.002908,0.276654,-0.000043,0.000007,0.000008,0.000008,-0.000044,81.414648,0.000047,
2190,2681,-1.64399960061463,0.648597669468131,-0.0213909940179633,-0.000634,0.002404,-0.005841,-0.010013,0.102795,319.742764,24.566892,0.999660,0.994265,0.003229,0.304006,-0.000018,-0.000017,-0.000001,-0.000017,-0.000019,-59.916804,0.000036,
2220,2831,-1.01781376586828,3.91486254096512,-0.0211144675007517,-0.000428,0.002407,-0.008600,0.008718,0.090129,317.187491,24.788618,0.999427,0.991539,0.003702,0.249071,-0.000018,-0.000038,0.000000,-0.000018,-0.000038,-0.739994,0.000057,
2250,2891,-0.376506702025679,5.22097407098225,-0.0157769457807149,-0.000426,0.002517,-0.006438,0.002471,0.109891,316.159008,24.920473,0.999686,0.993065,0.003335,0.264152,-0.000011,-0.000019,0.000003,-0.000010,-0.000020,19.070248,0.000030,
2220,2741,-1.00284066273301,1.95814138138829,-0.0338617917499846,-0.000418,0.002713,-0.007811,0.006754,0.103844,318.574153,24.704074,0.999383,0.990927,0.003812,0.235277,-0.000013,-0.000021,-0.000005,-0.000011,-0.000023,-24.819720,0.000035,
2115,2591,-3.25887083251348,-1.31419965585513,-0.0233700442851728,-0.000143,0.002778,-0.006113,0.012409,0.118498,321.525201,24.573984,0.999547,0.992266,0.003794,0.310562,-0.000025,-0.000015,0.000003,-0.000014,-0.000026,72.882158,0.000041,
2265,2921,-0.0563402193758265,5.87390623515055,-0.0143377403307454,-0.000699,0.002278,-0.004966,-0.014860,0.098875,315.626303,25.013221,0.999667,0.994282,0.003337,0.236553,-0.000019,-0.000026,0.000000,-0.000019,-0.000026,0.578782,0.000045,
2175,2636,-1.96296245171463,-0.330942143432679,-0.0301616043735748,-0.000528,0.002167,-0.004595,-0.009300,0.087416,320.464472,24.590019,0.999541,0.991461,0.003802,0.232007,-0.000026,-0.000014,-0.000003,-0.000014,-0.000027,-76.735224,0.000041,
2235,2846,-0.695315843042309,4.24323274566525,-0.033847779912719,-0.000247,0.002630,-0.008111,0.015885,0.103366,316.801860,24.841566,0.999399,0.992165,0.003587,0.248005,-0.000018,-0.000038,-0.000001,-0.000018,-0.000038,-2.247778,0.000057,
2100,2426,-3.55816843718783,-4.91413992913397,-0.0110164932798966,-0.000471,0.002317,-0.002190,-0.014486,0.118448,324.396722,24.635833,0.999348,0.989817,0.004122,0.241711,-0.000014,-0.000025,0.000004,-0.000013,-0.000026,17.757509,0.000040,
2370,2951,2.22053396685429,6.5334341377303,-0.0182312758878425,-0.000268,0.002822,-0.009209,0.021577,0.111902,315.056695,25.346575,0.999375,0.990881,0.003869,0.213998,-0.000034,-0.000015,-0.000013,-0.000009,-0.000040,-63.460288,0.000052,
2085,2531,-3.90137984260035,-2.62274432365477,-0.0221657107841224,-0.000372,0.002720,-0.007948,0.006669,0.099279,322.665622,24.656201,0.999634,0.992839,0.003644,0.244898,-0.000024,-0.000016,-0.000002,-0.000016,-0.000024,-78.305070,0.000040,
2355,2906,1.90227610411716,5.55413506545167,-0.0226098135667598,-0.000515,0.002552,-0.006165,-0.000986,0.096796,315.745824,25.182204,0.999407,0.992580,0.003524,0.213356,-0.000030,-0.000032,-0.000013,-0.000018,-0.000044,-42.558426,0.000064,
2025,2486,-5.19862021672062,-3.60534999586807,-0.0248877835834378,-0.000173,0.003061,-0.006975,0.012121,0.131715,323.730582,24.727425,0.999574,0.991987,0.003628,0.336732,-0.000003,-0.000004,0.000007,0.000003,-0.000011,43.547843,0.000011,
2115,2486,-3.241865282494,-3.60419476530154,-0.0209525176560419,-0.000481,0.002522,-0.007493,0.000848,0.095979,323.269644,24.556106,0.999289,0.989026,0.004221,0.276098,-0.000017,-0.000019,0.000011,-0.000007,-0.000029,42.198408,0.000038,
2265,2846,-0.0429122972114477,4.24454341110977,-0.0249868073680659,-0.000370,0.002511,-0.007613,0.009156,0.114517,316.809794,24.911323,0.999531,0.993730,0.003434,0.229247,-0.000016,-0.000039,-0.000003,-0.000016,-0.000040,-7.954630,0.000057,
2415,3026,3.18389685397806,8.16530073409611,-0.0112530595919225,-0.000973,0.002223,-0.007616,-0.015944,0.085834,313.858939,25.653026,0.999572,0.989857,0.003873,0.221583,-0.000027,-0.000020,-0.000002,-0.000020,-0.000027,-77.740099,0.000047,
2040,2501,-4.87504229347178,-3.27858097429582,-0.0214966567731949,-0.000455,0.002536,-0.005663,-0.004412,0.099093,323.404067,24.692094,0.999513,0.991730,0.003740,0.300346,0.000000,-0.000011,-0.000001,0.000000,-0.000012,-5.884887,0.000013,
2295,2891,0.60081254761916,5.22499113711018,-0.0220746681661126,-0.000509,0.002569,-0.006343,-0.000976,0.110683,316.032314,25.081925,0.999568,0.993088,0.003430,0.183071,-0.000017,-0.000027,-0.000002,-0.000016,-0.000027,-12.100494,0.000044,
2490,3266,4.76658716499832,13.3811585405912,-0.00279486826093489,-0.000303,0.001939,-0.006157,0.010558,0.080297,310.074757,26.831391,0.999813,0.995997,0.002717,0.189181,-0.000015,-0.000062,-0.000005,-0.000014,-0.000063,-5.835298,0.000082,
2070,2471,-4.21741412089571,-3.93275670119637,-0.013792348907316,-0.000285,0.002685,-0.007952,0.010391,0.098829,323.808359,24.677409,0.999477,0.991013,0.004057,0.257937,-0.000013,-0.000024,0.000006,-0.000010,-0.000027,24.100464,0.000038,
2325,2891,1.25308682139451,5.22532840003025,-0.0183886865582963,-0.000555,0.002275,-0.005242,-0.006508,0.106549,316.033514,25.036226,0.999291,0.991678,0.003745,0.277778,-0.000021,-0.000023,-0.000005,-0.000016,-0.000027,-40.278382,0.000044,
2205,2846,-1.34665625042436,4.24104744825518,-0.0243125371162591,-0.000468,0.002820,-0.007794,0.004193,0.113514,316.946827,24.810030,0.999324,0.991713,0.003656,0.249628,-0.000018,-0.000043,0.000000,-0.000018,-0.000043,-0.224700,0.000063,
2025,2936,-5.26692054905943,6.18492001645678,-0.00662598538031034,-0.000337,0.002127,-0.004478,-0.002518,0.097215,316.418598,24.519584,0.999284,0.992922,0.003520,0.219303,-0.000036,-0.000074,0.000001,-0.000036,-0.000074,1.182856,0.000112,
2295,3026,0.57725654986438,8.15622627980917,-0.00337624144412985,-0.000571,0.002293,-0.009583,0.007020,0.085543,313.945768,25.297078,0.999357,0.991551,0.003657,0.205172,-0.000022,-0.000020,0.000008,-0.000012,-0.000029,47.386975,0.000043,
2130,2531,-2.92296476620016,-2.6216213251896,-0.0198537557341751,-0.000494,0.002998,-0.007100,-0.000464,0.125595,322.468038,24.581153,0.999166,0.988416,0.004291,0.267666,-0.000031,-0.000021,-0.000003,-0.000020,-0.000032,-75.114112,0.000052,
2055,2516,-4.5510996218887,-2.95026541778665,-0.0202622066680078,-0.000251,0.002501,-0.004881,0.002967,0.092662,323.086614,24.757296,0.999051,0.990377,0.004003,0.193620,-0.000012,-0.000033,0.000006,-0.000011,-0.000035,15.791277,0.000048,
2070,2366,-4.20125755003091,-6.22521074872672,-0.0104524702799722,-0.000609,0.002364,-0.005623,-0.011247,0.092873,325.545566,24.716943,0.998170,0.982451,0.005349,0.225166,-0.000025,-0.000015,-0.000006,-0.000012,-0.000028,-65.508242,0.000041,
2055,2501,-4.54944540282261,-3.27830198514389,-0.0259767074088586,-0.000674,0.002406,-0.006402,-0.012261,0.079298,323.272157,24.638193,0.999400,0.990550,0.004018,0.304102,-0.000014,-0.000024,0.000005,-0.000012,-0.000026,24.040455,0.000039,
2280,2861,0.279809201466708,4.57190897279122,-0.0283834612145029,-0.000590,0.002554,-0.006497,-0.004442,0.096548,316.494847,24.979810,0.999702,0.994650,0.003244,0.190216,-0.000015,-0.000031,-0.000002,-0.000015,-0.000031,-8.525191,0.000047,
2385,2996,2.53852462653827,7.51087833159147,-0.00352263639439343,-0.000678,0.002302,-0.008138,-0.000999,0.094923,314.413424,25.481822,0.999565,0.990995,0.003809,0.224187,-0.000027,-0.000021,-0.000007,-0.000016,-0.000032,-55.810428,0.000048,
2430,3071,3.50168468532535,9.14268943641261,0.0018335871205295,-0.001014,0.001960,-0.003358,-0.033304,0.098401,313.218679,25.800713,0.999651,0.993655,0.003347,0.279282,-0.000028,-0.000027,-0.000006,-0.000021,-0.000033,-47.155533,0.000055,
2400,3011,2.86121303959388,7.83865655793964,-0.00861929345717272,-0.000540,0.002345,-0.005469,-0.004047,0.091133,314.127904,25.608014,0.999606,0.990157,0.003830,0.180634,-0.000024,-0.000019,-0.000008,-0.000013,-0.000030,-53.552144,0.000044,
2445,3101,3.8228357740761,9.79481288058758,0.0122358954706669,-0.000786,0.002064,-0.003552,-0.021974,0.090719,312.839347,25.974610,0.999731,0.994389,0.003217,0.252626,-0.000026,-0.000008,0.000004,-0.000007,-0.000027,79.057585,0.000036,
2160,2546,-2.27314263269378,-2.29346330102441,-0.024482905773425,-0.000116,0.002569,-0.003910,0.007542,0.117102,322.071256,24.534609,0.999132,0.987863,0.004301,0.264167,-0.000031,-0.000030,-0.000004,-0.000026,-0.000035,-47.122630,0.000061,
2040,2726,-4.91092224614937,1.62448129655409,-0.0375190146116893,-0.000605,0.002484,-0.005371,-0.012134,0.095028,319.542253,24.658866,0.999354,0.992496,0.003492,0.223312,-0.000031,-0.000010,-0.000003,-0.000010,-0.000031,-82.233206,0.000043,
2040,2516,-4.87724870926364,-2.95113727280057,-0.0255039664409082,-0.000200,0.002574,-0.007047,0.011170,0.092258,323.138586,24.687164,0.999354,0.992249,0.003753,0.291844,0.000002,-0.000024,0.000001,0.000002,-0.000024,1.166960,0.000027,
2250,2786,-0.358995192715202,2.93849199845256,-0.0285832839549016,-0.000700,0.002276,-0.002957,-0.021643,0.102470,317.774698,24.787206,0.999343,0.991332,0.003831,0.229480,-0.000015,-0.000023,-0.000003,-0.000014,-0.000024,-19.486912,0.000038,
2100,2561,-3.58106154352822,-1.96718098548373,-0.0313223748318023,-0.000420,0.002271,-0.002918,-0.010016,0.116923,322.002216,24.638318,0.999284,0.991087,0.003962,0.258578,-0.000021,-0.000016,0.000002,-0.000015,-0.000022,68.884874,0.000037,
2085,2576,-3.90924080894795,-1.64148566182424,-0.0253134710353606,-0.000655,0.002334,-0.004625,-0.016036,0.103852,321.873028,24.647860,0.998992,0.989898,0.004187,0.257144,-0.000029,-0.000020,0.000001,-0.000020,-0.000029,81.658575,0.000049,
2415,3041,3.18155742408179,8.48996225042471,-0.00272152918603297,-0.000887,0.001928,-0.006140,-0.017476,0.078491,313.678605,25.651915,0.999590,0.991953,0.003634,0.261843,-0.000024,-0.000023,0.000000,-0.000022,-0.000024,-83.915627,0.000047,
2175,2726,-1.97833193048809,1.62949364672416,-0.0363550793163085,-0.000308,0.002749,-0.007774,0.010944,0.128254,318.940227,24.612500,0.999413,0.991306,0.003821,0.325485,-0.000024,-0.000024,0.000001,-0.000023,-0.000025,43.818724,0.000048,
2145,2621,-2.61267497691021,-0.658110063969509,-0.0309388341623844,-0.000388,0.002445,-0.002577,-0.009171,0.114927,320.816217,24.626653,0.999601,0.992837,0.003682,0.236501,-0.000029,-0.000017,-0.000004,-0.000016,-0.000030,-74.029194,0.000047,
2310,2816,0.940678894601312,3.59482516386102,-0.0281969907503026,-0.000354,0.002637,-0.007278,0.009636,0.111975,317.226308,24.937995,0.999728,0.993964,0.003282,0.196391,-0.000018,-0.000019,-0.000005,-0.000013,-0.000024,-40.282039,0.000037,
2115,2501,-3.24429937591512,-3.27597589127661,-0.027612507574645,-0.000058,0.002497,-0.007717,0.020947,0.093808,322.986057,24.589282,0.999112,0.986589,0.004494,0.245264,-0.000020,-0.000024,0.000009,-0.000012,-0.000031,39.179982,0.000045,
2220,2756,-1.0053782743712,2.28416561814713,-0.0285545142948536,-0.000509,0.002439,-0.005397,-0.005203,0.113558,318.357520,24.712565,0.999458,0.991295,0.003740,0.255270,-0.000014,-0.000017,0.000000,-0.000014,-0.000017,9.183356,0.000031,
2025,2711,-5.2341214711414,1.29833170373827,-0.0431707762845122,-0.000091,0.002243,-0.003950,0.007386,0.104385,319.854691,24.681322,0.999553,0.993086,0.003646,0.217447,-0.000042,0.000014,0.000006,0.000015,-0.000042,84.307312,0.000043,
2115,2606,-3.26146205167499,-0.986888088362448,-0.0298190605743116,-0.000023,0.002553,-0.008530,0.025004,0.099501,321.235781,24.580176,0.999304,0.990311,0.004119,0.289636,-0.000025,-0.000015,-0.000001,-0.000015,-0.000025,-83.886366,0.000040,
2145,2516,-2.59516095445233,-2.94718254140641,-0.0365859187799629,-0.000159,0.002249,-0.004951,0.008434,0.103080,322.524020,24.532274,0.999284,0.989297,0.004150,0.259463,-0.000024,-0.000030,0.000001,-0.000024,-0.000030,8.893053,0.000054,
2070,2486,-4.22099485185378,-3.60485729816492,-0.0191401622140006,-0.000917,0.002485,-0.003758,-0.030665,0.109301,323.475193,24.674370,0.999549,0.992449,0.003815,0.269330,-0.000015,-0.000018,0.000006,-0.000011,-0.000022,39.481662,0.000034,
2235,2756,-0.679943929299942,2.28472403794132,-0.0301175116254626,-0.000828,0.001902,-0.002664,-0.028713,0.096948,318.285237,24.713025,0.999202,0.990415,0.003962,0.244995,-0.000018,-0.000011,0.000000,-0.000011,-0.000018,-89.940272,0.000029,
2055,2756,-4.58953015040979,2.27690803583268,-0.0318958902277018,-0.000602,0.002488,-0.007530,-0.005686,0.100114,319.010869,24.621004,0.999395,0.991718,0.003825,0.257854,-0.000054,-0.000027,-0.000009,-0.000025,-0.000056,-73.423128,0.000083,
2250,2906,-0.378634108702567,5.54702092806345,-0.00383806547381482,-0.000654,0.002367,-0.005907,-0.009800,0.115700,315.996594,25.023974,0.999745,0.994490,0.003078,0.188601,-0.000014,-0.000023,0.000003,-0.000013,-0.000024,15.448686,0.000037,
2475,3221,4.45092840341329,12.4028766167926,0.0142878466610341,-0.000755,0.002455,-0.006953,-0.007173,0.109488,310.919560,26.590631,0.999382,0.992547,0.003540,0.212201,-0.000024,-0.000023,0.000003,-0.000021,-0.000026,49.552935,0.000047,
2160,2681,-2.29654389601551,0.648685558841997,-0.0294620397700101,-0.000590,0.002480,-0.006781,-0.005483,0.105117,319.781178,24.615499,0.999570,0.991934,0.003536,0.266289,-0.000026,-0.000016,-0.000001,-0.000016,-0.000027,-81.773080,0.000043,
2130,2636,-2.94020821326236,-0.334016352239566,-0.0124099713641499,-0.000797,0.002426,-0.005493,-0.019454,0.082044,320.774660,24.634705,0.999677,0.993383,0.003417,0.214034,-0.000030,-0.000011,-0.000005,-0.000010,-0.000031,-76.078588,0.000042,
2265,2861,-0.0449659643576155,4.56910619341968,-0.0106605504897743,-0.000659,0.002383,-0.006641,-0.007432,0.100211,316.664064,24.906850,0.999756,0.994920,0.003181,0.244237,-0.000013,-0.000031,-0.000002,-0.000012,-0.000031,-6.135246,0.000045,
2205,2711,-1.32385191570154,1.30398370975834,-0.0343765974042185,-0.000606,0.002748,-0.007936,-0.001803,0.097051,319.099843,24.631599,0.999061,0.987832,0.004365,0.263032,-0.000023,-0.000022,-0.000003,-0.000019,-0.000026,-48.516184,0.000046,
2220,2846,-1.02085094083175,4.24201468042921,-0.0278327968838994,-0.000335,0.002804,-0.008550,0.013021,0.113979,316.885593,24.818420,0.999363,0.991440,0.003700,0.261723,-0.000018,-0.000040,0.000001,-0.000018,-0.000040,1.389457,0.000060,
2025,2951,-5.26929229183616,6.5104273728972,-0.00565204414442633,-0.000525,0.002281,-0.006044,-0.006844,0.099417,316.173140,24.503625,0.999412,0.993370,0.003374,0.227041,-0.000035,-0.000076,0.000000,-0.000035,-0.000076,-0.470842,0.000113,
2340,2861,1.5847813438139,4.57410268346786,-0.0236630307854853,-0.000436,0.002535,-0.006844,0.004814,0.101222,316.494811,24.994276,0.999649,0.992771,0.003498,0.268839,-0.000031,-0.000028,-0.000008,-0.000021,-0.000038,-50.557487,0.000060,
2280,2981,0.259230904200678,7.17806853017129,-0.0118113924642671,-0.000337,0.002465,-0.007357,0.010069,0.101305,314.648530,25.119871,0.999284,0.991856,0.003701,0.271201,-0.000022,-0.000022,0.000007,-0.000015,-0.000029,45.426870,0.000044,
2490,3281,4.76270173284186,13.7060240929856,-0.00695350491992031,-0.000511,0.001871,-0.003546,-0.009017,0.089108,309.768279,26.815790,0.999845,0.996505,0.002598,0.270857,-0.000008,-0.000091,-0.000003,-0.000008,-0.000091,-1.974597,0.000110,
2055,2531,-4.55381550467948,-2.62427631922802,-0.0131217298326192,-0.000755,0.002266,0.000382,-0.035044,0.128014,322.860861,24.684448,0.999278,0.990498,0.003951,0.297473,-0.000016,-0.000018,0.000009,-0.000009,-0.000026,41.626030,0.000036,
2070,2381,-4.20361830106527,-5.89655960195678,-0.0128787294643757,-0.000464,0.002773,-0.005428,-0.004989,0.110184,325.283955,24.766227,0.998782,0.985824,0.004846,0.191614,-0.000028,-0.000024,0.000000,-0.000024,-0.000028,84.154103,0.000052,
2460,3131,4.14305623859478,10.44835539756,0.00774455449044353,-0.000545,0.002477,-0.007672,0.004903,0.099108,312.353910,26.182648,0.999487,0.991072,0.003686,0.216976,-0.000024,-0.000012,0.000002,-0.000012,-0.000024,79.005176,0.000037,
2325,2906,1.24982135239204,5.55171984864651,-0.014912381328827,-0.001064,0.002215,-0.002887,-0.038029,0.119199,315.780785,25.103632,0.999259,0.991924,0.003707,0.256902,-0.000022,-0.000029,-0.000008,-0.000017,-0.000034,-33.243750,0.000052,
2280,2876,0.277706199946689,4.89659054593258,-0.02228909740586,-0.000451,0.002721,-0.007419,0.005079,0.097481,316.306197,24.912953,0.999726,0.994431,0.003250,0.285006,-0.000014,-0.000027,0.000001,-0.000014,-0.000027,5.003035,0.000042,
2025,2501,-5.20169864303254,-3.27658334563256,-0.0353997662519987,-0.000359,0.002814,-0.007248,0.004218,0.114021,323.387247,24.788965,0.999708,0.994067,0.003320,0.249172,-0.000009,-0.000014,0.000001,-0.000008,-0.000014,10.902773,0.000023,
2265,2936,-0.0588761480484408,6.19969082254382,-0.0153005315198698,-0.000518,0.002630,-0.006192,-0.002301,0.116841,315.380785,24.994166,0.999537,0.993288,0.003400,0.298566,-0.000021,-0.000023,0.000001,-0.000020,-0.000024,26.798972,0.000044,
2190,2696,-1.64730067139066,0.974760846921036,-0.0255608037419961,-0.000977,0.002325,-0.004601,-0.029712,0.093060,319.439898,24.510021,0.999729,0.995182,0.002996,0.365569,-0.000020,-0.000020,0.000000,-0.000020,-0.000020,6.619752,0.000040,
2100,2441,-3.56062238844158,-4.58699154547512,-0.012413543238381,-0.000570,0.002545,-0.004292,-0.012819,0.120731,324.139490,24.594116,0.999356,0.990558,0.004044,0.288392,-0.000008,-0.000027,0.000008,-0.000006,-0.000030,19.448117,0.000038,
2040,2531,-4.87996645331964,-2.62270274123586,-0.0262480898299486,-0.000418,0.002580,-0.004670,-0.005440,0.116676,322.867431,24.777103,0.999314,0.991223,0.003763,0.219687,-0.000002,-0.000012,0.000002,-0.000002,-0.000013,11.814737,0.000016,
2430,3086,3.50018125564745,9.46829085732732,0.0155006503879918,-0.000635,0.002260,-0.003769,-0.014291,0.103604,313.101143,25.917014,0.999680,0.993930,0.003314,0.216783,-0.000031,-0.000020,-0.000004,-0.000019,-0.000032,-73.049121,0.000051,
2445,3116,3.81942168006983,10.1209485797477,0.00843480944803332,-0.000882,0.002091,-0.003996,-0.024716,0.096812,312.553203,26.033275,0.999632,0.993210,0.003394,0.251063,-0.000025,-0.000008,0.000001,-0.000008,-0.000026,86.061100,0.000035,
2370,2966,2.2173559948817,6.85976714757865,-0.0173015585597796,-0.000367,0.002364,-0.006237,0.006317,0.107788,314.798605,25.424150,0.999599,0.990437,0.003999,0.172364,-0.000035,-0.000018,-0.000011,-0.000013,-0.000040,-63.047168,0.000055,
2130,2666,-2.94400176322027,0.316818642986448,0.000117488980549751,-0.000753,0.002874,-0.010020,-0.003709,0.102096,320.398984,24.493719,0.999728,0.992832,0.003422,0.386794,-0.000028,-0.000016,-0.000007,-0.000012,-0.000032,-65.183903,0.000046,
2355,2921,1.89894606915285,5.8803795827024,-0.0204990669120093,-0.000830,0.002051,-0.002475,-0.028619,0.095645,315.485550,25.244720,0.999312,0.992446,0.003581,0.187777,-0.000027,-0.000033,-0.000014,-0.000016,-0.000044,-38.404664,0.000062,
2025,2966,-5.27133645239736,6.83565469292588,-0.00386940901336175,-0.000365,0.002292,-0.006483,0.001770,0.098467,315.947353,24.474883,0.999436,0.993568,0.003261,0.243992,-0.000034,-0.000082,0.000004,-0.000034,-0.000082,5.069063,0.000119,
2175,2741,-1.9804516490286,1.9554429825425,-0.0222055878045921,-0.000571,0.002327,-0.004198,-0.012405,0.117076,318.786265,24.702124,0.999388,0.991872,0.003916,0.236497,-0.000020,-0.000019,0.000001,-0.000019,-0.000020,59.237739,0.000040,
2115,2636,-3.26729530034472,-0.332196302479538,-0.0402305372126648,-0.000215,0.002446,-0.007548,0.013213,0.082798,320.640363,24.616247,0.999341,0.990637,0.003912,0.244654,-0.000022,-0.000011,-0.000002,-0.000011,-0.000022,-81.782548,0.000033,
2190,2786,-1.663241554406,2.93606604652099,-0.0365375602909239,-0.000670,0.002354,-0.005908,-0.011441,0.100479,317.871190,24.720083,0.999025,0.989522,0.004219,0.249832,-0.000015,-0.000034,0.000000,-0.000015,-0.000034,1.183141,0.000050,
2235,2861,-0.697838347639841,4.56905206547786,-0.0261044227451066,-0.000467,0.002244,-0.005756,-0.001928,0.106964,316.599258,24.884924,0.999339,0.991532,0.003626,0.228851,-0.000017,-0.000028,0.000001,-0.000017,-0.000028,4.309796,0.000045,
2295,3041,0.575011303325653,8.48158649576443,0.00659115570988433,-0.000626,0.002464,-0.007792,-0.001427,0.110367,313.770203,25.335716,0.999469,0.991680,0.003586,0.220198,-0.000022,-0.000023,0.000010,-0.000012,-0.000033,44.044600,0.000047,
2250,2921,-0.381924885852197,5.87254998627377,-0.0112372538474119,-0.000725,0.002266,-0.006160,-0.012253,0.112614,315.682712,24.950073,0.999683,0.994506,0.003179,0.282364,-0.000018,-0.000020,0.000002,-0.000017,-0.000021,32.179015,0.000038,
2205,2726,-1.32648262272442,1.63032971826139,-0.0316952976907032,-0.000710,0.002370,-0.006626,-0.010835,0.090032,318.864359,24.656061,0.999354,0.990459,0.003855,0.248317,-0.000023,-0.000028,-0.000004,-0.000021,-0.000030,-28.587504,0.000052,
2235,2771,-0.68190226666788,2.61114173586746,-0.0312003163902546,-0.000431,0.002352,-0.008265,0.007809,0.088047,318.063458,24.729061,0.999109,0.990666,0.003884,0.240964,-0.000018,-0.000014,-0.000001,-0.000014,-0.000018,-77.506671,0.000032,
2295,2906,0.597983029655122,5.54964709085244,-0.0111540623835822,-0.001141,0.002230,-0.003364,-0.040204,0.105763,315.835156,25.061983,0.999531,0.993710,0.003338,0.227323,-0.000020,-0.000033,-0.000004,-0.000018,-0.000034,-16.947248,0.000053,
2025,2516,-5.20405806206993,-2.95083059849458,-0.0343659439556063,-0.000385,0.002376,-0.005121,-0.002913,0.094645,323.142036,24.688826,0.999735,0.994989,0.003111,0.321018,-0.000013,-0.000024,0.000005,-0.000011,-0.000026,20.090019,0.000038,
2040,2741,-4.91292465660927,1.95024792507908,-0.0352675001753369,-0.000462,0.002476,-0.006171,-0.003281,0.112380,319.321475,24.603597,0.999500,0.993154,0.003439,0.288329,-0.000035,-0.000019,-0.000006,-0.000017,-0.000037,-71.347131,0.000055,
2175,2651,-1.96554620094091,-0.00224856814723751,-0.0439595855464177,0.000062,0.003106,-0.009384,0.032966,0.117062,320.141975,24.628719,0.999615,0.992250,0.003662,0.235938,-0.000028,-0.000014,-0.000005,-0.000012,-0.000029,-71.311644,0.000043,
2415,3056,3.17924582393261,8.81639481110452,-0.000420286741928066,-0.000497,0.002189,-0.007524,0.005595,0.085065,313.469668,25.761358,0.999623,0.992640,0.003535,0.205675,-0.000026,-0.000022,-0.000002,-0.000022,-0.000027,-68.840212,0.000049,
2070,2396,-4.20637453952869,-5.56915757263407,-0.0133084331707778,-0.000862,0.002667,-0.005595,-0.022857,0.117307,325.015529,24.736483,0.998864,0.985949,0.004951,0.226901,-0.000016,-0.000026,0.000005,-0.000014,-0.000029,23.205269,0.000044,
2085,2591,-3.9112393330359,-1.31414537202359,-0.0280274785588972,-0.000397,0.002860,-0.009496,0.010057,0.103210,321.628172,24.665619,0.999029,0.989805,0.004139,0.238461,-0.000032,-0.000017,0.000000,-0.000017,-0.000032,-89.560673,0.000050,
2250,2801,-0.361706145099713,3.26516946446579,-0.0332338797924194,-0.000565,0.002339,-0.005648,-0.006608,0.103406,317.501313,24.798673,0.999355,0.991013,0.003999,0.242016,-0.000015,-0.000026,-0.000003,-0.000015,-0.000026,-13.074599,0.000042,
2055,2546,-4.55619815710515,-2.29570358775133,-0.0265785085513812,-0.000364,0.002846,-0.005944,0.000923,0.130801,322.536273,24.697848,0.999340,0.990447,0.003985,0.282277,-0.000015,-0.000025,0.000009,-0.000010,-0.000031,30.211157,0.000042,
2340,2876,1.58113046358746,4.90060732114371,-0.0305726725214868,-0.000370,0.002245,-0.002555,-0.007185,0.105817,316.174909,24.994290,0.999617,0.992402,0.003565,0.309723,-0.000033,-0.000027,-0.000006,-0.000023,-0.000037,-56.596889,0.000061,
2490,3296,4.75958236156879,14.0315658774568,-0.00681652199881455,-0.000779,0.002180,-0.006525,-0.009798,0.093529,309.516296,26.895204,0.999728,0.994587,0.003072,0.252880,0.000014,-0.000103,0.000002,0.000014,-0.000103,1.125213,0.000112,
2130,2651,-2.94317637236512,-0.00676740677928223,-0.0207562216068027,-0.000851,0.002651,-0.007203,-0.016741,0.099498,320.459135,24.597783,0.999649,0.992499,0.003508,0.274860,-0.000032,-0.000013,-0.000008,-0.000010,-0.000035,-69.841846,0.000048,
2385,3011,2.5360410054697,7.83638488465566,0.00421710006298781,-0.000584,0.002071,-0.005061,-0.007850,0.085501,314.220922,25.547135,0.999633,0.992129,0.003563,0.191566,-0.000023,-0.000021,-0.000007,-0.000015,-0.000029,-48.024802,0.000045,
2220,2861,-1.023306011947,4.56806562371901,-0.0257666915898085,-0.000274,0.002417,-0.008517,0.015623,0.102313,316.655973,24.854456,0.999388,0.992511,0.003452,0.232592,-0.000018,-0.000030,0.000003,-0.000017,-0.000031,13.223671,0.000048,
2265,2876,-0.0476362229022165,4.89547337255065,-0.0134333407107192,-0.000521,0.002702,-0.008393,0.004844,0.113501,316.403227,24.914486,0.999682,0.993555,0.003334,0.274931,-0.000011,-0.000027,0.000001,-0.000011,-0.000027,4.448429,0.000039,
2025,2726,-5.23630044096864,1.62328526266359,-0.033418529363189,-0.000607,0.002471,-0.004809,-0.013969,0.103705,319.666935,24.626750,0.999531,0.993192,0.003491,0.261407,-0.000044,0.000005,-0.000005,0.000005,-0.000045,-84.010747,0.000049,
2145,2531,-2.59704229649627,-2.62111459792888,-0.024613487143256,-0.000412,0.002787,-0.006013,0.000214,0.115458,322.367916,24.536428,0.999360,0.989486,0.004018,0.276247,-0.000031,-0.000022,-0.000004,-0.000021,-0.000032,-67.508639,0.000053,
2220,2771,-1.00762667104664,2.61000365119864,-0.0268684547456814,-0.000359,0.002558,-0.007277,0.007680,0.090850,318.135659,24.711017,0.999329,0.991351,0.003835,0.252809,-0.000014,-0.000019,0.000001,-0.000014,-0.000019,14.393414,0.000033,
2070,2501,-4.22328242685994,-3.27834963097143,-0.0194276830949889,-0.000900,0.002409,-0.004802,-0.026959,0.094789,323.229339,24.621202,0.999349,0.991378,0.003897,0.306021,-0.000018,-0.000023,0.000002,-0.000017,-0.000024,20.995427,0.000041,
2025,2981,-5.27357749983068,7.16162439607314,-0.00581645310336398,-0.000143,0.002478,-0.006406,0.011838,0.108203,315.691398,24.481518,0.999248,0.993650,0.003440,0.236650,-0.000023,-0.000072,0.000014,-0.000020,-0.000076,15.333147,0.000101,
2475,3236,4.44709525435276,12.7282855072294,0.00356430268425356,-0.000510,0.002121,-0.005771,-0.000520,0.100612,310.584430,26.590767,0.999695,0.994752,0.003031,0.258305,-0.000023,-0.000032,0.000000,-0.000023,-0.000033,-0.850470,0.000055,
2085,2546,-3.90397334226494,-2.29610011770891,-0.0221889999127143,-0.000503,0.002546,-0.006760,-0.002810,0.112853,322.408313,24.605248,0.999418,0.992568,0.003723,0.309368,-0.000023,-0.000020,-0.000002,-0.000018,-0.000024,-62.474305,0.000043,
2025,2531,-5.20585921843567,-2.62328218386503,-0.0290109446399924,-0.000263,0.002564,-0.005731,0.004400,0.107182,322.945872,24.765254,0.999445,0.991595,0.003709,0.248071,-0.000012,-0.000006,0.000011,0.000003,-0.000020,52.371626,0.000022,
2040,2756,-4.91448876796287,2.2754086600662,-0.0278340539694568,-0.000289,0.002544,-0.008535,0.011243,0.102422,319.149841,24.565969,0.999276,0.992274,0.003849,0.308082,-0.000039,-0.000026,-0.000011,-0.000020,-0.000045,-60.046910,0.000067,
2505,2006,5.3602673385234,-14.1217287263149,0.0262008373350113,-0.000558,0.002917,-0.009405,0.011927,0.085474,331.332906,21.816715,0.999360,0.975637,0.005990,0.110284,-0.000086,0.000042,-0.000025,0.000046,-0.000090,-79.453969,0.000090,
2280,2891,0.274239647972628,5.22390224094116,-0.0288735264699085,-0.000596,0.002374,-0.006419,-0.005050,0.092850,315.990617,25.002673,0.999620,0.993669,0.003320,0.218026,-0.000015,-0.000024,0.000001,-0.000015,-0.000024,6.712513,0.000040,
2190,2711,-1.65029710107118,1.30399075713361,-0.0398512759329606,-0.000608,0.002617,-0.007737,-0.002814,0.098793,319.097371,24.640349,0.999403,0.991262,0.003714,0.256171,-0.000020,-0.000022,-0.000001,-0.000019,-0.000023,-24.663333,0.000042,
2025,2741,-5.23813293525169,1.94912964224103,-0.0295382690657107,-0.000416,0.002417,-0.005628,-0.002914,0.108311,319.461967,24.603906,0.999425,0.991530,0.003799,0.278910,-0.000043,-0.000010,-0.000011,-0.000007,-0.000046,-73.984610,0.000058,
2190,2801,-1.66614898668366,3.26202696872303,-0.0319908367825406,-0.001116,0.002197,-0.003390,-0.039878,0.111708,317.631636,24.727457,0.999089,0.988908,0.004255,0.267996,-0.000017,-0.000035,0.000001,-0.000017,-0.000035,2.964277,0.000053,
2235,2786,-0.684868463471748,2.93778619466769,-0.0292705974472369,-0.000629,0.002374,-0.005073,-0.011619,0.102648,317.810653,24.771285,0.999343,0.991389,0.003830,0.234289,-0.000018,-0.000025,-0.000004,-0.000016,-0.000027,-22.206551,0.000043,
2460,3146,4.14031255500116,10.7733524682482,0.0146807224064105,-0.000742,0.002348,-0.007037,-0.006608,0.090205,312.149449,26.227565,0.999496,0.990275,0.003741,0.216175,-0.000026,-0.000017,0.000002,-0.000016,-0.000026,75.533274,0.000043,
2400,3026,2.85826983499338,8.16382092027333,-0.00755252547554619,-0.000645,0.002253,-0.006011,-0.006929,0.091293,313.883530,25.590921,0.999634,0.990310,0.003877,0.242693,-0.000023,-0.000022,0.000000,-0.000021,-0.000023,87.707487,0.000045,
2100,2576,-3.58283955411968,-1.64148164083105,-0.0247255675548672,-0.000536,0.002811,-0.008087,-0.000155,0.104130,321.819594,24.596607,0.999295,0.990184,0.003996,0.289202,-0.000023,-0.000019,0.000005,-0.000015,-0.000027,56.913239,0.000042,
2055,2561,-4.55814334948219,-1.96983527187528,-0.0208590136750217,-0.000295,0.002615,-0.005392,0.002461,0.114619,322.338193,24.661495,0.999294,0.990887,0.003917,0.297778,-0.000017,-0.000016,0.000010,-0.000006,-0.000027,46.871345,0.000035,
2100,2456,-3.56323836921263,-4.25852907494716,-0.0179497798395687,-0.000549,0.002766,-0.006258,-0.006070,0.120039,323.852163,24.641570,0.999360,0.990545,0.004007,0.242891,-0.000010,-0.000028,0.000006,-0.000008,-0.000030,15.463958,0.000040,
2370,2981,2.21488823297097,7.18456744057674,-0.00909366393739219,-0.000492,0.002319,-0.005372,-0.002488,0.112696,314.608523,25.406846,0.999517,0.990462,0.003945,0.234967,-0.000035,-0.000022,-0.000008,-0.000018,-0.000038,-65.284410,0.000058,
2265,2951,-0.0613771533327778,6.52557873531425,-0.00981928921271447,-0.000586,0.002279,-0.004983,-0.009547,0.107749,315.169348,25.062288,0.999246,0.990039,0.003948,0.246005,-0.000024,-0.000015,0.000003,-0.000015,-0.000025,74.481251,0.000040,
2325,2921,1.24743550059588,5.87771672064314,-0.0149269245460459,-0.000953,0.002624,-0.007425,-0.017130,0.117999,315.551475,25.126721,0.998937,0.990187,0.004014,0.266347,-0.000019,-0.000030,-0.000009,-0.000014,-0.000035,-27.751779,0.000050,
2160,2561,-2.27527211764138,-1.96699681869431,-0.0208080232224006,-0.000213,0.002578,-0.007606,0.014336,0.095305,321.860880,24.542261,0.999073,0.987805,0.004333,0.245264,-0.000030,-0.000029,-0.000004,-0.000026,-0.000033,-49.547817,0.000059,
2475,3251,4.44367439606213,13.053722359973,-0.00221028601737316,-0.000494,0.002178,-0.007351,0.006204,0.087851,310.290803,26.631257,0.999718,0.995112,0.002891,0.260038,-0.000023,-0.000037,0.000000,-0.000023,-0.000037,-0.213500,0.000061,
2055,2771,-4.59134782225587,2.60216000647199,-0.0262353248664908,-0.000515,0.002555,-0.009280,0.003207,0.087999,318.818737,24.583848,0.999294,0.991087,0.003750,0.277173,-0.000051,-0.000024,-0.000012,-0.000020,-0.000056,-69.034956,0.000078,
2040,2546,-4.8821114226713,-2.29538598250639,-0.0324533342910058,-0.000118,0.002852,-0.008571,0.019261,0.112583,322.592611,24.748602,0.999515,0.991356,0.003656,0.237377,-0.000002,-0.000026,0.000003,-0.000002,-0.000027,6.465060,0.000032,
2445,3131,3.81663058143146,10.4471756539859,0.00842547352385736,-0.000738,0.002197,-0.005348,-0.013004,0.095901,312.313219,26.135890,0.999465,0.990045,0.003940,0.198400,-0.000024,-0.000015,0.000001,-0.000015,-0.000024,83.552533,0.000040,
2250,2816,-0.363671366319611,3.58987226762383,-0.019044596133142,-0.000729,0.002119,-0.004056,-0.019426,0.105599,317.358275,24.779573,0.999518,0.991323,0.004004,0.286090,-0.000015,-0.000022,-0.000001,-0.000015,-0.000023,-10.605027,0.000037,
2070,2516,-4.22488059589363,-2.94991389525362,-0.0190803222660634,-0.000175,0.002636,-0.005084,0.007292,0.103953,323.017914,24.731544,0.999413,0.992153,0.003753,0.202637,-0.000017,-0.000029,0.000002,-0.000017,-0.000029,9.744934,0.000047,
2145,2636,-2.6154150378759,-0.331109887216996,-0.0351597715850858,-0.000495,0.002424,-0.004890,-0.007121,0.109286,320.534641,24.621837,0.999674,0.993069,0.003522,0.244085,-0.000029,-0.000011,-0.000004,-0.000010,-0.000030,-77.365886,0.000042,
2310,2831,0.93839177218619,3.92060700881213,-0.0190001102712358,-0.000469,0.002799,-0.006624,0.002096,0.104807,317.046179,24.992879,0.999768,0.994313,0.003236,0.165967,-0.000016,-0.000027,-0.000007,-0.000013,-0.000030,-25.377170,0.000044,
2115,2621,-3.26484807562856,-0.658889366993549,-0.0403904773953627,-0.000232,0.002716,-0.007888,0.013520,0.103016,320.887514,24.596827,0.999146,0.987569,0.004522,0.280551,-0.000021,-0.000016,0.000001,-0.000015,-0.000021,75.278213,0.000037,
2355,2936,1.89677827955302,6.2063991363211,-0.0181323970133462,-0.000517,0.002461,-0.005420,-0.003702,0.100214,315.279975,25.286517,0.999256,0.991482,0.003746,0.188560,-0.000029,-0.000024,-0.000016,-0.000010,-0.000042,-49.082584,0.000056,
2505,2021,5.35724652244166,-13.7913074793761,0.022043450848912,-0.000258,0.003503,-0.011907,0.035508,0.099120,331.074279,21.881848,0.999344,0.972478,0.006238,0.123242,-0.000060,0.000040,-0.000018,0.000044,-0.000063,-80.141199,0.000065,
2205,2741,-1.32883122374345,1.9570139910802,-0.0301067520712763,-0.000429,0.002211,-0.004952,-0.003229,0.100202,318.636007,24.689700,0.999535,0.991734,0.003684,0.241607,-0.000019,-0.000022,-0.000005,-0.000016,-0.000026,-35.552024,0.000042,
2205,2861,-1.34876325118828,4.56624225653087,-0.0210346516991535,-0.000307,0.002567,-0.009738,0.017706,0.106816,316.738649,24.771066,0.999374,0.993072,0.003356,0.298172,-0.000016,-0.000032,0.000003,-0.000016,-0.000033,9.390577,0.000050,
2430,3101,3.49619784169046,9.794186179258,0.00705864029021086,-0.000918,0.002247,-0.003756,-0.027435,0.089013,312.766068,25.939466,0.999762,0.994957,0.003100,0.228438,-0.000030,-0.000013,0.000001,-0.000012,-0.000030,85.690611,0.000044,
2280,2906,0.271259959363462,5.55011057504194,-0.0309032422869677,-0.000603,0.001999,-0.005591,-0.008265,0.081325,315.720501,25.036679,0.999587,0.994313,0.003160,0.199748,-0.000018,-0.000030,0.000000,-0.000018,-0.000030,-1.123483,0.000049,
2100,2591,-3.58536980693296,-1.31435741559112,-0.0234419233881908,-0.000506,0.002567,-0.004635,-0.008881,0.119515,321.573323,24.614333,0.999202,0.990186,0.004090,0.288736,-0.000026,-0.000016,0.000005,-0.000014,-0.000028,68.438991,0.000042,
2235,2876,-0.699830911854722,4.89424060550906,-0.0156814150655009,-0.000625,0.002566,-0.007303,-0.004142,0.104935,316.434872,24.899306,0.999554,0.992616,0.003394,0.232917,-0.000016,-0.000023,0.000001,-0.000016,-0.000023,5.420924,0.000039,
2070,2411,-4.20788380006832,-5.24282895039971,-0.0066555268692241,-0.000460,0.002846,-0.005796,-0.003751,0.118699,324.843163,24.687757,0.998706,0.985782,0.004802,0.274947,-0.000017,-0.000019,-0.000002,-0.000016,-0.000020,-27.485176,0.000036,
2475,3266,4.44046177813172,13.3797323986403,-0.0022389064540107,-0.000713,0.002094,-0.008568,0.000760,0.088900,310.032738,26.748297,0.999822,0.996070,0.002700,0.198991,-0.000025,-0.000055,0.000001,-0.000025,-0.000055,0.939424,0.000082,
2175,2756,-1.98378273575564,2.28211968814781,-0.0310154065044799,-0.000681,0.002245,-0.003363,-0.020051,0.111514,318.456129,24.670113,0.999254,0.991298,0.003903,0.275352,-0.000019,-0.000017,0.000003,-0.000015,-0.000022,53.055068,0.000037,
2130,2681,-2.94795412152477,0.646210426615397,-0.0166809979141931,-0.000767,0.002485,-0.004713,-0.020331,0.108987,319.992602,24.602377,0.999613,0.992583,0.003424,0.291335,-0.000030,-0.000019,-0.000004,-0.000018,-0.000031,-73.171267,0.000050,
2280,2996,0.256627182471377,7.50438004252134,-0.0100474624182993,-0.000262,0.002479,-0.006835,0.011780,0.101621,314.414427,25.203322,0.999194,0.991660,0.003718,0.215074,-0.000020,-0.000015,0.000007,-0.000010,-0.000025,55.665987,0.000036,
2460,3161,4.13721500372895,11.0991754322892,0.018710308484799,-0.001014,0.002440,-0.005957,-0.023080,0.114881,311.914962,26.300168,0.999551,0.991882,0.003593,0.221245,-0.000024,-0.000016,-0.000002,-0.000016,-0.000024,-78.158314,0.000040,
2265,2891,-0.0509512774048666,5.22256681488562,-0.0195078965276707,-0.000465,0.002567,-0.005717,-0.001481,0.104432,316.095901,24.991470,0.999599,0.992843,0.003441,0.214250,-0.000013,-0.000023,0.000002,-0.000013,-0.000024,8.688880,0.000037,
2370,2996,2.21228422652354,7.51059542858151,-0.00479042681968167,-0.000660,0.002428,-0.007295,-0.003434,0.098760,314.393033,25.497284,0.999461,0.990369,0.003931,0.170503,-0.000031,-0.000020,-0.000006,-0.000018,-0.000033,-66.086674,0.000052,
2265,2966,-0.0647021067213522,6.85182863919859,-0.0145495302679137,-0.000744,0.002276,-0.003817,-0.020704,0.104608,314.868380,25.088835,0.999429,0.992269,0.003614,0.241153,-0.000023,-0.000018,0.000006,-0.000014,-0.000027,55.637704,0.000041,
2025,2546,-5.20793394779824,-2.29616187073551,-0.0235632981028857,-0.000363,0.002716,-0.005365,-0.001129,0.120978,322.737857,24.806275,0.999558,0.991097,0.003623,0.211652,-0.000008,-0.000023,0.000016,0.000003,-0.000033,32.297026,0.000037,
2130,2906,-2.98420710237587,5.53878182383036,-0.00538895489353308,-0.000342,0.002332,-0.005158,0.000574,0.112180,316.372636,24.671009,0.999432,0.990872,0.003856,0.307051,-0.000026,-0.000041,0.000001,-0.000025,-0.000041,5.096667,0.000067,
2220,2876,-1.02581809628317,4.89332358874888,-0.0179091888044809,-0.000478,0.002357,-0.005631,-0.003045,0.104626,316.453727,24.851379,0.999477,0.994002,0.003128,0.256100,-0.000018,-0.000025,0.000003,-0.000017,-0.000026,18.805687,0.000043,
2385,3026,2.53271613781665,8.16250626880872,-0.00240996305262797,-0.000640,0.002340,-0.007517,-0.001470,0.090922,313.920943,25.559360,0.999625,0.991774,0.003636,0.227294,-0.000022,-0.000024,0.000001,-0.000021,-0.000024,22.214980,0.000046,
2295,3056,0.571681996024889,8.80682505714802,0.00382147255828613,-0.000793,0.002182,-0.005571,-0.016728,0.104647,313.481417,25.311339,0.999583,0.993862,0.003272,0.267685,-0.000019,-0.000026,0.000008,-0.000014,-0.000031,33.699420,0.000046,
2175,2666,-1.96773031114517,0.322868160152133,-0.0261092584252083,-0.000667,0.002904,-0.007851,-0.005321,0.123190,320.004645,24.638519,0.999652,0.993406,0.003378,0.244432,-0.000022,-0.000015,-0.000003,-0.000014,-0.000023,-70.590140,0.000038,
2100,2471,-3.56547310039191,-3.93134494150962,-0.0192572168901393,-0.000207,0.002655,-0.004887,0.005612,0.120877,323.605437,24.616024,0.999352,0.990449,0.004014,0.271639,-0.000010,-0.000025,0.000007,-0.000008,-0.000027,21.317106,0.000037,
2025,2996,-5.27587906490177,7.48654135987444,-0.000625244561604177,-0.000376,0.002374,-0.005770,-0.000673,0.099195,315.473072,24.464231,0.999215,0.993792,0.003363,0.234132,-0.000022,-0.000053,0.000016,-0.000015,-0.000060,22.432130,0.000079,
2085,2606,-3.91355953065932,-0.987168501984598,-0.0296310840663523,-0.000167,0.002760,-0.008645,0.018145,0.099718,321.374746,24.667902,0.999161,0.990149,0.004027,0.232357,-0.000034,-0.000018,-0.000007,-0.000016,-0.000037,-69.694443,0.000054,
2040,2771,-4.91689749847554,2.60266875319336,-0.0365299507893155,-0.000028,0.002716,-0.011764,0.032300,0.094680,318.849268,24.593165,0.999172,0.991933,0.003718,0.265625,-0.000038,-0.000023,-0.000013,-0.000015,-0.000046,-60.129004,0.000064,
2115,2651,-3.27026853774779,-0.00452631260282033,-0.0396104657098135,-0.000464,0.002180,-0.002815,-0.012248,0.105079,320.371184,24.691615,0.999502,0.991689,0.003613,0.195299,-0.000026,-0.000013,-0.000007,-0.000011,-0.000029,-66.849509,0.000041,
2085,2561,-3.90640099293849,-1.96867049759105,-0.0164808692325096,-0.000737,0.002314,-0.004234,-0.020935,0.104697,322.189652,24.704156,0.998843,0.989528,0.004319,0.201933,-0.000026,-0.000014,-0.000001,-0.000014,-0.000027,-83.598592,0.000041,
2415,3071,3.1763947005316,9.14156714971464,0.00597469042764942,-0.000779,0.002402,-0.006399,-0.011386,0.100697,313.255438,25.776605,0.999637,0.992991,0.003437,0.252519,-0.000031,-0.000030,-0.000002,-0.000028,-0.000033,-53.695558,0.000061,
2310,2846,0.935566546837553,4.2452488082544,-0.0147949337359705,-0.000732,0.002504,-0.005662,-0.013330,0.104523,316.816965,24.901043,0.999813,0.994458,0.003204,0.289185,-0.000017,-0.000033,-0.000007,-0.000014,-0.000036,-21.198557,0.000051,
2160,2576,-2.27871947601577,-1.63913490156173,-0.0285010633502338,-0.000554,0.002628,-0.006667,-0.004161,0.110811,321.529723,24.543730,0.999187,0.988109,0.004221,0.270269,-0.000031,-0.000025,-0.000004,-0.000024,-0.000033,-64.454788,0.000057,
2025,2756,-5.24023635511165,2.27552955414828,-0.0317323592906291,-0.000145,0.002521,-0.006714,0.012591,0.115689,319.210487,24.584247,0.999217,0.990895,0.003993,0.296120,-0.000040,-0.000017,-0.000017,-0.000008,-0.000049,-62.368544,0.000062,
2190,2726,-1.65242542396244,1.63015756551633,-0.0351753322400441,-0.000480,0.002728,-0.007978,0.003895,0.107314,318.894247,24.649313,0.999399,0.990889,0.003771,0.270139,-0.000020,-0.000029,-0.000002,-0.000020,-0.000029,-10.747886,0.000049,
2505,2036,5.3548309555592,-13.4640596927452,0.0354846408185381,0.000018,0.002227,-0.004146,0.017707,0.083985,330.922015,21.893663,0.999371,0.973250,0.006123,0.160375,-0.000040,0.000035,-0.000016,0.000038,-0.000043,-78.706377,0.000047,
2145,2546,-2.59926051296413,-2.29467037467569,-0.0222374206731502,-0.000331,0.002634,-0.006606,0.005664,0.102056,322.145489,24.517059,0.999101,0.987975,0.004304,0.290700,-0.000030,-0.000023,-0.000007,-0.000019,-0.000035,-58.717279,0.000054,
2160,2696,-2.2988961805621,0.975811933190315,-0.0338587026278674,-0.000274,0.002770,-0.009260,0.016674,0.101348,319.517683,24.639008,0.999464,0.989528,0.003874,0.249300,-0.000028,-0.000016,-0.000001,-0.000016,-0.000028,-83.875944,0.000044,
2220,2786,-1.01027092957329,2.93638671374931,-0.0238392136619154,-0.000466,0.002436,-0.005885,-0.001682,0.096950,317.902292,24.745827,0.999446,0.992462,0.003706,0.242997,-0.000013,-0.000029,0.000000,-0.000013,-0.000029,-1.355173,0.000043,
2040,2561,-4.88385359828534,-1.96969894815154,-0.0274092680526223,0.000040,0.002723,-0.010163,0.030939,0.101341,322.399098,24.684722,0.999536,0.991292,0.003625,0.283212,-0.000001,-0.000019,0.000003,0.000000,-0.000019,7.814268,0.000022,
2475,3281,4.43748460031212,13.7044152793081,0.00289657269235022,-0.001051,0.002273,-0.008829,-0.013788,0.089155,309.809502,26.776435,0.999834,0.996666,0.002611,0.225914,-0.000022,-0.000081,0.000003,-0.000022,-0.000082,2.977051,0.000109,
2190,2816,-1.66777804614455,3.58839274464579,-0.0295270928994569,-0.000519,0.002764,-0.006409,-0.002795,0.117506,317.439767,24.764812,0.998854,0.987355,0.004429,0.250752,-0.000015,-0.000035,0.000002,-0.000014,-0.000035,4.814216,0.000051,
2340,2891,1.57924527562053,5.22714631419248,-0.022476134021133,-0.000284,0.002399,-0.006229,0.009652,0.104309,316.009171,25.120591,0.999445,0.992321,0.003585,0.217828,-0.000031,-0.000025,-0.000007,-0.000020,-0.000036,-57.111370,0.000057,
2070,2531,-4.22757579530764,-2.62315573867367,-0.0196565307318224,-0.000437,0.002528,-0.004440,-0.006623,0.115290,322.751689,24.682834,0.999463,0.992139,0.003738,0.260305,-0.000022,-0.000014,0.000002,-0.000014,-0.000022,73.631555,0.000036,
2430,3116,3.49259080771938,10.120759688189,-0.000996107106288946,-0.000899,0.002281,-0.004311,-0.024458,0.095390,312.449814,26.011183,0.999827,0.995742,0.002908,0.212087,-0.000029,-0.000014,-0.000001,-0.000014,-0.000029,-86.986452,0.000043,
2235,2801,-0.687629974846946,3.26451398437455,-0.0338075392427299,-0.000524,0.002855,-0.006940,-0.000570,0.121427,317.534157,24.770282,0.999472,0.991097,0.003899,0.275232,-0.000019,-0.000029,-0.000003,-0.000018,-0.000030,-17.126543,0.000048,
2055,2786,-4.59440400582278,2.92998679213818,-0.0344129591605906,-0.000494,0.002443,-0.005928,-0.005194,0.118371,318.492551,24.634693,0.999203,0.990681,0.003805,0.251428,-0.000053,-0.000019,-0.000011,-0.000016,-0.000056,-72.829038,0.000076,
2445,3146,3.81436924828137,10.7721319673011,0.0140183340104159,-0.000617,0.002310,-0.007837,0.001898,0.100989,312.123931,26.154353,0.999532,0.991757,0.003622,0.236001,-0.000027,-0.000019,0.000002,-0.000019,-0.000027,72.751367,0.000046,
2055,2576,-4.5610613400838,-1.64192527304902,-0.027315672017437,-0.000515,0.002630,-0.006038,-0.005863,0.118417,322.027864,24.687828,0.998714,0.988165,0.004470,0.270737,-0.000019,-0.000029,0.000012,-0.000010,-0.000038,33.291791,0.000051,
2175,2771,-1.98671906934482,2.60949335951074,-0.0375799744674623,-0.000698,0.002647,-0.004819,-0.016206,0.125352,318.155587,24.706470,0.999263,0.991519,0.003984,0.265263,-0.000019,-0.000020,0.000002,-0.000017,-0.000022,39.642841,0.000040,
2250,2936,-0.384817623758963,6.19852371829907,-0.0134293360213178,-0.000694,0.002440,-0.005397,-0.013335,0.107430,315.413380,24.962184,0.999663,0.995196,0.002989,0.287631,-0.000021,-0.000020,0.000004,-0.000016,-0.000024,49.243589,0.000041,
2295,2921,0.595841652002107,5.87439597791415,-0.00644377807071805,-0.000895,0.002305,-0.004019,-0.026689,0.096171,315.638704,25.012466,0.999476,0.993713,0.003340,0.296699,-0.000018,-0.000032,-0.000006,-0.000016,-0.000034,-19.944485,0.000051,
2025,2561,-5.2103746702079,-1.97027540203851,-0.0258165565036848,-0.000368,0.002276,-0.004952,-0.002645,0.086280,322.470668,24.717623,0.999613,0.990775,0.003687,0.256652,-0.000004,-0.000018,0.000016,0.000006,-0.000028,33.238400,0.000030,
2025,3011,-5.27824929307483,7.81231713264592,0.00222151527691494,-0.000463,0.002221,-0.003988,-0.009615,0.103448,315.238162,24.500002,0.999532,0.994916,0.003142,0.191919,-0.000020,-0.000047,0.000025,-0.000005,-0.000063,30.923875,0.000076,
2115,2876,-3.30606117368022,4.88824669198637,-0.0217855087604448,-0.000569,0.002572,-0.005293,-0.009666,0.106749,316.790189,24.715293,0.999590,0.993315,0.003464,0.222753,-0.000025,-0.000031,0.000002,-0.000025,-0.000031,16.841279,0.000056,
2475,3296,4.43293986331848,14.030695816235,-0.0103049900407655,-0.001133,0.002182,-0.005509,-0.030257,0.088357,309.429503,26.854434,0.999550,0.994446,0.003231,0.201915,-0.000008,-0.000092,0.000006,-0.000007,-0.000092,4.113731,0.000111,
2265,3026,-0.0742770292887336,8.15385560849007,-0.00103390775791468,-0.000633,0.002264,-0.008074,-0.001562,0.088742,313.999958,25.194559,0.999345,0.992478,0.003535,0.217745,-0.000024,-0.000014,0.000008,-0.000010,-0.000029,60.286287,0.000040,
2130,2696,-2.95067070079706,0.9744795601014,-0.0318690941972477,-0.000284,0.002719,-0.009035,0.014868,0.099571,319.651770,24.644661,0.999578,0.991274,0.003657,0.245688,-0.000033,-0.000017,-0.000004,-0.000016,-0.000033,-77.625012,0.000051,
2025,2771,-5.24331833206405,2.60324510132297,-0.0395297094400462,-0.000409,0.002645,-0.006084,-0.001266,0.112190,318.882485,24.656233,0.999486,0.992709,0.003623,0.210835,-0.000039,-0.000017,-0.000021,-0.000005,-0.000052,-58.892246,0.000063,
2040,2786,-4.91934510612268,2.92957201484052,-0.0363359859128991,-0.000097,0.002873,-0.010947,0.026906,0.111376,318.596362,24.639644,0.999274,0.990069,0.003884,0.228086,-0.000042,-0.000012,-0.000011,-0.000008,-0.000045,-71.974870,0.000057,
2355,2951,1.8939855287035,6.53246566334305,-0.0180596202102947,-0.000456,0.002552,-0.005833,0.000607,0.106112,315.034495,25.318912,0.999257,0.991799,0.003698,0.200366,-0.000033,-0.000016,-0.000013,-0.000009,-0.000040,-62.014914,0.000052,
2310,2861,0.932898705591619,4.57244672984644,-0.0178810455804523,-0.000484,0.002490,-0.007418,0.004040,0.098064,316.558249,24.998769,0.999673,0.993474,0.003399,0.216750,-0.000016,-0.000029,-0.000006,-0.000014,-0.000031,-22.688253,0.000046,
2460,3176,4.13424251741732,11.4243873631084,0.0198537964432148,-0.000984,0.002229,-0.005586,-0.023244,0.094896,311.673103,26.346708,0.999605,0.992840,0.003482,0.207342,-0.000024,-0.000018,-0.000002,-0.000017,-0.000025,-69.494503,0.000042,
2070,2786,-4.26831917128944,2.92956278421559,-0.0276129394339932,-0.000331,0.002582,-0.004813,-0.000597,0.123153,318.470600,24.593279,0.999425,0.991912,0.003648,0.308764,-0.000045,-0.000029,-0.000015,-0.000020,-0.000054,-59.402263,0.000076,
2190,2831,-1.67011401023697,3.91374162462115,-0.0224088243204505,-0.000703,0.002219,-0.005884,-0.013089,0.099421,317.240066,24.772805,0.999277,0.991158,0.003781,0.238640,-0.000016,-0.000043,0.000002,-0.000016,-0.000043,3.516965,0.000061,
2025,2576,-5.21317475261854,-1.64273169767331,-0.0335527055442526,-0.000590,0.002217,-0.007794,-0.005124,0.068701,322.155920,24.719951,0.999160,0.987257,0.004461,0.227879,-0.000004,-0.000044,0.000015,0.000000,-0.000049,18.339584,0.000056,
2160,2591,-2.28107766289102,-1.3121468687524,-0.02683188264308,-0.000404,0.002398,-0.005335,-0.001450,0.092082,321.298127,24.587810,0.999278,0.990020,0.004078,0.218038,-0.000031,-0.000025,-0.000001,-0.000024,-0.000031,-79.640683,0.000055,
2145,2561,-2.60179991924057,-1.96784111033141,-0.0215874649133525,-0.000434,0.002514,-0.006907,0.001741,0.084044,321.899106,24.526601,0.998922,0.987355,0.004456,0.271626,-0.000030,-0.000021,-0.000006,-0.000018,-0.000033,-62.437749,0.000052,
2265,2981,-0.0668542722770447,7.17750901672571,-0.0109226145897878,-0.000658,0.002494,-0.007144,-0.005622,0.110108,314.663603,25.117909,0.999588,0.993602,0.003450,0.242222,-0.000024,-0.000017,0.000007,-0.000013,-0.000028,56.944506,0.000042,
2280,3011,0.25384310306109,7.82991538861997,-0.00877723689154664,-0.000402,0.002481,-0.007258,0.006761,0.106612,314.169763,25.211250,0.999208,0.991754,0.003679,0.238758,-0.000020,-0.000017,0.000006,-0.000013,-0.000024,50.737622,0.000038,
2325,2936,1.24517885164866,6.20360708061805,-0.00803547850688346,-0.000805,0.002625,-0.006324,-0.014193,0.105046,315.361975,25.206114,0.999160,0.990800,0.003919,0.207458,-0.000020,-0.000024,-0.000011,-0.000011,-0.000034,-39.897202,0.000046,
2235,2816,-0.690167140029477,3.58995431352102,-0.0232734615634058,-0.000830,0.002268,-0.002752,-0.028393,0.115696,317.345332,24.798195,0.999504,0.991503,0.003805,0.261998,-0.000017,-0.000027,-0.000002,-0.000017,-0.000027,-13.409538,0.000044,
2235,2891,-0.702286132676175,5.21972950282115,-0.00949481689104914,-0.000731,0.002388,-0.005851,-0.013792,0.100174,316.227491,24.915414,0.999752,0.992901,0.003356,0.232636,-0.000017,-0.000018,0.000000,-0.000017,-0.000018,-15.726726,0.000035,
2505,2051,5.35115098632305,-13.1335605481787,0.0391622749788212,-0.001013,0.002548,-0.006852,-0.018830,0.073101,330.668042,22.090792,0.999465,0.986165,0.004719,0.016662,-0.000030,0.000037,-0.000007,0.000038,-0.000031,-83.949041,0.000040,
2160,2711,-2.30127279567138,1.30261617785123,-0.0335155308198409,-0.000122,0.002721,-0.009103,0.023190,0.099610,319.278149,24.675518,0.999476,0.991035,0.003798,0.221095,-0.000025,-0.000013,-0.000003,-0.000012,-0.000026,-78.451011,0.000039,
2400,3041,2.8562013843163,8.48918480076712,0.00221152349030262,-0.000578,0.002182,-0.006768,-0.001110,0.094849,313.720477,25.651491,0.999649,0.992045,0.003603,0.229915,-0.000021,-0.000023,0.000002,-0.000020,-0.000024,28.970834,0.000044,
2250,2831,-0.366411007312152,3.91761193780528,-0.0254698205081354,-0.000416,0.002448,-0.005704,0.000443,0.101564,317.074211,24.888829,0.999421,0.992162,0.003708,0.195927,-0.000015,-0.000032,0.000000,-0.000015,-0.000032,0.892250,0.000048,
2085,2816,-3.94752278362067,3.58258368576486,-0.0261475595831939,-0.000417,0.002259,-0.005195,-0.003432,0.103752,317.902857,24.637396,0.999515,0.994388,0.003241,0.254219,-0.000035,-0.000030,-0.000005,-0.000027,-0.000038,-59.518639,0.000065,
2205,2876,-1.35200967974161,4.89314362291597,-0.0244524218470588,-0.000505,0.002458,-0.007189,0.000401,0.091098,316.442955,24.851661,0.999613,0.994489,0.003105,0.217952,-0.000017,-0.000028,0.000002,-0.000017,-0.000028,9.799325,0.000045,
2040,2576,-4.88680950851813,-1.64266295735504,-0.0310650149869502,-0.000366,0.002302,-0.009895,0.011353,0.083337,322.101463,24.677839,0.999047,0.988910,0.004240,0.265047,-0.000002,-0.000038,0.000005,-0.000001,-0.000038,7.733662,0.000045,
2070,2546,-4.23046556354543,-2.29530547083532,-0.0293411100831236,-0.000696,0.002862,-0.009799,-0.003191,0.112621,322.426435,24.670559,0.999528,0.993065,0.003604,0.267738,-0.000021,-0.000019,0.000002,-0.000018,-0.000022,58.055956,0.000040,
2085,2621,-3.91615578433121,-0.660041828729128,-0.0383408822483489,0.000101,0.003014,-0.009902,0.034211,0.113607,321.069891,24.609770,0.999300,0.990614,0.003896,0.303990,-0.000030,-0.000014,-0.000002,-0.000014,-0.000030,-82.542880,0.000045,
2415,3086,3.17375558192933,9.46780891129433,0.00492442967475881,-0.000367,0.002415,-0.006758,0.008888,0.102994,313.015594,25.858143,0.999670,0.993842,0.003297,0.220132,-0.000035,-0.000024,0.000000,-0.000024,-0.000035,89.863609,0.000059,
2130,2711,-2.95342510049171,1.30152272937909,-0.0355705735260585,-0.000336,0.002793,-0.009459,0.013770,0.104605,319.370888,24.662138,0.999496,0.991236,0.003783,0.239141,-0.000029,-0.000013,-0.000005,-0.000012,-0.000031,-73.122373,0.000044,
2385,3041,2.52964187113183,8.48854786694685,-0.00445033049305721,-0.000649,0.002360,-0.008023,-0.000053,0.099785,313.654317,25.596874,0.999713,0.993004,0.003397,0.240848,-0.000020,-0.000025,0.000003,-0.000018,-0.000027,25.195329,0.000045,
2145,2651,-2.61774848169488,-0.00517316041148064,-0.0317028616023549,-0.000669,0.002585,-0.006647,-0.009775,0.110595,320.312715,24.583651,0.999690,0.992092,0.003580,0.291736,-0.000031,-0.000012,-0.000006,-0.000010,-0.000033,-73.658092,0.000045,
2220,2891,-1.02844430240216,5.21862375247977,-0.0107911136852294,-0.000942,0.002356,-0.005599,-0.024548,0.099925,316.242424,24.856944,0.999660,0.993722,0.003289,0.264088,-0.000019,-0.000020,0.000002,-0.000017,-0.000022,41.644520,0.000039,
2175,2681,-1.9704557094967,0.64844277103505,-0.0280463326763538,-0.000612,0.002357,-0.006537,-0.007078,0.099904,319.738770,24.555030,0.999499,0.992370,0.003566,0.317250,-0.000023,-0.000019,0.000001,-0.000018,-0.000023,76.316515,0.000041,
2490,2006,5.03169883738571,-14.1212981822469,0.0261803167902031,-0.000577,0.002578,-0.006619,-0.000045,0.090238,331.275181,21.916351,0.999327,0.974258,0.006116,0.120614,-0.000027,0.000016,-0.000048,0.000047,-0.000058,-57.117259,0.000061,
2250,2951,-0.387254324706586,6.52520249362196,-0.0121862452854771,-0.000634,0.002543,-0.007239,-0.004488,0.106721,315.182180,25.063883,0.999448,0.992941,0.003484,0.207839,-0.000024,-0.000013,0.000005,-0.000011,-0.000026,66.879004,0.000038,
2055,2591,-4.56388557159289,-1.31438643496229,-0.0367904535478942,-0.000384,0.002574,-0.005492,-0.001394,0.107335,321.705332,24.674010,0.999015,0.987542,0.004314,0.269111,-0.000021,-0.000024,0.000011,-0.000011,-0.000034,40.989862,0.000047,
2025,3026,-5.27986323952411,8.13633083455187,0.00948975299365884,-0.000313,0.002479,-0.006421,0.003989,0.095158,315.063390,24.420075,0.999436,0.993329,0.003546,0.252869,-0.000026,-0.000050,0.000023,-0.000012,-0.000064,31.509067,0.000082,
2505,2066,5.34878886882907,-12.8056740561346,0.0456925628304248,-0.000887,0.002806,-0.008304,-0.007385,0.085336,330.487111,22.063480,0.999492,0.985690,0.004757,0.120156,-0.000017,0.000019,0.000000,0.000019,-0.000017,89.614592,0.000021,
2130,2921,-2.98744681349264,5.86518186123526,-0.0106860013349319,-0.000635,0.001894,-0.003796,-0.017162,0.095464,316.061080,24.703993,0.999326,0.991289,0.003833,0.262358,-0.000027,-0.000034,0.000002,-0.000026,-0.000035,14.516005,0.000062,
2025,2591,-5.21531016207579,-1.31527466085923,-0.0392910331287339,-0.000080,0.002253,-0.007529,0.017655,0.079208,321.882664,24.709838,0.999142,0.989359,0.004265,0.239562,-0.000011,-0.000038,0.000008,-0.000009,-0.000040,15.081011,0.000052,
2115,2891,-3.30857076720917,5.21386464541034,-0.0249886621477344,-0.000319,0.002115,-0.004165,-0.001652,0.085558,316.522365,24.687791,0.999496,0.993176,0.003701,0.232099,-0.000031,-0.000032,0.000000,-0.000031,-0.000032,4.319759,0.000062,
2340,2906,1.57624066179137,5.55321039006916,-0.0200543748164819,-0.000646,0.002726,-0.006716,-0.005215,0.116513,315.764406,25.150999,0.999314,0.992106,0.003645,0.235795,-0.000031,-0.000031,-0.000010,-0.000020,-0.000041,-45.878869,0.000063,
2100,2606,-3.58750903146299,-0.988173514881112,-0.0179067391161993,-0.000534,0.002363,-0.003943,-0.012215,0.115502,321.368283,24.607096,0.998936,0.988488,0.004432,0.293498,-0.000028,-0.000017,-0.000001,-0.000017,-0.000029,-83.671987,0.000046,
2280,2921,0.269168599529841,5.87498980752342,-0.018697591829266,-0.000731,0.002081,-0.004289,-0.018495,0.083168,315.562842,25.043761,0.999576,0.993986,0.003291,0.221277,-0.000019,-0.000030,-0.000001,-0.000019,-0.000030,-6.895451,0.000050,
2100,2846,-3.62699158317549,4.2353635142839,-0.034365924428414,-0.000325,0.002745,-0.009297,0.013109,0.097111,317.277557,24.591010,0.999762,0.994918,0.003001,0.311567,-0.000033,-0.000038,-0.000002,-0.000032,-0.000039,-22.008838,0.000071,
2190,2741,-1.65445799593089,1.95617903507126,-0.0259825493971562,-0.000530,0.002720,-0.007749,0.000870,0.111522,318.719087,24.689990,0.999435,0.991690,0.003744,0.247747,-0.000016,-0.000023,-0.000003,-0.000015,-0.000024,-19.243037,0.000040,
2265,3041,-0.0767254791254537,8.47972464835488,-0.000411549258217292,-0.000486,0.002416,-0.009526,0.010052,0.086596,313.766230,25.243178,0.999531,0.993012,0.003451,0.191391,-0.000024,-0.000018,0.000009,-0.000012,-0.000030,53.529181,0.000043,
2355,2966,1.8908840537877,6.85877224208761,-0.0165559998138178,-0.000692,0.002421,-0.004700,-0.014231,0.117524,314.781596,25.382403,0.999551,0.992618,0.003501,0.186271,-0.000033,-0.000020,-0.000011,-0.000013,-0.000040,-59.948347,0.000056,
2205,2756,-1.33148958775221,2.28303558255065,-0.0253031828468693,-0.000620,0.002057,-0.002387,-0.020190,0.101484,318.410271,24.701770,0.999428,0.991568,0.003760,0.247067,-0.000018,-0.000019,0.000000,-0.000017,-0.000019,-18.540121,0.000036,
2325,2951,1.2420497480991,6.53008696209941,-0.00766196629098204,-0.001145,0.002775,-0.006654,-0.028647,0.106387,315.100151,25.282172,0.999347,0.992132,0.003832,0.166360,-0.000024,-0.000015,-0.000009,-0.000010,-0.000030,-58.616106,0.000041,
2310,2876,0.929972693295746,4.89904209051673,-0.0220625714825928,-0.000210,0.002421,-0.006415,0.013196,0.096393,316.282369,25.032968,0.999572,0.992201,0.003604,0.212674,-0.000018,-0.000028,-0.000002,-0.000018,-0.000029,-10.580818,0.000047,
2040,2591,-4.88947044848336,-1.31558990032038,-0.030122780449517,-0.000622,0.002578,-0.007394,-0.007259,0.100549,321.842711,24.685220,0.999115,0.989369,0.004121,0.268010,-0.000004,-0.000030,0.000003,-0.000004,-0.000031,7.064908,0.000038,
2025,2786,-5.24542780137309,2.92876254183854,-0.0367016283651083,-0.000364,0.002629,-0.005855,0.000195,0.118042,318.659121,24.607095,0.999573,0.993452,0.003374,0.255737,-0.000044,-0.000004,-0.000019,0.000004,-0.000052,-68.133298,0.000058,
2085,2636,-3.91851260040904,-0.333097657255692,-0.0333472114642746,-0.000085,0.002893,-0.008568,0.021768,0.118041,320.850700,24.668614,0.999248,0.990202,0.003958,0.248748,-0.000031,-0.000008,-0.000004,-0.000007,-0.000032,-80.969648,0.000042,
2115,2666,-3.27237526265248,0.321740250607647,-0.0439335071191636,-0.000106,0.002477,-0.006944,0.016499,0.105821,320.115575,24.622257,0.999599,0.992936,0.003382,0.269312,-0.000023,-0.000016,-0.000007,-0.000012,-0.000027,-58.721687,0.000041,
2160,2606,-2.28343938283808,-0.985576371065292,-0.0252154261302167,-0.000402,0.002520,-0.006168,0.001283,0.101278,321.066105,24.569894,0.999516,0.993022,0.003687,0.255716,-0.000030,-0.000019,-0.000004,-0.000017,-0.000032,-73.070321,0.000050,
2190,2846,-1.67251753667496,4.23948996682224,-0.0147822726710274,-0.000890,0.002250,-0.003920,-0.027840,0.109765,317.039728,24.796501,0.999242,0.991220,0.003779,0.239183,-0.000016,-0.000044,0.000002,-0.000016,-0.000044,4.806876,0.000062,
2415,3101,3.17093591230236,9.79379116497436,0.00765680335632624,-0.000360,0.002310,-0.006132,0.006838,0.087149,312.785238,25.962663,0.999809,0.995767,0.002961,0.145950,-0.000034,-0.000017,0.000003,-0.000016,-0.000034,80.206318,0.000052,
2175,2786,-1.98850905699149,2.9355270933388,-0.0349481221420547,-0.000319,0.002571,-0.008168,0.011539,0.103355,317.956324,24.733858,0.999335,0.991124,0.003949,0.227810,-0.000018,-0.000031,0.000003,-0.000017,-0.000032,11.749131,0.000050,
2070,2561,-4.23324112509631,-1.96849506239349,-0.0286802608610515,-0.000782,0.002392,-0.003869,-0.024170,0.095885,322.163389,24.676225,0.999117,0.990888,0.004033,0.242826,-0.000024,-0.000011,0.000002,-0.000011,-0.000024,82.229999,0.000035,
2460,3191,4.13180848747398,11.7493662110949,0.0206926543812074,-0.000687,0.002365,-0.008791,0.002599,0.098552,311.454659,26.349951,0.999563,0.992301,0.003505,0.261158,-0.000025,-0.000033,0.000003,-0.000024,-0.000034,17.973624,0.000058,
2295,3071,0.570361858127843,9.13240242239353,0.0166233702030922,-0.000253,0.002365,-0.005472,0.007868,0.114095,313.362403,25.410276,0.999612,0.995067,0.003149,0.207038,-0.000020,-0.000034,0.000004,-0.000019,-0.000035,15.234553,0.000055,
2145,2666,-2.61954944055823,0.32095551799749,-0.026036524390463,-0.000433,0.002604,-0.008093,0.005511,0.112089,320.126871,24.585776,0.999684,0.992690,0.003426,0.298970,-0.000028,-0.000014,-0.000005,-0.000012,-0.000030,-71.754969,0.000043,
2445,3161,3.81150531161617,11.0981466179258,0.0146777984855362,-0.000629,0.002560,-0.009529,0.007766,0.108285,311.883603,26.240954,0.999561,0.992598,0.003596,0.207329,-0.000025,-0.000020,0.000001,-0.000020,-0.000025,82.951991,0.000045,
2025,3041,-5.28252670703602,8.46163656957093,0.00769751581231048,-0.000393,0.002261,-0.004301,-0.005515,0.101153,314.789281,24.386813,0.999407,0.993509,0.003533,0.281200,-0.000039,-0.000044,0.000020,-0.000021,-0.000061,41.104802,0.000086,
2370,3011,2.20953217331222,7.83556890672035,0.00127286747095923,-0.000675,0.002231,-0.003526,-0.017548,0.111255,314.179418,25.479988,0.999536,0.991658,0.003696,0.240410,-0.000028,-0.000023,-0.000005,-0.000019,-0.000031,-57.882703,0.000051,
2070,2801,-4.27093476962567,3.25614281821464,-0.0307384550595771,-0.000355,0.002364,-0.004774,-0.001933,0.105953,318.194269,24.622292,0.999378,0.992501,0.003615,0.259403,-0.000049,-0.000029,-0.000015,-0.000021,-0.000057,-61.450189,0.000081,
2025,2606,-5.21800581171255,-0.987864285193922,-0.0405349381858855,-0.000394,0.002527,-0.007202,0.002434,0.105780,321.608838,24.724587,0.999085,0.988466,0.004340,0.242012,-0.000016,-0.000042,0.000001,-0.000016,-0.000042,1.147999,0.000060,
2295,2936,0.593476729135755,6.20173198714709,-0.00925935875841333,-0.000482,0.002598,-0.007055,0.002741,0.115827,315.393688,25.120908,0.999370,0.991962,0.003625,0.237213,-0.000019,-0.000028,-0.000006,-0.000016,-0.000031,-25.521165,0.000048,
2430,3131,3.49046884915307,10.4458812158803,0.00258982094538851,-0.000659,0.002414,-0.008831,0.003378,0.095198,312.256698,26.034296,0.999686,0.994032,0.003189,0.237582,-0.000028,-0.000020,-0.000001,-0.000020,-0.000028,-84.936838,0.000047,
2250,2846,-0.368805165190938,4.24346587863621,-0.0275719569713146,-0.000159,0.002916,-0.008532,0.021769,0.128363,316.828394,24.832497,0.999413,0.993265,0.003490,0.302043,-0.000013,-0.000034,0.000001,-0.000013,-0.000034,3.181223,0.000049,
2490,2021,5.02901052637571,-13.7919980665525,0.0300758922507498,-0.000634,0.003090,-0.008841,0.006055,0.089445,331.066586,21.986151,0.999327,0.972586,0.006166,0.112046,-0.000013,0.000019,-0.000040,0.000046,-0.000040,-55.944063,0.000050,
2505,2081,5.34440416223602,-12.4765576313815,0.0345721926601641,-0.000740,0.002113,-0.003346,-0.020025,0.095064,330.134690,21.957754,0.999528,0.986252,0.004588,0.300485,-0.000010,0.000021,0.000001,0.000021,-0.000010,88.329611,0.000021,
2220,2801,-1.01317885969256,3.26361190789058,-0.032512983366189,-0.000281,0.002650,-0.008291,0.014642,0.111100,317.596364,24.761924,0.999364,0.990500,0.003964,0.259930,-0.000016,-0.000031,0.000000,-0.000016,-0.000031,-0.747200,0.000048,
2055,2801,-4.59685958130862,3.25576455521251,-0.0332584310560833,-0.000633,0.002451,-0.005554,-0.012707,0.096977,318.246195,24.628063,0.999334,0.991623,0.003778,0.231015,-0.000060,-0.000022,-0.000013,-0.000018,-0.000064,-72.222566,0.000086,
2040,2801,-4.92224751819799,3.25519590244932,-0.034054680303484,-0.000579,0.002444,-0.007336,-0.005493,0.098027,318.334723,24.619619,0.999413,0.991086,0.003672,0.226966,-0.000047,-0.000017,-0.000011,-0.000013,-0.000051,-72.042892,0.000067,
2085,2831,-3.94972104203709,3.90799218134945,-0.0208014320432426,-0.000619,0.002357,-0.006567,-0.008755,0.093290,317.693490,24.627191,0.999737,0.995743,0.002841,0.252503,-0.000033,-0.000040,-0.000004,-0.000031,-0.000042,-25.911366,0.000073,
2025,2801,-5.24790528746177,3.25430006856196,-0.0347976794365081,-0.000597,0.002530,-0.005088,-0.012672,0.116526,318.413773,24.564008,0.999558,0.993489,0.003334,0.287232,-0.000042,-0.000012,-0.000014,-0.000007,-0.000047,-69.080819,0.000058,
2280,3026,0.251614860401475,8.15499319991164,-0.00507077801341893,-0.000322,0.002343,-0.009843,0.019040,0.092427,313.963003,25.216732,0.999172,0.992117,0.003618,0.246009,-0.000021,-0.000019,0.000009,-0.000011,-0.000029,48.708363,0.000042,
2145,2576,-2.60512871388289,-1.63964141589648,-0.0292537844695175,-0.000619,0.002404,-0.004894,-0.012821,0.100524,321.571964,24.558023,0.999246,0.989501,0.004180,0.265461,-0.000033,-0.000019,-0.000006,-0.000017,-0.000036,-69.039142,0.000053,
2205,2891,-1.35485877576262,5.21954900060579,-0.0319215258165286,-0.000373,0.002730,-0.009626,0.014320,0.103383,316.144583,24.833354,0.999805,0.995298,0.003028,0.264638,-0.000019,-0.000025,0.000002,-0.000018,-0.000025,14.125412,0.000044,
2400,3056,2.85327717682055,8.81519338398881,0.00439932090620232,-0.000594,0.002197,-0.005349,-0.006954,0.100398,313.481903,25.721697,0.999661,0.992913,0.003502,0.209755,-0.000022,-0.000024,-0.000001,-0.000022,-0.000024,-27.190827,0.000046,
2130,2726,-2.95621577366895,1.62723998062748,-0.0313513262934748,-0.000705,0.002938,-0.006192,-0.012899,0.122976,319.131034,24.614958,0.999412,0.990708,0.003925,0.310309,-0.000033,-0.000022,-0.000008,-0.000018,-0.000037,-62.422494,0.000056,
2235,2831,-0.692896803376843,3.91603995017234,-0.0245660668221035,-0.000775,0.001803,-0.002581,-0.026596,0.085128,317.087102,24.821680,0.999482,0.992424,0.003533,0.228878,-0.000019,-0.000036,-0.000002,-0.000019,-0.000036,-5.489005,0.000056,
2070,2576,-4.23570479828888,-1.6415170325601,-0.0290339653193428,-0.000698,0.002089,-0.001296,-0.027732,0.098976,321.908954,24.673130,0.998802,0.990073,0.004293,0.246632,-0.000026,-0.000021,0.000004,-0.000018,-0.000028,60.806864,0.000047,
2160,2621,-2.28629359524075,-0.657710629572499,-0.0295857299210525,-0.000398,0.002562,-0.005719,0.000086,0.102362,320.779619,24.631259,0.999543,0.992317,0.003728,0.206260,-0.000027,-0.000019,-0.000003,-0.000018,-0.000028,-72.153695,0.000047,
2310,2891,0.926688213382274,5.22616871321521,-0.0271430847859051,-0.000377,0.002550,-0.007452,0.009117,0.101160,315.985350,25.107946,0.999481,0.992673,0.003551,0.174299,-0.000017,-0.000026,-0.000002,-0.000017,-0.000027,-12.444990,0.000044,
2460,3206,4.12844329976136,12.0752115414436,0.0194360455583364,-0.000768,0.002357,-0.007423,-0.006279,0.108915,311.183279,26.417868,0.999540,0.990948,0.003717,0.256375,-0.000027,-0.000032,0.000005,-0.000023,-0.000035,32.078287,0.000059,
2115,2906,-3.31093753468032,5.53949736903095,-0.017554575702718,-0.000822,0.002559,-0.006298,-0.018327,0.111761,316.318318,24.697748,0.999290,0.991675,0.003869,0.250994,-0.000027,-0.000042,0.000003,-0.000026,-0.000042,10.494761,0.000069,
2085,2651,-3.92126966986918,-0.0064864886712428,-0.0271995263062763,-0.000745,0.002969,-0.007237,-0.012402,0.130068,320.619550,24.703362,0.999554,0.991514,0.003581,0.225494,-0.000034,-0.000010,-0.000009,-0.000007,-0.000037,-71.593861,0.000048,
2385,3056,2.52719972273063,8.81414846805566,0.000621963296623562,-0.000730,0.002536,-0.010370,0.004719,0.098008,313.450795,25.656301,0.999671,0.993164,0.003391,0.221945,-0.000021,-0.000026,0.000001,-0.000021,-0.000026,12.242000,0.000048,
2235,2906,-0.704999295741931,5.54658241945552,-0.015782256691466,-0.000482,0.002517,-0.008261,0.005519,0.097887,315.944061,24.965854,0.999690,0.993534,0.003347,0.200492,-0.000018,-0.000022,0.000001,-0.000018,-0.000022,12.701504,0.000041,
2025,2621,-5.21973632950958,-0.662114111691132,-0.0299942177773005,-0.000387,0.002580,-0.005811,-0.001027,0.107784,321.445553,24.719087,0.999115,0.989801,0.004244,0.239854,-0.000014,-0.000029,0.000014,-0.000005,-0.000038,30.895303,0.000047,
2055,2606,-4.5660293962393,-0.987640208823635,-0.0315565685806405,-0.000465,0.002340,-0.004805,-0.007114,0.094986,321.495263,24.723923,0.999363,0.991260,0.003755,0.201655,-0.000026,-0.000027,0.000003,-0.000023,-0.000030,40.391868,0.000054,
2220,2906,-1.03055770717568,5.54475610602918,-0.00889884043590428,-0.000622,0.002306,-0.006966,-0.005466,0.087566,316.027520,24.911322,0.999607,0.992688,0.003643,0.215669,-0.000018,-0.000026,0.000004,-0.000017,-0.000027,21.160308,0.000044,
2445,3176,3.80823520944056,11.4236860673066,0.0173438981524896,-0.000849,0.002401,-0.006775,-0.012736,0.099627,311.633934,26.315899,0.999608,0.992949,0.003424,0.174227,-0.000025,-0.000021,0.000001,-0.000021,-0.000025,78.442664,0.000047,
2430,3146,3.48760042632923,10.7718403411504,0.00280002002619995,-0.000413,0.002343,-0.007453,0.009615,0.105914,312.013087,26.106229,0.999606,0.994111,0.003213,0.225009,-0.000030,-0.000024,0.000000,-0.000024,-0.000030,-87.999666,0.000054,
2175,2696,-1.97342688409919,0.976064396869575,-0.0333314250455032,-0.000473,0.002120,-0.003817,-0.009144,0.096027,319.443436,24.616928,0.999529,0.992056,0.003540,0.264008,-0.000024,-0.000019,0.000002,-0.000018,-0.000025,72.841811,0.000043,
2505,2096,5.34042008461718,-12.1424484363144,0.020503491333443,-0.000535,0.002600,-0.005900,-0.000629,0.093705,329.787137,22.292946,0.999623,0.986349,0.004653,0.028354,-0.000007,0.000029,0.000005,0.000029,-0.000008,82.894379,0.000030,
2025,3056,-5.28462990514633,8.78645806689932,0.0182517298114249,-0.000696,0.001890,-0.002982,-0.023238,0.091770,314.610249,24.411102,0.999176,0.991873,0.003762,0.236387,-0.000046,-0.000033,0.000018,-0.000020,-0.000059,55.328160,0.000082,
2115,2681,-3.27474235091019,0.647985228604114,-0.0415325434511828,-0.000204,0.002649,-0.007426,0.013453,0.105865,319.884211,24.613614,0.999581,0.994316,0.003122,0.281588,-0.000027,-0.000019,-0.000003,-0.000018,-0.000028,-69.458316,0.000046,
2055,2816,-4.5988860065652,3.5812329176499,-0.0290337730222063,-0.000460,0.002372,-0.004058,-0.008975,0.102400,318.036513,24.594529,0.999396,0.992090,0.003792,0.264308,-0.000056,-0.000021,-0.000011,-0.000018,-0.000059,-74.289909,0.000080,
2160,2726,-2.30415298159747,1.62904444165452,-0.0354807630070582,-0.000279,0.002766,-0.008324,0.013644,0.114904,319.003395,24.646240,0.999443,0.991320,0.003873,0.275957,-0.000028,-0.000021,-0.000004,-0.000019,-0.000029,-68.006862,0.000049,
2130,2936,-2.98900944354016,6.19139086946515,-0.00682184614225889,-0.000172,0.002296,-0.007381,0.015023,0.101363,315.875543,24.768060,0.999631,0.993479,0.003446,0.208958,-0.000029,-0.000036,0.000006,-0.000026,-0.000039,29.250272,0.000066,
2025,2816,-5.24987603821814,3.57963529574722,-0.0298784950717277,-0.000565,0.002517,-0.005386,-0.010427,0.108573,318.208602,24.536399,0.999520,0.994269,0.003183,0.296661,-0.000037,-0.000004,-0.000008,-0.000003,-0.000038,-77.273215,0.000046,
2070,2816,-4.27283271845411,3.58165770649015,-0.0274076857198224,-0.000231,0.002540,-0.007390,0.011290,0.102152,317.986580,24.595372,0.999485,0.993809,0.003439,0.278808,-0.000043,-0.000028,-0.000011,-0.000023,-0.000049,-61.899803,0.000073,
2070,2591,-4.23795468890142,-1.31404435419945,-0.0320614510143855,-0.000612,0.002405,-0.004833,-0.013622,0.099410,321.649533,24.699156,0.999056,0.989778,0.004097,0.218439,-0.000031,-0.000018,0.000002,-0.000017,-0.000031,83.429802,0.000049,
2250,2861,-0.371522341489399,4.56941291624951,-0.0261911344420014,-0.000241,0.002533,-0.008192,0.016699,0.101584,316.585462,24.869393,0.999539,0.992936,0.003440,0.261418,-0.000010,-0.000025,0.000002,-0.000010,-0.000025,6.315099,0.000036,
2220,2936,-1.0362229183786,6.19665727754572,-0.0118869325212927,-0.000641,0.002342,-0.005341,-0.011535,0.097062,315.496781,24.915890,0.999578,0.994555,0.003158,0.256957,-0.000024,-0.000024,0.000004,-0.000020,-0.000028,44.367580,0.000049,
2025,2636,-5.22177682889978,-0.335854236399484,-0.0291894646538822,-0.000271,0.002533,-0.007243,0.008179,0.099555,321.213637,24.689702,0.999179,0.992156,0.003810,0.251689,-0.000020,-0.000010,0.000017,0.000003,-0.000033,52.800155,0.000037,
2190,2876,-1.67778601100835,4.89331787987026,-0.0220978769703493,-0.000617,0.002757,-0.006478,-0.007155,0.103293,316.499506,24.925473,0.999796,0.995585,0.002907,0.131817,-0.000016,-0.000028,0.000004,-0.000015,-0.000030,18.459511,0.000045,
2265,3056,-0.0794069445346359,8.80493429228623,0.00388380694448642,-0.000661,0.002599,-0.008515,-0.001279,0.093878,313.540507,25.250329,0.999536,0.993654,0.003327,0.216021,-0.000022,-0.000022,0.000008,-0.000015,-0.000030,44.724549,0.000046,
2205,2906,-1.35676554423005,5.54433989686304,-0.0180924269459979,-0.000431,0.002368,-0.007140,0.003638,0.090141,316.000349,24.854646,0.999661,0.993787,0.003345,0.246075,-0.000018,-0.000031,0.000004,-0.000017,-0.000032,15.723208,0.000050,
2460,3221,4.12502656538814,12.4013089696517,0.0141268156644401,-0.000806,0.002602,-0.008943,-0.002209,0.112033,310.890703,26.496400,0.999534,0.992749,0.003480,0.233859,-0.000028,-0.000029,0.000001,-0.000028,-0.000030,32.582553,0.000057,
2130,2741,-2.95866063995047,1.95383061327702,-0.0296373075462952,-0.000674,0.002468,-0.004742,-0.015950,0.112902,318.893450,24.659762,0.999428,0.992055,0.003710,0.260985,-0.000031,-0.000023,-0.000008,-0.000018,-0.000036,-57.877993,0.000055,
2355,2981,1.88872585991258,7.18399553054609,-0.0128143129491036,-0.000471,0.002444,-0.007596,0.006100,0.099788,314.583227,25.394907,0.999443,0.990135,0.003929,0.194034,-0.000034,-0.000023,-0.000009,-0.000018,-0.000039,-61.457648,0.000058,
2145,2681,-2.62262726872216,0.649092756566723,-0.0379211090906892,-0.000130,0.002505,-0.006893,0.015740,0.105082,319.788771,24.636697,0.999566,0.991909,0.003496,0.249368,-0.000029,-0.000018,-0.000001,-0.000018,-0.000030,-82.929598,0.000048,
2100,2861,-3.62901131082132,4.56118870420434,-0.022073346139166,-0.000486,0.002473,-0.006337,-0.002983,0.114094,317.114812,24.653449,0.999638,0.993544,0.003364,0.266733,-0.000032,-0.000030,0.000002,-0.000029,-0.000033,52.891029,0.000062,
2505,2111,5.33707329094459,-11.8135988188806,0.0142764405840126,-0.000448,0.002838,-0.008979,0.015288,0.085366,329.504000,22.249399,0.999657,0.986850,0.004665,0.127877,-0.000007,0.000027,0.000003,0.000027,-0.000008,85.705001,0.000028,
2040,2606,-4.89203998886176,-0.98862090334778,-0.0325591449355898,-0.000760,0.002618,-0.007889,-0.012236,0.095522,321.569511,24.680209,0.999024,0.988442,0.004259,0.261028,-0.000009,-0.000033,-0.000004,-0.000009,-0.000033,-8.544869,0.000044,
2295,3086,0.567495869081515,9.45698451476709,0.0147586156626858,-0.000376,0.002496,-0.008012,0.010711,0.087916,313.099595,25.359570,0.999605,0.994643,0.003211,0.260421,-0.000021,-0.000036,0.000004,-0.000021,-0.000037,12.716330,0.000059,
2055,2621,-4.56814543809726,-0.661855228374804,-0.0290790097926106,-0.000467,0.002256,-0.005989,-0.003896,0.090345,321.271540,24.658142,0.999303,0.992044,0.003761,0.257857,-0.000025,-0.000017,0.000011,-0.000009,-0.000033,55.045882,0.000044,
2490,2036,5.02626198300595,-13.4639284518509,0.0332843498711668,-0.000614,0.003264,-0.009988,0.011402,0.103224,330.852054,21.926383,0.999388,0.974563,0.006073,0.247717,-0.000006,0.000012,-0.000033,0.000037,-0.000031,-52.466477,0.000040,
2040,2816,-4.92416799888948,3.58031766000046,-0.027616306271625,-0.000271,0.002147,-0.002729,-0.004139,0.105845,318.141309,24.568859,0.999338,0.991927,0.003634,0.277388,-0.000043,-0.000014,-0.000006,-0.000013,-0.000045,-78.938115,0.000060,
2415,3116,3.16809831739615,10.1187598394918,0.00935090812822637,-0.000447,0.002353,-0.007449,0.007696,0.093142,312.549414,25.948932,0.999829,0.995976,0.002819,0.212373,-0.000033,-0.000019,0.000001,-0.000019,-0.000033,87.724382,0.000052,
2265,2996,-0.0694300998359871,7.50240328640194,-0.00272742753060129,-0.000847,0.002172,-0.003849,-0.025376,0.098837,314.462650,25.126974,0.999414,0.992788,0.003536,0.246314,-0.000023,-0.000010,0.000007,-0.000007,-0.000026,66.871909,0.000034,
2325,2966,1.23904578060089,6.85687914262057,-0.0124070569273158,-0.000766,0.002250,-0.004273,-0.019620,0.090341,314.818849,25.372158,0.999767,0.996380,0.002755,0.094007,-0.000025,-0.000017,-0.000007,-0.000013,-0.000029,-59.317377,0.000043,
2100,2621,-3.5908487157076,-0.659588622393187,-0.0407321124614555,-0.000281,0.002672,-0.008478,0.012707,0.096350,320.954199,24.592179,0.999106,0.989144,0.004237,0.291446,-0.000025,-0.000015,0.000002,-0.000015,-0.000025,80.858832,0.000040,
2280,3056,0.24584733193479,8.80648898028009,-0.00071749696758161,-0.000747,0.002633,-0.008200,-0.005944,0.103608,313.473281,25.302273,0.999553,0.994017,0.003289,0.224738,-0.000019,-0.000026,0.000008,-0.000014,-0.000031,33.731895,0.000046,
2250,2966,-0.389958883706075,6.8509541599585,-0.0126592037665887,-0.000668,0.002487,-0.008337,-0.002541,0.089043,314.930242,25.089167,0.999607,0.994540,0.003212,0.187374,-0.000023,-0.000016,0.000009,-0.000010,-0.000029,55.470089,0.000041,
2370,3026,2.20638962028317,8.16178318279115,-0.00403861458340771,-0.000722,0.002414,-0.006552,-0.008913,0.097982,313.892799,25.528405,0.999520,0.991654,0.003709,0.218946,-0.000028,-0.000025,0.000003,-0.000023,-0.000030,57.988686,0.000053,
2160,2756,-2.30964865265154,2.28136518524603,-0.0290663017613042,-0.000707,0.002407,-0.002191,-0.024966,0.114227,318.520822,24.667829,0.998946,0.989539,0.004107,0.273716,-0.000024,-0.000017,-0.000003,-0.000016,-0.000025,-73.470070,0.000041,
2340,2921,1.57313732375787,5.8797916419289,-0.0201988730163407,-0.000839,0.002723,-0.006290,-0.015532,0.124110,315.502414,25.218831,0.999172,0.991289,0.003796,0.211278,-0.000027,-0.000033,-0.000011,-0.000018,-0.000042,-37.603910,0.000062,
2145,2711,-2.62713470305867,1.30222359531025,-0.0377502084733123,0.000174,0.002851,-0.009938,0.039032,0.095876,319.316059,24.662648,0.999572,0.992147,0.003720,0.230269,-0.000027,-0.000013,-0.000003,-0.000012,-0.000028,-79.514279,0.000041,
2235,2966,-0.715498125833342,6.84918758108288,-0.00868323949146088,-0.000643,0.002294,-0.007016,-0.006075,0.078238,314.992646,25.017224,0.999418,0.992961,0.003535,0.210752,-0.000026,-0.000017,0.000008,-0.000012,-0.000031,61.362410,0.000044,
2025,2831,-5.25211894464404,3.90628294548885,-0.0330373328170595,-0.000261,0.002666,-0.004747,0.001906,0.119114,317.945335,24.552200,0.999719,0.995255,0.003114,0.281499,-0.000031,-0.000020,-0.000011,-0.000013,-0.000038,-59.434357,0.000053,
2115,2921,-3.31302534234324,5.8645473458641,-0.0122706026453443,-0.000708,0.002246,-0.005364,-0.015908,0.105649,316.115747,24.673855,0.999054,0.991078,0.003983,0.271366,-0.000027,-0.000037,0.000004,-0.000025,-0.000038,18.996992,0.000064,
2070,2606,-4.23994017101967,-0.986733403013886,-0.0375892368050472,-0.000159,0.002749,-0.009228,0.019821,0.088545,321.388599,24.704857,0.999378,0.991691,0.003642,0.199408,-0.000034,-0.000020,-0.000007,-0.000017,-0.000037,-66.906322,0.000056,
2235,2921,-0.707839083558564,5.87206558686955,-0.0192191726396231,-0.000400,0.002434,-0.008338,0.009556,0.101969,315.669761,24.910093,0.999654,0.994056,0.003311,0.280832,-0.000021,-0.000020,0.000001,-0.000019,-0.000022,70.310692,0.000041,
2310,2906,0.924310328759553,5.55139224186031,-0.0146825069932106,-0.000685,0.002326,-0.004954,-0.013653,0.106829,315.817118,25.141536,0.999493,0.993724,0.003423,0.177641,-0.000020,-0.000033,-0.000003,-0.000019,-0.000034,-13.767405,0.000054,
2085,2666,-3.92355720748128,0.319272162245753,-0.0275126900259579,-0.000683,0.002971,-0.008315,-0.006460,0.117163,320.375043,24.633659,0.999525,0.992210,0.003483,0.281616,-0.000033,-0.000015,-0.000011,-0.000010,-0.000038,-64.996011,0.000050,
2190,2861,-1.67496871660574,4.56624986385602,-0.0250240682551635,-0.000397,0.002661,-0.009208,0.011542,0.106468,316.743755,24.794384,0.999358,0.992708,0.003442,0.252343,-0.000015,-0.000033,0.000006,-0.000014,-0.000035,16.062793,0.000050,
2025,3071,-5.28697897313962,9.11121149202259,0.0166577050108572,-0.000545,0.002036,-0.002115,-0.018650,0.091484,314.351933,24.342405,0.999176,0.992953,0.003606,0.293930,-0.000045,-0.000007,0.000021,0.000002,-0.000055,65.687896,0.000062,
2055,2831,-4.60067404692921,3.90741883630351,-0.0293574152490237,-0.000151,0.002540,-0.008842,0.018795,0.102098,317.812431,24.601222,0.999157,0.989978,0.003982,0.251569,-0.000053,-0.000031,-0.000011,-0.000026,-0.000058,-67.109816,0.000086,
2295,2951,0.590690913727183,6.52760713179079,-0.0127968931278701,-0.000450,0.002444,-0.010223,0.014786,0.086232,315.126203,25.143677,0.999205,0.990035,0.003948,0.213997,-0.000021,-0.000018,-0.000004,-0.000016,-0.000024,-54.934839,0.000040,
2175,2831,-1.99693705814608,3.91517219179149,-0.0416386601347654,-0.000346,0.002595,-0.004927,0.000367,0.142518,317.140934,24.765466,0.999695,0.994935,0.003126,0.271571,-0.000016,-0.000044,0.000006,-0.000015,-0.000046,11.903183,0.000063,
2085,2846,-3.9521417372784,4.23387846049614,-0.0231540781225021,-0.000584,0.002597,-0.008391,-0.001829,0.094029,317.431766,24.594433,0.999664,0.994381,0.003152,0.284558,-0.000033,-0.000037,-0.000002,-0.000032,-0.000038,-19.645924,0.000070,
2445,3191,3.80584333853238,11.7484363982921,0.0208100254610599,-0.000632,0.002382,-0.008597,0.004051,0.094094,311.428639,26.323171,0.999641,0.992840,0.003361,0.212358,-0.000026,-0.000035,0.000007,-0.000022,-0.000039,28.232447,0.000061,
2220,2951,-1.0383492040714,6.52312615206984,-0.011269547203824,-0.000332,0.002981,-0.007990,0.011446,0.121732,315.274486,24.967795,0.999373,0.992856,0.003549,0.247868,-0.000026,-0.000017,0.000005,-0.000014,-0.000028,64.567197,0.000043,
2415,3131,3.16535019403539,10.4428228175525,0.012086244141301,-0.000466,0.002285,-0.007953,0.008592,0.079754,312.322850,25.881401,0.999846,0.996230,0.002694,0.312930,-0.000030,-0.000024,0.000001,-0.000024,-0.000030,77.706660,0.000054,
2160,2741,-2.30724574478181,1.95600599228923,-0.0354658896343949,-0.000600,0.002743,-0.004907,-0.011574,0.125221,318.729186,24.691910,0.999294,0.991236,0.003919,0.250571,-0.000025,-0.000018,-0.000004,-0.000016,-0.000027,-64.744061,0.000044,
2490,2051,5.02082647393846,-13.1295210453465,0.00573031549566849,-0.000587,0.002842,-0.010403,0.014054,0.068913,330.376086,22.148894,0.999293,0.978596,0.005602,0.054066,-0.000002,0.000017,-0.000026,0.000035,-0.000020,-54.985822,0.000035,
2250,2996,-0.394515752669896,7.50111309836024,-0.00125065244526468,-0.000552,0.002520,-0.007517,0.000161,0.104263,314.528570,25.064438,0.999541,0.992776,0.003545,0.272166,-0.000024,-0.000012,0.000010,-0.000006,-0.000029,60.998322,0.000038,
2025,2651,-5.22456396169866,-0.00873805227220714,-0.0375157449926746,-0.000185,0.002375,-0.005882,0.008385,0.092680,320.896319,24.663939,0.999390,0.991799,0.003696,0.261168,-0.000027,0.000006,0.000015,0.000011,-0.000032,69.042404,0.000033,
2220,2921,-1.03339990314228,5.87146511631541,-0.014911182253627,-0.000472,0.002684,-0.008262,0.005746,0.107493,315.738205,24.932893,0.999569,0.993235,0.003450,0.232281,-0.000021,-0.000023,0.000003,-0.000019,-0.000025,33.374051,0.000044,
2430,3161,3.48520525300186,11.0971447222339,0.00845468567251828,-0.000460,0.002561,-0.010090,0.017211,0.094702,311.816853,26.177313,0.999612,0.993593,0.003302,0.191124,-0.000029,-0.000025,-0.000002,-0.000025,-0.000030,-69.976171,0.000055,
2400,3071,2.85031995778905,9.14070492320615,0.00442915941033561,-0.000691,0.002470,-0.006666,-0.006535,0.110432,313.231679,25.731153,0.999611,0.992818,0.003478,0.254642,-0.000028,-0.000031,-0.000002,-0.000027,-0.000032,-20.544906,0.000059,
2130,2756,-2.96133738911578,2.28093527673715,-0.03525768456592,-0.000627,0.002435,-0.006847,-0.007512,0.102673,318.605854,24.696997,0.999510,0.993161,0.003435,0.219078,-0.000031,-0.000024,-0.000006,-0.000020,-0.000035,-60.389790,0.000056,
2460,3236,4.12174299514563,12.7265493626807,0.0134699429592047,-0.000718,0.002403,-0.005880,-0.009825,0.101454,310.625871,26.541318,0.999705,0.994715,0.003089,0.230825,-0.000030,-0.000037,-0.000003,-0.000029,-0.000038,-18.459981,0.000067,
2265,3071,-0.0817015164005319,9.13011271728275,0.0130232042536704,-0.000719,0.002353,-0.006443,-0.010786,0.109977,313.357006,25.281309,0.999431,0.993249,0.003494,0.225550,-0.000022,-0.000035,0.000003,-0.000021,-0.000035,10.972395,0.000057,
2040,2831,-4.9262039787511,3.90651740028298,-0.0282236024513622,-0.000127,0.002606,-0.006039,0.011805,0.106669,317.903129,24.573101,0.999202,0.990186,0.003908,0.266113,-0.000040,-0.000027,-0.000006,-0.000025,-0.000042,-68.260169,0.000068,
2100,2876,-3.63153384293996,4.88733116356715,-0.0256445009126764,-0.000401,0.002504,-0.007480,0.004271,0.103332,316.842969,24.656080,0.999655,0.993634,0.003416,0.254227,-0.000031,-0.000032,-0.000002,-0.000029,-0.000034,-38.859855,0.000063,
2115,2696,-3.27675842813041,0.974079744455686,-0.0342188798711049,-0.000328,0.002403,-0.008909,0.012005,0.078092,319.695483,24.664210,0.999466,0.992117,0.003572,0.206688,-0.000032,-0.000015,-0.000003,-0.000015,-0.000032,-81.126368,0.000048,
2175,2801,-1.99121576902892,3.26109415270241,-0.0271397137001372,-0.000728,0.002624,-0.004404,-0.018867,0.124336,317.742195,24.720607,0.999487,0.991483,0.003910,0.273829,-0.000021,-0.000034,0.000004,-0.000020,-0.000034,14.343511,0.000055,
2085,2681,-3.92625770309283,0.646300525312533,-0.0315367040938099,-0.000495,0.002690,-0.004665,-0.008374,0.126783,320.090976,24.631418,0.999628,0.994104,0.003068,0.292738,-0.000035,-0.000019,-0.000006,-0.000017,-0.000037,-71.209307,0.000055,
2280,3041,0.248740285207898,8.48100754649597,-0.00320973747420794,-0.000328,0.002215,-0.006652,0.008032,0.092859,313.716918,25.285133,0.999431,0.992707,0.003486,0.204571,-0.000021,-0.000023,0.000010,-0.000012,-0.000032,42.909491,0.000045,
2250,2981,-0.39173923834451,7.17600809377898,-0.00728442113404526,-0.000206,0.002564,-0.009560,0.022785,0.094873,314.750641,25.072123,0.999558,0.993574,0.003415,0.232687,-0.000024,-0.000018,0.000010,-0.000011,-0.000031,53.724066,0.000043,
2340,2936,1.57099823587198,6.20467371074684,-0.012572974524403,-0.000673,0.002496,-0.005981,-0.009138,0.091604,315.323108,25.230857,0.999125,0.990415,0.003944,0.202702,-0.000029,-0.000026,-0.000014,-0.000013,-0.000042,-47.549040,0.000057,
2130,2951,-2.992079749102,6.51606412888692,-0.00544812951682161,-0.000571,0.001813,-0.003530,-0.015036,0.089881,315.608038,24.694372,0.999619,0.993614,0.003300,0.276179,-0.000028,-0.000031,0.000005,-0.000024,-0.000035,37.432268,0.000059,
2100,2636,-3.59294282221866,-0.332892216391379,-0.0381212406766736,-0.000090,0.002654,-0.008083,0.020308,0.096826,320.735240,24.612116,0.999040,0.989907,0.004097,0.273587,-0.000026,-0.000011,-0.000001,-0.000010,-0.000026,-85.108473,0.000038,
2145,2696,-2.62474481893521,0.975581107577,-0.0412274810553299,0.000246,0.002673,-0.010454,0.043841,0.089104,319.540700,24.623240,0.999545,0.991214,0.003687,0.254890,-0.000031,-0.000016,-0.000002,-0.000016,-0.000031,-83.779631,0.000048,
2310,2021,1.09170278852993,-13.7857776420717,0.014883413483517,-0.000424,0.002372,-0.002503,-0.010004,0.102810,330.719813,23.155614,0.999371,0.987280,0.004923,0.186436,-0.000008,-0.000041,0.000011,-0.000005,-0.000044,16.958740,0.000054,
2280,3071,0.242662389975369,9.13287802238743,-0.00421295072408157,-0.000681,0.002382,-0.005165,-0.013072,0.114609,313.185851,25.366946,0.999570,0.994158,0.003309,0.197800,-0.000020,-0.000036,0.000003,-0.000019,-0.000036,9.876289,0.000056,
2190,2891,-1.67998345348523,5.21780578157642,-0.0201268684002684,-0.000413,0.002499,-0.007448,0.005265,0.103453,316.279515,24.812857,0.999803,0.995658,0.002947,0.258526,-0.000019,-0.000027,0.000004,-0.000018,-0.000028,22.550068,0.000047,
2505,2126,5.3335694212065,-11.4842841060627,0.00929996342313189,-0.000364,0.002971,-0.009046,0.019435,0.095989,329.219009,22.249515,0.999646,0.986952,0.004656,0.202614,-0.000014,0.000006,-0.000004,0.000007,-0.000015,-78.516634,0.000015,
2295,3101,0.56455188649851,9.78334601892038,0.0131073729714899,-0.000444,0.002569,-0.008640,0.009746,0.094992,312.833589,25.445346,0.999409,0.993437,0.003494,0.210366,-0.000019,-0.000031,0.000003,-0.000018,-0.000032,13.311075,0.000051,
2265,3011,-0.0720306571026512,7.82794832867761,0.000604463557465351,-0.001000,0.002226,-0.004610,-0.029870,0.107409,314.235763,25.145646,0.999332,0.993115,0.003433,0.260903,-0.000023,-0.000013,0.000005,-0.000011,-0.000025,66.025909,0.000037,
2055,2846,-4.6037284635667,4.23370502175549,-0.0295849657987333,-0.000590,0.002447,-0.005118,-0.011962,0.099543,317.530831,24.624783,0.999366,0.992428,0.003571,0.219523,-0.000057,-0.000027,-0.000008,-0.000025,-0.000059,-75.352057,0.000086,
2445,3206,3.8025407536507,12.0734275358918,0.0216512707954735,-0.000817,0.002160,-0.006818,-0.011199,0.086592,311.169047,26.342481,0.999565,0.992121,0.003564,0.236208,-0.000027,-0.000034,0.000010,-0.000020,-0.000041,34.470895,0.000062,
2055,2636,-4.57075565194706,-0.333510096787172,-0.0371187567959055,-0.000279,0.002822,-0.006702,0.006959,0.119480,320.966361,24.706927,0.999244,0.991344,0.003964,0.233547,-0.000031,-0.000007,0.000013,-0.000001,-0.000037,66.943386,0.000043,
2070,2621,-4.24202956519762,-0.660785212869641,-0.0334027857695673,-0.000074,0.002779,-0.008114,0.020636,0.110290,321.176433,24.643375,0.999269,0.990780,0.003889,0.279614,-0.000032,-0.000013,-0.000002,-0.000013,-0.000032,-82.903351,0.000047,
2070,2831,-4.27462183011938,3.9079263376382,-0.0206712125118997,-0.000213,0.002826,-0.010149,0.020060,0.107009,317.802323,24.659321,0.999511,0.993561,0.003330,0.216080,-0.000042,-0.000038,-0.000011,-0.000029,-0.000051,-49.345051,0.000081,
2160,2771,-2.3123077200721,2.6090245240805,-0.0396814306162696,-0.000393,0.002591,-0.006460,0.002643,0.113582,318.210177,24.711913,0.999360,0.991943,0.003706,0.238845,-0.000025,-0.000018,-0.000004,-0.000016,-0.000027,-63.420588,0.000043,
2190,3116,-1.7162604423536,10.0992743019314,0.0286920371113979,-0.000397,0.002111,-0.002236,-0.010420,0.106316,312.922187,25.023840,0.999489,0.993911,0.003337,0.252886,-0.000027,-0.000040,0.000001,-0.000027,-0.000040,2.796841,0.000067,
2025,2846,-5.25565684503683,4.23251575140293,-0.0535107919362758,-0.000402,0.003139,-0.007196,0.002206,0.117133,317.526071,24.414845,0.999698,0.996106,0.002985,0.407007,-0.000039,-0.000021,-0.000013,-0.000015,-0.000045,-62.473416,0.000063,
2370,3041,2.20399368804113,8.48702331898907,0.000704164319188294,-0.000551,0.002364,-0.006326,-0.001822,0.111548,313.689047,25.533052,0.999645,0.993117,0.003388,0.267905,-0.000028,-0.000027,0.000005,-0.000022,-0.000032,47.436381,0.000055,
2325,2981,1.23680564124092,7.18084480553262,-0.00695293638221983,-0.000737,0.002188,-0.006325,-0.011201,0.089835,314.623495,25.263042,0.999903,0.997476,0.002455,0.235965,-0.000027,-0.000022,-0.000004,-0.000019,-0.000030,-59.910673,0.000050,
2040,2621,-4.89424996758724,-0.662022878238339,-0.03097081068222,-0.000657,0.002400,-0.006358,-0.011848,0.084313,321.335234,24.687448,0.998965,0.989650,0.004236,0.235443,-0.000009,-0.000022,0.000007,-0.000007,-0.000024,23.387531,0.000033,
2430,3176,3.48256244769707,11.4217596568905,0.0183313515188956,-0.000682,0.002485,-0.007582,-0.002309,0.093613,311.629080,26.203755,0.999624,0.993519,0.003256,0.211896,-0.000029,-0.000026,-0.000002,-0.000025,-0.000030,-61.133313,0.000055,
2250,3011,-0.397314643003213,7.82685950434061,0.00175647235829501,-0.000644,0.002359,-0.004679,-0.013409,0.108170,314.289868,25.103730,0.999383,0.992064,0.003617,0.259029,-0.000024,-0.000015,0.000008,-0.000010,-0.000029,58.941149,0.000040,
2100,2891,-3.63305472155376,5.21181592444937,-0.0160503023412844,-0.000147,0.002557,-0.008491,0.018922,0.094608,316.688997,24.607227,0.999460,0.993209,0.003612,0.294930,-0.000034,-0.000033,-0.000003,-0.000031,-0.000037,-49.166669,0.000068,
2385,3071,2.52374721676556,9.13972295343333,-0.00314095203123088,-0.000882,0.002685,-0.009556,-0.005181,0.093410,313.158567,25.661217,0.999595,0.992687,0.003500,0.254498,-0.000026,-0.000034,0.000000,-0.000026,-0.000034,-0.684361,0.000060,
2460,3251,4.11816318812511,13.0518884632972,0.00638608558756459,-0.000658,0.002071,-0.005988,-0.006812,0.082450,310.317675,26.570619,0.999728,0.994875,0.002962,0.235453,-0.000034,-0.000041,-0.000004,-0.000032,-0.000043,-24.418800,0.000075,
2490,2066,5.01763330613378,-12.8006765087562,0.00691585114913096,-0.000731,0.002701,-0.010352,0.007172,0.076491,330.131896,22.155703,0.999414,0.980339,0.005482,0.117066,0.000005,0.000009,-0.000018,0.000025,-0.000011,-47.764844,0.000025,
2205,2921,-1.35963699914981,5.87103344852231,-0.0172199932490571,-0.000655,0.002287,-0.006158,-0.009811,0.095184,315.744047,24.940389,0.999437,0.991641,0.003688,0.181289,-0.000021,-0.000027,0.000004,-0.000019,-0.000029,27.187886,0.000049,
2115,2936,-3.3151748685219,6.19074554837557,-0.0152252499802898,-0.000320,0.002545,-0.007514,0.008409,0.105844,315.865549,24.693104,0.999375,0.992167,0.003694,0.255170,-0.000028,-0.000038,0.000008,-0.000023,-0.000043,28.515914,0.000067,
2145,2951,-2.66666561600235,6.51754090289966,-0.0117268135845734,-0.000313,0.002065,-0.004643,0.000405,0.091924,315.508149,24.733467,0.999590,0.992926,0.003412,0.274756,-0.000025,-0.000029,0.000005,-0.000022,-0.000032,32.082655,0.000054,
2415,3146,3.16283683094156,10.7685956392334,0.0224970381155458,-0.000769,0.002318,-0.007365,-0.007442,0.088473,312.142569,26.001176,0.999729,0.994996,0.002964,0.248027,-0.000031,-0.000028,0.000002,-0.000027,-0.000032,68.955498,0.000059,
2025,2861,-5.25645358772513,4.55895019613048,-0.0338119277226383,-0.000117,0.003080,-0.008309,0.018463,0.129877,317.457009,24.593114,0.999076,0.990722,0.004094,0.230835,-0.000045,-0.000033,-0.000010,-0.000027,-0.000051,-60.192824,0.000079,
2310,2921,0.921391135486491,5.87690862437321,-0.0216705553877432,-0.000484,0.002579,-0.007778,0.005292,0.103674,315.527863,25.071182,0.999284,0.992022,0.003666,0.276632,-0.000018,-0.000035,-0.000004,-0.000017,-0.000036,-12.830887,0.000054,
2040,2636,-4.89634724804357,-0.335465090098026,-0.0317815622371427,-0.000377,0.002431,-0.006172,0.000540,0.090590,321.092779,24.657378,0.999134,0.990892,0.004037,0.264538,-0.000017,-0.000009,0.000008,-0.000004,-0.000022,58.267328,0.000028,
2445,3221,3.79938775796096,12.4003524944906,0.0142876512708199,-0.000622,0.002873,-0.010465,0.011769,0.127610,310.877574,26.446999,0.999508,0.992788,0.003574,0.223431,-0.000027,-0.000032,0.000007,-0.000023,-0.000037,35.423942,0.000060,
2280,3086,0.241078242661036,9.45666159571936,0.00456582658279103,-0.000406,0.002315,-0.008834,0.011746,0.085053,313.034470,25.316781,0.999684,0.994298,0.003305,0.245038,-0.000020,-0.000038,0.000002,-0.000020,-0.000038,6.471205,0.000059,
2235,2936,-0.710571921175617,6.19759502740123,-0.0126021629617412,-0.000653,0.002131,-0.004675,-0.014156,0.081700,315.451768,24.960506,0.999543,0.993949,0.003311,0.230192,-0.000024,-0.000020,0.000003,-0.000019,-0.000025,61.218541,0.000044,
2100,2651,-3.59599966659724,-0.00573306493728154,-0.0328695847157974,-0.000770,0.002483,-0.003667,-0.023883,0.114099,320.486302,24.684886,0.999420,0.991504,0.003666,0.219521,-0.000030,-0.000013,-0.000007,-0.000010,-0.000033,-71.602643,0.000045,
2220,3176,-1.07602198711073,11.4023896134924,0.0306964940942294,-0.000552,0.001782,-0.003797,-0.012618,0.070556,311.847111,25.221822,0.999346,0.993279,0.003397,0.209038,-0.000022,-0.000053,-0.000007,-0.000021,-0.000054,-11.848380,0.000077,
2085,2861,-3.95440257131568,4.5598738202595,-0.0175407752464594,-0.000565,0.002233,-0.005120,-0.010454,0.100778,317.220785,24.630900,0.999491,0.992147,0.003708,0.253354,-0.000031,-0.000031,0.000003,-0.000028,-0.000034,44.849190,0.000063,
2145,2726,-2.62989472286301,1.62790509122878,-0.0296608746161837,-0.000373,0.002650,-0.006379,0.003088,0.109063,319.099208,24.649613,0.999456,0.991597,0.003825,0.264191,-0.000030,-0.000021,-0.000004,-0.000019,-0.000032,-69.037491,0.000052,
2265,3086,-0.0837497106181679,9.4554572064913,0.0129779347435601,-0.000361,0.002677,-0.011198,0.021483,0.094840,313.138413,25.301372,0.999608,0.993736,0.003323,0.214722,-0.000022,-0.000039,0.000002,-0.000021,-0.000039,7.623563,0.000061,
2070,2636,-4.24464519120998,-0.333967455555154,-0.029093760630019,-0.000413,0.002726,-0.005355,-0.002848,0.119525,320.940650,24.679312,0.999096,0.988773,0.004258,0.250270,-0.000036,-0.000006,-0.000003,-0.000006,-0.000036,-84.231304,0.000046,
2220,2966,-1.04088466997417,6.8485675217023,-0.00730237879679407,-0.000413,0.002494,-0.007051,0.004481,0.095685,315.051027,25.003813,0.999292,0.991937,0.003687,0.203861,-0.000024,-0.000019,0.000007,-0.000014,-0.000029,53.427085,0.000044,
2190,3131,-1.71927536068529,10.4254502007957,0.0196910149032874,-0.000507,0.002474,-0.007230,0.000233,0.104769,312.606559,25.060013,0.999445,0.993795,0.003420,0.228425,-0.000028,-0.000037,-0.000001,-0.000027,-0.000037,-6.862195,0.000065,
2130,2966,-2.99450167596587,6.84247629789474,-0.00602666783220229,-0.000519,0.002061,-0.004749,-0.008946,0.088862,315.359217,24.760228,0.999741,0.995197,0.002875,0.214052,-0.000024,-0.000034,0.000006,-0.000022,-0.000037,24.989992,0.000059,
2460,3266,4.11388618495822,13.3782057419894,-0.00928699731872484,-0.000478,0.001871,-0.004781,-0.003147,0.082125,309.937341,26.627502,0.999728,0.994584,0.002959,0.231028,-0.000039,-0.000056,-0.000005,-0.000038,-0.000057,-13.863942,0.000096,
2115,2711,-3.27899060705444,1.30051140566185,-0.0328716120977219,-0.000211,0.002446,-0.009271,0.018523,0.085749,319.464567,24.664617,0.999422,0.990816,0.003828,0.217549,-0.000028,-0.000013,-0.000004,-0.000011,-0.000029,-75.956542,0.000042,
2310,2036,1.08972160365458,-13.4570599155598,0.0240970691786515,-0.000418,0.002199,-0.004016,-0.004686,0.078546,330.555321,23.260633,0.999590,0.988010,0.004351,0.092242,-0.000006,-0.000019,0.000017,0.000005,-0.000031,34.581199,0.000033,
2055,2861,-4.60535204973631,4.55804480036126,-0.0172945133117537,-0.000576,0.002147,-0.004783,-0.012362,0.093200,317.384637,24.572642,0.999406,0.992101,0.003657,0.259296,-0.000059,-0.000028,-0.000004,-0.000028,-0.000060,-83.259574,0.000089,
2205,2771,-1.3337251516052,2.6097276158023,-0.0247712084636191,-0.000495,0.002261,-0.005674,-0.003988,0.083166,318.181669,24.764510,0.999301,0.990981,0.004009,0.182693,-0.000017,-0.000021,0.000001,-0.000017,-0.000021,10.718123,0.000038,
2445,3236,3.79593184762102,12.7254097777137,0.010408809074022,-0.000630,0.002458,-0.009358,0.007023,0.096214,310.588839,26.476821,0.999606,0.994111,0.003234,0.212660,-0.000028,-0.000037,0.000004,-0.000026,-0.000039,23.154754,0.000065,
2025,3086,-5.28897829547093,9.43744035358527,0.0200150616533961,-0.000484,0.002223,-0.003750,-0.011257,0.103300,314.136841,24.434016,0.999553,0.995158,0.003064,0.203171,-0.000044,-0.000007,0.000024,0.000004,-0.000056,63.828461,0.000062,
2175,2816,-1.9940123134338,3.58903448083502,-0.0366420178796716,-0.000351,0.002746,-0.005146,0.000803,0.120864,317.432455,24.817995,0.999444,0.992023,0.003652,0.185297,-0.000016,-0.000035,0.000005,-0.000014,-0.000036,14.772663,0.000052,
2280,3296,0.200708329053352,14.0115631535184,-0.00913315500235967,-0.000587,0.002126,-0.004944,-0.009601,0.098409,309.381484,25.738668,0.999583,0.994988,0.002991,0.203719,-0.000042,-0.000027,-0.000009,-0.000023,-0.000046,-64.301017,0.000070,
2340,2951,1.56789868214349,6.5311181785676,-0.0126986067905364,-0.000913,0.002791,-0.006211,-0.019252,0.115677,315.061295,25.277915,0.999408,0.993112,0.003463,0.215472,-0.000032,-0.000017,-0.000011,-0.000011,-0.000038,-61.618520,0.000052,
2040,2846,-4.92939105713084,4.23303457474012,-0.0358878875609321,-0.000444,0.002688,-0.005083,-0.005461,0.110912,317.572879,24.553728,0.999271,0.991744,0.003819,0.281852,-0.000046,-0.000025,-0.000004,-0.000024,-0.000047,-80.033189,0.000072,
2040,2651,-4.8994008826031,-0.00802205519824639,-0.0394280624569774,-0.000420,0.002191,-0.002462,-0.011790,0.096682,320.768360,24.655041,0.999443,0.990252,0.003943,0.265876,-0.000022,-0.000003,0.000005,-0.000002,-0.000023,77.390874,0.000027,
2265,3266,-0.118024164840801,13.3582682946501,0.00885184794458382,-0.000749,0.002025,-0.003701,-0.021443,0.089784,310.048858,25.536345,0.999634,0.994318,0.003141,0.263472,-0.000034,-0.000047,0.000006,-0.000031,-0.000049,20.602991,0.000081,
2160,2786,-2.31409770099465,2.93505807102863,-0.0363685760360681,0.000104,0.002460,-0.007039,0.027245,0.106428,318.013404,24.729765,0.999564,0.991973,0.003681,0.223927,-0.000024,-0.000028,-0.000004,-0.000021,-0.000031,-33.300836,0.000053,
2490,2081,5.01445984917479,-12.4723305738224,0.0132796051431683,-0.000749,0.002179,-0.003819,-0.018738,0.081849,329.911831,22.182744,0.999506,0.980884,0.005268,0.157196,0.000008,0.000015,-0.000015,0.000026,-0.000004,-52.083577,0.000029,
2025,2666,-5.22660797842408,0.317095061689052,-0.035466374812188,-0.000180,0.002809,-0.007874,0.014201,0.108950,320.671289,24.591455,0.999482,0.992745,0.003478,0.340620,-0.000030,-0.000002,0.000008,0.000000,-0.000033,74.744505,0.000038,
2175,2846,-1.99854063762171,4.23999072003744,-0.0299704118803561,-0.000342,0.002718,-0.007554,0.008662,0.113522,316.997988,24.774885,0.999398,0.993005,0.003424,0.244637,-0.000017,-0.000046,0.000007,-0.000015,-0.000048,11.954351,0.000066,
2460,3281,4.11047159965775,13.7039142131845,-0.0149734418051821,-0.000542,0.002088,-0.006999,0.002363,0.083642,309.642861,26.688505,0.999543,0.993456,0.003360,0.224218,-0.000038,-0.000080,-0.000004,-0.000038,-0.000080,-4.854924,0.000120,
2130,2771,-2.9636230447251,2.60651959573751,-0.0295925920785862,-0.000754,0.002559,-0.006262,-0.015108,0.098880,318.396977,24.683992,0.999586,0.993929,0.003245,0.233937,-0.000029,-0.000024,-0.000007,-0.000019,-0.000033,-54.316804,0.000053,
2145,2966,-2.66887891930514,6.84322921936874,-0.00844415998869863,-0.000186,0.001933,-0.004389,0.005401,0.081544,315.290843,24.770245,0.999643,0.994348,0.003131,0.234453,-0.000021,-0.000033,0.000005,-0.000019,-0.000035,21.142977,0.000055,
2055,2651,-4.573341716046,-0.00694637610532567,-0.0422467271394567,-0.000131,0.002479,-0.005520,0.010356,0.118656,320.678957,24.653123,0.999434,0.990725,0.003910,0.281326,-0.000034,-0.000003,0.000010,0.000000,-0.000037,74.078394,0.000042,
2085,2696,-3.92880767600435,0.97255178029409,-0.0325954156395483,-0.000627,0.002551,-0.005526,-0.012087,0.103364,319.830276,24.620818,0.999418,0.992679,0.003481,0.279012,-0.000039,-0.000009,-0.000004,-0.000009,-0.000040,-83.398325,0.000052,
2505,2141,5.33091382633109,-11.1552247551816,0.0154141737965006,-0.000535,0.003193,-0.011100,0.019641,0.103815,329.022303,22.356571,0.999215,0.979693,0.005478,0.166986,-0.000017,-0.000002,-0.000004,-0.000001,-0.000018,-74.766445,0.000021,
2070,2846,-4.27807471620212,4.23439900091122,-0.027874261452439,-0.000322,0.002169,-0.002169,-0.007900,0.101694,317.465261,24.649105,0.999666,0.994715,0.003059,0.217525,-0.000043,-0.000034,-0.000007,-0.000030,-0.000047,-61.774164,0.000078,
2400,3086,2.84786801698254,9.46625386542199,0.00805788130651308,-0.000550,0.002285,-0.007794,0.003918,0.088650,313.021712,25.803420,0.999552,0.992680,0.003474,0.204964,-0.000031,-0.000026,0.000001,-0.000026,-0.000031,74.821456,0.000057,
2100,2906,-3.63543880495878,5.53802654747455,-0.0121810044429367,-0.000354,0.002636,-0.009042,0.011017,0.101865,316.463805,24.661881,0.999178,0.991575,0.003935,0.248072,-0.000028,-0.000044,0.000001,-0.000028,-0.000044,4.090368,0.000073,
2295,3116,0.56164080993549,10.1086770952589,0.0154158209545017,-0.000481,0.002350,-0.005306,-0.003335,0.088195,312.589133,25.479676,0.999556,0.994447,0.003242,0.197984,-0.000019,-0.000037,0.000000,-0.000019,-0.000037,1.455498,0.000058,
2355,2996,1.88605828674769,7.50952087479317,-0.00879890520678828,-0.000708,0.002452,-0.009587,0.002158,0.089932,314.362598,25.433046,0.999573,0.992504,0.003563,0.183858,-0.000032,-0.000019,-0.000007,-0.000016,-0.000035,-65.817774,0.000052,
2160,2996,-2.34822726772354,7.49571994666696,-0.0052284603929138,-0.000316,0.002462,-0.007203,0.008379,0.092818,314.762416,24.853379,0.999514,0.993934,0.003466,0.218822,-0.000022,-0.000015,0.000012,-0.000006,-0.000031,53.512924,0.000040,
2250,3026,-0.400139356084249,8.15257861976397,0.00182091144949936,-0.000852,0.002295,-0.006052,-0.018549,0.091876,314.035029,25.144332,0.999345,0.991667,0.003639,0.224523,-0.000025,-0.000016,0.000011,-0.000009,-0.000032,57.239523,0.000043,
2385,3086,2.52193630012256,9.46418229951983,0.00809955940792406,-0.000567,0.002276,-0.008727,0.006217,0.086341,313.013788,25.668453,0.999406,0.991897,0.003663,0.282106,-0.000029,-0.000029,0.000003,-0.000027,-0.000032,44.603614,0.000059,
2250,3236,-0.436269114184068,12.7046909300249,0.0335838112335978,-0.000813,0.001811,-0.002328,-0.029155,0.081120,310.780750,25.368287,0.999798,0.996319,0.002671,0.297447,-0.000026,-0.000051,-0.000010,-0.000023,-0.000055,-19.194390,0.000079,
2460,3296,4.1074128088659,14.0289864119391,-0.0147228686709582,-0.000588,0.002270,-0.007384,0.001797,0.101519,309.392272,26.711970,0.999567,0.994819,0.003146,0.271332,-0.000023,-0.000087,0.000000,-0.000023,-0.000087,-0.289016,0.000116,
2100,2666,-3.59812561072132,0.320379925016127,-0.034899010170534,-0.000484,0.002626,-0.005896,-0.004164,0.104430,320.240978,24.630534,0.999585,0.992906,0.003372,0.265775,-0.000028,-0.000016,-0.000007,-0.000013,-0.000031,-66.028866,0.000046,
2235,2951,-0.712703660762944,6.52397415118138,-0.0134476211258061,-0.000407,0.002665,-0.009931,0.014392,0.094090,315.222893,25.006217,0.999276,0.991987,0.003787,0.217244,-0.000027,-0.000014,0.000005,-0.000012,-0.000028,72.590650,0.000042,
2325,2996,1.23431919282969,7.5065415724106,-0.00507421736119795,-0.000611,0.002242,-0.007496,-0.001354,0.089520,314.398706,25.291667,0.999735,0.995461,0.002979,0.240610,-0.000026,-0.000017,-0.000003,-0.000016,-0.000027,-72.281496,0.000043,
2220,3191,-1.07825102995519,11.727449663158,0.0298359767560896,-0.000284,0.002130,-0.007302,0.011077,0.075571,311.612663,25.216629,0.999460,0.993820,0.003290,0.236819,-0.000023,-0.000058,-0.000007,-0.000022,-0.000060,-10.562499,0.000084,
2085,2876,-3.95676630748904,4.88581972812271,-0.0204435848619937,-0.000465,0.002393,-0.007438,0.000850,0.090889,316.958683,24.618962,0.999513,0.992712,0.003622,0.254116,-0.000032,-0.000034,-0.000002,-0.000031,-0.000035,-31.791521,0.000066,
2025,3101,-5.29114390091449,9.76225422271033,0.0176704952077671,-0.000242,0.002444,-0.005255,0.004118,0.106537,313.882752,24.370714,0.999577,0.994717,0.003135,0.258688,-0.000044,-0.000009,0.000027,0.000006,-0.000059,61.391634,0.000065,
2070,2651,-4.24757682488197,-0.00676521488141191,-0.0336132413914356,-0.000644,0.002686,-0.004633,-0.015514,0.129655,320.641906,24.678140,0.999355,0.990332,0.003915,0.258787,-0.000039,-0.000007,-0.000008,-0.000005,-0.000040,-76.819678,0.000050,
2265,3281,-0.121501000941986,13.6840311137986,-0.00249344439413335,-0.000657,0.002151,-0.003855,-0.016630,0.097669,309.706728,25.560032,0.999451,0.994134,0.003174,0.271638,-0.000036,-0.000036,0.000005,-0.000031,-0.000041,44.754155,0.000073,
2475,2006,4.70250142763596,-14.1200987204691,0.0203994054057262,-0.000860,0.002474,-0.004632,-0.020782,0.088609,331.164872,22.026063,0.999227,0.976520,0.005702,0.114770,0.000002,-0.000009,-0.000028,0.000025,-0.000032,-39.505205,0.000034,
2040,2666,-4.90058102263369,0.317647553413586,-0.0299669984694901,-0.000078,0.002611,-0.006127,0.014256,0.096553,320.625215,24.647193,0.999351,0.989817,0.004098,0.266049,-0.000025,-0.000014,0.000000,-0.000014,-0.000025,-89.578481,0.000039,
2190,2906,-1.68211691003977,5.54194991311642,-0.0139703484252323,-0.000376,0.002095,-0.007647,0.007471,0.097129,316.084412,24.710052,0.999797,0.995521,0.003021,0.368933,-0.000020,-0.000033,0.000006,-0.000018,-0.000035,20.080700,0.000054,
2340,2966,1.56464330079246,6.8579520992449,-0.0163122186203282,-0.000888,0.002331,-0.004442,-0.024394,0.102230,314.775206,25.377812,0.999904,0.998100,0.002379,0.137914,-0.000032,-0.000020,-0.000010,-0.000015,-0.000038,-60.122454,0.000054,
2490,2096,5.01344481997892,-12.1445571197509,0.0353131263822775,-0.000758,0.002567,-0.007259,-0.005858,0.078185,329.861111,22.345597,0.999666,0.985401,0.004727,0.051468,0.000007,0.000021,-0.000008,0.000025,0.000003,-66.734413,0.000031,
2205,3146,-1.39660794828864,10.7515937256739,0.0203684994740456,-0.000613,0.002295,-0.007185,-0.004593,0.096846,312.311195,25.118096,0.999539,0.994108,0.003260,0.239607,-0.000024,-0.000037,0.000001,-0.000024,-0.000037,2.819776,0.000061,
2415,3161,3.16006944056125,11.0944497250518,0.0194452893127277,-0.000505,0.002466,-0.009957,0.014241,0.085127,311.887186,26.059605,0.999657,0.994145,0.003142,0.232704,-0.000030,-0.000029,0.000001,-0.000029,-0.000030,61.953457,0.000059,
2220,2981,-1.04358620373292,7.1739402588465,-0.0067659998135241,-0.000349,0.002245,-0.005080,0.001047,0.095342,314.802239,24.987458,0.999405,0.992626,0.003562,0.237974,-0.000026,-0.000021,0.000008,-0.000015,-0.000031,54.245488,0.000048,
2070,2861,-4.28053232489792,4.55932080706194,-0.0198379813344332,-0.000904,0.002073,-0.002531,-0.033700,0.105668,317.257978,24.608187,0.999490,0.992395,0.003598,0.258541,-0.000044,-0.000032,-0.000002,-0.000031,-0.000044,-82.585215,0.000076,
2130,2981,-2.99725516455337,7.16792325132212,-0.00609625512629464,-0.000831,0.002525,-0.005920,-0.019680,0.101121,315.098211,24.732066,0.999722,0.995052,0.002973,0.259179,-0.000024,-0.000031,0.000010,-0.000016,-0.000038,35.628122,0.000056,
2205,2936,-1.36171813494902,6.19563749136168,-0.0116267167925344,-0.000481,0.002196,-0.006032,-0.002221,0.093193,315.549162,24.879284,0.999450,0.993135,0.003470,0.256386,-0.000025,-0.000027,0.000005,-0.000020,-0.000032,37.840187,0.000052,
2160,2801,-2.31687482834279,3.26048020913666,-0.0292709650811958,-0.000512,0.002519,-0.005683,-0.005259,0.100732,317.791515,24.724025,0.999619,0.992958,0.003480,0.233453,-0.000027,-0.000032,-0.000004,-0.000025,-0.000034,-29.345287,0.000059,
2235,2981,-0.717318643813375,7.17479604063136,-0.00218574199828936,-0.000354,0.002461,-0.008745,0.012953,0.096127,314.815817,25.046546,0.999497,0.993379,0.003454,0.219394,-0.000027,-0.000018,0.000008,-0.000013,-0.000032,59.924649,0.000046,
2190,3146,-1.72224318960583,10.7505943760559,0.0195519234628136,-0.000709,0.002203,-0.005395,-0.014880,0.106138,312.339743,25.059026,0.999172,0.992745,0.003743,0.243925,-0.000027,-0.000033,0.000000,-0.000027,-0.000033,-0.307299,0.000060,
2295,2006,0.767431927882093,-14.1162576801235,0.0255460968195962,-0.000672,0.002362,-0.004148,-0.015940,0.093858,331.060977,23.223695,0.999286,0.980928,0.005393,0.177467,-0.000008,-0.000023,0.000008,-0.000004,-0.000026,22.733522,0.000033,
2145,2741,-2.63255377503761,1.95411792880849,-0.0231204747547054,-0.000590,0.002321,-0.000978,-0.023328,0.118560,318.878616,24.679815,0.999398,0.992214,0.003780,0.251086,-0.000028,-0.000020,-0.000005,-0.000018,-0.000030,-65.166119,0.000048,
2430,3191,3.48033521528253,11.7465069077227,0.0251492812593597,-0.000501,0.002345,-0.008305,0.008639,0.085878,311.446078,26.232980,0.999597,0.992838,0.003376,0.223489,-0.000030,-0.000038,0.000003,-0.000029,-0.000040,20.057536,0.000069,
2175,3071,-2.03479618736334,9.121502988961,0.014950864201694,-0.000523,0.001692,-0.003442,-0.012801,0.069575,313.606662,24.837210,0.999633,0.995705,0.003009,0.309875,-0.000028,-0.000026,0.000008,-0.000019,-0.000036,48.641045,0.000055,
2115,2951,-3.31776301815291,6.51644518193199,-0.014962049353926,-0.000484,0.002276,-0.008242,0.002905,0.090457,315.612764,24.709902,0.999515,0.992854,0.003466,0.225760,-0.000026,-0.000034,0.000006,-0.000022,-0.000038,28.701990,0.000060,
2325,3011,1.23161713477732,7.83238972228164,-0.0039308905416533,-0.000550,0.002287,-0.007417,0.001193,0.091870,314.160296,25.330477,0.999329,0.990959,0.003757,0.237674,-0.000023,-0.000022,-0.000002,-0.000020,-0.000025,-56.686198,0.000045,
2055,2666,-4.57474914092903,0.318855770966053,-0.032760172315534,-0.000087,0.003132,-0.010580,0.026779,0.117871,320.526368,24.658868,0.999321,0.989939,0.004062,0.269595,-0.000037,-0.000010,0.000007,-0.000008,-0.000038,77.267236,0.000050,
2490,2111,5.01058332019174,-11.8159120975268,0.0337665624218744,-0.000485,0.002966,-0.008831,0.012735,0.099844,329.619584,22.304010,0.999665,0.985399,0.004769,0.176638,-0.000004,0.000016,-0.000013,0.000023,-0.000010,-64.281352,0.000023,
2025,2681,-5.22989070290722,0.645575083361379,-0.0491357910100305,-0.000053,0.001886,-0.003105,0.006726,0.086845,320.301068,24.671881,0.999781,0.996527,0.002772,0.228862,-0.000036,-0.000012,0.000001,-0.000012,-0.000036,86.861126,0.000050,
2145,2981,-2.67132819494355,7.1689977639073,-0.00695211162945952,-0.000261,0.002360,-0.005396,0.005204,0.106467,315.053094,24.770454,0.999680,0.995063,0.003030,0.266399,-0.000020,-0.000030,0.000008,-0.000015,-0.000035,29.684578,0.000051,
2100,2681,-3.60060027469352,0.64679107464513,-0.0321275684354987,-0.000637,0.002614,-0.004825,-0.014313,0.117550,320.005520,24.626296,0.999519,0.993347,0.003311,0.284602,-0.000032,-0.000019,-0.000003,-0.000018,-0.000032,-76.887434,0.000051,
2025,2876,-5.25897024695768,4.88332374817823,-0.0225477169457236,-0.000698,0.002297,-0.003527,-0.021730,0.101075,317.262799,24.561977,0.999000,0.988688,0.004316,0.222817,-0.000053,-0.000049,-0.000015,-0.000036,-0.000066,-48.872076,0.000104,
2070,2876,-4.28286002638642,4.88585051559715,-0.0254257152121795,-0.000662,0.002267,-0.005428,-0.014228,0.098726,316.981346,24.626566,0.999399,0.990617,0.003967,0.229731,-0.000045,-0.000036,-0.000008,-0.000032,-0.000049,-60.445367,0.000082,
2355,3011,1.88379430345357,7.83528509649516,-0.00459391189554026,-0.000311,0.002673,-0.008380,0.016319,0.108737,314.161300,25.469456,0.999528,0.992480,0.003581,0.204388,-0.000030,-0.000023,-0.000006,-0.000019,-0.000033,-58.062586,0.000053,
2475,2021,4.69980654086688,-13.7907873859266,0.0233806578247027,-0.000950,0.002858,-0.007788,-0.012795,0.098461,330.950559,22.076019,0.999423,0.980205,0.005371,0.134513,0.000012,-0.000009,-0.000018,0.000022,-0.000019,-29.849208,0.000024,
2370,3056,2.20104157104187,8.81343104993881,0.000983091840907946,-0.000690,0.002613,-0.007428,-0.004186,0.116400,313.437840,25.627679,0.999715,0.994053,0.003164,0.217767,-0.000029,-0.000028,0.000003,-0.000025,-0.000031,51.264093,0.000057,
2310,2051,1.08688985583315,-13.127718069165,0.0228886542327018,-0.000448,0.002478,-0.004959,-0.002760,0.099136,330.300439,23.263915,0.999518,0.985981,0.004588,0.145197,-0.000011,-0.000042,0.000005,-0.000010,-0.000043,8.356149,0.000056,
2190,2921,-1.68530297874034,5.86965187443067,-0.0152590639268624,-0.000640,0.002148,-0.004473,-0.014633,0.099680,315.800982,24.874642,0.999465,0.992753,0.003523,0.220548,-0.000025,-0.000027,0.000006,-0.000020,-0.000032,37.874937,0.000052,
2040,2861,-4.9309247579601,4.55802037942403,-0.0257487560602385,-0.000359,0.002504,-0.006966,0.003657,0.105602,317.417908,24.543634,0.999276,0.991610,0.003958,0.278394,-0.000050,-0.000030,-0.000001,-0.000030,-0.000050,-85.778584,0.000081,
2025,3116,-5.29357557475288,10.0882458545873,0.0160000955894475,-0.000381,0.002736,-0.008092,0.005580,0.110418,313.619797,24.423840,0.999640,0.995345,0.002946,0.198563,-0.000047,0.000003,0.000023,0.000012,-0.000056,68.240814,0.000059,
2445,3251,3.79230273122932,13.0501290233915,0.0110758173557883,-0.001037,0.002107,-0.006465,-0.022642,0.088163,310.313228,26.482787,0.999761,0.995090,0.002906,0.249100,-0.000031,-0.000039,0.000005,-0.000029,-0.000042,25.360150,0.000071,
2265,3101,-0.0869653787264433,9.78070844779671,0.0124603095507041,-0.000385,0.002204,-0.005596,0.001651,0.094509,312.863733,25.299271,0.999701,0.994453,0.003191,0.240774,-0.000020,-0.000039,0.000000,-0.000020,-0.000039,-1.146794,0.000059,
2250,3041,-0.402469362072697,8.47840329144407,0.00302512080577344,-0.000721,0.002388,-0.008489,-0.004547,0.082459,313.808647,25.199573,0.999536,0.993061,0.003363,0.182136,-0.000024,-0.000020,0.000011,-0.000011,-0.000033,51.111129,0.000046,
2265,3296,-0.123805565501144,14.00994991043,-0.00142291564156949,-0.000704,0.002501,-0.009798,0.000995,0.101834,309.481264,25.676122,0.999531,0.994228,0.003220,0.183191,-0.000046,-0.000027,-0.000001,-0.000027,-0.000046,-87.068103,0.000074,
2235,2996,-0.720250784817072,7.5002366005704,-0.00167849406233245,-0.000553,0.002610,-0.007627,0.000249,0.107570,314.557320,25.028596,0.999455,0.992326,0.003609,0.269142,-0.000029,-0.000011,0.000010,-0.000006,-0.000033,66.150655,0.000042,
2130,2996,-2.99979575695987,7.49321426335039,-0.0057655663754872,-0.000871,0.002595,-0.005833,-0.021807,0.098745,314.849194,24.711121,0.999732,0.995000,0.003050,0.282677,-0.000025,-0.000018,0.000012,-0.000009,-0.000034,53.432301,0.000046,
2055,2876,-4.60787170100809,4.88450302122556,-0.0212099308458846,-0.000613,0.002412,-0.006979,-0.007810,0.095716,317.107132,24.587124,0.999384,0.990803,0.003932,0.241688,-0.000064,-0.000035,-0.000013,-0.000030,-0.000069,-69.322691,0.000101,
2505,2156,5.32782433574037,-10.8266214504357,0.0193796527662471,-0.000620,0.002802,-0.009152,0.008063,0.081336,328.796228,22.433591,0.999222,0.980458,0.005282,0.131207,-0.000005,0.000000,0.000002,0.000000,-0.000006,73.481347,0.000007,
2310,2936,0.918553570023818,6.20336625901678,-0.0224973981987659,-0.000497,0.002775,-0.008488,0.007223,0.117644,315.272428,25.120293,0.999229,0.990465,0.003887,0.273105,-0.000019,-0.000031,-0.000005,-0.000017,-0.000033,-22.029366,0.000051,
2085,2711,-3.930854085888,1.29931935181335,-0.0336306509313999,-0.000381,0.002899,-0.008379,0.007595,0.106647,319.592549,24.635862,0.999352,0.991325,0.003745,0.266520,-0.000038,-0.000008,-0.000006,-0.000006,-0.000039,-78.485093,0.000049,
2190,3161,-1.72524019186741,11.0774194753028,0.0132421608524282,-0.000623,0.002349,-0.005150,-0.011579,0.119739,312.038684,25.166488,0.999675,0.995764,0.002919,0.163090,-0.000028,-0.000040,-0.000001,-0.000027,-0.000040,-3.899297,0.000068,
2295,3131,0.558724472952203,10.4347331393306,0.0119627111237719,-0.000492,0.002658,-0.007325,0.003130,0.098866,312.315431,25.530581,0.999740,0.995478,0.002977,0.186194,-0.000019,-0.000036,0.000001,-0.000019,-0.000036,2.893669,0.000056,
2400,3101,2.84526045517012,9.79141865270504,0.0112781973016354,-0.000398,0.002127,-0.007206,0.008719,0.083802,312.802694,25.824303,0.999562,0.993679,0.003289,0.223385,-0.000029,-0.000020,0.000004,-0.000019,-0.000030,68.484652,0.000050,
2490,2126,5.00723479654585,-11.4875585167764,0.0414439606465749,-0.001015,0.002771,-0.004996,-0.026176,0.122892,329.397090,22.341853,0.999669,0.989063,0.004330,0.223304,-0.000018,0.000000,-0.000017,0.000011,-0.000028,-58.644917,0.000029,
2130,2786,-2.96584552974499,2.93263411323041,-0.02846299330497,-0.000530,0.002648,-0.005853,-0.005976,0.104699,318.166558,24.677769,0.999558,0.993959,0.003220,0.251373,-0.000027,-0.000031,-0.000005,-0.000023,-0.000035,-33.740474,0.000058,
2310,2066,1.08323119780179,-12.7990029395432,0.0192832047446814,-0.000943,0.002168,-0.003419,-0.030771,0.092477,329.996138,23.216133,0.999470,0.983688,0.004892,0.222080,-0.000013,-0.000036,0.000010,-0.000009,-0.000039,19.749877,0.000052,
2160,3011,-2.35128813474563,7.82127287988977,-0.00764743978891147,-0.000679,0.002378,-0.007685,-0.006872,0.094008,314.477049,24.838816,0.999413,0.992100,0.003737,0.243627,-0.000024,-0.000015,0.000012,-0.000007,-0.000032,55.297531,0.000042,
2415,3176,3.15660880086358,11.4201942642341,0.0178253561232395,-0.000601,0.002427,-0.006955,-0.001174,0.095545,311.606550,26.107471,0.999593,0.993658,0.003235,0.241412,-0.000028,-0.000030,0.000000,-0.000028,-0.000030,2.501813,0.000058,
2175,3086,-2.03750370332229,9.4486175918576,0.0135759472914287,-0.000616,0.002232,-0.004670,-0.013114,0.087877,313.343564,24.976509,0.999514,0.993913,0.003296,0.199967,-0.000023,-0.000030,0.000011,-0.000015,-0.000037,36.230449,0.000054,
2040,2681,-4.90370710440302,0.645337898156953,-0.039044810274163,-0.000247,0.002334,-0.004831,0.002840,0.104668,320.289466,24.663794,0.999380,0.992433,0.003714,0.250360,-0.000027,-0.000023,-0.000002,-0.000022,-0.000028,-66.624517,0.000051,
2295,2021,0.764253301007038,-13.7864767636353,0.0212353671886945,-0.000490,0.001914,-0.000261,-0.020820,0.098798,330.773663,23.235349,0.999193,0.983886,0.005149,0.204395,-0.000012,-0.000026,0.000004,-0.000011,-0.000028,15.848076,0.000040,
2115,2966,-3.31945262462976,6.84181330616994,-0.00762602770794274,-0.000187,0.002543,-0.008686,0.017959,0.097063,315.439418,24.728648,0.999622,0.993816,0.003195,0.216213,-0.000022,-0.000037,0.000007,-0.000019,-0.000040,20.424138,0.000060,
2160,2816,-2.31919573106834,3.58668771175572,-0.0218459269372033,-0.000676,0.002068,-0.004185,-0.017545,0.090065,317.592053,24.801321,0.999739,0.994317,0.003142,0.155141,-0.000021,-0.000033,-0.000002,-0.000021,-0.000033,-8.309355,0.000055,
2055,2681,-4.57734232183374,0.644689411073038,-0.0237974983050435,-0.000569,0.002567,-0.005518,-0.009786,0.128155,320.316585,24.655599,0.999434,0.992689,0.003603,0.277753,-0.000040,-0.000016,0.000007,-0.000014,-0.000042,74.555927,0.000059,
2100,2921,-3.63785781137397,5.86343748502291,-0.00879843979095085,-0.000378,0.002356,-0.006655,0.002846,0.099477,316.234668,24.652897,0.999199,0.991571,0.003863,0.254901,-0.000027,-0.000040,0.000003,-0.000026,-0.000041,14.053016,0.000067,
2040,2876,-4.93390241875563,4.88426573399123,-0.0250576878323727,-0.000735,0.002183,-0.002157,-0.027109,0.106950,317.143827,24.574697,0.998987,0.988582,0.004316,0.240616,-0.000055,-0.000040,-0.000010,-0.000035,-0.000060,-63.423847,0.000096,
2280,3101,0.238039212673744,9.78239545289944,0.00597251762548012,-0.000511,0.002203,-0.005231,-0.005143,0.093798,312.778484,25.363365,0.999628,0.994388,0.003259,0.233627,-0.000018,-0.000035,0.000000,-0.000018,-0.000035,1.160542,0.000054,
2070,2891,-4.28494303313948,5.21163255946924,-0.0219885529038493,-0.000598,0.002432,-0.006125,-0.009306,0.093653,316.765742,24.646787,0.999496,0.993104,0.003534,0.200659,-0.000049,-0.000037,-0.000006,-0.000035,-0.000052,-66.871298,0.000087,
2025,2891,-5.26081800183018,5.20909921871862,-0.0212748762226624,-0.000518,0.002439,-0.007254,-0.003138,0.098187,317.042835,24.562017,0.999308,0.993092,0.003510,0.209391,-0.000057,-0.000050,-0.000014,-0.000040,-0.000068,-52.164514,0.000109,
2055,2891,-4.61011575898042,5.21020290180152,-0.0143330707504674,-0.000592,0.002238,-0.001943,-0.021039,0.103574,316.902151,24.611939,0.999534,0.993494,0.003483,0.218399,-0.000068,-0.000036,-0.000013,-0.000031,-0.000073,-69.668748,0.000107,
2115,2726,-3.28233882729014,1.62689136573309,-0.0313141500914753,-0.000809,0.001964,-0.003266,-0.026844,0.108125,319.183613,24.651959,0.999404,0.991157,0.003827,0.255833,-0.000031,-0.000023,-0.000007,-0.000019,-0.000035,-59.359366,0.000055,
2250,3251,-0.439945643408251,13.0313548653569,0.0182406450730355,-0.000859,0.002054,-0.005152,-0.021942,0.077830,310.407428,25.451931,0.999702,0.995044,0.002958,0.232190,-0.000027,-0.000049,-0.000004,-0.000027,-0.000049,-10.517431,0.000077,
2235,3206,-0.756006249565079,12.0537959726454,0.0341188894751099,-0.000831,0.002054,-0.004753,-0.022138,0.083155,311.327132,25.315275,0.999492,0.993707,0.003338,0.235888,-0.000021,-0.000055,-0.000006,-0.000020,-0.000056,-9.305595,0.000079,
2220,3206,-1.08094833959187,12.0524086049632,0.034298705143442,-0.000503,0.001941,-0.005779,-0.003886,0.082060,311.384158,25.236596,0.999324,0.992811,0.003586,0.240638,-0.000022,-0.000055,-0.000009,-0.000019,-0.000057,-14.828386,0.000080,
2025,3176,-5.30198964353371,11.3861545819107,0.0347216752671216,-0.000328,0.002279,-0.006068,0.002357,0.103180,312.773265,24.299016,0.999654,0.995100,0.002919,0.271331,-0.000027,0.000013,0.000020,0.000021,-0.000035,67.226305,0.000036,
2205,2951,-1.36443507001468,6.5219300621452,-0.0169191577293191,-0.000269,0.002609,-0.007107,0.011127,0.108464,315.268079,24.881732,0.999347,0.992943,0.003563,0.285324,-0.000025,-0.000019,0.000007,-0.000015,-0.000030,56.076220,0.000046,
2385,3101,2.51921690139849,9.78992384282539,0.010388171163811,-0.000383,0.002202,-0.006983,0.008361,0.087320,312.784008,25.730462,0.999052,0.990105,0.004007,0.263143,-0.000027,-0.000025,0.000005,-0.000021,-0.000031,50.197494,0.000052,
2175,2861,-2.00110410993544,4.5655476542857,-0.0254118592213217,-0.000562,0.002621,-0.006470,-0.004844,0.114296,316.773394,24.771401,0.999017,0.990958,0.003726,0.260784,-0.000016,-0.000035,0.000009,-0.000012,-0.000039,22.093511,0.000053,
2280,2006,0.439501507303387,-14.1153109587296,0.0247338814514819,-0.000958,0.002882,-0.005561,-0.024304,0.112248,331.061222,23.349031,0.999336,0.984911,0.004960,0.174895,-0.000001,0.000005,0.000021,0.000023,-0.000019,48.926981,0.000025,
2430,3206,3.47646552502058,12.0722814355738,0.0203984549569896,-0.000757,0.002135,-0.005703,-0.012864,0.085110,311.132934,26.283977,0.999571,0.991909,0.003605,0.220097,-0.000032,-0.000039,0.000006,-0.000028,-0.000042,29.286656,0.000071,
2490,2141,5.002782327761,-11.1549409143304,0.0184911678345543,-0.000645,0.003446,-0.008150,0.003028,0.140714,328.986010,22.443524,0.999180,0.983675,0.005121,0.202204,-0.000026,-0.000007,-0.000017,0.000003,-0.000035,-60.159262,0.000039,
2205,3161,-1.39919877543711,11.0771937369973,0.0231313109919711,-0.000584,0.002150,-0.004970,-0.010325,0.097314,312.077663,25.182148,0.999812,0.996387,0.002683,0.191366,-0.000025,-0.000043,0.000000,-0.000025,-0.000043,-0.838882,0.000069,
2250,3056,-0.404009038373744,8.80214594751949,0.021908052036963,-0.000768,0.002431,-0.006725,-0.012411,0.094456,313.709103,25.163818,0.999632,0.994337,0.003076,0.251869,-0.000024,-0.000024,0.000010,-0.000014,-0.000034,45.947592,0.000049,
2475,2036,4.69718039012921,-13.46194751316,0.0229184411459187,-0.000594,0.003209,-0.009774,0.011094,0.103335,330.723803,22.053777,0.999456,0.980034,0.005495,0.221428,0.000016,-0.000019,-0.000012,0.000019,-0.000023,-17.099899,0.000025,
2145,2756,-2.63524124167354,2.28082911506317,-0.0273157683028558,-0.000559,0.002199,-0.002165,-0.018412,0.098818,318.599605,24.701779,0.999380,0.992413,0.003593,0.217382,-0.000027,-0.000019,-0.000004,-0.000018,-0.000028,-68.518092,0.000047,
2340,2981,1.56283136666356,7.18198633711904,-0.00668443325224644,-0.000673,0.002166,-0.005776,-0.009940,0.089707,314.620799,25.316799,0.999777,0.995686,0.002894,0.222233,-0.000033,-0.000023,-0.000008,-0.000019,-0.000037,-61.572230,0.000057,
2505,2171,5.32431863030058,-10.4986009265279,0.0188278438382667,-0.000710,0.002210,-0.006770,-0.005460,0.068983,328.530831,22.403345,0.999093,0.978457,0.005522,0.212916,0.000003,0.000014,-0.000002,0.000014,0.000002,-78.812182,0.000018,
2190,2936,-1.68743833145695,6.19441326339737,-0.00726409698285124,-0.000739,0.001992,-0.004859,-0.018042,0.090923,315.615169,24.851748,0.999439,0.993400,0.003469,0.248231,-0.000028,-0.000027,0.000007,-0.000021,-0.000035,47.408999,0.000056,
2070,2906,-4.28741964255701,5.53664887382003,-0.0174866352871845,-0.000901,0.002290,-0.005319,-0.025559,0.098666,316.538200,24.598407,0.999542,0.993855,0.003290,0.250302,-0.000042,-0.000048,-0.000003,-0.000041,-0.000049,-21.295141,0.000091,
2250,3266,-0.443171650363563,13.3573429774503,0.00661944996465991,-0.000579,0.002267,-0.006004,-0.006135,0.090674,310.073974,25.484319,0.999573,0.994149,0.003132,0.234493,-0.000029,-0.000048,0.000002,-0.000029,-0.000048,6.835951,0.000078,
2085,2891,-3.95894651084805,5.21135502516862,-0.0161562235214205,-0.000312,0.002137,-0.004681,-0.000157,0.086100,316.744363,24.622560,0.999510,0.994452,0.003397,0.244231,-0.000036,-0.000035,-0.000002,-0.000034,-0.000038,-52.499096,0.000072,
2220,2996,-1.0459129807735,7.49936627143975,-0.00328615060089987,-0.000368,0.002334,-0.006727,0.005434,0.082545,314.585805,25.013012,0.999467,0.992451,0.003583,0.217449,-0.000029,-0.000013,0.000009,-0.000009,-0.000034,64.847247,0.000045,
2235,3011,-0.72277010863435,7.82609716261722,-0.00105265231155727,-0.000294,0.002312,-0.005815,0.006232,0.102372,314.318254,25.070777,0.999315,0.990700,0.003853,0.241935,-0.000029,-0.000013,0.000008,-0.000009,-0.000033,66.837726,0.000044,
2145,2996,-2.67339534849349,7.49402973262323,-0.00172807344910098,-0.000528,0.002744,-0.011378,0.011070,0.090903,314.853061,24.773198,0.999595,0.994066,0.003289,0.254839,-0.000022,-0.000017,0.000010,-0.000009,-0.000030,51.583205,0.000041,
2055,2906,-4.61237463227846,5.53549471809086,-0.0142388410706076,-0.000579,0.002448,-0.003575,-0.015745,0.113486,316.659169,24.550547,0.999609,0.994412,0.003198,0.283775,-0.000059,-0.000048,-0.000010,-0.000042,-0.000065,-58.156418,0.000108,
2070,2666,-4.24956061446055,0.319190738614537,-0.0349010343907707,-0.000405,0.002363,-0.008352,0.005912,0.080180,320.404816,24.654732,0.999334,0.990317,0.003909,0.229808,-0.000039,-0.000014,-0.000011,-0.000010,-0.000043,-70.280902,0.000056,
2355,3026,1.88074807492874,8.16086412079052,-0.00242129046591799,-0.000678,0.002640,-0.008990,0.001523,0.098537,313.914217,25.507610,0.999591,0.993192,0.003437,0.193698,-0.000030,-0.000027,0.000002,-0.000026,-0.000031,67.421754,0.000057,
2115,2741,-3.28471243128735,1.9539151771135,-0.0357630941328466,-0.000474,0.002140,-0.003931,-0.009420,0.100523,318.914884,24.683492,0.999393,0.992136,0.003699,0.220338,-0.000029,-0.000025,-0.000009,-0.000018,-0.000036,-50.898218,0.000056,
2400,3116,2.84286398602286,10.1171067224027,0.0186892034385551,-0.000479,0.002416,-0.008051,0.008210,0.098800,312.613007,25.904035,0.999833,0.996164,0.002712,0.202814,-0.000027,-0.000023,0.000001,-0.000023,-0.000027,72.447330,0.000050,
2430,3221,3.47375987374359,12.3981325513288,0.019099110555203,-0.000539,0.002571,-0.008180,0.006523,0.102475,310.889452,26.348740,0.999479,0.992768,0.003529,0.221045,-0.000031,-0.000036,0.000002,-0.000030,-0.000037,19.268047,0.000068,
2475,2051,4.69373031988719,-13.1315331561315,0.020766910237171,-0.000680,0.002822,-0.009100,0.004492,0.078647,330.451640,22.191330,0.999502,0.982449,0.005136,0.119167,0.000016,-0.000011,-0.000012,0.000021,-0.000016,-21.384871,0.000022,
2280,2021,0.436758848560014,-13.7853655030218,0.0173647111088826,-0.000558,0.002890,-0.007210,-0.000543,0.106078,330.777192,23.351402,0.999333,0.984769,0.005146,0.197679,-0.000008,-0.000004,0.000018,0.000012,-0.000024,48.354999,0.000024,
2310,2081,1.0801635067759,-12.4677407615951,0.0145792418956603,-0.001039,0.002326,-0.005848,-0.026854,0.078614,329.713185,23.401354,0.999461,0.984121,0.004982,0.058327,-0.000013,-0.000039,0.000011,-0.000009,-0.000044,20.200776,0.000056,
2160,3026,-2.35322467366712,8.14625733825905,0.00604085462464354,-0.000773,0.002078,-0.004896,-0.019786,0.103727,314.328690,24.877726,0.999367,0.990918,0.004073,0.223280,-0.000028,-0.000011,0.000010,-0.000007,-0.000032,65.155204,0.000041,
2445,3266,3.78809583227818,13.3766099479909,-0.00479785464136739,-0.000841,0.002048,-0.005674,-0.016546,0.100108,309.933551,26.540859,0.999741,0.994594,0.003004,0.253665,-0.000037,-0.000052,0.000006,-0.000035,-0.000054,20.073785,0.000090,
2025,3191,-5.30394049283336,11.7107885226055,0.0401188781602855,-0.000142,0.002171,-0.004609,0.006888,0.096064,312.572680,24.300014,0.999597,0.994819,0.002949,0.251915,-0.000031,0.000001,0.000012,0.000004,-0.000034,71.658154,0.000037,
2325,3026,1.22885016243859,8.15845498405557,-0.00154229907127501,-0.000727,0.002454,-0.008411,-0.003445,0.101622,313.924886,25.394440,0.999581,0.993039,0.003408,0.216877,-0.000025,-0.000025,0.000006,-0.000019,-0.000030,44.934922,0.000050,
2415,3191,3.15418036578923,11.7448689068572,0.0249885889456891,-0.000525,0.002206,-0.005902,-0.001638,0.085062,311.415091,26.134720,0.999551,0.993083,0.003280,0.250036,-0.000029,-0.000041,0.000005,-0.000027,-0.000043,21.293990,0.000071,
2025,2906,-5.26230325966709,5.53382865029288,-0.0107964726016689,-0.000328,0.002556,-0.007677,0.006750,0.091344,316.891393,24.541971,0.999303,0.993026,0.003531,0.212198,-0.000048,-0.000068,-0.000010,-0.000044,-0.000072,-22.379043,0.000117,
2130,3011,-3.00207481020919,7.81902255354555,-0.00173147236193927,-0.000985,0.002379,-0.007257,-0.022785,0.107819,314.631828,24.755988,0.999458,0.992984,0.003455,0.251279,-0.000028,-0.000017,0.000013,-0.000008,-0.000036,56.174175,0.000047,
2040,2696,-4.90613150670479,0.971426170585381,-0.0311808561397129,-0.000643,0.002217,-0.001867,-0.023649,0.114806,320.080385,24.678932,0.999182,0.992432,0.003759,0.237967,-0.000031,-0.000004,0.000005,-0.000003,-0.000032,79.477348,0.000039,
2025,3131,-5.29592492059858,10.4124280277817,0.0225373086568652,-0.000619,0.002414,-0.005759,-0.011893,0.108998,313.407362,24.371939,0.999566,0.995041,0.003035,0.237727,-0.000044,0.000022,0.000018,0.000027,-0.000048,75.707180,0.000048,
2265,3116,-0.0893490295011254,10.105444296496,0.0206491834747453,-0.000623,0.002132,-0.005753,-0.008841,0.086072,312.671439,25.317537,0.999661,0.994558,0.003189,0.238154,-0.000018,-0.000049,-0.000004,-0.000018,-0.000050,-7.453929,0.000070,
2490,2156,4.9997718041093,-10.8255230086442,0.0173190247581374,-0.000535,0.003317,-0.009655,0.013792,0.110328,328.739279,22.546608,0.999102,0.982166,0.005225,0.130229,-0.000022,0.000000,-0.000009,0.000003,-0.000025,-70.690150,0.000027,
2295,2036,0.76183099206057,-13.4568709738892,0.0233751788260861,-0.000508,0.001780,-0.002951,-0.012642,0.050223,330.553080,23.364196,0.999369,0.985470,0.004768,0.060077,-0.000010,-0.000009,0.000012,0.000002,-0.000022,46.249883,0.000024,
2100,2696,-3.60276389248696,0.973168112651429,-0.0300143118922733,-0.000619,0.002421,-0.006655,-0.008234,0.093322,319.780867,24.654843,0.999282,0.992063,0.003683,0.233100,-0.000038,-0.000012,-0.000003,-0.000012,-0.000038,-84.420856,0.000052,
2505,2186,5.32100757153025,-10.167698901189,0.0144583776869354,-0.000596,0.002857,-0.008290,0.005899,0.094070,328.256829,22.563367,0.999084,0.975985,0.005885,0.141718,0.000000,0.000017,0.000009,0.000021,-0.000004,66.774746,0.000022,
2370,3071,2.1983942466404,9.13897084969743,0.00321068281471071,-0.000633,0.002620,-0.007967,0.000273,0.099578,313.210259,25.680915,0.999593,0.993135,0.003394,0.187832,-0.000032,-0.000035,0.000002,-0.000031,-0.000036,21.477465,0.000067,
2130,2801,-2.96843771784018,3.25848916797681,-0.0271460588439822,-0.000535,0.002280,-0.003141,-0.014420,0.103906,317.920284,24.660194,0.999512,0.993575,0.003350,0.273340,-0.000029,-0.000033,-0.000005,-0.000026,-0.000037,-34.564012,0.000063,
2175,3101,-2.03960817466259,9.77356239266939,0.0155593141383861,-0.000342,0.002111,-0.005998,0.003649,0.096914,313.126600,24.951203,0.999585,0.994478,0.003125,0.245384,-0.000023,-0.000033,0.000008,-0.000018,-0.000038,29.070106,0.000058,
2100,2936,-3.64050311745799,6.18909220847183,-0.00780137146739435,-0.000536,0.002129,-0.005238,-0.008617,0.101131,315.982129,24.648874,0.999300,0.991255,0.003882,0.261139,-0.000028,-0.000041,0.000008,-0.000024,-0.000045,26.413994,0.000070,
2235,3221,-0.758873579568476,12.3794276658323,0.0293881053985956,-0.000474,0.002015,-0.002200,-0.013942,0.091736,311.044322,25.344369,0.999512,0.993420,0.003420,0.234969,-0.000020,-0.000064,-0.000010,-0.000018,-0.000066,-11.838609,0.000088,
2475,2066,4.69047805928484,-12.8017957405896,0.0182480478687239,-0.000491,0.002659,-0.007754,0.007965,0.084829,330.186660,22.237976,0.999504,0.981653,0.005230,0.138791,0.000018,-0.000008,-0.000007,0.000019,-0.000010,-14.470997,0.000019,
2085,2726,-3.9335411412527,1.62562839326984,-0.031291397274174,-0.000634,0.002464,-0.005667,-0.012010,0.099504,319.344032,24.651841,0.999305,0.991243,0.003817,0.242549,-0.000042,-0.000019,-0.000011,-0.000015,-0.000046,-67.327126,0.000064,
2295,3146,0.556447314925652,10.7593765436075,0.0206123730614536,-0.000448,0.002407,-0.005159,-0.002196,0.109532,312.131882,25.531535,0.999632,0.994023,0.003321,0.224839,-0.000020,-0.000032,0.000001,-0.000020,-0.000032,3.714491,0.000053,
2160,2831,-2.32144744047613,3.91186191934238,-0.0201364205203163,-0.000719,0.002557,-0.007516,-0.009129,0.111966,317.365828,24.710471,0.999650,0.994536,0.003153,0.277751,-0.000022,-0.000044,-0.000001,-0.000022,-0.000044,-2.539659,0.000067,
2040,2891,-4.93539120559545,5.20900822933669,-0.0137101154114703,-0.000635,0.002213,-0.003380,-0.019116,0.102118,316.997780,24.557339,0.999287,0.992805,0.003583,0.244796,-0.000057,-0.000038,-0.000011,-0.000033,-0.000062,-65.678136,0.000097,
2310,2951,0.916332805650757,6.5287653868072,-0.0150653752950234,-0.000594,0.002747,-0.010316,0.008935,0.094662,315.086475,25.172490,0.999424,0.992611,0.003506,0.228913,-0.000022,-0.000021,-0.000004,-0.000018,-0.000025,-50.110785,0.000044,
2280,2036,0.432399752800954,-13.4527079725337,-0.00362364130887727,-0.000570,0.002772,-0.006219,-0.004413,0.097092,330.351139,23.455140,0.999352,0.985830,0.004745,0.117118,-0.000010,0.000009,0.000023,0.000025,-0.000026,56.079580,0.000029,
2280,3116,0.235319089252275,10.1080003066465,0.00500804256608944,-0.000353,0.002059,-0.004784,0.000548,0.084236,312.525292,25.404940,0.999716,0.995364,0.003044,0.208877,-0.000017,-0.000044,-0.000003,-0.000017,-0.000044,-5.296932,0.000063,
2055,2696,-4.58023126775055,0.971507974959053,-0.0275958111576529,-0.000774,0.002365,-0.003930,-0.023719,0.128513,320.022606,24.649296,0.999173,0.992213,0.003752,0.279305,-0.000046,0.000000,0.000011,0.000003,-0.000048,77.189593,0.000054,
2445,3281,3.7842780719062,13.702238926939,-0.0146787375052213,-0.000924,0.001953,-0.007064,-0.015287,0.083527,309.599797,26.588533,0.999747,0.993989,0.003124,0.239611,-0.000036,-0.000074,0.000007,-0.000035,-0.000075,9.576523,0.000112,
2055,2921,-4.61442646645626,5.86136269932955,-0.013486330512535,-0.000353,0.002458,-0.004548,-0.002622,0.110681,316.429155,24.563831,0.999436,0.994264,0.003264,0.261583,-0.000050,-0.000050,-0.000007,-0.000043,-0.000057,-43.449421,0.000100,
2025,2921,-5.26469183312081,5.85967118049265,-0.0120965732779155,-0.000330,0.002522,-0.008059,0.007815,0.111170,316.632240,24.514497,0.999296,0.993373,0.003505,0.248911,-0.000037,-0.000075,-0.000002,-0.000037,-0.000075,-3.707682,0.000115,
2250,3071,-0.407512502912034,9.12884998240176,0.0110659560666022,-0.000685,0.002244,-0.005526,-0.012547,0.103153,313.367181,25.209108,0.999574,0.993573,0.003273,0.237619,-0.000024,-0.000036,0.000005,-0.000022,-0.000038,17.843978,0.000061,
2190,2951,-1.68969881918476,6.52007831023282,-0.00447384531253192,-0.000496,0.002120,-0.003658,-0.010542,0.102672,315.396128,24.857338,0.999327,0.992885,0.003546,0.268245,-0.000029,-0.000019,0.000008,-0.000014,-0.000034,61.074193,0.000050,
2025,3146,-5.29778517310726,10.7367639243895,0.027194595291121,-0.000461,0.002348,-0.006897,-0.001474,0.107029,313.206800,24.325944,0.999660,0.995874,0.002795,0.270779,-0.000041,0.000019,0.000018,0.000024,-0.000047,74.338851,0.000047,
2250,3281,-0.446567636149066,13.6826624179583,0.00151965210295657,-0.000621,0.001958,-0.002474,-0.019719,0.090763,309.766114,25.509949,0.999457,0.994050,0.003231,0.230536,-0.000032,-0.000039,0.000002,-0.000031,-0.000039,18.879012,0.000071,
2340,2996,1.5602344964004,7.50788154256384,-0.00593190472744709,-0.000613,0.002054,-0.007812,-0.000183,0.074043,314.386452,25.371385,0.999859,0.997031,0.002813,0.187503,-0.000031,-0.000017,-0.000006,-0.000015,-0.000033,-69.606500,0.000049,
2175,2876,-2.00366147934934,4.89143975830881,-0.016558658876761,-0.001011,0.002381,-0.004643,-0.031366,0.088855,316.571561,24.860914,0.999542,0.994270,0.003163,0.157130,-0.000016,-0.000031,0.000007,-0.000013,-0.000034,22.223759,0.000049,
2040,2906,-4.93774765665449,5.53491034056088,-0.0139117525016559,-0.000540,0.002232,-0.001998,-0.018578,0.108486,316.747355,24.552974,0.999392,0.993313,0.003429,0.247164,-0.000047,-0.000051,-0.000009,-0.000040,-0.000058,-38.229586,0.000098,
2130,2816,-2.97041570852147,3.58446997317634,-0.0270392249900056,-0.000256,0.002382,-0.006722,0.009132,0.094660,317.695678,24.657340,0.999326,0.992386,0.003691,0.272409,-0.000024,-0.000032,-0.000001,-0.000023,-0.000032,-8.725749,0.000056,
2145,2771,-2.63819350583594,2.60752706063469,-0.0296686594433027,-0.000818,0.002001,-0.001917,-0.031150,0.094920,318.318189,24.726695,0.999665,0.994739,0.003052,0.196323,-0.000025,-0.000021,-0.000005,-0.000018,-0.000028,-57.655108,0.000046,
2115,2981,-3.32154011219617,7.16620306193424,0.00448720268491343,-0.000462,0.002614,-0.007046,0.000492,0.116111,315.273910,24.681906,0.999734,0.994950,0.002935,0.284357,-0.000019,-0.000032,0.000012,-0.000012,-0.000039,31.030570,0.000053,
2265,3131,-0.0916118440854561,10.4302389051678,0.024580198531396,-0.000549,0.002532,-0.007507,0.000615,0.112174,312.463134,25.282629,0.999646,0.995460,0.003031,0.323521,-0.000020,-0.000049,-0.000004,-0.000019,-0.000050,-6.770912,0.000071,
2070,2921,-4.28905385474546,5.86224278246326,-0.0113450750408788,-0.000540,0.002494,-0.005805,-0.007441,0.112249,316.358094,24.610107,0.999395,0.993272,0.003436,0.248048,-0.000037,-0.000046,0.000001,-0.000037,-0.000046,7.194686,0.000083,
2295,2051,0.759193372161363,-13.1275668698741,0.0204631793774297,-0.000616,0.002596,-0.008828,0.002437,0.073754,330.297275,23.341578,0.999341,0.984156,0.004828,0.139671,-0.000016,-0.000032,0.000000,-0.000016,-0.000032,1.517748,0.000049,
2355,3041,1.87757442872072,8.48599200664985,-0.00581091690963831,-0.000435,0.002194,-0.005561,0.000497,0.101956,313.634431,25.456882,0.999631,0.993757,0.003285,0.285676,-0.000032,-0.000031,0.000004,-0.000027,-0.000036,49.971353,0.000063,
2085,2741,-3.93525759889154,1.9517872368654,-0.0278751282722851,-0.000375,0.002879,-0.009153,0.010075,0.107115,319.145872,24.652233,0.999327,0.991586,0.003800,0.248666,-0.000041,-0.000024,-0.000014,-0.000017,-0.000049,-60.838422,0.000068,
2445,3296,3.78105411227591,14.0269751652295,-0.0185005671733052,-0.000743,0.002001,-0.006398,-0.009447,0.080419,309.321768,26.579095,0.999734,0.994507,0.003064,0.296564,-0.000026,-0.000082,0.000005,-0.000026,-0.000082,5.071238,0.000113,
2310,2096,1.07721608430927,-12.1385976755624,0.00998881817895381,-0.000881,0.002663,-0.006073,-0.018704,0.096546,329.436304,23.369082,0.999384,0.983513,0.005146,0.144131,-0.000013,-0.000033,0.000010,-0.000010,-0.000037,22.060386,0.000050,
2100,2951,-3.64356987281652,6.51547853542309,-0.0139077443745919,-0.000676,0.002061,-0.004076,-0.018521,0.093232,315.671486,24.674867,0.999379,0.992221,0.003648,0.227774,-0.000027,-0.000037,0.000005,-0.000025,-0.000039,23.380067,0.000065,
2220,3221,-1.08380158637437,12.3781663092251,0.0308285044245054,-0.000286,0.002200,-0.003751,-0.000330,0.092885,311.107233,25.282233,0.999591,0.994437,0.003166,0.222962,-0.000020,-0.000065,-0.000013,-0.000017,-0.000069,-15.578994,0.000090,
2115,2756,-3.28681942738114,2.2793328965185,-0.0271703109588657,-0.000756,0.002340,-0.005218,-0.018533,0.112375,318.729000,24.658830,0.999470,0.992492,0.003562,0.259906,-0.000030,-0.000028,-0.000007,-0.000022,-0.000036,-49.741242,0.000058,
2235,3236,-0.761830996651689,12.7044990116965,0.024511595138847,-0.000562,0.001887,-0.004822,-0.009509,0.087530,310.756797,25.338238,0.999670,0.994958,0.002991,0.256485,-0.000020,-0.000054,-0.000008,-0.000018,-0.000056,-12.781853,0.000077,
2370,3086,2.19566754712232,9.46367448286152,0.0102187621642429,-0.000901,0.002478,-0.006866,-0.016032,0.097846,313.002195,25.677126,0.999424,0.992114,0.003670,0.229626,-0.000035,-0.000033,0.000003,-0.000030,-0.000037,53.130086,0.000068,
2475,2081,4.68643914216312,-12.4725595865269,0.0146653557202967,-0.000617,0.001696,-0.001794,-0.020734,0.077316,329.880829,22.246709,0.999563,0.982428,0.005066,0.182648,0.000016,-0.000003,-0.000005,0.000017,-0.000004,-14.645277,0.000018,
2505,2201,5.3177315017662,-9.83913109217438,0.0147094640034879,-0.000621,0.002568,-0.007102,0.000038,0.094533,328.005258,22.590057,0.999247,0.975362,0.005861,0.178982,0.000003,0.000026,0.000010,0.000030,-0.000001,69.335637,0.000034,
2415,3206,3.15091477034707,12.0705760192777,0.0262280868092262,-0.000797,0.002132,-0.004686,-0.018570,0.094780,311.156768,26.204622,0.999501,0.992629,0.003472,0.235839,-0.000031,-0.000041,0.000007,-0.000027,-0.000045,27.465764,0.000072,
2205,3176,-1.40215213560746,11.4020370094357,0.0178463388306795,-0.000391,0.001909,-0.003167,-0.007266,0.084472,311.785945,25.144063,0.999711,0.995882,0.002839,0.231880,-0.000024,-0.000047,-0.000005,-0.000024,-0.000048,-11.055586,0.000073,
2430,3236,3.46990978190508,12.7236662974793,0.00895903755912286,-0.000597,0.002591,-0.008720,0.005926,0.109146,310.551941,26.347438,0.999450,0.993853,0.003368,0.277521,-0.000032,-0.000039,0.000000,-0.000032,-0.000039,4.029448,0.000071,
2220,3011,-1.04831211900469,7.82448257335317,0.00143079419001424,-0.000293,0.002151,-0.004768,0.002617,0.091906,314.372475,25.000224,0.999475,0.992619,0.003500,0.257657,-0.000031,-0.000015,0.000008,-0.000012,-0.000034,68.327786,0.000047,
2295,3161,0.554166369150849,11.0841367118487,0.027612198835584,-0.000483,0.002105,-0.005672,-0.002219,0.085449,311.939891,25.570448,0.999680,0.993936,0.003238,0.189989,-0.000020,-0.000038,-0.000001,-0.000020,-0.000038,-2.418592,0.000059,
2055,2711,-4.58249987385934,1.29823529401989,-0.0346133812020071,-0.000336,0.002308,-0.005213,-0.000004,0.099998,319.739375,24.641760,0.999036,0.991324,0.003779,0.253228,-0.000045,0.000004,0.000008,0.000005,-0.000046,81.118390,0.000051,
2205,2966,-1.36682090273806,6.84737560770119,-0.00725529720932627,-0.000543,0.002239,-0.005097,-0.008022,0.091858,315.080023,24.949300,0.999316,0.992430,0.003617,0.216925,-0.000023,-0.000022,0.000010,-0.000012,-0.000032,46.430950,0.000046,
2385,3116,2.5164653710873,10.1160057500021,0.0118100930442324,-0.000254,0.002187,-0.006403,0.012262,0.094569,312.548438,25.815778,0.999545,0.993478,0.003314,0.227187,-0.000025,-0.000028,0.000002,-0.000024,-0.000029,26.171649,0.000053,
2085,2906,-3.96103205393377,5.53731940482137,-0.0148526708796908,-0.000338,0.002604,-0.009265,0.012080,0.100961,316.517932,24.627715,0.999374,0.993064,0.003568,0.252137,-0.000031,-0.000046,0.000002,-0.000031,-0.000046,5.848426,0.000077,
2460,2006,4.37516560185982,-14.1200116115144,0.0211958981088287,-0.000410,0.003076,-0.008940,0.015956,0.107447,331.171668,22.089751,0.999218,0.977813,0.005511,0.174644,0.000032,-0.000019,-0.000037,0.000052,-0.000039,-27.558402,0.000054,
2490,2171,4.99613915457958,-10.4977525054218,0.018132796973191,-0.000889,0.002780,-0.007145,-0.012219,0.095515,328.472904,22.510819,0.998728,0.974411,0.005938,0.212761,-0.000020,0.000010,-0.000013,0.000015,-0.000025,-69.416732,0.000025,
2250,3296,-0.449317808367454,14.0075576087437,-0.000953478639587502,-0.000826,0.002170,-0.007650,-0.012150,0.091734,309.501480,25.514566,0.999369,0.992701,0.003406,0.248381,-0.000040,-0.000030,-0.000004,-0.000029,-0.000041,-71.925231,0.000070,
2040,2966,-4.94614899057894,6.83621129019183,-0.00615433931733378,-0.000167,0.002104,-0.005191,0.007454,0.087049,315.841339,24.474151,0.999548,0.994114,0.003090,0.271367,-0.000036,-0.000061,-0.000005,-0.000035,-0.000062,-11.364228,0.000098,
2130,3026,-3.00363899065014,8.14384441284661,0.00316570429839658,-0.000409,0.002586,-0.008153,0.006542,0.117108,314.452256,24.719293,0.999462,0.992496,0.003569,0.302059,-0.000031,-0.000012,0.000010,-0.000008,-0.000036,66.659705,0.000046,
2040,2711,-4.90845162055263,1.29844891145269,-0.0392236569911688,-0.000423,0.002571,-0.006413,-0.000854,0.087829,319.787589,24.688379,0.999079,0.991046,0.003978,0.194169,-0.000027,0.000001,0.000005,0.000001,-0.000028,80.648444,0.000032,
2175,3116,-2.04206537769432,10.0984430637981,0.0200975323220973,-0.000497,0.002174,-0.005900,-0.003832,0.085880,312.906900,24.960161,0.999510,0.994169,0.003280,0.236233,-0.000024,-0.000041,0.000005,-0.000022,-0.000042,14.679215,0.000066,
2130,2831,-2.97334788565519,3.91140669274469,-0.029243974494932,-0.000459,0.002462,-0.005431,-0.003972,0.111316,317.414584,24.703191,0.999506,0.993496,0.003425,0.248711,-0.000024,-0.000040,-0.000001,-0.000024,-0.000040,-3.658178,0.000065,
2400,3131,2.83907444635556,10.4429004685666,0.0123926972676145,-0.000660,0.002243,-0.006284,-0.006613,0.094078,312.294142,25.929524,0.999796,0.995520,0.002852,0.217107,-0.000024,-0.000028,0.000002,-0.000023,-0.000029,22.012058,0.000052,
2100,2711,-3.60527837688815,1.2999692427057,-0.0325785981265767,-0.000556,0.002590,-0.006975,-0.004346,0.106341,319.514589,24.650809,0.999361,0.991293,0.003778,0.251569,-0.000035,-0.000010,-0.000005,-0.000009,-0.000036,-79.051028,0.000048,
2025,3161,-5.29969975699899,11.0618462034154,0.0307179824799846,-0.000195,0.002497,-0.006511,0.009780,0.111783,312.997119,24.338240,0.999559,0.995300,0.003018,0.252129,-0.000032,-0.000002,0.000015,0.000004,-0.000038,67.888367,0.000042,
2190,3176,-1.72730935395616,11.400947758807,0.0215355467769882,-0.000687,0.002228,-0.005996,-0.011969,0.100056,311.857825,25.097510,0.999865,0.997003,0.002632,0.225354,-0.000026,-0.000044,-0.000004,-0.000025,-0.000045,-11.591621,0.000071,
2460,2021,4.37198617996569,-13.7898715426183,0.0231251179906167,-0.000545,0.002781,-0.007658,0.004869,0.099264,330.929182,22.221116,0.999429,0.983276,0.004906,0.092937,0.000036,-0.000017,-0.000021,0.000043,-0.000024,-19.358076,0.000043,
2175,2891,-2.00501387603131,5.21552518688028,-0.00388401590618059,-0.000700,0.002328,-0.005474,-0.014404,0.099012,316.445595,24.780337,0.999814,0.996228,0.002831,0.259573,-0.000020,-0.000030,0.000006,-0.000017,-0.000033,24.228652,0.000050,
2025,3206,-5.3063689487227,12.035568269602,0.039971395466921,-0.000279,0.002243,-0.006158,0.004786,0.087615,312.319055,24.285789,0.999488,0.994163,0.003158,0.246656,-0.000035,-0.000014,-0.000001,-0.000014,-0.000035,-86.510586,0.000050,
2070,2681,-4.25203607230727,0.645770523736104,-0.033197907276417,-0.000535,0.002584,-0.007149,-0.003404,0.108015,320.161213,24.641661,0.999451,0.992583,0.003502,0.267878,-0.000042,-0.000019,-0.000007,-0.000017,-0.000044,-74.263423,0.000063,
2505,2216,5.31472311265243,-9.51003737307344,0.0128284167185484,-0.000699,0.003545,-0.011769,0.014858,0.106798,327.756271,22.635680,0.999473,0.979541,0.005280,0.209133,0.000005,0.000040,0.000015,0.000046,-0.000001,69.057786,0.000052,
2265,3146,-0.0949007968577185,10.7567569973441,0.0187019301829991,-0.000599,0.002336,-0.006694,-0.004424,0.115650,312.157454,25.371242,0.999312,0.992555,0.003639,0.262698,-0.000022,-0.000046,-0.000003,-0.000022,-0.000047,-6.761943,0.000070,
2160,2846,-2.32416123165754,4.23793068355348,-0.0210891956662067,-0.000741,0.002583,-0.006378,-0.013642,0.110035,317.104109,24.709396,0.999640,0.994908,0.003065,0.286540,-0.000021,-0.000045,0.000002,-0.000021,-0.000045,3.846079,0.000068,
2040,3206,-4.98204886333925,12.0373911196177,0.0326529787391223,-0.000345,0.002378,-0.005817,0.001069,0.092816,312.160398,24.363373,0.999589,0.994044,0.003089,0.247301,-0.000045,-0.000035,0.000000,-0.000035,-0.000045,88.913785,0.000080,
2235,3026,-0.72556556796593,8.15130711054968,0.00244145519872063,-0.000559,0.002002,-0.004644,-0.009892,0.094650,314.081366,25.079310,0.999500,0.992691,0.003442,0.245698,-0.000030,-0.000013,0.000010,-0.000009,-0.000035,65.409949,0.000046,
2145,3011,-2.67656174541846,7.82053476817701,-0.00561065427564245,-0.000827,0.002604,-0.010406,-0.005688,0.091162,314.553549,24.836521,0.999455,0.992270,0.003608,0.198557,-0.000024,-0.000017,0.000010,-0.000010,-0.000031,55.567244,0.000043,
2220,3236,-1.08705705994436,12.7040754879134,0.0187598486000979,-0.000337,0.002344,-0.008420,0.012365,0.092604,310.767345,25.307076,0.999698,0.995058,0.002958,0.215033,-0.000020,-0.000054,-0.000012,-0.000016,-0.000058,-17.606985,0.000078,
2475,2096,4.68369871425511,-12.1430404017854,0.0165597073937533,-0.000741,0.002449,-0.005890,-0.010578,0.078937,329.659153,22.339022,0.999507,0.980118,0.005373,0.151296,0.000014,0.000001,0.000002,0.000014,0.000001,6.953553,0.000017,
2310,2966,0.914008022577161,6.85471110161361,-0.00322709520554554,-0.000662,0.002322,-0.006026,-0.008996,0.091045,314.917278,25.290237,0.999916,0.997813,0.002356,0.138767,-0.000023,-0.000023,0.000000,-0.000023,-0.000023,-30.021819,0.000046,
2040,2981,-4.94856194117016,7.1622788589344,-0.000802334999548293,-0.000452,0.002410,-0.003783,-0.009490,0.111234,315.619233,24.527260,0.999395,0.993268,0.003362,0.233841,-0.000029,-0.000052,0.000002,-0.000029,-0.000052,4.439903,0.000082,
2430,3251,3.46594842154527,13.0499676343805,5.08902278397727E-05,-0.000816,0.002588,-0.008694,-0.004291,0.105332,310.214688,26.439894,0.999502,0.993792,0.003274,0.229459,-0.000035,-0.000040,0.000002,-0.000034,-0.000041,16.822792,0.000075,
2280,3131,0.232897981473521,10.4324353582546,0.0100019704395891,-0.000552,0.002342,-0.007317,-0.000024,0.094563,312.316101,25.360746,0.999653,0.994858,0.003178,0.289889,-0.000016,-0.000045,-0.000001,-0.000016,-0.000045,-2.766938,0.000063,
2130,3041,-3.00577099286632,8.46954642609686,0.00736562545262132,-0.000219,0.002507,-0.007044,0.011914,0.108197,314.242599,24.780534,0.999495,0.993999,0.003259,0.236548,-0.000032,-0.000014,0.000008,-0.000012,-0.000035,69.863519,0.000048,
2040,2921,-4.93977606100422,5.86006685525869,-0.0106932723397222,-0.000577,0.002289,-0.004776,-0.012475,0.111229,316.531274,24.513034,0.999334,0.993714,0.003375,0.281692,-0.000037,-0.000055,-0.000004,-0.000036,-0.000056,-12.631320,0.000092,
2175,3131,-2.04481712662123,10.4236432305494,0.0213400878189987,-0.000810,0.002226,-0.007113,-0.014472,0.085338,312.656201,24.970627,0.999444,0.993961,0.003443,0.236337,-0.000025,-0.000038,0.000002,-0.000024,-0.000038,9.528250,0.000063,
2415,3221,3.14774104359607,12.3965699456606,0.0189573142667427,-0.000658,0.002388,-0.007994,0.000000,0.094834,310.862458,26.263994,0.999386,0.992521,0.003570,0.222837,-0.000030,-0.000039,0.000003,-0.000029,-0.000040,19.115442,0.000069,
2385,3131,2.51385333771484,10.4409413585453,0.0186025262651697,-0.000465,0.002075,-0.006541,0.002954,0.083962,312.345245,25.851094,0.999699,0.994188,0.003195,0.223277,-0.000021,-0.000032,0.000003,-0.000020,-0.000033,16.097458,0.000054,
2190,2966,-1.69264662963985,6.84586185405077,-0.0071179141488642,-0.000668,0.001928,-0.003954,-0.017637,0.090098,315.117155,24.863437,0.999260,0.992102,0.003693,0.263189,-0.000027,-0.000022,0.000010,-0.000014,-0.000035,52.459059,0.000051,
2295,2066,0.755802599524312,-12.7985226045706,0.0221595983059046,-0.001015,0.002148,-0.003939,-0.032446,0.076983,330.029888,23.373658,0.999381,0.984044,0.004860,0.144284,-0.000020,-0.000025,0.000004,-0.000018,-0.000027,26.631697,0.000046,
2130,2846,-2.97618154587983,4.23797133783565,-0.0337556967566002,-0.000475,0.002516,-0.005114,-0.005681,0.108777,317.125805,24.721068,0.999554,0.993830,0.003368,0.233556,-0.000024,-0.000040,0.000001,-0.000024,-0.000040,5.356320,0.000065,
2040,3221,-4.98445887610211,12.3619403398765,0.0345587494774122,-0.000420,0.002085,-0.005010,-0.004749,0.082422,311.920229,24.346759,0.999532,0.994557,0.002972,0.244227,-0.000044,-0.000047,0.000000,-0.000044,-0.000047,-5.184110,0.000091,
2340,3011,1.55779784705706,7.83282308574477,-0.000649359235183056,-0.000503,0.002135,-0.006705,0.001072,0.084949,314.181760,25.346964,0.999601,0.993836,0.003331,0.258535,-0.000028,-0.000022,-0.000005,-0.000019,-0.000031,-58.896525,0.000050,
2160,3041,-2.35530948314965,8.47151237579228,0.013299495152296,-0.000780,0.002349,-0.005019,-0.019660,0.111662,314.139426,24.902127,0.999556,0.994255,0.003311,0.215771,-0.000029,-0.000013,0.000007,-0.000010,-0.000032,68.683816,0.000044,
2115,2996,-3.32480230422888,7.49275513018273,-0.00590863633726713,-0.000632,0.002785,-0.008151,-0.004041,0.106794,314.932424,24.708196,0.999570,0.994207,0.003154,0.251318,-0.000021,-0.000019,0.000013,-0.000007,-0.000033,46.581369,0.000043,
2205,3191,-1.40432105370028,11.7269038142148,0.0226722220976399,-0.000436,0.002305,-0.006061,-0.000027,0.093048,311.582753,25.152565,0.999821,0.996859,0.002645,0.247147,-0.000025,-0.000053,-0.000006,-0.000024,-0.000054,-11.471738,0.000080,
2085,2756,-3.93844083568506,2.27886996361152,-0.0386771405821946,-0.000419,0.002549,-0.008445,0.005979,0.108997,318.802736,24.632537,0.999435,0.991745,0.003742,0.269166,-0.000042,-0.000030,-0.000012,-0.000022,-0.000050,-58.182103,0.000074,
2400,3146,2.83655816256088,10.7677855705759,0.0213982164321465,-0.000879,0.002440,-0.005740,-0.018561,0.107240,312.106635,25.953981,0.999807,0.995500,0.002806,0.249821,-0.000026,-0.000031,0.000002,-0.000025,-0.000032,16.422303,0.000058,
2070,2696,-4.25417290071526,0.972580632059859,-0.0367622631324025,-0.000168,0.002776,-0.008705,0.017975,0.105190,319.904262,24.640574,0.999409,0.993223,0.003427,0.263117,-0.000047,-0.000006,-0.000004,-0.000006,-0.000047,-85.041287,0.000059,
2055,2726,-4.58523755784156,1.62530432099931,-0.0403461140327863,-0.000461,0.002465,-0.006801,-0.001289,0.092831,319.441585,24.660539,0.999238,0.992361,0.003554,0.221997,-0.000047,-0.000010,-0.000001,-0.000010,-0.000047,-88.248122,0.000061,
2355,3056,1.87519513686629,8.81180260344938,0.00169248711040382,-0.000510,0.002288,-0.005739,-0.002228,0.112817,313.443634,25.538982,0.999673,0.994088,0.003162,0.252149,-0.000033,-0.000032,0.000002,-0.000030,-0.000035,53.213466,0.000065,
2100,2966,-3.645064662814,6.84081395127789,-0.00426558860544901,-0.000490,0.002431,-0.006704,-0.002130,0.103289,315.518732,24.703125,0.999498,0.992264,0.003502,0.209837,-0.000023,-0.000040,0.000005,-0.000022,-0.000041,15.700073,0.000064,
2325,3041,1.22662236177156,8.48363164147784,0.00130132591124266,-0.000461,0.002406,-0.010193,0.014940,0.093154,313.716772,25.401567,0.999655,0.994040,0.003221,0.234716,-0.000027,-0.000027,0.000008,-0.000019,-0.000035,44.891169,0.000054,
2025,3221,-5.30910399396783,12.3610454989794,0.0386077265310405,-0.000486,0.002159,-0.005031,-0.007893,0.090765,312.044268,24.320987,0.999477,0.994542,0.003065,0.202903,-0.000035,-0.000026,-0.000006,-0.000023,-0.000038,-64.050480,0.000061,
2205,2981,-1.36979031831006,7.1737651228584,-0.0128116701109207,-0.000456,0.002233,-0.004670,-0.005346,0.100996,314.785902,24.973930,0.999364,0.992737,0.003525,0.217248,-0.000023,-0.000022,0.000012,-0.000011,-0.000034,46.513549,0.000047,
2475,2111,4.680274544674,-11.8128991786519,0.00599545945289037,-0.000424,0.002781,-0.008950,0.015583,0.093549,329.349544,22.342390,0.999445,0.978358,0.005625,0.222696,0.000002,-0.000002,-0.000004,0.000004,-0.000004,-29.097711,0.000005,
2100,2726,-3.60801019724178,1.62687331979545,-0.0356638563373508,-0.000559,0.002156,-0.005505,-0.008893,0.096556,319.235556,24.679665,0.999388,0.990967,0.003857,0.214283,-0.000039,-0.000021,-0.000009,-0.000017,-0.000043,-66.698570,0.000062,
2310,2111,1.07514752988019,-11.8103968867295,0.0136587194730851,-0.000583,0.002871,-0.007954,0.001369,0.105776,329.240300,23.357013,0.999257,0.983822,0.005058,0.200165,-0.000012,-0.000032,0.000007,-0.000009,-0.000034,17.577268,0.000046,
2220,3026,-1.05140049246276,8.15091500801385,0.000545590855153932,-0.000641,0.002357,-0.004674,-0.013617,0.110425,314.098149,25.064816,0.999705,0.995170,0.002990,0.229438,-0.000034,-0.000015,0.000009,-0.000011,-0.000037,68.191798,0.000051,
2505,2231,5.31164477729914,-9.17978753114856,0.00800190454754102,-0.000470,0.003810,-0.015109,0.038325,0.101202,327.490824,22.779474,0.999360,0.981888,0.005083,0.123349,0.000013,0.000021,0.000037,0.000055,-0.000021,48.147358,0.000055,
2115,2771,-3.28922539625907,2.60563964363499,-0.0260967638590728,-0.000802,0.002679,-0.005788,-0.018906,0.112878,318.488707,24.670200,0.999610,0.993857,0.003272,0.252595,-0.000028,-0.000027,-0.000008,-0.000020,-0.000035,-46.645946,0.000056,
2265,3161,-0.0971655246153453,11.0818297357603,0.0227734057237967,-0.000534,0.002089,-0.008474,0.004365,0.092332,311.949641,25.419689,0.999440,0.990712,0.003831,0.214843,-0.000026,-0.000052,-0.000004,-0.000026,-0.000052,-7.711199,0.000080,
2040,2996,-4.95062289347007,7.48746494786439,0.00120346631683788,-0.000407,0.002445,-0.006078,-0.000982,0.109251,315.395029,24.505514,0.999157,0.991233,0.003746,0.245145,-0.000031,-0.000038,0.000002,-0.000031,-0.000038,17.565174,0.000069,
2235,3251,-0.765034175839073,13.0304876808046,0.0141035161715877,-0.000582,0.002374,-0.008556,0.001896,0.107422,310.429214,25.365294,0.999673,0.995034,0.002917,0.268800,-0.000019,-0.000052,-0.000003,-0.000019,-0.000052,-4.984614,0.000074,
2055,2936,-4.61624822119914,6.18683649747628,-0.0106907726998315,-0.000106,0.002532,-0.006890,0.015335,0.096763,316.221157,24.570920,0.999296,0.993901,0.003391,0.234712,-0.000050,-0.000049,-0.000004,-0.000046,-0.000053,-49.159343,0.000099,
2085,2921,-3.96360093713244,5.86362612452549,-0.0155361800805167,-0.000360,0.002851,-0.008149,0.007962,0.120801,316.258375,24.649063,0.999265,0.992373,0.003652,0.249084,-0.000028,-0.000043,0.000004,-0.000027,-0.000044,15.956226,0.000072,
2370,3101,2.19312887526231,9.78986040816461,0.00933224834227531,-0.000541,0.002441,-0.008057,0.004746,0.090033,312.764325,25.767930,0.999400,0.992198,0.003633,0.170833,-0.000032,-0.000029,0.000006,-0.000025,-0.000036,51.871878,0.000062,
2055,2996,-4.62558667049005,7.48847066891427,-0.000302862300486595,-0.000442,0.002407,-0.005543,-0.003940,0.104803,315.290895,24.545269,0.999064,0.989830,0.003937,0.243292,-0.000035,-0.000033,0.000003,-0.000031,-0.000038,54.063058,0.000069,
2220,3251,-1.09032088844616,13.0288323513966,0.0118967981876494,-0.000509,0.002429,-0.009482,0.007885,0.098015,310.454329,25.255587,0.999678,0.995158,0.002925,0.289570,-0.000018,-0.000053,-0.000008,-0.000016,-0.000055,-12.710524,0.000075,
2460,2036,4.36854571609449,-13.4609426984359,0.0221316176279061,-0.000563,0.002406,-0.004523,-0.007829,0.099531,330.661355,22.205592,0.999445,0.980418,0.005381,0.166620,0.000033,-0.000023,-0.000011,0.000035,-0.000025,-10.510955,0.000036,
2490,2186,4.99280439641309,-10.1672138893154,0.0114184586035435,-0.000583,0.002843,-0.008073,0.005325,0.099424,328.185947,22.633568,0.998635,0.971600,0.006194,0.155470,-0.000028,0.000015,-0.000003,0.000016,-0.000028,-85.633376,0.000028,
2025,3236,-5.3111064651863,12.6847766665761,0.0465770588062355,-0.000536,0.002097,-0.004178,-0.012551,0.087284,311.856205,24.260436,0.999639,0.995915,0.002738,0.248685,-0.000033,-0.000033,-0.000015,-0.000018,-0.000047,-45.201178,0.000068,
2280,2051,0.430347332265807,-13.1251331126508,0.00235040300213996,-0.000596,0.002956,-0.009638,0.005836,0.073525,330.165319,23.424410,0.999291,0.983976,0.004884,0.155011,-0.000017,-0.000017,0.000012,-0.000005,-0.000029,44.851561,0.000036,
2040,2936,-4.94155935064889,6.18603581709171,-0.0150174978216455,0.000076,0.002573,-0.007830,0.026126,0.094333,316.284244,24.516472,0.999211,0.993104,0.003483,0.253255,-0.000038,-0.000052,-0.000003,-0.000038,-0.000052,-11.339797,0.000090,
2430,3266,3.46244473437747,13.376006468449,-0.0076635369218252,-0.000771,0.002635,-0.009854,0.002124,0.107057,309.904106,26.514421,0.999729,0.994712,0.003027,0.205029,-0.000040,-0.000051,0.000004,-0.000038,-0.000052,17.644350,0.000091,
2070,2936,-4.29132372417395,6.18797434268991,-0.0099037674125384,-0.000483,0.002567,-0.005692,-0.005113,0.113082,316.123019,24.616647,0.999338,0.992596,0.003538,0.238563,-0.000040,-0.000046,0.000005,-0.000036,-0.000049,30.560083,0.000085,
2250,3086,-0.409645709557669,9.45470729185259,0.00692869531303586,-0.000115,0.002573,-0.009935,0.028243,0.094746,313.122596,25.242794,0.999617,0.992943,0.003304,0.217863,-0.000023,-0.000039,0.000004,-0.000022,-0.000040,14.236491,0.000064,
2130,2861,-2.97767411364579,4.56249822645596,-0.018395594474157,-0.000537,0.002409,-0.006132,-0.005545,0.098505,317.005558,24.715203,0.999542,0.993313,0.003407,0.234024,-0.000022,-0.000031,0.000005,-0.000020,-0.000033,25.346538,0.000054,
2145,3026,-2.67844902645165,8.14479729638581,0.0044975692665048,-0.000548,0.002348,-0.005996,-0.006193,0.105036,314.388011,24.779989,0.999444,0.992515,0.003581,0.275984,-0.000028,-0.000012,0.000007,-0.000009,-0.000031,69.365022,0.000042,
2295,3176,0.550710743750205,11.4096956665695,0.0220635802778588,-0.000702,0.002281,-0.005313,-0.013492,0.085835,311.630984,25.584853,0.999690,0.994235,0.003130,0.204737,-0.000020,-0.000042,-0.000004,-0.000019,-0.000043,-10.782464,0.000063,
2190,3191,-1.72960255877215,11.7255195051755,0.025828210994348,-0.000631,0.002241,-0.005875,-0.009809,0.096916,311.645355,25.086742,0.999787,0.996444,0.002770,0.245976,-0.000026,-0.000051,-0.000006,-0.000025,-0.000052,-12.689948,0.000079,
2040,3236,-4.98694637334292,12.68653114066,0.0342679519432636,-0.000440,0.001922,-0.004245,-0.007836,0.081348,311.664256,24.315447,0.999518,0.995854,0.002775,0.265296,-0.000042,-0.000052,-0.000005,-0.000040,-0.000054,-22.900883,0.000095,
2505,2246,5.30835717007674,-8.85239803688397,0.00839078480106537,-0.000409,0.003450,-0.012493,0.030888,0.095629,327.239213,22.722352,0.999237,0.982268,0.005214,0.238258,0.000021,0.000009,0.000042,0.000057,-0.000027,40.843953,0.000057,
2310,2981,0.911340301764309,7.17964549977869,0.00194405542617915,-0.000828,0.002491,-0.005014,-0.019947,0.112343,314.699621,25.245747,0.999687,0.995733,0.002874,0.235922,-0.000024,-0.000027,0.000002,-0.000023,-0.000028,27.234202,0.000051,
2475,2126,4.67760276672064,-11.4837041926338,0.0120590922398378,-0.000579,0.003333,-0.010076,0.013001,0.124900,329.149593,22.432685,0.999248,0.975765,0.005924,0.223040,-0.000011,-0.000013,-0.000007,-0.000005,-0.000019,-40.030418,0.000025,
2040,3011,-4.95358621383285,7.81331283211751,-0.0012225531867216,-0.000735,0.002005,-0.004165,-0.021598,0.093836,315.104579,24.531470,0.999476,0.993109,0.003495,0.195120,-0.000031,-0.000036,0.000008,-0.000025,-0.000042,36.831011,0.000068,
2175,3146,-2.04716233920407,10.7493826728166,0.0207457847418482,-0.000617,0.002391,-0.008739,-0.000449,0.096841,312.414301,25.011016,0.999471,0.994365,0.003316,0.218335,-0.000025,-0.000033,0.000003,-0.000023,-0.000034,18.921963,0.000058,
2115,2786,-3.29171770592035,2.93174957222199,-0.0267321083585443,-0.000609,0.002402,-0.003056,-0.018171,0.105495,318.235336,24.662181,0.999536,0.993462,0.003375,0.256401,-0.000027,-0.000032,-0.000006,-0.000023,-0.000036,-33.930097,0.000060,
2325,3056,1.22319253552298,8.80932809163668,2.77703810525054E-06,-0.000706,0.002375,-0.006973,-0.007481,0.096947,313.432799,25.420557,0.999696,0.994867,0.002982,0.252730,-0.000027,-0.000028,0.000006,-0.000022,-0.000034,42.470157,0.000056,
2100,2981,-3.64758508155025,7.1662179298357,-0.00458414656702644,-0.000523,0.002362,-0.006666,-0.003757,0.102624,315.264888,24.681347,0.999605,0.994153,0.003144,0.231468,-0.000019,-0.000033,0.000012,-0.000012,-0.000040,30.506744,0.000054,
2205,2996,-1.37205198544274,7.4994383681869,-0.0109073465042684,-0.000419,0.002713,-0.007709,0.006154,0.108531,314.563183,24.991137,0.999420,0.992498,0.003567,0.223405,-0.000027,-0.000015,0.000014,-0.000005,-0.000036,56.478931,0.000045,
2100,2741,-3.60965258344866,1.95252334121224,-0.0300920571949632,-0.000268,0.002559,-0.007779,0.011279,0.106276,319.053660,24.649463,0.999369,0.991375,0.003799,0.255191,-0.000039,-0.000025,-0.000012,-0.000018,-0.000046,-60.174929,0.000066,
2265,2006,0.112283208787009,-14.1143897689531,0.0218094212608548,-0.000681,0.003010,-0.010636,0.004913,0.079403,331.086099,23.498730,0.999186,0.983824,0.005155,0.096327,-0.000012,0.000018,0.000036,0.000042,-0.000036,56.159589,0.000045,
2175,2906,-2.00791677967863,5.54211496848747,-0.00992508422012861,-0.000568,0.002205,-0.004872,-0.010201,0.102403,316.149432,24.801268,0.999597,0.993877,0.003289,0.253908,-0.000019,-0.000036,0.000007,-0.000016,-0.000039,19.106844,0.000057,
2295,2081,0.75260903520374,-12.468151720016,0.0145758748246294,-0.000948,0.002100,-0.004775,-0.026578,0.075086,329.725495,23.433007,0.999420,0.984867,0.004832,0.116354,-0.000021,-0.000029,0.000006,-0.000018,-0.000032,26.146303,0.000050,
2385,3146,2.51104565917739,10.7664471925997,0.0249793464689105,-0.000692,0.002260,-0.004813,-0.013593,0.101777,312.130803,25.911081,0.999651,0.993540,0.003261,0.222769,-0.000023,-0.000035,0.000004,-0.000022,-0.000036,15.232654,0.000058,
2145,2786,-2.64066131778696,2.93412390411066,-0.0340464499465725,-0.000722,0.002513,-0.005616,-0.015304,0.117631,318.048180,24.704522,0.999618,0.993683,0.003285,0.248910,-0.000024,-0.000030,-0.000004,-0.000022,-0.000032,-27.448104,0.000054,
2055,3011,-4.62817411741462,7.81397949362955,-0.00777398261470807,-0.000368,0.002354,-0.008664,0.008176,0.076304,314.991095,24.518710,0.998942,0.988194,0.004481,0.235085,-0.000038,-0.000031,0.000006,-0.000027,-0.000042,58.004072,0.000069,
2370,3116,2.19014942972067,10.1148602026987,0.00906995071090932,-0.000414,0.002222,-0.005904,0.002888,0.096854,312.509477,25.743039,0.999595,0.993457,0.003343,0.242394,-0.000030,-0.000032,0.000002,-0.000029,-0.000034,31.689209,0.000063,
2355,3071,1.87254796186869,9.13707332368605,0.00515827284073112,-0.000665,0.002416,-0.007487,-0.003243,0.094117,313.221122,25.577230,0.999637,0.993683,0.003244,0.232911,-0.000036,-0.000040,0.000002,-0.000035,-0.000040,21.335465,0.000075,
2220,3266,-1.09363247042917,13.3540160973764,0.00899355179484473,-0.000702,0.002293,-0.006239,-0.011436,0.103686,310.159356,25.270572,0.999569,0.994715,0.003080,0.297168,-0.000016,-0.000054,-0.000004,-0.000015,-0.000054,-5.693729,0.000073,
2130,2876,-2.9794438381405,4.88738682835488,-0.010559701824377,-0.000427,0.002715,-0.007800,0.004627,0.109576,316.832189,24.666961,0.999567,0.992976,0.003410,0.298391,-0.000024,-0.000031,0.000001,-0.000024,-0.000031,7.329119,0.000055,
2025,3251,-5.31421404795735,13.0108055445227,0.0334597189431634,-0.000479,0.002237,-0.004243,-0.009712,0.093130,311.498180,24.283384,0.999811,0.997193,0.002373,0.220265,-0.000029,-0.000051,-0.000024,-0.000014,-0.000066,-32.939782,0.000085,
2280,3146,0.230197439584959,10.7574139783149,0.0224905407720257,-0.000839,0.001927,0.000199,-0.038464,0.110594,312.131438,25.411255,0.999510,0.993131,0.003659,0.281618,-0.000018,-0.000041,-0.000001,-0.000018,-0.000041,-1.445465,0.000061,
2265,3176,-0.100224332182734,11.4070213173778,0.0236508441650471,-0.000602,0.002334,-0.004295,-0.012580,0.102456,311.689069,25.429666,0.999529,0.992523,0.003403,0.239122,-0.000027,-0.000056,-0.000007,-0.000025,-0.000058,-13.176218,0.000085,
2340,3026,1.55497331596399,8.15995271834866,0.00039294313614846,-0.000699,0.002731,-0.008863,-0.000145,0.115779,313.937814,25.478716,0.999686,0.994876,0.003175,0.193357,-0.000028,-0.000027,0.000003,-0.000024,-0.000031,53.181775,0.000055,
2190,3206,-1.73197503895987,12.0502632321136,0.0257560747728007,-0.000568,0.002421,-0.008865,0.002563,0.100170,311.406346,25.062632,0.999634,0.994888,0.003160,0.286586,-0.000025,-0.000047,-0.000010,-0.000021,-0.000051,-20.075767,0.000074,
2160,3056,-2.3566323944263,8.79565279054563,0.0234885555809115,-0.000516,0.002887,-0.009527,0.006464,0.113045,314.001064,24.853059,0.999673,0.995721,0.003122,0.275089,-0.000029,-0.000014,0.000008,-0.000010,-0.000033,66.256027,0.000045,
2310,2126,1.07203171004626,-11.4804946768457,0.0179503763396838,-0.000990,0.002476,-0.004867,-0.027863,0.107080,328.999215,23.520066,0.999238,0.985564,0.004837,0.073555,-0.000011,-0.000031,0.000008,-0.000008,-0.000034,19.410169,0.000045,
2145,3041,-2.68090306845838,8.47089960524779,0.00128392518865894,-0.000220,0.002498,-0.005669,0.007939,0.103053,314.124892,24.821355,0.999492,0.994376,0.003072,0.239362,-0.000029,-0.000014,0.000005,-0.000013,-0.000030,74.377441,0.000044,
2295,3191,0.547974076483904,11.7351333753933,0.0230620656045062,-0.000636,0.002254,-0.004323,-0.013794,0.093431,311.387782,25.625146,0.999705,0.994189,0.003098,0.200360,-0.000020,-0.000047,-0.000002,-0.000019,-0.000047,-4.582232,0.000069,
2280,2066,0.427861981516909,-12.7968492911981,0.0150391843137641,-0.001057,0.002466,-0.006561,-0.025671,0.068916,329.992896,23.519902,0.999292,0.983464,0.004888,0.085438,-0.000022,-0.000010,0.000012,-0.000003,-0.000030,58.079700,0.000036,
2205,3206,-1.40678145154505,12.0521753486014,0.024004649405299,-0.000426,0.002440,-0.007478,0.005061,0.111366,311.347850,25.171016,0.999652,0.995255,0.003023,0.262273,-0.000024,-0.000049,-0.000009,-0.000021,-0.000053,-18.502482,0.000076,
2085,2771,-3.94071005879184,2.60498455397303,-0.0325287191871553,-0.000501,0.002523,-0.005912,-0.005099,0.121290,318.594159,24.655344,0.999554,0.992131,0.003703,0.257422,-0.000038,-0.000029,-0.000013,-0.000020,-0.000047,-55.084816,0.000069,
2160,2861,-2.32713279708656,4.56504368224413,-0.0259771945899843,-0.000742,0.002385,-0.005092,-0.017694,0.101519,316.809440,24.785535,0.999400,0.993286,0.003374,0.211374,-0.000020,-0.000036,0.000005,-0.000018,-0.000037,14.886178,0.000057,
2115,3011,-3.32676675245567,7.81649196027214,0.00849796421056226,-0.000674,0.002198,-0.002568,-0.022701,0.093785,314.785235,24.655688,0.999184,0.992170,0.003591,0.293300,-0.000024,-0.000018,0.000013,-0.000007,-0.000034,51.403151,0.000044,
2070,2711,-4.25658963904725,1.29890850994497,-0.0404794973181311,-0.000020,0.002575,-0.009458,0.026857,0.086943,319.633843,24.614541,0.999237,0.991742,0.003705,0.267905,-0.000046,-0.000005,-0.000006,-0.000004,-0.000047,-81.444779,0.000057,
2190,2981,-1.6952166890415,7.17171825141344,-0.00421154361339404,-0.000838,0.002133,-0.004209,-0.024546,0.112313,314.884397,24.885173,0.999322,0.992349,0.003633,0.277285,-0.000027,-0.000022,0.000012,-0.000012,-0.000037,51.504310,0.000051,
2430,3281,3.45906963123305,13.701070064465,-0.00955248861123437,-0.000699,0.002287,-0.006438,-0.007300,0.109937,309.626938,26.535452,0.999756,0.994600,0.003019,0.235122,-0.000039,-0.000070,0.000002,-0.000039,-0.000070,4.145544,0.000111,
2040,2951,-4.94389875382398,6.51100366437814,-0.00951929687744268,-0.000169,0.002263,-0.006723,0.011634,0.078298,316.066732,24.502473,0.999459,0.993970,0.003217,0.242802,-0.000037,-0.000053,-0.000005,-0.000036,-0.000054,-17.060588,0.000091,
2130,3056,-3.0082902117445,8.79507498911438,0.00669668749389984,-0.000375,0.002605,-0.010181,0.014095,0.095076,313.989135,24.801068,0.999385,0.994660,0.003275,0.207323,-0.000034,-0.000013,0.000009,-0.000010,-0.000038,69.518407,0.000050,
2055,2741,-4.58743439921189,1.95093118963187,-0.0348553604843573,-0.000537,0.002416,-0.005139,-0.009421,0.113443,319.230900,24.616166,0.999485,0.993262,0.003409,0.281541,-0.000052,-0.000019,-0.000005,-0.000018,-0.000052,-80.687435,0.000073,
2040,3251,-4.98921732715396,13.0114331206092,0.0346222492068478,-0.000367,0.002102,-0.004906,-0.002535,0.090808,311.421708,24.309872,0.999571,0.996081,0.002667,0.271268,-0.000036,-0.000066,-0.000013,-0.000031,-0.000071,-20.738334,0.000104,
2400,3161,2.83374175459369,11.0934711785163,0.0172249701170699,-0.000572,0.002337,-0.007988,0.003591,0.083537,311.842556,26.010150,0.999620,0.993900,0.003205,0.213948,-0.000026,-0.000033,0.000000,-0.000026,-0.000033,-2.435318,0.000059,
2235,3266,-0.768011889737505,13.355627147493,0.0102621448379523,-0.000503,0.002368,-0.007524,0.002167,0.106395,310.145953,25.377600,0.999540,0.994546,0.003093,0.274969,-0.000020,-0.000052,0.000003,-0.000019,-0.000052,5.432522,0.000074,
2490,2201,4.98931420731984,-9.83770997857319,0.00817219371600686,-0.000610,0.003153,-0.007499,0.002074,0.136384,327.907276,22.672124,0.998745,0.972787,0.006095,0.215556,-0.000029,0.000025,-0.000002,0.000025,-0.000029,-87.840355,0.000031,
2025,3266,-5.31686638160165,13.3357135891863,0.0239029667094428,-0.000265,0.002429,-0.005747,0.004393,0.103287,311.181491,24.224689,0.999824,0.997311,0.002371,0.277695,-0.000019,-0.000057,-0.000031,-0.000001,-0.000074,-29.161171,0.000087,
2415,3236,3.14398323409351,12.7225139841522,0.00948055619102206,-0.000694,0.002464,-0.008387,-0.000110,0.112523,310.530770,26.293250,0.999329,0.992837,0.003513,0.257426,-0.000030,-0.000039,0.000002,-0.000030,-0.000039,11.882173,0.000069,
2235,3041,-0.727594506075526,8.47738842963803,0.00310247630653748,-0.000325,0.002445,-0.010119,0.018695,0.085385,313.864896,25.154000,0.999634,0.993228,0.003285,0.181779,-0.000028,-0.000018,0.000011,-0.000011,-0.000035,58.280240,0.000048,
2220,3041,-1.0537759466125,8.47629529657006,-0.00137897130781539,-0.000444,0.002484,-0.007987,0.006086,0.100188,313.851589,25.058392,0.999718,0.994914,0.002990,0.243641,-0.000033,-0.000020,0.000010,-0.000015,-0.000038,62.469957,0.000054,
2250,3101,-0.412583834650817,9.77978021198834,0.017086917596373,-0.000513,0.002016,-0.002367,-0.015032,0.099352,312.913913,25.288619,0.999626,0.993447,0.003318,0.198403,-0.000022,-0.000039,0.000001,-0.000022,-0.000039,2.911042,0.000062,
2430,3296,3.45523591868473,14.0257635064615,-0.0185325672313184,-0.000681,0.001966,-0.005075,-0.011756,0.082304,309.295508,26.517413,0.999765,0.994883,0.002910,0.273593,-0.000034,-0.000076,-0.000002,-0.000034,-0.000076,-2.687726,0.000113,
2055,2951,-4.61858654918107,6.51217236438904,-0.0104406660296377,-0.000120,0.002491,-0.007634,0.016809,0.097408,315.975446,24.536543,0.999274,0.993224,0.003476,0.263510,-0.000046,-0.000049,-0.000004,-0.000043,-0.000052,-36.062381,0.000095,
2310,2996,0.908654230776026,7.50562552894343,0.000179657980197589,-0.000702,0.002748,-0.006851,-0.007807,0.119184,314.446513,25.267101,0.999851,0.996377,0.002893,0.252899,-0.000022,-0.000021,0.000003,-0.000019,-0.000024,51.023137,0.000043,
2055,3026,-4.63043333071051,8.13989179189739,-0.00789078969467027,-0.000116,0.002372,-0.006938,0.014955,0.084111,314.746836,24.548453,0.999582,0.994218,0.003379,0.206802,-0.000042,-0.000031,0.000004,-0.000030,-0.000043,70.194123,0.000073,
2085,2936,-3.96536976191492,6.18846653036476,-0.00664804287038123,-0.000243,0.002733,-0.007971,0.012746,0.110344,316.088323,24.639439,0.999277,0.992184,0.003703,0.246491,-0.000031,-0.000043,0.000009,-0.000026,-0.000048,28.047753,0.000075,
2475,2141,4.6741193617154,-11.1539124545069,0.0064650353439788,-0.000340,0.003074,-0.008426,0.017587,0.107940,328.859781,22.502935,0.998692,0.977079,0.005609,0.195485,-0.000020,-0.000016,-0.000007,-0.000011,-0.000025,-52.956613,0.000038,
2040,3266,-4.99237238905,13.337290441668,0.0268459836703983,-0.000600,0.002251,-0.004223,-0.015098,0.110771,311.092841,24.339372,0.999588,0.995247,0.002800,0.252321,-0.000023,-0.000069,-0.000017,-0.000018,-0.000075,-18.089872,0.000098,
2115,3026,-3.32932529723064,8.14289585999239,0.00603347088463124,-0.000535,0.002090,-0.001945,-0.018128,0.097852,314.518836,24.718591,0.999425,0.993123,0.003409,0.236760,-0.000028,-0.000013,0.000011,-0.000007,-0.000033,62.468888,0.000043,
2070,3026,-4.30493436221019,8.13924611031435,0.00406412221491337,-0.000452,0.002099,-0.005484,-0.004493,0.084828,314.743653,24.523541,0.999664,0.994338,0.003047,0.278974,-0.000038,-0.000023,0.000010,-0.000018,-0.000044,63.364888,0.000063,
2085,2786,-3.94309558658342,2.93071626576328,-0.0283874905642847,-0.000642,0.002551,-0.004467,-0.015721,0.130501,318.369453,24.633828,0.999436,0.992211,0.003664,0.287191,-0.000038,-0.000030,-0.000011,-0.000023,-0.000045,-54.855560,0.000069,
2145,2801,-2.64290069028685,3.25933026551088,-0.026090627813403,-0.000821,0.002309,-0.003402,-0.026629,0.115027,317.854673,24.682100,0.999686,0.994060,0.003187,0.276158,-0.000027,-0.000033,-0.000004,-0.000025,-0.000035,-29.270530,0.000060,
2445,2006,4.04665823336993,-14.1197433281795,0.0166406200538631,-0.000629,0.003351,-0.011992,0.017027,0.105333,331.102686,22.129339,0.999485,0.978351,0.005480,0.238186,0.000018,-0.000040,0.000000,0.000018,-0.000040,0.276328,0.000040,
2055,3236,-4.66146383712853,12.6880016585556,0.036404080881141,-0.000106,0.002345,-0.007209,0.016296,0.099735,311.616596,24.403869,0.999552,0.995196,0.002858,0.272781,-0.000036,-0.000060,0.000009,-0.000033,-0.000063,17.727119,0.000098,
2070,2726,-4.25902736286181,1.62536150162882,-0.0333609942305202,-0.000302,0.002569,-0.006008,0.004065,0.107036,319.421756,24.655997,0.999151,0.991094,0.003868,0.243291,-0.000049,-0.000018,-0.000013,-0.000013,-0.000054,-70.045292,0.000071,
2100,2996,-3.65030561682764,7.49243610147032,-0.011828239563215,-0.000130,0.002179,-0.003794,0.005922,0.104847,314.963986,24.687627,0.999630,0.994707,0.003041,0.227874,-0.000019,-0.000021,0.000014,-0.000006,-0.000034,43.412103,0.000043,
2115,2801,-3.29381858391031,3.25800504875433,-0.0216975011326213,-0.000523,0.002250,-0.002434,-0.016027,0.117935,318.030345,24.696943,0.999478,0.993894,0.003300,0.237204,-0.000032,-0.000033,-0.000007,-0.000026,-0.000039,-41.987934,0.000066,
2400,3176,2.83044413511597,11.4186910637213,0.0160833706771086,-0.000765,0.002134,-0.007430,-0.007390,0.081107,311.570746,26.025323,0.999539,0.993886,0.003260,0.240428,-0.000024,-0.000034,-0.000001,-0.000024,-0.000034,-6.962571,0.000058,
2130,2891,-2.98178070114784,5.21399256986906,-0.013838379293702,0.000027,0.002474,-0.006761,0.022328,0.097782,316.572800,24.719777,0.999514,0.992212,0.003660,0.239025,-0.000029,-0.000032,-0.000001,-0.000029,-0.000032,-13.926564,0.000061,
2505,2261,5.3038127809202,-8.52247294270267,0.00191869347025886,-0.000707,0.002781,-0.006391,-0.006540,0.100254,326.898922,22.821061,0.998741,0.978390,0.005568,0.207702,0.000013,-0.000014,0.000034,0.000036,-0.000038,34.007760,0.000043,
2295,2096,0.749954326819253,-12.1384536947735,0.0105726401632182,-0.000700,0.002622,-0.006781,-0.008280,0.087061,329.463400,23.463563,0.999151,0.983329,0.005142,0.130872,-0.000021,-0.000023,0.000005,-0.000017,-0.000027,40.128494,0.000045,
2490,2216,4.98562420767916,-9.50734889059382,0.0026779379077766,-0.000574,0.002694,-0.006220,-0.001357,0.104191,327.609496,22.840232,0.999389,0.982920,0.005042,0.076684,-0.000029,0.000040,0.000006,0.000041,-0.000029,85.213054,0.000042,
2025,3281,-5.31905097747351,13.659971352807,0.0276677434630415,-0.000305,0.002030,-0.006030,0.003210,0.084353,310.961340,24.215091,0.999761,0.996299,0.002580,0.257006,0.000000,-0.000063,-0.000047,0.000025,-0.000088,-27.997413,0.000091,
2220,3281,-1.09698844125105,13.6804687902248,-0.00289637917006758,-0.000494,0.002177,-0.005653,-0.003788,0.092295,309.815407,25.373196,0.999407,0.993910,0.003190,0.200251,-0.000017,-0.000045,-0.000003,-0.000017,-0.000045,-5.491620,0.000064,
2235,3281,-0.771448864187153,13.6814868865749,0.00479294372468075,-0.000630,0.002239,-0.004572,-0.013286,0.109891,309.832895,25.447070,0.999346,0.994288,0.003243,0.228253,-0.000023,-0.000042,0.000005,-0.000021,-0.000043,13.548537,0.000066,
2205,3011,-1.37414146590962,7.82461938439845,-0.00181627141842,-0.000368,0.002563,-0.005899,0.002696,0.109522,314.385799,25.023042,0.999412,0.992157,0.003574,0.208001,-0.000030,-0.000017,0.000012,-0.000010,-0.000037,59.361036,0.000049,
2175,2921,-2.01136656790875,5.86869588722465,-0.0202714286647279,-0.000689,0.002067,-0.004243,-0.017805,0.091182,315.805554,24.809735,0.999187,0.990452,0.003915,0.245991,-0.000022,-0.000030,0.000007,-0.000018,-0.000034,31.279331,0.000053,
2130,3071,-3.01065143126516,9.1193727491239,0.015153202139004,-0.000388,0.002077,-0.004419,-0.003922,0.085373,313.792286,24.769457,0.999687,0.995557,0.003044,0.233647,-0.000034,-0.000017,0.000007,-0.000015,-0.000037,69.489014,0.000053,
2325,3071,1.22040853690881,9.13535034721099,0.00461691814274445,-0.000928,0.002307,-0.006149,-0.020575,0.093663,313.207417,25.519965,0.999723,0.995883,0.002688,0.183245,-0.000030,-0.000037,0.000004,-0.000028,-0.000039,26.179486,0.000068,
2460,2051,4.36503101789317,-13.1304328139566,0.0184396002302947,-0.000730,0.002492,-0.005149,-0.013063,0.083731,330.377735,22.325412,0.999406,0.980830,0.005310,0.088920,0.000028,-0.000016,-0.000011,0.000031,-0.000018,-12.936098,0.000031,
2025,3296,-5.32164261272129,13.9851886804962,0.0253062465565677,-0.000265,0.002084,-0.004356,0.000485,0.094677,310.687727,24.234001,0.999528,0.994793,0.003007,0.236610,0.000026,-0.000106,-0.000047,0.000041,-0.000121,-17.822441,0.000123,
2280,2081,0.425365341369211,-12.467869238018,0.0120744356852356,-0.000757,0.002636,-0.008503,-0.005444,0.078021,329.741883,23.493438,0.999250,0.983235,0.005029,0.151892,-0.000023,-0.000014,0.000013,-0.000005,-0.000033,54.144764,0.000041,
2265,3191,-0.103016946590813,11.7325788976819,0.0218414104040221,-0.000565,0.002435,-0.005068,-0.008259,0.107161,311.427000,25.466285,0.999550,0.992705,0.003333,0.231384,-0.000026,-0.000060,-0.000005,-0.000026,-0.000061,-8.269924,0.000089,
2160,3071,-2.35983773379247,9.12135314729023,0.0192140018781402,-0.000595,0.002332,-0.005574,-0.009485,0.099556,313.699187,24.869652,0.999634,0.995143,0.003099,0.254128,-0.000028,-0.000020,0.000006,-0.000016,-0.000031,61.752172,0.000049,
2040,3026,-4.95513759124973,8.13805970602991,0.00058382003578572,-0.000297,0.002591,-0.008628,0.011147,0.094310,314.902831,24.473560,0.999629,0.994543,0.003229,0.245147,-0.000035,-0.000038,0.000008,-0.000028,-0.000044,40.041612,0.000073,
2100,2756,-3.61194879302576,2.27833569722841,-0.0292245050575843,-0.000402,0.002917,-0.011213,0.015221,0.110382,318.816301,24.605618,0.999368,0.990813,0.003842,0.304269,-0.000040,-0.000029,-0.000011,-0.000022,-0.000047,-59.201188,0.000071,
2190,3221,-1.73409496648209,12.3756347811424,0.0297544914782293,-0.000241,0.002453,-0.007672,0.013844,0.091923,311.199983,25.135778,0.999750,0.995655,0.002879,0.217791,-0.000024,-0.000057,-0.000012,-0.000020,-0.000061,-17.997490,0.000085,
2310,3011,0.90549347914634,7.83246111420927,-0.00570247116280598,-0.000588,0.002702,-0.006648,-0.003228,0.121894,314.150909,25.347484,0.999492,0.992435,0.003519,0.206421,-0.000020,-0.000023,0.000004,-0.000018,-0.000025,33.279931,0.000043,
2385,3161,2.507927143512,11.0921965161136,0.0182551712596251,-0.000445,0.002491,-0.006178,0.002760,0.108817,311.839378,25.926212,0.999476,0.992069,0.003609,0.256826,-0.000022,-0.000035,0.000001,-0.000022,-0.000036,5.673999,0.000058,
2070,2951,-4.29424459601053,6.51354493601747,-0.0119881786790188,-0.000589,0.002150,-0.001297,-0.022670,0.106459,315.838801,24.594709,0.999219,0.992628,0.003622,0.250011,-0.000039,-0.000044,0.000004,-0.000036,-0.000046,28.692068,0.000083,
2265,2021,0.109119495649225,-13.7843860430083,0.0180981708394938,-0.000773,0.003148,-0.009115,-0.004264,0.107218,330.799342,23.514598,0.999207,0.981979,0.005463,0.137512,-0.000016,0.000003,0.000032,0.000027,-0.000040,53.029868,0.000040,
2505,2276,5.30050239406777,-8.19286238686517,0.000104543496433962,-0.000779,0.003037,-0.007464,-0.005570,0.130082,326.635864,22.919884,0.998996,0.979149,0.005382,0.202262,0.000011,-0.000008,0.000034,0.000037,-0.000033,37.250104,0.000041,
2445,2021,4.04391821665009,-13.7894195061486,0.0210447644737997,-0.000546,0.003144,-0.010610,0.015647,0.099258,330.890392,22.303898,0.999305,0.980481,0.005268,0.112926,0.000027,-0.000031,0.000008,0.000028,-0.000032,7.243747,0.000035,
2070,2741,-4.26123390503889,1.95091788840217,-0.0285562798851515,-0.000357,0.002314,-0.004921,-0.001638,0.099587,319.207935,24.627343,0.999364,0.992098,0.003675,0.261157,-0.000050,-0.000025,-0.000016,-0.000017,-0.000058,-64.373303,0.000078,
2280,3161,0.228155000702447,11.0829178002277,0.0209958244712425,-0.000450,0.001898,-0.006040,0.000205,0.073203,311.906711,25.478933,0.999571,0.992997,0.003447,0.202931,-0.000020,-0.000046,-0.000002,-0.000020,-0.000046,-3.333931,0.000068,
2055,3251,-4.66418183554877,13.0140445243384,0.0348710611517049,-0.000370,0.002562,-0.008366,0.007476,0.114712,311.343626,24.487293,0.999747,0.996324,0.002696,0.197256,-0.000030,-0.000073,0.000005,-0.000029,-0.000073,5.897385,0.000106,
2040,2006,-4.79784742620545,-14.1070050829535,0.0101044496239524,-0.000223,0.002803,-0.009182,0.016001,0.078324,331.820788,25.053015,0.998307,0.977504,0.005902,0.094430,-0.000055,-0.000104,-0.000009,-0.000053,-0.000106,-10.260459,0.000161,
2235,3296,-0.774974236104537,14.006463127512,-0.00732618952366693,-0.000629,0.002017,-0.005190,-0.011373,0.086958,309.481953,25.428940,0.999421,0.994049,0.003209,0.242658,-0.000029,-0.000031,0.000000,-0.000029,-0.000031,-3.227894,0.000060,
2085,2801,-3.94512388101857,3.25667484833456,-0.0264660599877971,-0.000456,0.002369,-0.005801,-0.003437,0.106050,318.149031,24.653043,0.999268,0.992662,0.003597,0.242017,-0.000041,-0.000031,-0.000010,-0.000024,-0.000047,-58.103782,0.000073,
2400,3191,2.82798596053074,11.7435042763727,0.0235495895196891,-0.000629,0.002023,-0.004693,-0.011096,0.080209,311.378482,26.057561,0.999514,0.993442,0.003281,0.251326,-0.000024,-0.000044,0.000004,-0.000023,-0.000045,11.151649,0.000069,
2490,2231,4.98197551946006,-9.17864875345452,-0.0062912779603721,-0.000344,0.002760,-0.006336,0.009614,0.106736,327.297878,22.791295,0.999385,0.983226,0.005116,0.189688,-0.000023,0.000019,0.000028,0.000033,-0.000037,63.484304,0.000041,
2370,3131,2.1876126132378,10.4402237348275,0.0128148526118821,-0.000427,0.002217,-0.007269,0.007125,0.088259,312.294105,25.796464,0.999601,0.993212,0.003383,0.220140,-0.000027,-0.000035,0.000003,-0.000026,-0.000036,18.046529,0.000062,
2205,3221,-1.40959943777506,12.3785154037823,0.0164209506620523,-0.000123,0.002622,-0.008433,0.022016,0.092642,311.049777,25.275912,0.999829,0.996461,0.002701,0.153754,-0.000023,-0.000060,-0.000013,-0.000019,-0.000064,-18.157141,0.000087,
2175,3161,-2.04935622032169,11.0746268650256,0.0286562399028298,-0.000650,0.002496,-0.007454,-0.005844,0.118445,312.224263,25.052442,0.999853,0.996920,0.002618,0.209282,-0.000026,-0.000040,0.000001,-0.000026,-0.000040,5.311036,0.000066,
2415,3251,3.14056318323541,13.0476165849922,0.00621998697323534,-0.000900,0.002414,-0.008888,-0.007842,0.094661,310.244117,26.321391,0.999068,0.991514,0.003795,0.257399,-0.000033,-0.000039,0.000003,-0.000032,-0.000040,21.938349,0.000072,
2205,3026,-1.37711353195064,8.15056208322292,-0.00156931653498305,-0.000683,0.002609,-0.005479,-0.013106,0.113355,314.121734,25.064875,0.999655,0.994582,0.003165,0.185717,-0.000033,-0.000016,0.000012,-0.000010,-0.000040,62.463125,0.000053,
2115,2816,-3.29648847695813,3.58370011651822,-0.0267725329666746,-0.000489,0.002048,-0.003885,-0.010298,0.088837,317.745103,24.646624,0.999498,0.993851,0.003360,0.261544,-0.000027,-0.000031,-0.000002,-0.000026,-0.000032,-19.882057,0.000058,
2085,2951,-3.96870324178531,6.51425713869552,-0.0111727453687536,-0.000634,0.002249,-0.004478,-0.015500,0.102926,315.772969,24.621175,0.999203,0.992512,0.003743,0.255694,-0.000031,-0.000040,0.000006,-0.000027,-0.000044,26.270571,0.000072,
2295,3206,0.545316260299565,12.0603827449308,0.019909508390981,-0.000440,0.002417,-0.006786,0.003621,0.097476,311.127545,25.630526,0.999770,0.995072,0.002883,0.227697,-0.000020,-0.000044,-0.000004,-0.000019,-0.000045,-9.515188,0.000066,
2295,2111,0.747436733927138,-11.8103672389106,0.0103932891248633,-0.000478,0.002622,-0.007074,0.002867,0.084732,329.226711,23.409825,0.998975,0.984111,0.005101,0.215165,-0.000018,-0.000021,0.000002,-0.000017,-0.000022,30.027720,0.000040,
2070,3041,-4.30740537128321,8.46500137922403,0.00415240598420041,-0.000449,0.001901,-0.004611,-0.006882,0.085282,314.491999,24.551243,0.999635,0.994168,0.003098,0.247558,-0.000045,-0.000022,0.000007,-0.000020,-0.000047,73.971507,0.000069,
2190,2996,-1.69777549630322,7.49776195295845,-0.00562112596804809,-0.000815,0.002458,-0.006132,-0.017384,0.108637,314.629588,24.923705,0.999438,0.992649,0.003587,0.248686,-0.000031,-0.000014,0.000014,-0.000005,-0.000039,60.413972,0.000048,
2220,3296,-1.10039623553441,14.004898016127,-0.00698887024407213,-0.000686,0.001705,-0.002228,-0.023814,0.076162,309.510081,25.342726,0.999469,0.993967,0.003095,0.231575,-0.000020,-0.000036,-0.000008,-0.000017,-0.000040,-21.954231,0.000058,
2040,2021,-4.80037443675365,-13.7784349176009,0.0111343774180455,-0.000392,0.002368,-0.006117,-0.000362,0.078229,331.567832,25.017396,0.998640,0.980659,0.005592,0.126006,-0.000076,-0.000057,0.000000,-0.000057,-0.000076,89.251649,0.000133,
2040,3281,-4.99461698204837,13.6618054030091,0.0235996942064958,-0.000255,0.002043,-0.004509,0.001562,0.100325,310.831617,24.305723,0.999675,0.995265,0.002745,0.266201,-0.000005,-0.000077,-0.000026,0.000003,-0.000085,-18.329913,0.000097,
2310,2141,1.07016441829167,-11.1523632915603,0.0203316177268675,-0.000558,0.003194,-0.008902,0.005869,0.112360,328.806059,23.501341,0.999411,0.985654,0.004838,0.132326,-0.000014,-0.000030,0.000011,-0.000008,-0.000036,27.053342,0.000046,
2055,2966,-4.62134937411424,6.8377154417867,-0.00655983477287236,-0.000560,0.002312,-0.004827,-0.011383,0.107459,315.730273,24.541912,0.999187,0.992073,0.003599,0.261865,-0.000043,-0.000057,-0.000005,-0.000041,-0.000059,-19.337541,0.000100,
2235,3056,-0.730220154669542,8.80208083486426,0.0118806240783442,-0.000627,0.002375,-0.006577,-0.006646,0.100072,313.662959,25.135348,0.999654,0.994194,0.003095,0.235117,-0.000027,-0.000021,0.000011,-0.000013,-0.000035,51.594631,0.000050,
2265,2036,0.106141913917941,-13.454722028992,0.0123595176493154,-0.000502,0.002887,-0.007182,0.001691,0.098666,330.511145,23.518768,0.999200,0.983057,0.005140,0.153897,-0.000020,0.000010,0.000035,0.000033,-0.000043,56.270531,0.000045,
2250,3116,-0.415308113627663,10.1043380270375,0.0174273506988811,-0.000687,0.001856,-0.004446,-0.016299,0.087310,312.665313,25.243270,0.999581,0.992955,0.003492,0.253900,-0.000020,-0.000049,-0.000002,-0.000020,-0.000049,-4.348358,0.000071,
2040,3041,-4.95769928547333,8.4626956289397,0.00864476704094841,-0.000695,0.002050,-0.004033,-0.020087,0.095807,314.689639,24.450677,0.999735,0.995721,0.002818,0.260738,-0.000045,-0.000035,0.000007,-0.000032,-0.000048,62.549366,0.000080,
2460,2066,4.36351950917042,-12.8026688382186,0.0336274321442147,-0.000538,0.002915,-0.006642,0.001462,0.114792,330.271833,22.366832,0.999392,0.981432,0.005239,0.135452,0.000025,-0.000006,-0.000002,0.000025,-0.000006,-4.440433,0.000027,
2070,2756,-4.26407264830004,2.27797190457894,-0.0348698064242967,-0.000524,0.002371,-0.006672,-0.004288,0.100040,318.903688,24.642363,0.999492,0.992450,0.003621,0.243440,-0.000049,-0.000032,-0.000015,-0.000023,-0.000058,-59.658453,0.000083,
2055,3041,-4.63288001980524,8.46457087075829,0.00164706467302267,-0.000469,0.001989,-0.002368,-0.014244,0.097363,314.547861,24.528746,0.999733,0.995405,0.002928,0.233254,-0.000050,-0.000030,0.000003,-0.000030,-0.000051,82.673553,0.000082,
2490,2246,4.97877753257254,-8.8511080215289,-0.00362736635764804,-0.000840,0.002833,-0.008803,-0.003648,0.096535,327.059325,22.777318,0.999306,0.983569,0.005018,0.254305,-0.000019,0.000009,0.000036,0.000034,-0.000043,55.687427,0.000045,
2115,3041,-3.33104673833165,8.46861431576996,0.015178423739485,-0.000421,0.002033,-0.003104,-0.009457,0.097137,314.353730,24.805995,0.999640,0.994462,0.003118,0.150765,-0.000028,-0.000015,0.000007,-0.000012,-0.000032,65.869525,0.000045,
2100,3011,-3.65240825166089,7.81744201864235,-0.00632107722231012,-0.000322,0.002759,-0.007012,0.006688,0.124125,314.761049,24.658461,0.999479,0.993822,0.003209,0.276685,-0.000021,-0.000018,0.000014,-0.000005,-0.000034,47.592030,0.000043,
2175,2936,-2.01340404205488,6.19411226144057,-0.0144665003970204,-0.000699,0.002035,-0.006701,-0.010667,0.080380,315.611674,24.833287,0.999297,0.992093,0.003668,0.222998,-0.000024,-0.000029,0.000010,-0.000016,-0.000036,37.552967,0.000054,
2055,3266,-4.66721203456163,13.3385833679799,0.0275620233860536,-0.000405,0.002469,-0.006482,0.000486,0.110911,311.024939,24.421972,0.999777,0.995974,0.002702,0.251857,-0.000017,-0.000075,0.000005,-0.000017,-0.000075,4.738524,0.000098,
2160,2876,-2.32948061972102,4.89075764251764,-0.0210324299929994,-0.000834,0.002345,-0.004631,-0.023356,0.105859,316.595740,24.799305,0.999541,0.994309,0.003189,0.211564,-0.000021,-0.000034,0.000002,-0.000020,-0.000035,9.160866,0.000055,
2130,3086,-3.01273870939191,9.4448372372836,0.0167403086284139,-0.000348,0.002562,-0.008950,0.011698,0.100763,313.570744,24.778122,0.999817,0.995993,0.002930,0.244944,-0.000027,-0.000022,0.000010,-0.000014,-0.000035,52.477178,0.000050,
2415,3266,3.13688863274696,13.3733989856015,-0.00548053101277901,-0.000600,0.002264,-0.008339,0.003843,0.076729,309.905664,26.368517,0.999522,0.993191,0.003381,0.238543,-0.000037,-0.000049,0.000005,-0.000035,-0.000051,21.935569,0.000086,
2475,2156,4.67091601936539,-10.8250584569773,0.00846751453678962,-0.000504,0.002864,-0.007341,0.005889,0.104873,328.617120,22.562494,0.998820,0.974952,0.005880,0.192072,-0.000019,-0.000005,0.000001,-0.000005,-0.000019,86.918118,0.000026,
2070,3266,-4.3430824058026,13.3402567467277,0.0180978428038543,-0.000449,0.002386,-0.005497,-0.004148,0.105718,310.855991,24.486573,0.999797,0.997010,0.002503,0.263873,-0.000016,-0.000070,0.000007,-0.000015,-0.000071,6.988128,0.000092,
2325,3086,1.2182756535684,9.45978398428294,0.00791017079023959,-0.000688,0.002562,-0.009074,0.000662,0.097699,313.005983,25.460389,0.999632,0.995110,0.002964,0.280330,-0.000033,-0.000036,0.000005,-0.000029,-0.000040,36.723925,0.000070,
2100,2771,-3.61504626512458,2.60562411338184,-0.03489752445563,-0.000458,0.002527,-0.007532,0.001744,0.098102,318.506371,24.665696,0.999507,0.992235,0.003631,0.233263,-0.000037,-0.000028,-0.000011,-0.000020,-0.000045,-56.441548,0.000067,
2280,2096,0.422889766935445,-12.138514310803,0.012824428315696,-0.000527,0.002987,-0.008015,0.003623,0.109470,329.510116,23.526172,0.998825,0.980824,0.005490,0.181462,-0.000025,-0.000011,0.000013,-0.000003,-0.000033,58.616743,0.000039,
2370,3146,2.18507991405115,10.765388759672,0.0211363159431244,-0.000613,0.002262,-0.006342,-0.004732,0.090275,312.100934,25.853157,0.999622,0.992402,0.003435,0.204921,-0.000028,-0.000036,0.000003,-0.000027,-0.000037,16.181205,0.000064,
2220,3056,-1.05611449262711,8.80123088565841,0.00800917639230647,-0.000697,0.002577,-0.006969,-0.008791,0.110571,313.665119,25.070507,0.999732,0.995446,0.002801,0.259568,-0.000031,-0.000022,0.000010,-0.000016,-0.000037,56.585462,0.000055,
2205,3236,-1.41249309558677,12.702539839911,0.0186846333278936,-0.000510,0.002339,-0.008414,0.004054,0.094203,310.800225,25.209599,0.999773,0.995738,0.002798,0.236700,-0.000024,-0.000049,-0.000012,-0.000019,-0.000054,-20.813390,0.000076,
2235,2006,-0.543275718254055,-14.1145308546702,0.0211606949363841,-0.000842,0.002992,-0.007891,-0.012088,0.091681,331.117381,23.600350,0.999546,0.987868,0.004646,0.215082,-0.000032,0.000005,0.000010,0.000008,-0.000035,75.405761,0.000036,
2355,3086,1.86998306740022,9.46275631482954,0.00863652901102796,-0.000677,0.002625,-0.008462,-0.000279,0.102913,313.002250,25.629695,0.999558,0.993471,0.003346,0.226825,-0.000038,-0.000037,0.000003,-0.000034,-0.000041,49.387548,0.000075,
2040,3296,-4.99760577673276,13.9870156717703,0.0223770170001671,-0.000609,0.001929,-0.002068,-0.021631,0.096534,310.547234,24.345076,0.999586,0.995266,0.002983,0.213611,0.000022,-0.000107,-0.000025,0.000026,-0.000112,-10.617422,0.000117,
2145,3056,-2.68284122351598,8.79574928975101,0.00754481537097718,-0.000171,0.002482,-0.007902,0.016929,0.094797,313.936363,24.821544,0.999589,0.995345,0.003049,0.237681,-0.000031,-0.000014,0.000007,-0.000012,-0.000033,71.119572,0.000046,
2385,3176,2.50465614690889,11.4178145697019,0.0169165393824642,-0.000720,0.002369,-0.006881,-0.007390,0.101315,311.566613,25.981701,0.999512,0.993252,0.003332,0.235778,-0.000021,-0.000036,0.000000,-0.000021,-0.000036,0.510501,0.000058,
2070,3056,-4.30987066124672,8.79006062404362,0.00266696974063052,-0.000535,0.002016,-0.006825,-0.004541,0.074958,314.232233,24.519248,0.999502,0.993319,0.003216,0.264945,-0.000052,-0.000016,0.000008,-0.000014,-0.000053,77.662426,0.000071,
2265,2051,0.103479783557336,-13.1258115106622,0.0114681038092499,-0.000497,0.002970,-0.008388,0.005931,0.091322,330.261695,23.514413,0.999179,0.982454,0.005074,0.179910,-0.000027,-0.000019,0.000025,0.000003,-0.000048,49.620879,0.000054,
2265,3206,-0.105512081326534,12.0576820168475,0.0219652513965798,-0.000324,0.002239,-0.005214,0.003245,0.095477,311.188523,25.493045,0.999736,0.995248,0.002931,0.216890,-0.000026,-0.000056,-0.000006,-0.000025,-0.000058,-11.649816,0.000085,
2055,3281,-4.6699661662056,13.6628026150138,0.024577116898115,-0.000445,0.002050,-0.004886,-0.006032,0.088566,310.743041,24.374763,0.999816,0.996172,0.002591,0.269571,0.000002,-0.000085,0.000001,0.000002,-0.000085,0.576496,0.000098,
2070,3281,-4.34579876265239,13.6647240901476,0.0110415461020352,-0.000337,0.002144,-0.006578,0.003910,0.077570,310.554414,24.446095,0.999804,0.996954,0.002476,0.271498,-0.000003,-0.000081,0.000006,-0.000003,-0.000081,4.554289,0.000095,
2055,3056,-4.63471357349159,8.78961368442264,0.00383421717145893,-0.000237,0.002298,-0.005621,0.005747,0.102897,314.336242,24.503746,0.999726,0.995098,0.002964,0.257360,-0.000059,-0.000023,0.000004,-0.000022,-0.000059,84.171977,0.000084,
2145,2816,-2.6451474787,3.58605571050154,-0.0304302918768826,-0.000519,0.002429,-0.007390,-0.000665,0.096700,317.595039,24.722248,0.999570,0.993687,0.003325,0.225288,-0.000022,-0.000033,-0.000001,-0.000022,-0.000033,-7.281430,0.000055,
2490,2261,4.97594351845007,-8.52274399482579,0.00257937683431919,-0.000818,0.002532,-0.006015,-0.013403,0.096462,326.853192,22.870171,0.999080,0.980742,0.005083,0.222201,-0.000025,-0.000009,0.000031,0.000015,-0.000049,52.024524,0.000050,
2130,3146,-3.02280092900538,10.7452640203521,0.0225036384484838,-0.000481,0.002434,-0.006214,-0.002696,0.103238,312.603374,24.774608,0.999609,0.995031,0.002951,0.268312,-0.000030,-0.000022,0.000005,-0.000020,-0.000033,64.391262,0.000053,
2055,2981,-4.62335304599232,7.16370816321631,-0.00519758001195214,-0.000294,0.002461,-0.005461,0.002682,0.109635,315.505852,24.582322,0.999190,0.991519,0.003634,0.217431,-0.000036,-0.000047,0.000001,-0.000036,-0.000047,6.400725,0.000083,
2115,2831,-3.29882931600343,3.91061745281368,-0.0302404918588763,-0.000243,0.002105,-0.005644,0.006253,0.090328,317.483139,24.695609,0.999616,0.993786,0.003363,0.217282,-0.000027,-0.000040,-0.000001,-0.000027,-0.000040,-6.327610,0.000068,
2445,2036,4.04087641443435,-13.4602666405201,0.0200251026948308,-0.000318,0.003143,-0.008960,0.019961,0.103634,330.639302,22.304335,0.999298,0.979371,0.005452,0.172313,0.000029,-0.000031,0.000012,0.000031,-0.000033,10.738669,0.000037,
2400,3206,2.82539347105129,12.0691804257946,0.0266918046714864,-0.000635,0.002211,-0.006409,-0.005021,0.091426,311.159180,26.134305,0.999497,0.993003,0.003431,0.229743,-0.000025,-0.000044,0.000006,-0.000023,-0.000045,15.644369,0.000069,
2070,2966,-4.29685566443108,6.83916894874125,-0.0136278648498092,-0.000716,0.002136,-0.001807,-0.027078,0.107706,315.571206,24.577506,0.999063,0.992178,0.003731,0.264544,-0.000035,-0.000050,0.000003,-0.000035,-0.000051,11.668409,0.000086,
2190,3011,-1.69945219762349,7.82202143887974,0.00677252472530654,-0.000579,0.002068,-0.004030,-0.013246,0.093636,314.487948,24.908807,0.999468,0.992817,0.003544,0.261892,-0.000034,-0.000017,0.000011,-0.000011,-0.000039,62.962904,0.000053,
2085,2966,-3.97044614471016,6.83933668919705,-0.00473033287437374,-0.000485,0.002547,-0.006692,-0.002151,0.106568,315.590682,24.609089,0.999330,0.992912,0.003518,0.269532,-0.000028,-0.000044,0.000006,-0.000026,-0.000046,17.881789,0.000073,
2100,2786,-3.61724932403705,2.93135863294198,-0.0276668614340565,-0.000648,0.002743,-0.006996,-0.008427,0.119736,318.307744,24.657051,0.999496,0.992140,0.003707,0.264335,-0.000037,-0.000031,-0.000009,-0.000024,-0.000044,-52.948265,0.000069,
2310,3026,0.903012384676398,8.15748776099061,0.0012022370494833,-0.000746,0.002542,-0.006369,-0.011548,0.105919,313.950302,25.372180,0.999652,0.992280,0.003479,0.196897,-0.000021,-0.000024,0.000010,-0.000013,-0.000032,40.522775,0.000046,
2115,3056,-3.33354323066352,8.79346652159068,0.00730133613905082,-0.000314,0.002549,-0.009319,0.013983,0.095485,314.061545,24.703827,0.999621,0.994781,0.003151,0.254100,-0.000031,-0.000013,0.000008,-0.000010,-0.000034,68.635323,0.000046,
2505,2291,5.29804946834921,-7.86437021103411,0.00192664888703575,-0.000565,0.003465,-0.011557,0.020153,0.135957,326.428531,22.983024,0.999265,0.980905,0.005137,0.207988,0.000003,0.000018,0.000035,0.000046,-0.000025,51.422649,0.000046,
2190,3236,-1.73664608244786,12.6999322186415,0.0333789329974366,-0.000463,0.002496,-0.008571,0.006462,0.099647,310.972240,25.095160,0.999793,0.995606,0.002787,0.279087,-0.000024,-0.000048,-0.000010,-0.000020,-0.000052,-20.612022,0.000074,
2340,3041,1.55208253140266,8.48458141363241,-0.00348630532579364,-0.000367,0.002403,-0.008031,0.012156,0.108357,313.667613,25.389070,0.999670,0.994383,0.003159,0.311408,-0.000031,-0.000030,0.000006,-0.000025,-0.000036,46.995170,0.000061,
2055,3296,-4.67299959568829,13.9873471450878,0.0217901322354805,-0.000639,0.001446,-0.001105,-0.025805,0.079903,310.449285,24.349209,0.999585,0.994924,0.002919,0.279163,0.000025,-0.000105,0.000005,0.000025,-0.000105,2.265476,0.000110,
2280,3176,0.2251828076244,11.4083031992979,0.0241216447617489,-0.000740,0.002227,-0.004205,-0.019130,0.095875,311.662366,25.508395,0.999653,0.994210,0.003058,0.222593,-0.000020,-0.000050,-0.000006,-0.000019,-0.000051,-10.515591,0.000073,
2070,3296,-4.34855610487978,13.9895481355503,0.011039480120246,-0.000551,0.001841,-0.005232,-0.009827,0.082868,310.289673,24.449174,0.999603,0.995149,0.002880,0.268639,0.000012,-0.000094,0.000011,0.000013,-0.000095,5.810939,0.000103,
2370,3161,2.18229315842565,11.0905277367622,0.0206616612024391,-0.000343,0.002180,-0.005062,0.003126,0.093877,311.853731,25.854190,0.999564,0.992658,0.003475,0.247450,-0.000027,-0.000037,0.000001,-0.000027,-0.000037,3.089471,0.000064,
2295,3221,0.54228749507724,12.3848648636502,0.0172597433002579,-0.000517,0.002362,-0.007391,0.002142,0.095419,310.852977,25.578587,0.999827,0.995822,0.002726,0.306035,-0.000020,-0.000047,-0.000010,-0.000016,-0.000050,-18.877713,0.000069,
2070,2771,-4.26601144830082,2.60385943891328,-0.0309029003257137,-0.000345,0.002510,-0.007036,0.005038,0.105850,318.697427,24.632670,0.999441,0.991895,0.003680,0.255475,-0.000044,-0.000030,-0.000016,-0.000019,-0.000055,-56.735839,0.000077,
2235,2021,-0.545663321583948,-13.7844230684191,0.0217716888662949,-0.000715,0.003129,-0.009036,-0.002537,0.083525,330.885316,23.710653,0.999008,0.983423,0.005296,0.121124,-0.000034,-0.000010,0.000016,-0.000002,-0.000042,63.595224,0.000050,
2070,3071,-4.31186848531769,9.11500684571854,0.00784275287128366,-0.000377,0.002038,-0.006015,0.000422,0.074206,314.030591,24.515611,0.999503,0.993146,0.003326,0.263300,-0.000051,-0.000012,0.000009,-0.000010,-0.000053,76.955141,0.000068,
2100,3026,-3.65486261219565,8.14238425161787,-0.00305209942689544,-0.000420,0.002443,-0.005546,-0.002265,0.110267,314.529905,24.644606,0.999414,0.993364,0.003360,0.276589,-0.000024,-0.000014,0.000011,-0.000006,-0.000031,57.038754,0.000040,
2415,3281,3.1330694134164,13.6995548313638,-0.0128259998024305,-0.000659,0.002128,-0.006143,-0.006862,0.095412,309.580824,26.443591,0.999675,0.993394,0.003302,0.227953,-0.000038,-0.000063,0.000002,-0.000038,-0.000063,4.149745,0.000102,
2145,3071,-2.68619746265188,9.12184134896109,0.0022377760013228,-0.000242,0.002074,-0.002112,-0.003989,0.098607,313.620643,24.850970,0.999805,0.996625,0.002726,0.218625,-0.000030,-0.000019,0.000005,-0.000017,-0.000032,70.307080,0.000050,
2040,3056,-4.95936967062255,8.78749415541147,0.0158625064368039,-0.000498,0.002339,-0.005202,-0.007681,0.104060,314.512593,24.433243,0.999696,0.995223,0.002972,0.277830,-0.000052,-0.000027,0.000007,-0.000025,-0.000054,75.195622,0.000081,
2490,2276,4.97336960756948,-8.19374184932113,0.00420509659687696,-0.000547,0.002677,-0.007957,0.006494,0.104632,326.638217,22.970209,0.999324,0.983048,0.004818,0.191087,-0.000026,-0.000005,0.000033,0.000019,-0.000050,53.637006,0.000051,
2055,2006,-4.47001330798144,-14.1090944954694,0.023004719704943,-0.000355,0.003434,-0.011353,0.016586,0.073499,331.843918,24.947964,0.999156,0.982728,0.005134,0.090972,-0.000007,-0.000077,0.000010,-0.000006,-0.000079,8.234972,0.000094,
2250,2006,-0.216814246020736,-14.1117146178484,0.00408984481543939,-0.000504,0.002503,-0.005169,-0.005359,0.082648,330.952267,23.601674,0.999490,0.988090,0.004650,0.101622,-0.000030,0.000004,0.000017,0.000011,-0.000037,67.610020,0.000038,
2295,2126,0.743942039141192,-11.4802264725367,0.0101505375283182,-0.001107,0.002700,-0.005974,-0.029630,0.093869,328.944633,23.537000,0.999089,0.984472,0.004949,0.130237,-0.000017,-0.000020,0.000003,-0.000015,-0.000022,32.144811,0.000037,
2175,3176,-2.05172259460396,11.3982304427833,0.0376237607645749,-0.000869,0.002206,-0.005283,-0.022802,0.103555,312.032500,24.988414,0.999776,0.995918,0.002824,0.269199,-0.000024,-0.000044,-0.000001,-0.000024,-0.000044,-2.747473,0.000069,
2085,3296,-4.02343255635084,13.9910705261567,0.014088101498146,-0.000432,0.002047,-0.005418,-0.003480,0.096312,310.240461,24.552353,0.999581,0.995008,0.002930,0.265201,-0.000001,-0.000085,0.000013,0.000001,-0.000087,8.490927,0.000100,
2460,2081,4.35907707704796,-12.4718286406727,0.0215537464103477,-0.000576,0.002548,-0.002814,-0.014732,0.113536,329.907213,22.419236,0.999320,0.980927,0.005367,0.139804,0.000019,-0.000005,0.000001,0.000019,-0.000005,3.259887,0.000020,
2505,2306,5.29474149460658,-7.53680590508353,0.00508412175707917,-0.000550,0.002563,-0.006556,0.001187,0.093596,326.188134,23.028261,0.999359,0.982612,0.005014,0.183044,-0.000001,0.000006,0.000034,0.000037,-0.000032,48.080427,0.000040,
2250,3131,-0.41765079798186,10.4299031299934,0.0202068051618767,-0.000604,0.002188,-0.005885,-0.007699,0.093553,312.446270,25.291851,0.999377,0.993182,0.003512,0.233529,-0.000022,-0.000048,-0.000002,-0.000021,-0.000048,-3.562739,0.000071,
2235,3071,-0.733260518281078,9.12811225425074,0.004810005735294,-0.000486,0.002440,-0.006806,0.000667,0.108880,313.360377,25.143923,0.999617,0.993764,0.003220,0.255566,-0.000025,-0.000034,0.000006,-0.000022,-0.000037,28.143782,0.000059,
2280,2111,0.420387703230688,-11.8097652360324,0.00954947252569127,-0.000129,0.003047,-0.008856,0.024671,0.102882,329.257355,23.502465,0.998899,0.982898,0.005169,0.229428,-0.000021,-0.000012,0.000012,-0.000004,-0.000029,55.306079,0.000036,
2385,3191,2.50239847005583,11.7424461639275,0.0238636100787062,-0.000684,0.002355,-0.008233,-0.000942,0.085370,311.380363,26.008784,0.999469,0.993795,0.003150,0.234301,-0.000021,-0.000046,0.000005,-0.000020,-0.000046,10.763093,0.000068,
2085,3056,-3.98416516973043,8.79082123919481,0.0137115804662926,-0.000563,0.002252,-0.004607,-0.011845,0.098275,314.236990,24.593706,0.999608,0.993770,0.003147,0.264635,-0.000040,-0.000012,0.000009,-0.000010,-0.000043,73.788828,0.000056,
2220,3071,-1.05854283403088,9.12663213265177,0.0103002996768851,-0.000599,0.002405,-0.006770,-0.004991,0.091851,313.437812,25.110353,0.999629,0.994320,0.003070,0.218640,-0.000029,-0.000032,0.000006,-0.000024,-0.000037,40.058906,0.000061,
2400,3221,2.82183068647339,12.3950564001994,0.0198767302373426,-0.000486,0.002046,-0.003889,-0.007392,0.091513,310.847827,26.185293,0.999459,0.993256,0.003378,0.222934,-0.000023,-0.000042,0.000002,-0.000023,-0.000042,4.971026,0.000066,
2160,2891,-2.33168969709417,5.21662109350169,-0.0232395595939465,-0.000438,0.002279,-0.006111,-0.000606,0.098940,316.350586,24.788377,0.999627,0.993917,0.003271,0.225099,-0.000024,-0.000034,0.000001,-0.000024,-0.000034,4.371068,0.000058,
2415,3296,3.12862976673924,14.0246995623941,-0.0274299204629074,-0.000730,0.001868,-0.003558,-0.019818,0.077697,309.193442,26.426158,0.999724,0.993794,0.003172,0.273707,-0.000031,-0.000069,-0.000003,-0.000030,-0.000069,-4.902710,0.000102,
2055,3071,-4.63673711345713,9.11387798756291,0.00663476510999317,-0.000111,0.002175,-0.006923,0.015164,0.089758,314.119641,24.433584,0.999471,0.993153,0.003530,0.307972,-0.000058,-0.000015,0.000005,-0.000014,-0.000059,83.056834,0.000077,
2325,3101,1.21596835399742,9.78560947288551,0.0116392421820137,-0.000441,0.002344,-0.009260,0.012657,0.103374,312.798163,25.533884,0.999450,0.993814,0.003312,0.245557,-0.000030,-0.000031,0.000006,-0.000025,-0.000037,43.121688,0.000062,
2445,2051,4.03792531688945,-13.1310879043459,0.0223430413152528,-0.000546,0.003345,-0.010708,0.016120,0.099225,330.407676,22.359548,0.999287,0.979020,0.005486,0.168188,0.000027,-0.000025,0.000007,0.000028,-0.000026,7.994401,0.000031,
2055,2021,-4.47282650555973,-13.7793915810078,0.0155780312283014,-0.000301,0.003086,-0.009034,0.012453,0.086676,331.532513,24.904644,0.999074,0.985755,0.004825,0.146040,-0.000029,-0.000044,0.000018,-0.000017,-0.000056,33.119523,0.000076,
2100,2006,-3.48912464611447,-14.1117347081648,0.0267289972298386,-0.001067,0.003332,-0.011276,-0.015121,0.099085,331.614735,24.520539,0.999776,0.991303,0.004119,0.234461,-0.000020,-0.000043,0.000015,-0.000013,-0.000050,25.507475,0.000067,
2190,3251,-1.74039035654776,13.0255154803633,0.0196671899712442,-0.000582,0.002290,-0.007885,-0.001270,0.090500,310.598448,25.093289,0.999684,0.995180,0.002932,0.284853,-0.000023,-0.000050,-0.000007,-0.000021,-0.000052,-14.085195,0.000075,
2070,2981,-4.29864845574385,7.16440453141463,-0.00630706314518648,-0.000627,0.002291,-0.003066,-0.019358,0.107744,315.390531,24.593159,0.999342,0.992992,0.003417,0.244732,-0.000030,-0.000041,0.000009,-0.000024,-0.000046,29.689548,0.000072,
2205,3041,-1.37894099762726,8.47482765093295,0.00863698999688722,-0.000521,0.002289,-0.004733,-0.008175,0.088397,313.962498,25.052276,0.999799,0.995813,0.002884,0.188804,-0.000034,-0.000019,0.000013,-0.000012,-0.000041,59.893086,0.000055,
2460,2096,4.35617644363807,-12.1427470935359,0.0197216279330519,-0.000607,0.002757,-0.007251,0.000532,0.090531,329.660108,22.454094,0.999619,0.982077,0.005150,0.139303,0.000015,-0.000006,0.000008,0.000018,-0.000009,18.342437,0.000018,
2160,3086,-2.36265426881189,9.44745214731103,0.0160971642641812,-0.000501,0.002627,-0.003691,-0.010846,0.106053,313.421107,24.915238,0.999425,0.992521,0.003539,0.224052,-0.000022,-0.000024,0.000008,-0.000015,-0.000032,41.283364,0.000048,
2115,3071,-3.33638550813011,9.11907084311168,0.00381347699493517,-0.000360,0.002255,-0.008252,0.008568,0.080616,313.776899,24.718307,0.999740,0.994951,0.003243,0.226793,-0.000031,-0.000016,0.000006,-0.000014,-0.000033,70.999705,0.000049,
2070,2006,-4.14348123757401,-14.1082207772992,0.0117401936763031,-0.000092,0.002793,-0.009707,0.024147,0.078549,331.676942,24.824166,0.999293,0.985149,0.004694,0.117181,-0.000004,-0.000065,0.000002,-0.000004,-0.000065,1.705674,0.000077,
2205,3251,-1.41552419123629,13.0272474209225,0.0185487038533552,-0.000649,0.002058,-0.005241,-0.012463,0.096178,310.531607,25.195522,0.999772,0.995827,0.002746,0.267860,-0.000021,-0.000050,-0.000009,-0.000019,-0.000052,-15.648244,0.000074,
2295,3236,0.539143016911396,12.7104813521746,0.0101223830944832,-0.000333,0.002202,-0.007449,0.010770,0.095208,310.550240,25.607449,0.999671,0.993625,0.003186,0.305481,-0.000021,-0.000035,-0.000009,-0.000017,-0.000039,-26.154767,0.000057,
2430,2006,3.71876957760006,-14.1199013298496,0.0207381041237227,-0.000598,0.003073,-0.010416,0.012139,0.089478,331.104192,22.243904,0.999374,0.978279,0.005637,0.212319,0.000013,-0.000041,0.000034,0.000030,-0.000057,25.979140,0.000057,
2085,2006,-3.81652361880839,-14.109389666603,0.0170926679370496,-0.000367,0.002521,-0.006263,0.001927,0.079782,331.623116,24.710128,0.999546,0.986480,0.004535,0.129186,-0.000005,-0.000053,0.000010,-0.000003,-0.000055,11.012988,0.000065,
2100,3041,-3.6568822776718,8.46729003593614,0.00663635146787556,-0.000546,0.002136,-0.004945,-0.009934,0.093298,314.353587,24.677464,0.999603,0.994122,0.003162,0.226857,-0.000024,-0.000015,0.000008,-0.000011,-0.000028,60.309803,0.000040,
2355,3101,1.86712388960162,9.78869597906103,0.00644498088342971,-0.000542,0.002521,-0.009400,0.009155,0.094988,312.742264,25.689411,0.999530,0.993117,0.003511,0.196821,-0.000036,-0.000032,0.000005,-0.000028,-0.000040,55.064607,0.000068,
2265,2066,0.100526970997986,-12.7970338673914,0.0177114793688133,-0.001002,0.002323,-0.005616,-0.026553,0.086024,330.034667,23.582122,0.999297,0.983016,0.004984,0.135518,-0.000032,-0.000010,0.000025,0.000007,-0.000049,56.439851,0.000053,
2145,3086,-2.68883753740623,9.44709746654678,0.00290721300933683,-0.000616,0.002475,-0.005746,-0.010108,0.099183,313.369935,24.850519,0.999720,0.995514,0.002935,0.226318,-0.000024,-0.000024,0.000007,-0.000017,-0.000031,43.873004,0.000048,
2490,2291,4.97071738732624,-7.86603312137353,0.0077014217707756,-0.000524,0.002999,-0.009907,0.015123,0.115558,326.428112,22.973417,0.999320,0.983755,0.004760,0.259658,-0.000032,0.000022,0.000035,0.000040,-0.000049,63.795038,0.000052,
2055,3086,-4.63924605777049,9.43975465176993,0.00913744254643234,-0.000420,0.002330,-0.007786,0.003397,0.093884,313.878512,24.496364,0.999427,0.993451,0.003363,0.242477,-0.000050,-0.000016,0.000011,-0.000013,-0.000053,74.004195,0.000070,
2370,3176,2.17899440337937,11.4164159776442,0.0167046403865925,-0.000544,0.002231,-0.006769,-0.000042,0.091393,311.565887,25.913170,0.999564,0.993257,0.003307,0.225395,-0.000026,-0.000039,-0.000001,-0.000025,-0.000039,-5.752941,0.000065,
2085,3071,-3.98651297596317,9.11645756099244,0.0106420086806338,-0.000324,0.002319,-0.005543,0.001914,0.099544,313.974889,24.596638,0.999571,0.993099,0.003200,0.261032,-0.000040,-0.000012,0.000008,-0.000010,-0.000042,75.830024,0.000055,
2190,3026,-1.70245492430214,8.1482832652795,0.00371962950748639,-0.000838,0.002386,-0.005291,-0.021127,0.106354,314.204047,24.947727,0.999704,0.995186,0.003213,0.249237,-0.000036,-0.000016,0.000011,-0.000011,-0.000041,66.578551,0.000055,
2280,3191,0.222727548585365,11.7336429618485,0.0236291284842309,-0.000508,0.002317,-0.005944,-0.002553,0.100315,311.423638,25.533342,0.999681,0.994252,0.003048,0.228310,-0.000020,-0.000055,-0.000004,-0.000019,-0.000055,-6.419971,0.000077,
2235,2036,-0.548260184886423,-13.4545845936025,0.0139456484150173,-0.000303,0.003256,-0.011540,0.024436,0.095890,330.600731,23.685236,0.998955,0.982028,0.005292,0.183669,-0.000037,0.000005,0.000021,0.000014,-0.000046,67.295048,0.000047,
2145,2831,-2.64708739497783,3.91125951537585,-0.0209118541465045,-0.000698,0.002842,-0.009379,-0.002748,0.103418,317.423562,24.709901,0.999528,0.993984,0.003279,0.251813,-0.000024,-0.000043,0.000000,-0.000024,-0.000043,-1.454506,0.000067,
2475,2171,4.66862287756101,-10.4963427461864,0.0158776424110556,-0.000612,0.003154,-0.011122,0.015361,0.096714,328.440647,22.677946,0.998479,0.966467,0.006593,0.127239,-0.000019,0.000002,-0.000005,0.000003,-0.000020,-78.434198,0.000022,
2130,3101,-3.01512741052029,9.77066445088251,0.0144722682564975,-0.000219,0.002924,-0.011410,0.025175,0.124184,313.314551,24.791105,0.999800,0.996436,0.002746,0.259884,-0.000028,-0.000026,0.000007,-0.000021,-0.000034,50.242137,0.000055,
2340,3056,1.54874226822153,8.81051234352004,-0.00422750443476616,-0.000493,0.002259,-0.004261,-0.006896,0.104507,313.391547,25.441558,0.999708,0.994859,0.002957,0.290390,-0.000033,-0.000030,0.000004,-0.000027,-0.000036,53.876960,0.000063,
2310,2156,1.06683035095598,-10.8241722854221,0.017200052243254,-0.000533,0.002513,-0.004308,-0.008805,0.089354,328.518800,23.461761,0.999492,0.987335,0.004670,0.183872,-0.000021,-0.000005,0.000015,0.000004,-0.000030,58.754129,0.000033,
2130,3161,-3.02503882096758,11.0704593656252,0.0242986317630312,-0.000320,0.002557,-0.006517,0.005693,0.108166,312.376149,24.789223,0.999479,0.993159,0.003326,0.262966,-0.000032,-0.000033,0.000004,-0.000028,-0.000036,43.490169,0.000065,
2460,2111,4.35253510908496,-11.8127196766967,0.0100986001083356,-0.000462,0.002897,-0.008383,0.011455,0.104942,329.343161,22.457415,0.999536,0.979870,0.005425,0.208259,0.000004,-0.000007,0.000005,0.000006,-0.000009,21.354630,0.000009,
2070,2021,-4.14596365153854,-13.7795974194214,0.0121018932346146,-0.000104,0.002583,-0.006494,0.014417,0.093632,331.424856,24.771088,0.999257,0.986701,0.004574,0.185724,-0.000020,-0.000038,0.000010,-0.000016,-0.000043,23.644004,0.000061,
2265,3221,-0.108566689680753,12.3826742851114,0.0191781720192239,-0.000425,0.002014,-0.005276,-0.001288,0.090771,310.909591,25.489350,0.999794,0.996121,0.002875,0.239733,-0.000027,-0.000062,-0.000011,-0.000024,-0.000065,-15.783027,0.000092,
2190,3266,-1.74340926544148,13.3513307070039,0.00926059835239812,-0.000343,0.002743,-0.009279,0.014261,0.101495,310.275155,25.117234,0.999493,0.993903,0.003232,0.284571,-0.000021,-0.000055,-0.000003,-0.000020,-0.000055,-4.328565,0.000078,
2055,2036,-4.4759384307377,-13.449511518282,0.00768242332912905,-0.000415,0.002605,-0.005122,-0.003898,0.103379,331.204853,24.875281,0.998975,0.985677,0.004846,0.190525,-0.000049,-0.000055,-0.000003,-0.000047,-0.000056,-20.184904,0.000104,
2175,3191,-2.05350310262344,11.7223058047329,0.046326979786727,-0.000694,0.002328,-0.006253,-0.011735,0.097461,311.866096,24.960045,0.999827,0.997024,0.002642,0.302464,-0.000026,-0.000051,-0.000004,-0.000026,-0.000052,-8.486977,0.000079,
2430,2021,3.71567959525985,-13.7897457446472,0.0268019205739733,-0.000852,0.002585,-0.006878,-0.012638,0.083963,330.882367,22.421278,0.999043,0.978048,0.005694,0.082621,0.000025,-0.000031,0.000032,0.000040,-0.000046,24.474650,0.000050,
2250,2021,-0.218550227177136,-13.7844806150527,0.0174214451299122,-0.000573,0.002431,-0.005603,-0.007110,0.079015,330.815755,23.593157,0.998998,0.981330,0.005534,0.132559,-0.000033,-0.000007,0.000020,0.000004,-0.000044,61.932650,0.000048,
2175,2951,-2.01595118592057,6.51952328776365,-0.0107195077948177,-0.000780,0.002293,-0.004733,-0.020415,0.100731,315.383536,24.814082,0.999260,0.993093,0.003461,0.274106,-0.000023,-0.000021,0.000010,-0.000012,-0.000032,48.229230,0.000046,
2310,3041,0.900892031481408,8.48265492567188,0.00628012151457824,-0.000470,0.002500,-0.006957,0.003117,0.102075,313.757168,25.388488,0.999618,0.993171,0.003337,0.207844,-0.000023,-0.000025,0.000012,-0.000012,-0.000036,42.577491,0.000051,
2205,3056,-1.38191698909187,8.800536703344,0.00796619967189827,-0.000787,0.002402,-0.004500,-0.021102,0.102553,313.693527,25.063694,0.999743,0.995514,0.002896,0.207105,-0.000032,-0.000021,0.000012,-0.000013,-0.000040,56.631916,0.000056,
2205,3266,-1.41899779436041,13.3533046148025,0.00423291500646883,-0.000580,0.002439,-0.006876,-0.003970,0.109798,310.168390,25.217308,0.999540,0.994654,0.003056,0.274573,-0.000018,-0.000053,-0.000004,-0.000018,-0.000054,-6.379521,0.000074,
2400,3236,2.81837009033215,12.7212000388893,0.00959600525311544,-0.000405,0.002109,-0.006979,0.007644,0.097641,310.524568,26.239512,0.999412,0.993459,0.003319,0.218773,-0.000023,-0.000039,0.000001,-0.000023,-0.000039,2.185608,0.000062,
2115,2846,-3.3013109475952,4.23607704195992,-0.0273816002666649,-0.000407,0.002365,-0.005186,-0.002632,0.089335,317.249261,24.666638,0.999644,0.994002,0.003266,0.248233,-0.000026,-0.000039,0.000001,-0.000026,-0.000039,5.101977,0.000066,
2085,2021,-3.81958710489641,-13.7795609389484,0.0121677629222177,-0.000576,0.002335,-0.002850,-0.017485,0.088907,331.317006,24.712051,0.999307,0.985268,0.004880,0.139297,-0.000015,-0.000030,0.000022,0.000001,-0.000046,35.548560,0.000053,
2445,2066,4.03478647530045,-12.8018211348424,0.0212599402572664,-0.000440,0.003156,-0.009476,0.016314,0.111882,330.151652,22.372613,0.999039,0.978420,0.005729,0.223205,0.000024,-0.000010,0.000014,0.000029,-0.000016,20.027601,0.000029,
2220,3086,-1.06118939078075,9.45267466484064,0.00442992629456285,-0.000249,0.002257,-0.008062,0.015115,0.065506,313.158174,25.167231,0.999511,0.993551,0.003168,0.153075,-0.000025,-0.000036,0.000007,-0.000022,-0.000040,25.583347,0.000062,
2115,3086,-3.33842783480834,9.44399486201954,0.00989107284129886,-0.000343,0.002277,-0.009038,0.011710,0.080004,313.580826,24.723029,0.999730,0.994885,0.003099,0.223752,-0.000023,-0.000020,0.000010,-0.000012,-0.000032,50.136133,0.000045,
2505,2321,5.29115467906608,-7.20889322080649,0.00257178935373759,-0.000762,0.002625,-0.006541,-0.008550,0.082002,325.909372,23.022047,0.999302,0.986067,0.004624,0.240657,-0.000003,-0.000015,0.000025,0.000016,-0.000035,38.191311,0.000035,
2055,3101,-4.64133487475285,9.76436180417387,0.0157757916656465,-0.000487,0.002218,-0.007430,-0.000749,0.092763,313.680060,24.477976,0.999472,0.993847,0.003215,0.253189,-0.000048,-0.000022,0.000013,-0.000017,-0.000054,67.777914,0.000074,
2100,3056,-3.65914874330887,8.79198971185423,0.0123611855852346,-0.000682,0.002298,-0.004597,-0.017129,0.110327,314.144479,24.633806,0.999718,0.995051,0.002968,0.287800,-0.000027,-0.000012,0.000008,-0.000008,-0.000031,66.610166,0.000041,
2085,3086,-3.98883111663944,9.44167204786597,0.0116011565614826,-0.000482,0.002638,-0.009259,0.005419,0.103341,313.736326,24.589108,0.999591,0.993309,0.003226,0.270175,-0.000030,-0.000014,0.000013,-0.000007,-0.000038,60.874411,0.000048,
2280,2126,0.417417983895962,-11.4813261786497,0.0147719574263192,-0.000563,0.002496,-0.006286,-0.003977,0.091816,329.025514,23.554483,0.998607,0.984114,0.004955,0.196809,-0.000018,-0.000010,0.000013,0.000000,-0.000028,54.540295,0.000032,
2190,3041,-1.70408407987585,8.47400116622157,0.0123963904464404,-0.000513,0.002421,-0.006385,-0.002682,0.104371,314.044666,25.034873,0.999745,0.995821,0.002971,0.173420,-0.000036,-0.000018,0.000010,-0.000014,-0.000041,66.588546,0.000057,
2085,2981,-3.97287301786907,7.16521761600902,-0.00321713090551157,-0.000473,0.002240,-0.005232,-0.005863,0.105509,315.349847,24.644119,0.999558,0.994692,0.003095,0.231539,-0.000025,-0.000036,0.000012,-0.000017,-0.000044,32.370174,0.000063,
2100,2801,-3.61997808591646,3.25791131412586,-0.0305136004471365,-0.000725,0.002527,-0.006627,-0.013159,0.110584,318.030239,24.678416,0.999453,0.993509,0.003422,0.234926,-0.000040,-0.000032,-0.000010,-0.000025,-0.000047,-55.611586,0.000073,
2070,2996,-4.29977769160421,7.48849157886044,0.00962509586418037,-0.000334,0.002187,-0.003097,-0.005731,0.110328,315.288054,24.563720,0.999555,0.993577,0.003207,0.272528,-0.000030,-0.000029,0.000012,-0.000018,-0.000041,46.471701,0.000061,
2385,3206,2.49933763154408,12.0676826331817,0.0246987976880177,-0.000659,0.001981,-0.005634,-0.009255,0.081926,311.127664,26.045645,0.999506,0.993934,0.003212,0.235637,-0.000022,-0.000045,0.000006,-0.000020,-0.000046,12.875459,0.000068,
2070,3086,-4.31411159517124,9.44047723163679,0.00735171357734998,-0.000304,0.002298,-0.008326,0.010457,0.073094,313.786350,24.526868,0.999468,0.993012,0.003358,0.246669,-0.000042,-0.000015,0.000015,-0.000008,-0.000048,65.657486,0.000061,
2160,3101,-2.36509530970832,9.77276301647526,0.0163713140151458,-0.000503,0.002366,-0.005507,-0.005331,0.117293,313.178488,24.909951,0.999592,0.994560,0.003106,0.249324,-0.000022,-0.000029,0.000007,-0.000018,-0.000033,32.069156,0.000052,
2325,3116,1.21251167848075,10.1111355605979,0.0113456084243921,-0.000756,0.002028,-0.005644,-0.014480,0.085977,312.517764,25.580744,0.999434,0.993860,0.003304,0.214239,-0.000031,-0.000036,0.000002,-0.000031,-0.000036,17.038635,0.000067,
2190,3281,-1.74626061698963,13.6767653556501,0.00667896047383465,-0.000351,0.002631,-0.008951,0.012847,0.102024,310.000626,25.165835,0.999720,0.995862,0.002808,0.249327,-0.000022,-0.000045,0.000002,-0.000022,-0.000045,4.849121,0.000068,
2490,2306,4.96661147779929,-7.53640499383766,0.00237095329089243,-0.000693,0.002780,-0.005823,-0.008305,0.093137,326.111429,23.100688,0.998988,0.981388,0.005209,0.171070,-0.000034,0.000009,0.000036,0.000030,-0.000055,60.429998,0.000055,
2475,2186,4.66443569811525,-10.1673076885191,0.00905939158599267,-0.000773,0.002479,-0.006973,-0.007953,0.075143,328.112839,22.687899,0.998625,0.969842,0.006516,0.155303,-0.000026,0.000009,0.000001,0.000009,-0.000026,87.704598,0.000027,
2265,3236,-0.111787056029268,12.7076164627635,0.0187174405651831,-0.000823,0.001876,-0.004836,-0.021117,0.091924,310.634771,25.493065,0.999790,0.995441,0.002936,0.261190,-0.000028,-0.000051,-0.000008,-0.000025,-0.000054,-18.455851,0.000081,
2340,3071,1.54597305049533,9.13651490704625,-0.000286761577001471,-0.000736,0.002214,-0.004866,-0.016051,0.087747,313.164512,25.548667,0.999677,0.994849,0.002962,0.201901,-0.000036,-0.000038,0.000003,-0.000034,-0.000040,33.535594,0.000074,
2100,2021,-3.49243091899409,-13.7799715293832,0.0142805695746233,-0.000928,0.002738,-0.006928,-0.021529,0.082703,331.258357,24.637238,0.999500,0.986636,0.005070,0.106809,-0.000029,-0.000026,0.000025,-0.000003,-0.000052,46.525118,0.000062,
2295,3251,0.535894058538997,13.0362077860829,0.0084397771535123,-0.000597,0.002068,-0.006728,-0.003941,0.084154,310.269800,25.693647,0.999654,0.992128,0.003408,0.236164,-0.000024,-0.000036,-0.000004,-0.000022,-0.000037,-17.763183,0.000060,
2145,2846,-2.64970876498403,4.23802723881854,-0.0263717192065087,-0.000347,0.002732,-0.008139,0.009613,0.108875,317.140708,24.730875,0.999531,0.993923,0.003308,0.243878,-0.000023,-0.000043,0.000003,-0.000023,-0.000043,7.177862,0.000067,
2295,2141,0.741327178034282,-11.1494082050731,0.00577792051103643,-0.001017,0.003466,-0.011194,-0.007660,0.120481,328.682177,23.668736,0.999534,0.984099,0.004904,0.057978,-0.000018,-0.000019,0.000006,-0.000012,-0.000024,43.429389,0.000038,
2145,3101,-2.69099105131127,9.77142905595136,0.00840463337681285,-0.000650,0.002414,-0.006792,-0.008461,0.108840,313.167624,24.791056,0.999835,0.996916,0.002545,0.302046,-0.000024,-0.000028,0.000005,-0.000021,-0.000032,33.074167,0.000053,
2175,3206,-2.05720113246216,12.0491333271336,0.0294670665056174,-0.000572,0.002149,-0.005284,-0.009163,0.091523,311.475975,25.035110,0.999707,0.995679,0.002896,0.231919,-0.000026,-0.000047,-0.000008,-0.000023,-0.000050,-18.670191,0.000075,
2085,2036,-3.82174476390334,-13.450259364863,0.0134430543677126,-0.000620,0.002975,-0.004975,-0.013226,0.123426,331.085787,24.717512,0.999195,0.985717,0.004851,0.170699,-0.000032,-0.000044,0.000006,-0.000030,-0.000046,22.155049,0.000076,
2235,3086,-0.735436430106862,9.45372174064678,0.00804615262808284,-0.000265,0.002453,-0.007858,0.014182,0.094439,313.150420,25.209258,0.999588,0.993424,0.003244,0.195580,-0.000023,-0.000038,0.000006,-0.000020,-0.000040,19.107727,0.000062,
2250,2036,-0.22143518074208,-13.4539049494671,0.00894562056515724,-0.000250,0.002663,-0.006522,0.010745,0.093035,330.516219,23.626406,0.999062,0.981966,0.005278,0.140418,-0.000037,0.000005,0.000025,0.000016,-0.000049,64.890574,0.000049,
2445,2081,4.03115886940644,-12.4709080585982,0.0124415846077,-0.000323,0.003346,-0.009965,0.023566,0.119564,329.837516,22.459839,0.998706,0.977772,0.006014,0.199282,0.000018,-0.000010,0.000017,0.000026,-0.000018,24.988567,0.000026,
2280,3206,0.220659364779742,12.0583046081967,0.0350268415033952,-0.000561,0.002164,-0.005014,-0.008181,0.093045,311.262620,25.582535,0.999815,0.995904,0.002702,0.197952,-0.000020,-0.000052,-0.000006,-0.000019,-0.000053,-9.871659,0.000075,
2205,3281,-1.42168837308454,13.6784095400517,-0.000200816667643267,-0.000365,0.002163,-0.007855,0.008931,0.088098,309.892881,25.247853,0.999327,0.994171,0.003165,0.237423,-0.000019,-0.000045,-0.000001,-0.000018,-0.000045,-1.461290,0.000065,
2310,3056,0.898301327108079,8.80792358793533,0.00878676034130876,-0.000485,0.002470,-0.007709,0.004997,0.098474,313.529619,25.400197,0.999698,0.994684,0.003062,0.223807,-0.000022,-0.000027,0.000009,-0.000015,-0.000035,37.509236,0.000051,
2250,3146,-0.420491153750373,10.7555134543507,0.018912588375656,-0.000654,0.002279,-0.006294,-0.008586,0.098816,312.183576,25.323740,0.998652,0.990918,0.004033,0.228912,-0.000024,-0.000045,-0.000001,-0.000024,-0.000045,-3.104980,0.000071,
2160,2906,-2.3335935955683,5.54150723615584,-0.015132403680127,-0.000281,0.002422,-0.005397,0.004484,0.106522,316.174228,24.753954,0.999590,0.993305,0.003390,0.276544,-0.000022,-0.000040,0.000002,-0.000022,-0.000041,5.343424,0.000063,
2040,3071,-4.96171666315934,9.11219940258582,0.0184017948348583,-0.000483,0.002175,-0.002928,-0.013390,0.099375,314.278548,24.392345,0.999506,0.993269,0.003470,0.305105,-0.000051,-0.000012,0.000009,-0.000009,-0.000053,77.341726,0.000068,
2055,2051,-4.47819047652399,-13.1204716419909,0.00365335184852711,-0.000387,0.002646,-0.008991,0.008263,0.070744,330.938071,24.868911,0.998557,0.981253,0.005382,0.162421,-0.000051,-0.000067,-0.000015,-0.000042,-0.000076,-31.198093,0.000119,
2115,2861,-3.30304438508302,4.56134204688981,-0.0168292155398717,-0.000281,0.002202,-0.004185,0.000256,0.104121,317.091176,24.666380,0.999644,0.993476,0.003331,0.266060,-0.000025,-0.000030,0.000006,-0.000021,-0.000034,33.675421,0.000055,
2115,3101,-3.34090387873385,9.76941928089868,0.0180475326575333,-0.000514,0.002274,-0.003995,-0.011045,0.105592,313.375861,24.764435,0.999824,0.996457,0.002708,0.210040,-0.000024,-0.000024,0.000007,-0.000018,-0.000031,45.850949,0.000049,
2460,2126,4.34858566965474,-11.4820375248183,0.00160928497166424,-0.000680,0.002899,-0.009161,0.004378,0.100065,329.017211,22.559200,0.999503,0.978098,0.005620,0.159289,-0.000008,-0.000017,0.000003,-0.000007,-0.000018,16.012400,0.000026,
2265,2081,0.0974625079816036,-12.4666588558671,0.00617599559086557,-0.000719,0.002699,-0.008161,-0.005095,0.097588,329.713129,23.583986,0.999463,0.983785,0.004905,0.174369,-0.000033,-0.000015,0.000024,0.000002,-0.000050,55.178697,0.000056,
2430,2036,3.71256515238966,-13.4593033772005,0.0163911400990173,-0.000357,0.003234,-0.010063,0.021937,0.091928,330.583003,22.427836,0.999156,0.977564,0.005673,0.137719,0.000031,-0.000029,0.000032,0.000044,-0.000042,23.497813,0.000050,
2130,3116,-3.01757945924598,10.0960548235888,0.0118216019940292,0.000037,0.002891,-0.011343,0.036758,0.117468,313.053580,24.795815,0.999725,0.996377,0.002800,0.252862,-0.000030,-0.000032,0.000004,-0.000027,-0.000035,38.183831,0.000062,
2385,3221,2.49567347662535,12.3936514592897,0.0177571413877899,-0.000803,0.002116,-0.005277,-0.017131,0.087826,310.809702,26.098603,0.999543,0.994041,0.003193,0.230496,-0.000020,-0.000043,0.000001,-0.000020,-0.000043,2.457815,0.000064,
2130,3176,-3.02735525542716,11.3949656363282,0.0277656631461696,-0.000357,0.002358,-0.006998,0.005341,0.094486,312.154566,24.772844,0.999283,0.990912,0.003633,0.269833,-0.000030,-0.000034,0.000003,-0.000028,-0.000036,27.868425,0.000065,
2100,3086,-3.66358878432128,9.44248008127866,0.0183746511535219,-0.000597,0.002184,-0.005344,-0.011122,0.091865,313.700704,24.673449,0.999541,0.992138,0.003514,0.229517,-0.000021,-0.000017,0.000011,-0.000008,-0.000030,50.347091,0.000040,
2190,3296,-1.75031584088887,14.0027599432588,-0.00905885082079294,-0.000591,0.002051,-0.007588,-0.002673,0.085097,309.601616,25.214592,0.999805,0.996841,0.002544,0.196129,-0.000027,-0.000044,0.000002,-0.000027,-0.000044,6.302425,0.000071,
2355,3116,1.8641824510911,10.1135245714737,0.0111282665825456,-0.000741,0.002458,-0.006680,-0.009602,0.097282,312.512074,25.684949,0.999548,0.993448,0.003399,0.241219,-0.000035,-0.000034,0.000001,-0.000033,-0.000036,48.364263,0.000069,
2265,3251,-0.115157310828469,13.033012011346,0.0139813655874264,-0.001015,0.001948,-0.003748,-0.033592,0.084349,310.331224,25.526532,0.999762,0.994676,0.003112,0.243925,-0.000031,-0.000049,-0.000001,-0.000031,-0.000049,-4.090343,0.000081,
2085,2996,-3.97480622107597,7.49064582566393,-0.00047995829396541,-0.000221,0.002317,-0.006576,0.009702,0.111820,315.138503,24.642646,0.999608,0.994505,0.003046,0.237417,-0.000025,-0.000024,0.000014,-0.000011,-0.000039,45.798705,0.000052,
2070,3011,-4.30211469855476,7.81370797547802,0.00869146633129958,-0.000442,0.002325,-0.007088,0.000612,0.086863,315.037146,24.549923,0.999462,0.992788,0.003394,0.258786,-0.000033,-0.000026,0.000013,-0.000016,-0.000044,52.722017,0.000062,
2190,3056,-1.7070479013308,8.79920299307825,0.00697500962559161,-0.000505,0.002569,-0.006673,-0.001361,0.114703,313.750519,24.971109,0.999784,0.996278,0.002807,0.261179,-0.000034,-0.000021,0.000009,-0.000016,-0.000039,62.723990,0.000057,
2370,3191,2.17654658213864,11.7413072219126,0.0223140024140207,-0.000604,0.002378,-0.008028,0.001712,0.093255,311.363521,25.938164,0.999537,0.993870,0.003211,0.241830,-0.000025,-0.000047,0.000003,-0.000025,-0.000048,7.446768,0.000074,
2115,2021,-3.16503990055112,-13.7797698472546,0.0107562378762509,-0.000537,0.002941,-0.008038,-0.000028,0.093761,331.182432,24.536324,0.999413,0.984797,0.005170,0.117667,-0.000029,-0.000018,0.000006,-0.000015,-0.000032,67.475283,0.000048,
2205,3296,-1.42518988244493,14.0032671082715,-0.00494681593363566,-0.000679,0.001777,-0.005088,-0.014458,0.080986,309.578510,25.243802,0.999347,0.994135,0.003149,0.249181,-0.000021,-0.000040,-0.000004,-0.000020,-0.000041,-10.199508,0.000063,
2400,3251,2.81453058791463,13.0465931212173,0.00184238440368745,-0.000502,0.001924,-0.004990,-0.004176,0.085183,310.196002,26.262981,0.999442,0.992916,0.003408,0.226408,-0.000024,-0.000039,0.000002,-0.000023,-0.000039,8.519172,0.000063,
2070,2036,-4.14886310654607,-13.449628028855,0.00756209780871586,-0.000417,0.003011,-0.006418,0.000021,0.115477,331.126742,24.783496,0.999097,0.986992,0.004598,0.195950,-0.000042,-0.000054,-0.000009,-0.000037,-0.000059,-28.399858,0.000098,
2085,3101,-3.99137797035844,9.76692258498911,0.014821443857727,-0.000614,0.002289,-0.006709,-0.008209,0.082796,313.499646,24.627721,0.999782,0.994989,0.002831,0.208507,-0.000030,-0.000020,0.000012,-0.000012,-0.000038,56.363094,0.000053,
2160,3116,-2.36744231809719,10.0979603795317,0.0196622571688749,-0.000560,0.002547,-0.006542,-0.004809,0.106375,312.956210,24.939600,0.999523,0.994326,0.003215,0.217548,-0.000023,-0.000036,0.000003,-0.000023,-0.000036,13.732691,0.000060,
2040,3086,-4.96446790446879,9.43873185778055,0.011846368808051,-0.000607,0.002203,-0.005463,-0.012053,0.092903,313.974636,24.465589,0.999662,0.995316,0.002895,0.216695,-0.000047,-0.000012,0.000013,-0.000007,-0.000051,71.137163,0.000064,
2475,2201,4.66129460985432,-9.83763793813997,0.00635028542075133,-0.000602,0.002727,-0.007335,0.001355,0.098318,327.851246,22.761099,0.998450,0.971498,0.006331,0.164464,-0.000027,0.000016,0.000002,0.000016,-0.000027,87.591585,0.000027,
2055,3116,-4.64341615010022,10.0894782029127,0.0212700880144894,-0.000419,0.002319,-0.006180,-0.001134,0.095321,313.475449,24.498555,0.999455,0.994179,0.003081,0.228236,-0.000050,-0.000020,0.000012,-0.000015,-0.000054,70.670896,0.000073,
2145,3116,-2.69289533320095,10.0966249779488,0.0137929663321756,-0.000447,0.002391,-0.008188,0.005076,0.092956,312.975890,24.839136,0.999650,0.995542,0.002958,0.244832,-0.000025,-0.000034,0.000002,-0.000025,-0.000035,10.166434,0.000060,
2505,2336,5.28755487756275,-6.878798574146,-1.82751976467443E-05,-0.001089,0.002997,-0.008021,-0.017656,0.103800,325.629169,23.186929,0.999307,0.988454,0.004691,0.160804,-0.000015,-0.000009,0.000024,0.000013,-0.000036,48.636892,0.000037,
2205,3071,-1.38421566193147,9.12516917493928,0.0122744642098382,-0.000790,0.002324,-0.005257,-0.018842,0.097483,313.481883,25.032206,0.999655,0.994519,0.003090,0.249246,-0.000031,-0.000028,0.000009,-0.000020,-0.000039,49.317361,0.000060,
2280,3221,0.217933730151948,12.3826434883855,0.0327321104268776,-0.000338,0.001946,-0.004976,0.001888,0.086203,311.002708,25.522907,0.999810,0.995623,0.002847,0.277104,-0.000021,-0.000055,-0.000011,-0.000018,-0.000058,-16.621666,0.000080,
2310,2171,1.06375638612962,-10.4942875915252,0.0110537259249099,-0.000474,0.002599,-0.005915,-0.000612,0.091361,328.228245,23.525013,0.999293,0.983413,0.004990,0.157757,-0.000025,-0.000005,0.000008,-0.000003,-0.000027,70.737464,0.000033,
2490,2321,4.96312178216664,-7.20769338465677,-0.00452930289543474,-0.000548,0.002642,-0.006814,0.002085,0.085336,325.815915,23.119457,0.999119,0.982924,0.005012,0.205261,-0.000041,-0.000016,0.000026,0.000001,-0.000058,57.694354,0.000066,
2385,3236,2.49218756413419,12.7198601195778,0.0043942125902845,-0.000421,0.002146,-0.006913,0.006384,0.090935,310.469107,26.143766,0.999582,0.993954,0.003141,0.230202,-0.000018,-0.000038,0.000001,-0.000018,-0.000038,2.726368,0.000057,
2070,3101,-4.31633883524265,9.76536857773972,0.0169987003708343,-0.000597,0.002149,-0.006695,-0.007717,0.084739,313.598823,24.541883,0.999631,0.994280,0.003027,0.238825,-0.000042,-0.000021,0.000016,-0.000012,-0.000050,61.442167,0.000066,
2175,2966,-2.01790515040421,6.84543404900206,-0.00670081375136533,-0.000648,0.002444,-0.008177,-0.003605,0.100035,315.183920,24.867388,0.999328,0.992828,0.003522,0.231405,-0.000020,-0.000025,0.000011,-0.000011,-0.000034,38.939466,0.000047,
2265,2096,0.0948959664663178,-12.1371260376919,0.00502591021160015,-0.000642,0.003191,-0.010045,0.004788,0.115593,329.466429,23.625412,0.999210,0.982150,0.005216,0.179444,-0.000034,-0.000013,0.000023,0.000002,-0.000049,57.544533,0.000055,
2100,2816,-3.62227819550145,3.58390499700329,-0.031381921761465,-0.000433,0.002207,-0.005207,-0.003939,0.107222,317.783267,24.662952,0.999571,0.995339,0.003085,0.247892,-0.000035,-0.000031,-0.000005,-0.000028,-0.000038,-56.920544,0.000066,
2130,2051,-2.84277970605708,-13.1225266060977,0.0145228287663599,-0.000555,0.002454,-0.003084,-0.015429,0.095344,330.643185,24.444241,0.998937,0.983054,0.005108,0.128195,-0.000047,-0.000039,0.000004,-0.000037,-0.000049,66.267331,0.000086,
2250,2051,-0.223896689319854,-13.1261462797021,0.0171148673415473,-0.000593,0.002220,-0.005911,-0.007110,0.069274,330.320519,23.636287,0.999106,0.982339,0.005144,0.133019,-0.000041,-0.000021,0.000019,-0.000009,-0.000052,58.772500,0.000066,
2115,2036,-3.16729416924932,-13.4513721302266,0.00950479785672087,-0.000346,0.003063,-0.008307,0.009558,0.106419,330.936110,24.453174,0.999304,0.985103,0.004996,0.220236,-0.000045,-0.000022,-0.000002,-0.000021,-0.000045,-84.146501,0.000068,
2220,2006,-0.870459602432728,-14.1126531817814,0.0216776869004889,-0.000496,0.003072,-0.007406,0.001938,0.102253,331.167900,23.833890,0.999494,0.987599,0.004725,0.095935,-0.000039,0.000016,0.000010,0.000017,-0.000041,80.359225,0.000041,
2280,2141,0.414496807390211,-11.1505736711782,0.0085347110958196,-0.000440,0.002899,-0.008332,0.008622,0.103176,328.738388,23.674556,0.999321,0.984867,0.004856,0.118915,-0.000018,-0.000010,0.000015,0.000002,-0.000029,52.298975,0.000033,
2445,2096,4.02824396312481,-12.1422228352353,0.0185754269274412,-0.000428,0.002724,-0.006891,0.007084,0.102526,329.624967,22.541934,0.999356,0.980911,0.005462,0.155219,0.000013,-0.000013,0.000020,0.000025,-0.000024,28.706073,0.000028,
2310,3071,0.895539701230206,9.13404053761108,0.011695122161143,-0.000657,0.002465,-0.007932,-0.002111,0.108751,313.295862,25.482649,0.999687,0.995351,0.002949,0.182369,-0.000025,-0.000036,0.000007,-0.000022,-0.000039,25.281192,0.000062,
2085,3011,-3.97751159311114,7.81567097186512,-0.000217035162563661,-0.000420,0.002409,-0.005302,-0.003211,0.099928,314.878404,24.609097,0.999687,0.995045,0.002842,0.257272,-0.000028,-0.000021,0.000014,-0.000010,-0.000040,51.614143,0.000052,
2430,2051,3.70893184604305,-13.1293376039707,0.0121778806508246,-0.000464,0.002763,-0.008168,0.009894,0.090016,330.288563,22.478386,0.999038,0.976449,0.005863,0.138798,0.000031,-0.000026,0.000026,0.000040,-0.000036,21.035041,0.000044,
2145,2081,-2.52071631770158,-12.4644721193082,0.00903657976374461,-0.000521,0.002323,-0.005020,-0.007968,0.078514,330.053521,24.363153,0.999037,0.983177,0.005096,0.118012,-0.000043,-0.000034,0.000012,-0.000025,-0.000052,55.847765,0.000079,
2130,3131,-3.02038119175647,10.4206075923775,0.0184385138969674,-0.000430,0.002401,-0.007761,0.004261,0.095827,312.826576,24.801403,0.999672,0.995861,0.002873,0.229908,-0.000031,-0.000026,0.000003,-0.000024,-0.000032,66.323693,0.000057,
2340,3086,1.54349737204797,9.46182251730547,-0.001134988929266,-0.000426,0.002431,-0.006798,0.005084,0.099218,312.927794,25.535694,0.999639,0.994971,0.002960,0.261949,-0.000038,-0.000037,0.000005,-0.000033,-0.000042,48.755140,0.000075,
2100,3071,-3.66142757034416,9.11760166102476,0.0116178825585393,-0.000493,0.002131,-0.005494,-0.005889,0.089770,313.899401,24.672034,0.999642,0.993810,0.003231,0.229058,-0.000029,-0.000013,0.000006,-0.000011,-0.000032,71.374325,0.000044,
2040,3101,-4.96668322773045,9.76307053414875,0.0152292972934447,-0.000557,0.001925,-0.004001,-0.013865,0.088862,313.751508,24.403812,0.999667,0.995607,0.002827,0.265620,-0.000045,-0.000018,0.000016,-0.000010,-0.000052,65.103270,0.000067,
2235,2051,-0.551485654584891,-13.1247792122919,0.0147482474274057,-0.000595,0.002548,-0.006621,-0.005032,0.107929,330.331199,23.761844,0.998932,0.982575,0.005155,0.143739,-0.000038,-0.000016,0.000019,-0.000005,-0.000049,60.272788,0.000060,
2400,3266,2.81023611607528,13.3731784302982,-0.0184293577696053,-0.000457,0.002293,-0.007994,0.008898,0.086992,309.786558,26.315819,0.999616,0.993146,0.003400,0.219368,-0.000026,-0.000048,0.000005,-0.000025,-0.000050,12.728415,0.000075,
2085,2051,-3.82301640142868,-13.1219231670293,0.0197496721413017,-0.000240,0.003313,-0.009423,0.017053,0.124494,330.922648,24.730674,0.998877,0.983406,0.005096,0.160525,-0.000031,-0.000056,-0.000001,-0.000031,-0.000056,-2.694321,0.000088,
2460,2141,4.34535546380815,-11.1526816685927,-0.000487668732603197,-0.000516,0.002815,-0.007512,0.005705,0.103108,328.753369,22.608505,0.999179,0.978168,0.005588,0.170251,-0.000019,-0.000020,0.000002,-0.000017,-0.000022,37.184844,0.000039,
2085,3116,-3.99354732966125,10.0918164733718,0.0153212041063853,-0.000348,0.002173,-0.006551,0.003669,0.090835,313.265539,24.591157,0.999784,0.995380,0.002728,0.251028,-0.000032,-0.000024,0.000011,-0.000016,-0.000039,55.069345,0.000057,
2205,3086,-1.38626375182338,9.4507682441798,0.0153681206417673,-0.000576,0.002500,-0.007792,-0.001004,0.083356,313.275111,25.094231,0.999511,0.993310,0.003371,0.188456,-0.000027,-0.000032,0.000010,-0.000019,-0.000040,37.321250,0.000060,
2100,2036,-3.49484958521023,-13.4520373785411,0.0137391644220202,-0.000866,0.002755,-0.005397,-0.023144,0.096643,331.007063,24.518221,0.999499,0.987204,0.004830,0.244339,-0.000044,-0.000035,0.000011,-0.000028,-0.000051,55.489355,0.000080,
2490,2336,4.96048266543727,-6.87823747720655,-0.00731842006621264,-0.000098,0.003085,-0.010267,0.036038,0.084524,325.577728,23.246686,0.999046,0.987595,0.004952,0.137871,-0.000052,-0.000012,0.000026,0.000001,-0.000065,63.650494,0.000074,
2280,3236,0.214301101665978,12.7097219305656,0.0181728352886239,-0.000348,0.002350,-0.008045,0.011847,0.095264,310.638411,25.632708,0.999804,0.994646,0.003085,0.202564,-0.000024,-0.000043,-0.000009,-0.000020,-0.000047,-22.429519,0.000069,
2100,3101,-3.66606980465765,9.7680870188176,0.0186916488613633,-0.000611,0.002206,-0.005252,-0.012042,0.091507,313.452096,24.705820,0.999741,0.994984,0.002908,0.196815,-0.000021,-0.000021,0.000009,-0.000013,-0.000030,44.800995,0.000044,
2325,3131,1.20945778288536,10.4364929368443,0.0111443143619567,-0.000905,0.001966,-0.005080,-0.023333,0.079336,312.256351,25.605911,0.999347,0.993702,0.003271,0.215460,-0.000031,-0.000036,0.000000,-0.000031,-0.000036,-0.071536,0.000066,
2160,3131,-2.3703534492544,10.4229479318252,0.018904781800984,-0.000824,0.002229,-0.006309,-0.017820,0.091452,312.686658,24.931906,0.999475,0.994167,0.003348,0.218869,-0.000025,-0.000032,0.000001,-0.000025,-0.000032,10.469136,0.000057,
2235,3101,-0.738291482763973,9.77848253973176,0.0103406635567467,-0.000323,0.002057,-0.004175,-0.000587,0.084220,312.904689,25.189834,0.999608,0.993437,0.003285,0.224583,-0.000022,-0.000039,0.000002,-0.000022,-0.000040,6.417489,0.000062,
2250,2066,-0.226876034627967,-12.7974942226112,0.0190832485691885,-0.000899,0.001848,-0.003795,-0.028145,0.066587,330.069614,23.641111,0.999252,0.982362,0.005068,0.152195,-0.000043,-0.000009,0.000022,0.000002,-0.000054,63.855931,0.000061,
2145,2861,-2.65251660765981,4.56369026570868,-0.0265975485060039,-0.000378,0.002021,-0.004604,-0.002747,0.081990,316.877528,24.727563,0.999403,0.992970,0.003518,0.227469,-0.000020,-0.000034,0.000006,-0.000018,-0.000036,19.702909,0.000055,
2115,2051,-3.1698291866947,-13.1212466213534,0.00709239143742479,-0.000346,0.003169,-0.008605,0.010444,0.120579,330.670469,24.518457,0.998921,0.982893,0.005049,0.176155,-0.000041,-0.000040,-0.000007,-0.000034,-0.000048,-47.519041,0.000082,
2385,3251,2.48846971552872,13.045284410542,-0.0014533154691776,-0.000441,0.001826,-0.003196,-0.008071,0.077709,310.153917,26.182042,0.999671,0.993545,0.003117,0.220210,-0.000018,-0.000038,0.000003,-0.000018,-0.000038,7.700553,0.000057,
2220,2021,-0.873447655173479,-13.7823863125745,0.0125391932885464,-0.000418,0.003413,-0.009911,0.013597,0.121442,330.857060,23.819325,0.998834,0.980574,0.005465,0.152406,-0.000041,-0.000001,0.000013,0.000002,-0.000045,73.686337,0.000051,
2400,3281,2.80695194575248,13.698506160892,-0.0234463304192332,-0.000477,0.002384,-0.009302,0.012803,0.091571,309.496407,26.342282,0.999634,0.993450,0.003376,0.241433,-0.000025,-0.000058,0.000001,-0.000024,-0.000058,2.274810,0.000085,
2055,3131,-4.64580992180055,10.4148034708864,0.0195446617332209,-0.000437,0.002532,-0.008491,0.004672,0.108719,313.216460,24.485133,0.999167,0.994235,0.003104,0.248680,-0.000044,-0.000009,0.000011,-0.000006,-0.000048,73.557248,0.000059,
2175,3221,-2.05921511826423,12.3741260954577,0.0348622644249303,-0.000397,0.002202,-0.006184,0.001735,0.095278,311.281059,25.069067,0.999744,0.995662,0.002867,0.212515,-0.000027,-0.000058,-0.000011,-0.000023,-0.000061,-17.920823,0.000087,
2505,2351,5.28476246500015,-6.55052915657585,-0.00318607706060448,-0.000695,0.003384,-0.010907,0.011663,0.121983,325.383606,23.187993,0.999319,0.988338,0.004688,0.240803,-0.000021,-0.000018,0.000025,0.000006,-0.000045,47.096035,0.000049,
2100,2831,-3.62455952920876,3.9098601913868,-0.0294167043331299,-0.000460,0.002321,-0.006261,-0.002081,0.099793,317.552536,24.674491,0.999672,0.994946,0.003073,0.229761,-0.000034,-0.000040,-0.000005,-0.000031,-0.000042,-28.224205,0.000074,
2295,2156,0.738276648538591,-10.822473398332,0.00548978428014379,-0.000705,0.002107,-0.003168,-0.020856,0.084677,328.420759,23.558998,0.999533,0.985329,0.004817,0.164766,-0.000025,0.000004,0.000010,0.000007,-0.000028,72.292310,0.000029,
2475,2216,4.65819920792583,-9.50901137025208,0.0138343607175671,-0.000762,0.002059,-0.002058,-0.026194,0.097883,327.638047,22.876402,0.999254,0.983098,0.005200,0.107792,-0.000025,0.000031,0.000009,0.000032,-0.000026,81.380953,0.000034,
2250,3161,-0.422235284909267,11.0808630075805,0.0255868271814279,-0.000402,0.002339,-0.009891,0.014823,0.096089,312.011903,25.392937,0.999226,0.991644,0.003707,0.179033,-0.000027,-0.000052,-0.000002,-0.000027,-0.000052,-4.674015,0.000080,
2355,3131,1.86145543026936,10.4391957727723,0.0142010692687222,-0.000657,0.002172,-0.004734,-0.012617,0.100583,312.283628,25.750278,0.999487,0.992800,0.003560,0.216492,-0.000032,-0.000036,0.000002,-0.000031,-0.000037,18.670597,0.000068,
2040,3116,-4.968920414442,10.0886447040617,0.0124314378737154,-0.000424,0.002166,-0.007061,0.000765,0.074822,313.492502,24.429650,0.999623,0.995406,0.002853,0.217025,-0.000048,-0.000012,0.000013,-0.000008,-0.000052,71.810211,0.000065,
2220,3101,-1.06345947443767,9.77706128813361,0.0144419438784098,-0.000512,0.002145,-0.007590,0.001476,0.073073,312.978221,25.145489,0.999554,0.993043,0.003400,0.200032,-0.000024,-0.000039,0.000002,-0.000024,-0.000039,6.858571,0.000064,
2190,3071,-1.70936987206681,9.12375035163397,0.0130696095850453,-0.000562,0.002267,-0.005807,-0.006789,0.106833,313.546227,24.946184,0.999621,0.994863,0.003105,0.291314,-0.000032,-0.000028,0.000007,-0.000023,-0.000037,54.307253,0.000061,
2115,3116,-3.3431770951536,10.0941217348364,0.0146389751735683,-0.000263,0.002147,-0.007108,0.009727,0.095503,313.118102,24.703723,0.999801,0.996668,0.002639,0.263039,-0.000025,-0.000029,0.000005,-0.000022,-0.000032,34.736689,0.000055,
2265,2111,0.0932955644098392,-11.8090902028702,0.014867473601953,-0.000356,0.003662,-0.011325,0.022290,0.128085,329.319204,23.663030,0.999190,0.982543,0.005130,0.182485,-0.000030,-0.000014,0.000021,0.000000,-0.000045,55.349164,0.000051,
2160,2921,-2.33642262366403,5.86714322291222,-0.0162194994881588,-0.000653,0.002173,-0.008027,-0.004748,0.074565,315.906643,24.763925,0.999316,0.991228,0.003795,0.243817,-0.000025,-0.000034,0.000002,-0.000024,-0.000035,12.734979,0.000059,
2070,2051,-4.15019198063409,-13.1208072663437,0.0102108641548284,0.000123,0.003336,-0.010722,0.037057,0.111575,330.939863,24.804376,0.998851,0.982226,0.005182,0.170738,-0.000043,-0.000065,-0.000016,-0.000035,-0.000073,-27.871253,0.000110,
2280,3251,0.210248995052883,13.0353942733039,0.00326723653734007,-0.000537,0.002238,-0.008149,0.003396,0.087420,310.253509,25.633652,0.999742,0.993941,0.003187,0.219784,-0.000027,-0.000043,-0.000003,-0.000027,-0.000044,-11.612851,0.000072,
2205,2006,-1.19721260917356,-14.1144327760989,0.0282899469123095,-0.000378,0.003258,-0.009321,0.013179,0.100514,331.272472,23.817167,0.999193,0.981118,0.005354,0.214267,-0.000054,0.000015,-0.000013,0.000017,-0.000056,-79.550276,0.000058,
2100,2051,-3.49650595495299,-13.1215598465737,0.0147303482872871,-0.000408,0.003037,-0.008463,0.006850,0.105137,330.798436,24.658998,0.999176,0.979347,0.005591,0.116407,-0.000040,-0.000050,0.000005,-0.000038,-0.000052,21.750917,0.000090,
2085,3131,-3.99560217718684,10.4168699897392,0.0222008889283529,-0.000292,0.002187,-0.005221,0.002452,0.100592,313.071522,24.611898,0.999734,0.994903,0.002801,0.237797,-0.000030,-0.000016,0.000011,-0.000010,-0.000037,61.652329,0.000049,
2130,2066,-2.84490397066117,-12.7944842042085,0.0173231457506517,-0.000478,0.001972,-0.003660,-0.010389,0.070000,330.425986,24.423529,0.998288,0.979855,0.005572,0.132145,-0.000042,-0.000027,0.000009,-0.000023,-0.000046,64.418610,0.000071,
2100,3116,-3.66857088223321,10.0929932615969,0.0151298481474669,-0.000463,0.002199,-0.006181,-0.002466,0.096291,313.181759,24.647735,0.999816,0.996354,0.002579,0.259778,-0.000022,-0.000026,0.000008,-0.000016,-0.000032,38.079945,0.000049,
2280,2201,0.402728955312849,-9.83560664034821,0.00323112636175438,-0.000581,0.002214,-0.003924,-0.012737,0.108159,327.684735,23.733848,0.999003,0.980297,0.005397,0.186476,-0.000027,0.000011,0.000010,0.000013,-0.000029,76.554976,0.000029,
2160,2126,-2.20113354473082,-11.4780403902045,0.00496131356283058,-0.000557,0.002754,-0.007996,-0.000252,0.095086,329.233190,24.265367,0.999336,0.985493,0.004774,0.178999,-0.000047,-0.000022,0.000005,-0.000021,-0.000048,79.944379,0.000071,
2295,3266,0.532525167803922,13.3617161743334,0.0036458948843574,-0.000680,0.002049,-0.005026,-0.013531,0.086891,309.968346,25.732301,0.999628,0.993598,0.003184,0.228694,-0.000027,-0.000037,-0.000002,-0.000027,-0.000037,-9.512358,0.000064,
2145,3131,-2.69545585307902,10.4215654493029,0.0152963939283381,-0.000492,0.002337,-0.007299,0.000316,0.097522,312.733391,24.822063,0.999516,0.994550,0.003270,0.272930,-0.000027,-0.000029,0.000000,-0.000027,-0.000029,4.866206,0.000057,
2505,2366,5.28246730930731,-6.22344728812973,0.00391458161215041,-0.000303,0.003008,-0.009401,0.023670,0.106012,325.206923,23.221743,0.998793,0.982236,0.005423,0.253422,-0.000022,-0.000031,0.000020,-0.000007,-0.000047,38.617451,0.000059,
2115,2066,-3.17237545603576,-12.79295929795,0.00714515415256756,-0.000300,0.002457,-0.005432,0.003002,0.107931,330.417957,24.476768,0.998828,0.976029,0.005985,0.211872,-0.000038,-0.000026,0.000000,-0.000026,-0.000038,89.815436,0.000065,
2400,3296,2.80272704386546,14.0235108562701,-0.0315422501147395,-0.000916,0.002151,-0.007108,-0.015487,0.088905,309.148310,26.333641,0.999694,0.994655,0.003090,0.291050,-0.000016,-0.000063,-0.000005,-0.000016,-0.000063,-6.564452,0.000084,
2070,3116,-4.3179808881339,10.089714845175,0.0305893769037766,-0.000474,0.002055,-0.003836,-0.010177,0.090081,313.460088,24.540849,0.999802,0.995273,0.002703,0.240594,-0.000043,-0.000021,0.000015,-0.000014,-0.000051,62.882347,0.000068,
2085,3026,-3.97975612110983,8.14063723943304,0.00339976415619958,-0.000464,0.002292,-0.005586,-0.004485,0.092315,314.657793,24.592810,0.999601,0.994089,0.003113,0.263723,-0.000033,-0.000017,0.000011,-0.000011,-0.000039,62.678769,0.000052,
2175,2981,-2.02083074025341,7.17174368582589,-0.00817361216070367,-0.000689,0.002568,-0.005322,-0.014236,0.127710,314.910660,24.894311,0.999227,0.991909,0.003728,0.243700,-0.000019,-0.000024,0.000014,-0.000007,-0.000036,39.384351,0.000046,
2220,2036,-0.876251463204522,-13.4529844798672,0.00715799203663892,-0.000298,0.003306,-0.010689,0.021514,0.114717,330.574070,23.801567,0.998817,0.980148,0.005439,0.185927,-0.000046,0.000010,0.000014,0.000013,-0.000050,76.517317,0.000052,
2370,3206,2.17334272659146,12.0665788164838,0.0209518305074994,-0.000578,0.002021,-0.005432,-0.006432,0.085520,311.092617,25.969323,0.999514,0.994897,0.003075,0.242523,-0.000025,-0.000046,0.000003,-0.000025,-0.000047,7.134932,0.000073,
2355,3146,1.85928559196017,10.7641253519452,0.0217268670740509,-0.000554,0.002351,-0.005310,-0.005839,0.098235,312.102603,25.784271,0.999571,0.992904,0.003499,0.217702,-0.000034,-0.000037,0.000001,-0.000033,-0.000037,17.148383,0.000070,
2310,2186,1.06119586371861,-10.1658319945938,0.0150785407148533,-0.000315,0.002194,-0.002848,-0.003928,0.088146,328.011303,23.578345,0.999192,0.981681,0.005100,0.135870,-0.000025,0.000001,0.000008,0.000003,-0.000027,74.111540,0.000029,
2235,2066,-0.553890303686412,-12.7970897734092,0.0218677904280753,-0.000690,0.002341,-0.003980,-0.017978,0.099047,330.131639,23.743066,0.999146,0.982765,0.005087,0.177735,-0.000040,-0.000008,0.000023,0.000004,-0.000053,62.068436,0.000059,
2145,2096,-2.52300138931438,-12.1356124398589,0.00703816246448241,-0.000392,0.002622,-0.007617,0.005849,0.080794,329.804535,24.347269,0.999285,0.985472,0.004804,0.146858,-0.000043,-0.000029,0.000016,-0.000018,-0.000053,56.514282,0.000074,
2160,3236,-2.38774671899766,12.6982739463121,0.0253492099861319,-0.000542,0.002331,-0.006366,-0.004521,0.111858,310.998643,24.973296,0.999712,0.995276,0.002873,0.258019,-0.000033,-0.000050,-0.000007,-0.000030,-0.000052,-19.207630,0.000083,
2070,2066,-4.15183953117695,-12.7930378366737,0.0224313683880268,0.000202,0.002967,-0.007735,0.032116,0.115393,330.790836,24.834928,0.998873,0.977253,0.005651,0.143526,-0.000042,-0.000042,-0.000006,-0.000037,-0.000048,-44.979886,0.000085,
2265,2126,0.089906929336351,-11.4796309927977,0.00370311931260403,-0.000169,0.003140,-0.010369,0.027531,0.085038,328.984975,23.659190,0.999084,0.983860,0.004976,0.172117,-0.000027,-0.000013,0.000022,0.000003,-0.000043,54.098624,0.000048,
2310,3086,0.893235415325481,9.45861979628594,0.0140476101907439,-0.000482,0.002667,-0.010117,0.013442,0.104969,313.080877,25.437443,0.999716,0.995771,0.002898,0.255142,-0.000027,-0.000037,0.000007,-0.000024,-0.000040,27.931129,0.000065,
2325,3146,1.20710781551014,10.7612305530931,0.0200015715170707,-0.000982,0.001861,-0.003854,-0.031115,0.089378,312.071993,25.617993,0.999567,0.993933,0.003294,0.246616,-0.000033,-0.000034,-0.000001,-0.000032,-0.000035,-32.066833,0.000067,
2190,3086,-1.71166268909328,9.44979930555431,0.0159888688031629,-0.000520,0.002757,-0.007148,-0.000495,0.119698,313.326132,25.021276,0.999411,0.992950,0.003513,0.242565,-0.000027,-0.000031,0.000008,-0.000021,-0.000037,38.801233,0.000059,
2205,3101,-1.38803820151286,9.77579948435505,0.0186818987119182,-0.000094,0.002688,-0.010166,0.028870,0.097168,313.082219,25.081133,0.999468,0.992221,0.003713,0.230998,-0.000025,-0.000035,0.000004,-0.000024,-0.000036,19.428288,0.000060,
2220,3116,-1.0659560368278,10.102904904289,0.0178466657266085,-0.000572,0.002721,-0.007609,-0.000916,0.111648,312.753252,25.187367,0.999627,0.992963,0.003434,0.214521,-0.000021,-0.000048,-0.000002,-0.000021,-0.000048,-3.419724,0.000070,
2130,2081,-2.84859707731787,-12.464505499761,0.00741916452926716,-0.000907,0.001807,-0.000737,-0.038788,0.081439,330.069032,24.405666,0.998773,0.981392,0.005354,0.171000,-0.000039,-0.000030,0.000011,-0.000023,-0.000046,55.583242,0.000071,
2250,3176,-0.425057858298334,11.4052073589892,0.030431177676121,-0.000519,0.002182,-0.005352,-0.005495,0.100773,311.781659,25.354060,0.999475,0.992466,0.003388,0.244391,-0.000027,-0.000056,-0.000007,-0.000026,-0.000058,-12.282781,0.000086,
2490,2351,4.95673523630484,-6.55048101212469,-0.00642351796068397,-0.000671,0.003252,-0.008855,0.004502,0.121079,325.305188,23.223544,0.999052,0.988231,0.004867,0.258469,-0.000056,-0.000015,0.000030,0.000001,-0.000072,62.268001,0.000082,
2460,2156,4.34259882491207,-10.8251264582281,0.00575185352573726,-0.000669,0.002441,-0.007033,-0.003257,0.072472,328.549529,22.623388,0.999289,0.977608,0.005505,0.181585,-0.000025,-0.000007,0.000009,-0.000003,-0.000028,68.074830,0.000035,
2145,2876,-2.65458162614189,4.88940432423944,-0.0213547464886688,-0.000505,0.002687,-0.008281,0.002794,0.108013,316.677384,24.721677,0.999518,0.993020,0.003448,0.266886,-0.000020,-0.000034,0.000003,-0.000020,-0.000035,10.741687,0.000055,
2445,2111,4.0252554236831,-11.813126388854,0.0161888232611318,-0.000367,0.002785,-0.009328,0.018971,0.086083,329.369782,22.571176,0.999574,0.980947,0.005307,0.164697,0.000004,-0.000012,0.000017,0.000015,-0.000023,32.844578,0.000023,
2250,2081,-0.229699272749972,-12.4671613742246,0.0119951485273759,-0.000559,0.002035,-0.003991,-0.011869,0.069934,329.779876,23.696813,0.999365,0.982711,0.005093,0.126630,-0.000043,-0.000013,0.000021,-0.000002,-0.000054,62.650644,0.000063,
2100,2066,-3.49930113796488,-12.7919373010891,0.000267231419229574,0.000132,0.002904,-0.007637,0.029177,0.101537,330.454759,24.565549,0.999407,0.963887,0.007387,0.211442,-0.000037,-0.000033,0.000010,-0.000025,-0.000045,50.400752,0.000071,
2505,2381,5.27849915618721,-5.89355228436153,-0.00584625529762661,-0.000389,0.002653,-0.010866,0.025199,0.077879,324.877729,23.363797,0.998795,0.982285,0.005195,0.146180,-0.000021,-0.000032,0.000013,-0.000013,-0.000041,34.009795,0.000056,
2430,2066,3.70598404424789,-12.8004947710796,0.0144274287681014,-0.000483,0.002608,-0.007094,0.005006,0.098580,330.055392,22.495057,0.998770,0.975456,0.006180,0.183746,0.000028,-0.000010,0.000032,0.000046,-0.000028,29.422251,0.000046,
2040,3131,-4.97090798558184,10.4130725530377,0.0243385068131943,-0.000722,0.002065,-0.006665,-0.014098,0.077253,313.327320,24.431079,0.999398,0.994206,0.003172,0.209064,-0.000045,0.000000,0.000009,0.000002,-0.000047,78.964458,0.000053,
2100,3131,-3.67022941011999,10.418283610318,0.023986998454518,-0.000327,0.002344,-0.008166,0.009632,0.095187,313.017436,24.713912,0.999819,0.996626,0.002523,0.192382,-0.000021,-0.000019,0.000008,-0.000012,-0.000028,49.633356,0.000041,
2085,3146,-3.99784555419552,10.7417555699493,0.029252494301204,-0.000472,0.002152,-0.004511,-0.007897,0.107662,312.869878,24.623977,0.999793,0.996502,0.002559,0.230294,-0.000029,-0.000014,0.000015,-0.000005,-0.000038,58.335369,0.000048,
2235,3116,-0.740994838327545,10.10451427619,0.00689491947559873,-0.000408,0.002632,-0.008793,0.010696,0.103835,312.636046,25.224652,0.999611,0.993188,0.003425,0.229381,-0.000019,-0.000049,-0.000001,-0.000019,-0.000049,-1.621317,0.000070,
2175,3236,-2.06218156761893,12.6991274928801,0.0296769660745895,-0.000593,0.002354,-0.009080,0.001725,0.101450,310.986650,25.042814,0.999732,0.995482,0.002872,0.255616,-0.000029,-0.000049,-0.000010,-0.000025,-0.000054,-23.052259,0.000080,
2115,3131,-3.34583618467228,10.4200715039416,0.011719169255116,-0.000201,0.002180,-0.006744,0.011510,0.091228,312.844783,24.759690,0.999840,0.997485,0.002469,0.204798,-0.000026,-0.000022,0.000004,-0.000019,-0.000029,57.260388,0.000049,
2385,3266,2.48520567546196,13.3708455153334,-0.00517262760934045,-0.000680,0.002304,-0.005918,-0.009109,0.090684,309.869683,26.223509,0.999661,0.993701,0.003214,0.233247,-0.000019,-0.000049,0.000006,-0.000018,-0.000050,10.374271,0.000070,
2475,2231,4.65432390152574,-9.1804811094724,0.00529283777063938,-0.000830,0.001872,-0.002183,-0.028936,0.087755,327.316459,22.828242,0.999430,0.985055,0.004884,0.204809,-0.000019,0.000010,0.000028,0.000027,-0.000036,58.977332,0.000037,
2145,3191,-2.70484798332295,11.7217481790417,0.0259461276143043,-0.000379,0.002269,-0.007833,0.007025,0.076167,311.827006,24.897484,0.999538,0.994372,0.003060,0.201760,-0.000032,-0.000045,-0.000002,-0.000032,-0.000045,-8.843370,0.000077,
2415,2006,3.39200278534009,-14.1209577790107,0.0352155629769868,0.000420,0.002425,0.000431,0.018644,0.129580,331.207804,22.340603,0.999272,0.977663,0.005774,0.259844,0.000028,-0.000037,0.000026,0.000037,-0.000046,19.201918,0.000048,
2340,3101,1.54158433898791,9.78726501761434,0.0108447661110063,-0.000452,0.002475,-0.007769,0.007366,0.117842,312.779421,25.615228,0.999550,0.994080,0.003241,0.236433,-0.000035,-0.000032,0.000006,-0.000027,-0.000040,51.779149,0.000067,
2295,3281,0.529687929023208,13.6867375568277,-0.00260172815291071,-0.000457,0.002322,-0.007823,0.006281,0.085951,309.684245,25.725886,0.999520,0.993458,0.003186,0.262321,-0.000029,-0.000027,-0.000007,-0.000021,-0.000035,-50.591700,0.000057,
2160,3146,-2.37275416240073,10.7483934993247,0.0151595220479521,-0.000583,0.002658,-0.009162,0.002199,0.108369,312.424529,24.919976,0.999416,0.993831,0.003462,0.256489,-0.000025,-0.000028,0.000004,-0.000023,-0.000030,35.977875,0.000053,
2280,3266,0.206633890664843,13.3600170434715,0.00165867844270906,-0.000876,0.001901,-0.002978,-0.029635,0.085805,309.955838,25.613264,0.999749,0.994315,0.003145,0.264523,-0.000030,-0.000044,0.000002,-0.000030,-0.000044,7.269179,0.000074,
2160,2141,-2.20355661252983,-11.1488899964324,0.00166805283868143,-0.000310,0.003033,-0.008595,0.012973,0.103988,328.972358,24.272647,0.999425,0.975538,0.005782,0.193682,-0.000044,-0.000021,0.000005,-0.000019,-0.000046,78.125860,0.000067,
2130,3191,-3.03031257953408,11.7204984109733,0.0240134324205883,-0.000435,0.002068,-0.005558,-0.002685,0.080532,311.864406,24.811114,0.999495,0.993460,0.003287,0.221643,-0.000033,-0.000043,0.000000,-0.000033,-0.000043,1.386002,0.000076,
2205,2021,-1.20055112166345,-13.7856012774969,0.0279651246483468,-0.000615,0.001708,-0.002045,-0.021121,0.065035,330.989844,23.826975,0.998793,0.980852,0.005436,0.189394,-0.000054,-0.000001,-0.000005,0.000000,-0.000054,-85.138066,0.000063,
2160,3251,-2.39105553543342,13.0234551746839,0.0136929747025079,-0.000430,0.002097,-0.005636,-0.001718,0.095977,310.652878,24.952844,0.999665,0.995184,0.002935,0.271041,-0.000033,-0.000055,-0.000005,-0.000032,-0.000056,-12.399938,0.000090,
2505,2396,5.27420541065905,-5.56596589519928,-0.0117800851158449,-0.000581,0.001896,-0.005680,-0.003877,0.052507,324.550841,23.335599,0.998727,0.984781,0.004929,0.211849,-0.000022,-0.000042,0.000002,-0.000022,-0.000042,5.286835,0.000065,
2085,2066,-3.82587189252392,-12.7919445323735,0.00914360990935847,-0.000072,0.003031,-0.009124,0.023832,0.112285,330.595318,24.721051,0.999135,0.971338,0.006512,0.160848,-0.000030,-0.000036,0.000005,-0.000027,-0.000039,29.396972,0.000066,
2220,2051,-0.87887686086923,-13.1244966586534,0.0127377502232093,-0.000345,0.002485,-0.005468,0.002509,0.087818,330.355480,23.851319,0.998918,0.981767,0.005207,0.131341,-0.000046,-0.000014,0.000012,-0.000010,-0.000051,71.461622,0.000065,
2265,2141,0.0878369048417262,-11.1503969700559,0.018154840722616,-0.000392,0.002724,-0.007877,0.008967,0.088008,328.839213,23.875745,0.999548,0.985761,0.004772,0.013739,-0.000024,-0.000013,0.000024,0.000006,-0.000043,51.433993,0.000047,
2310,2201,1.05782105896519,-9.83641044401298,0.00549180387264414,-0.000286,0.002216,-0.004217,0.002059,0.083270,327.690067,23.581388,0.999112,0.980180,0.005363,0.162813,-0.000021,0.000007,0.000006,0.000009,-0.000023,77.981274,0.000023,
2280,2156,0.411127072435278,-10.823384796277,0.0109533711640779,-0.000835,0.002084,-0.002407,-0.029452,0.085465,328.474413,23.599007,0.999594,0.985493,0.004792,0.207123,-0.000023,0.000008,0.000019,0.000017,-0.000032,64.707723,0.000032,
2295,3296,0.525743591465133,14.0132632686095,-0.0166216959660233,-0.000432,0.002356,-0.006124,0.001742,0.097314,309.309750,25.807600,0.999715,0.995131,0.002891,0.220225,-0.000036,-0.000022,-0.000018,-0.000010,-0.000048,-55.843917,0.000062,
2250,2096,-0.23219551187054,-12.1383311707736,0.0141032549225883,-0.000659,0.002491,-0.005604,-0.011055,0.097133,329.551520,23.700664,0.999361,0.981446,0.005341,0.176366,-0.000044,-0.000010,0.000020,-0.000001,-0.000053,65.542476,0.000062,
2445,2126,4.02119232391586,-11.4830955581793,0.0117950646329064,-0.000694,0.002559,-0.005459,-0.010444,0.097965,329.055809,22.641323,0.999479,0.980402,0.005486,0.161777,-0.000005,-0.000020,0.000014,0.000003,-0.000028,31.058910,0.000031,
2385,3281,2.48221579379784,13.6956200900323,-0.00582628744950853,-0.000774,0.002184,-0.007223,-0.008836,0.075304,309.612947,26.242237,0.999631,0.993700,0.003283,0.240621,-0.000016,-0.000057,0.000002,-0.000015,-0.000057,2.833804,0.000076,
2460,2171,4.33973768508566,-10.4944950433334,-0.00162883968562255,-0.000222,0.003254,-0.011776,0.035297,0.104231,328.278084,22.714191,0.999282,0.979526,0.005283,0.179718,-0.000029,-0.000003,0.000003,-0.000002,-0.000030,83.400623,0.000036,
2085,3161,-4.00059502341068,11.0675354557152,0.0177726719136899,-0.000103,0.002302,-0.005596,0.012308,0.108910,312.543331,24.612483,0.999802,0.996406,0.002643,0.241047,-0.000031,-0.000026,0.000012,-0.000016,-0.000041,50.940749,0.000059,
2145,3146,-2.69796812518713,10.7468721742533,0.014550856534413,-0.000441,0.002524,-0.007967,0.004782,0.108798,312.480978,24.821716,0.999531,0.994184,0.003253,0.291105,-0.000028,-0.000025,0.000002,-0.000024,-0.000029,60.222210,0.000053,
2055,3146,-4.64797914128062,10.7394970370473,0.0239992790424139,-0.000388,0.002181,-0.007227,0.003243,0.093887,313.002281,24.484561,0.999378,0.993497,0.003387,0.227362,-0.000041,-0.000012,0.000015,-0.000005,-0.000047,66.487818,0.000058,
2070,2081,-4.15639815825069,-12.4621678419659,0.0021220537198019,-0.000578,0.002394,-0.004457,-0.013116,0.099102,330.331001,24.808033,0.999102,0.975435,0.005922,0.155499,-0.000045,-0.000036,-0.000001,-0.000036,-0.000045,-86.235444,0.000081,
2115,2081,-3.17558135808725,-12.4643945026816,0.0129687166972872,-0.000964,0.001388,0.002598,-0.051428,0.103236,330.166135,24.522695,0.998697,0.977482,0.005934,0.167853,-0.000036,-0.000027,0.000004,-0.000026,-0.000038,69.456308,0.000064,
2130,2096,-2.8507763139229,-12.1333298972394,-0.0034492310380756,-0.000441,0.003120,-0.008340,0.005651,0.092438,329.775862,24.493152,0.999070,0.985055,0.004817,0.103371,-0.000038,-0.000027,0.000016,-0.000016,-0.000050,54.588691,0.000069,
2370,3221,2.17005743059869,12.3925749266178,0.0179743398450114,-0.000736,0.002343,-0.005785,-0.012302,0.100104,310.809864,26.039587,0.999580,0.994437,0.003081,0.226461,-0.000022,-0.000045,-0.000002,-0.000022,-0.000045,-5.488062,0.000068,
2160,2936,-2.33867748855361,6.19310249817168,-0.0122960118970923,-0.000578,0.002394,-0.007571,-0.002601,0.089087,315.691700,24.797976,0.999302,0.991427,0.003827,0.233618,-0.000026,-0.000034,0.000005,-0.000024,-0.000036,24.583440,0.000060,
2100,2081,-3.50301721937258,-12.461087928937,-0.00386682007297168,-0.000586,0.002047,-0.002108,-0.020124,0.112245,330.124389,24.692979,0.999229,0.967973,0.007072,0.099687,-0.000036,-0.000032,0.000013,-0.000021,-0.000047,50.420654,0.000070,
2280,3281,0.203886654868857,13.6857276234108,-0.00529136998295598,-0.000521,0.002247,-0.005565,-0.004461,0.096494,309.670826,25.654763,0.999404,0.993934,0.003176,0.260016,-0.000032,-0.000035,0.000000,-0.000032,-0.000035,-5.776241,0.000067,
2235,2081,-0.556802243682792,-12.4666444199333,0.0117559078862541,-0.000394,0.002522,-0.006069,0.002387,0.086913,329.820993,23.790175,0.999386,0.983249,0.005057,0.142982,-0.000040,-0.000015,0.000024,-0.000001,-0.000055,58.471267,0.000063,
2490,2366,4.95419958377134,-6.222117670679,-0.00548862606359535,-0.000254,0.003002,-0.010179,0.028517,0.101210,325.088548,23.317577,0.998457,0.983409,0.005278,0.204808,-0.000056,-0.000021,0.000026,-0.000007,-0.000070,61.799197,0.000085,
2475,2246,4.65143910958852,-8.85221378617753,0.0065789074061513,-0.000927,0.002488,-0.004699,-0.023581,0.103280,327.084652,22.839543,0.999355,0.984707,0.004837,0.268032,-0.000016,0.000005,0.000033,0.000029,-0.000040,53.658963,0.000042,
2280,2216,0.400214583430792,-9.5070153573991,0.00335102446524616,-0.000605,0.002467,-0.007100,-0.003208,0.094848,327.448089,23.778589,0.999202,0.982161,0.005166,0.158563,-0.000029,0.000005,0.000003,0.000005,-0.000029,84.648253,0.000031,
2205,3116,-1.39115814300187,10.1010430010495,0.0230091779617396,-0.000538,0.002433,-0.005497,-0.006452,0.100114,312.832672,25.108680,0.999565,0.993414,0.003410,0.221560,-0.000024,-0.000042,0.000000,-0.000024,-0.000042,0.500056,0.000067,
2415,2021,3.38786654089259,-13.7889642011919,0.0302288450391757,-0.000552,0.002428,-0.002774,-0.014173,0.099082,330.885444,22.582461,0.998583,0.973513,0.006250,0.039133,0.000031,-0.000032,0.000022,0.000038,-0.000039,17.685106,0.000044,
2085,3041,-3.98189213969139,8.46512695631964,0.0142915469423315,-0.000697,0.001876,-0.003350,-0.021862,0.072996,314.482111,24.597086,0.999640,0.993609,0.003202,0.237998,-0.000036,-0.000017,0.000008,-0.000014,-0.000039,70.198678,0.000054,
2175,2996,-2.02262061166202,7.49647574201738,-0.00126052605577343,-0.000363,0.002440,-0.005416,0.001023,0.112186,314.734189,24.881837,0.999374,0.992442,0.003645,0.251933,-0.000020,-0.000014,0.000016,0.000000,-0.000034,50.557586,0.000039,
2040,3146,-4.97268562281822,10.7375330799048,0.0290087312960168,-0.000322,0.002111,-0.005486,0.001132,0.091125,313.131466,24.381088,0.999586,0.994924,0.003051,0.263953,-0.000043,-0.000004,0.000011,-0.000001,-0.000046,75.349642,0.000054,
2250,3191,-0.42756498818547,11.7307518856103,0.031085022200898,-0.000414,0.002220,-0.006365,0.002664,0.095234,311.544147,25.413823,0.999540,0.993442,0.003267,0.200727,-0.000027,-0.000061,-0.000005,-0.000026,-0.000061,-8.629863,0.000090,
2430,2081,3.70245204416108,-12.4700190201809,0.00959699441898465,-0.000405,0.002359,-0.004820,0.000135,0.090903,329.762570,22.602824,0.998907,0.978971,0.005874,0.121562,0.000021,-0.000010,0.000033,0.000042,-0.000030,32.180623,0.000043,
2325,3161,1.20469790970138,11.0870203049965,0.0183807256180444,-0.000516,0.001963,-0.005125,-0.005228,0.087783,311.833005,25.676488,0.999744,0.994973,0.003041,0.219557,-0.000031,-0.000041,-0.000002,-0.000030,-0.000041,-12.146365,0.000072,
2220,3131,-1.06853694900714,10.4273620936233,0.0172290624079778,-0.000396,0.002554,-0.007058,0.005431,0.115345,312.504175,25.114374,0.999607,0.993414,0.003385,0.308972,-0.000021,-0.000047,-0.000002,-0.000021,-0.000047,-5.111760,0.000069,
2220,2066,-0.881631497995574,-12.7957978957679,0.0140688122874622,-0.000480,0.002387,-0.003874,-0.008813,0.100146,330.108994,23.838050,0.999015,0.982872,0.005066,0.179096,-0.000046,-0.000011,0.000016,-0.000005,-0.000052,68.650344,0.000063,
2265,2156,0.084624273204934,-10.8231367930338,0.014535904769275,-0.000466,0.002272,-0.005227,-0.003304,0.068852,328.550952,23.741640,0.999329,0.984684,0.004899,0.129740,-0.000024,0.000006,0.000027,0.000022,-0.000039,59.520790,0.000039,
2310,3101,0.890057005666939,9.78478863436528,0.0109945963944256,-0.000486,0.002308,-0.008479,0.007579,0.100275,312.798372,25.508461,0.999484,0.994132,0.003289,0.210273,-0.000025,-0.000031,0.000007,-0.000021,-0.000035,32.615961,0.000057,
2115,3146,-3.34805068416982,10.7439460332995,0.0184977071991739,-0.000407,0.002432,-0.007707,0.004902,0.097357,312.645020,24.679298,0.999694,0.995911,0.002763,0.293439,-0.000026,-0.000019,0.000007,-0.000015,-0.000030,59.358941,0.000046,
2235,3131,-0.743379786954382,10.4295052171459,0.00565836866951486,-0.000174,0.002421,-0.011197,0.029254,0.099492,312.393711,25.205938,0.999628,0.993395,0.003491,0.263684,-0.000019,-0.000049,-0.000001,-0.000019,-0.000049,-1.787876,0.000070,
2205,2036,-1.20331334671878,-13.4543672903053,0.0167439206351219,-0.000274,0.002192,-0.005715,0.006226,0.055272,330.676973,23.911084,0.998915,0.982295,0.005177,0.116068,-0.000060,0.000006,-0.000002,0.000006,-0.000060,-88.478279,0.000067,
2145,3206,-2.70732959034344,12.0457096761576,0.0324036619010712,-0.000485,0.001905,-0.004224,-0.008927,0.068996,311.614928,24.849860,0.999597,0.994901,0.002980,0.248370,-0.000033,-0.000042,-0.000007,-0.000029,-0.000046,-27.509444,0.000075,
2160,3161,-2.37481789771086,11.0732022853575,0.0258105462579579,-0.000599,0.002394,-0.006545,-0.006642,0.104254,312.254365,24.963970,0.999603,0.994200,0.003204,0.217013,-0.000027,-0.000035,0.000002,-0.000026,-0.000036,15.140761,0.000062,
2175,3251,-2.0657758094488,13.0245389837841,0.0223987146507056,-0.000819,0.001895,-0.005245,-0.020668,0.099232,310.652175,25.055290,0.999679,0.995384,0.002963,0.251438,-0.000029,-0.000054,-0.000010,-0.000026,-0.000058,-19.182592,0.000086,
2145,2111,-2.52480563323398,-11.8079684607513,0.0183433262291715,-0.000394,0.002708,-0.006145,0.001360,0.100670,329.647953,24.355925,0.999438,0.987513,0.004533,0.168581,-0.000046,-0.000034,0.000012,-0.000026,-0.000054,58.128650,0.000081,
2295,2171,0.735883158253298,-10.4946328073811,0.00453590684617211,-0.000438,0.002170,-0.005343,-0.001302,0.071330,328.185854,23.507588,0.999513,0.984391,0.004902,0.235123,-0.000030,0.000003,0.000003,0.000003,-0.000030,85.153687,0.000033,
2085,2081,-3.83016227882559,-12.4579797996081,-0.0178474604022654,-0.000273,0.003109,-0.008643,0.013266,0.112234,330.112826,24.886164,0.999381,0.960808,0.007913,0.000986,-0.000032,-0.000032,0.000009,-0.000023,-0.000041,43.902041,0.000065,
2475,2261,4.6482220266729,-8.52269842501378,0.00457739040570004,-0.000956,0.002515,-0.005874,-0.020466,0.100893,326.822573,22.953888,0.999320,0.984402,0.004708,0.210146,-0.000023,-0.000008,0.000027,0.000012,-0.000044,52.914473,0.000045,
2310,2216,1.0549352503904,-9.50695163925604,0.000218650370754858,-0.000257,0.002981,-0.007808,0.015875,0.104269,327.412214,23.614304,0.999161,0.981172,0.005176,0.185834,-0.000026,0.000004,0.000000,0.000004,-0.000026,-89.827358,0.000028,
2160,2156,-2.20852798624055,-10.8148638005303,-0.0324543779772171,-0.000363,0.002768,-0.006789,0.004995,0.096477,328.432272,24.412543,0.999823,0.947158,0.008517,0.060627,-0.000043,-0.000007,0.000007,-0.000006,-0.000044,79.617890,0.000054,
2355,3161,1.85674046428914,11.0891650947655,0.0242098199142902,-0.000332,0.002112,-0.004511,0.001551,0.100895,311.879793,25.795140,0.999594,0.992905,0.003548,0.246869,-0.000033,-0.000039,-0.000001,-0.000033,-0.000039,-8.213805,0.000072,
2190,3101,-1.71362261806644,9.77451285461202,0.0237701392974259,-0.000283,0.002354,-0.005656,0.005669,0.120762,313.147206,25.020263,0.999488,0.993390,0.003422,0.257728,-0.000027,-0.000033,0.000004,-0.000024,-0.000035,27.356152,0.000060,
2055,3161,-4.65042965893219,11.0642562164156,0.0263919436159767,-0.000543,0.002110,-0.006783,-0.005168,0.089260,312.763762,24.470471,0.999590,0.993994,0.003132,0.230066,-0.000037,-0.000025,0.000014,-0.000015,-0.000047,56.746961,0.000065,
2310,2006,1.09502784969054,-14.1158296145545,0.0206651617837679,-0.000484,0.002463,-0.004766,-0.005048,0.089982,331.019636,23.143467,0.999321,0.981883,0.005683,0.149754,-0.000006,-0.000036,0.000015,0.000000,-0.000042,22.414209,0.000048,
2160,3266,-2.39375563760151,13.3483733972452,0.0130255959102215,-0.000493,0.002193,-0.005675,-0.004536,0.091844,310.393417,24.964473,0.999623,0.995251,0.002999,0.263719,-0.000034,-0.000057,-0.000002,-0.000034,-0.000057,-5.536619,0.000092,
2505,2411,5.27135108430309,-5.23753042718361,-0.00637606253673084,-0.000708,0.002665,-0.005426,-0.010343,0.104735,324.340191,23.423220,0.999121,0.985896,0.004796,0.238848,-0.000016,-0.000069,-0.000005,-0.000015,-0.000070,-5.592930,0.000090,
2340,3116,1.53903755424512,10.1121961598651,0.0145713662697631,-0.000390,0.002413,-0.007475,0.009144,0.110887,312.561790,25.622734,0.999581,0.994417,0.003181,0.257223,-0.000035,-0.000035,0.000002,-0.000032,-0.000037,43.628561,0.000069,
2445,2141,4.01765567106282,-11.1516798626716,-0.000942252795766763,-0.000336,0.003326,-0.008023,0.015740,0.142834,328.727228,22.719607,0.999231,0.979887,0.005620,0.184047,-0.000015,-0.000022,0.000011,-0.000006,-0.000030,36.471569,0.000039,
2160,2951,-2.34097568284538,6.51823728056702,-0.00684109205826644,-0.000476,0.002298,-0.004514,-0.007241,0.098613,315.483144,24.775931,0.999429,0.992913,0.003477,0.274423,-0.000025,-0.000027,0.000005,-0.000021,-0.000031,39.141102,0.000052,
2070,3131,-4.32048110879614,10.4154227161276,0.0250584168930459,-0.000230,0.002154,-0.004426,0.002835,0.103753,313.176270,24.537974,0.999613,0.995338,0.002789,0.252797,-0.000039,-0.000012,0.000015,-0.000005,-0.000046,66.111658,0.000057,
2145,3161,-2.6997221367509,11.0716251340043,0.0267686296157308,-0.000414,0.002386,-0.007561,0.004705,0.099978,312.332717,24.874646,0.999582,0.993326,0.003331,0.235710,-0.000030,-0.000034,0.000001,-0.000030,-0.000034,13.151012,0.000064,
2115,2096,-3.17734953164399,-12.134549223125,0.0115044172774219,-0.000541,0.002297,-0.002075,-0.017967,0.096767,329.940732,24.610320,0.999101,0.979664,0.005632,0.080178,-0.000037,-0.000025,0.000012,-0.000017,-0.000044,58.429264,0.000063,
2415,2036,3.38424537697027,-13.4587702127363,0.0157470961478339,-0.000505,0.003231,-0.008773,0.010139,0.100958,330.542242,22.525668,0.998926,0.976178,0.005913,0.149255,0.000033,-0.000027,0.000024,0.000042,-0.000036,19.190961,0.000045,
2370,3236,2.16735534915236,12.7178381880754,0.0155411350390864,-0.000568,0.002523,-0.008899,0.006584,0.102351,310.556791,26.061932,0.999704,0.994771,0.002934,0.245873,-0.000020,-0.000038,-0.000002,-0.000020,-0.000038,-6.283753,0.000058,
2175,3011,-2.02503710355876,7.82162730376111,0.0030241969892586,-0.000271,0.001988,-0.002396,-0.004289,0.094545,314.514991,24.895253,0.999318,0.991277,0.003800,0.232139,-0.000023,-0.000016,0.000015,-0.000004,-0.000035,51.375449,0.000043,
2295,2231,0.724747416772693,-9.17922056531144,0.00534774517007008,-0.000762,0.002813,-0.007664,-0.008077,0.100000,327.196244,23.693732,0.999140,0.982831,0.005018,0.207385,-0.000029,-0.000011,-0.000010,-0.000006,-0.000033,-66.761653,0.000043,
2100,2096,-3.50338058270433,-12.1334559391873,0.0166012568453198,-0.000271,0.003113,-0.008041,0.011956,0.101182,330.080368,24.828299,0.999431,0.969714,0.007056,0.043576,-0.000037,-0.000029,0.000021,-0.000012,-0.000054,50.404046,0.000070,
2130,2111,-2.85253545236931,-11.8058420726243,0.00436159445632711,-0.000191,0.002761,-0.006874,0.012599,0.100389,329.601906,24.461277,0.999152,0.985702,0.004763,0.151513,-0.000042,-0.000032,0.000013,-0.000023,-0.000051,55.759202,0.000076,
2385,3296,2.47799721304971,14.0221308999306,-0.0251865892304863,-0.000622,0.002246,-0.008462,0.002726,0.088089,309.209443,26.293090,0.999623,0.994538,0.003188,0.244186,-0.000005,-0.000060,-0.000005,-0.000005,-0.000061,-5.572097,0.000073,
2145,2891,-2.65687626666498,5.21509377935258,-0.0172999906802715,-0.000378,0.002413,-0.005892,0.001364,0.113136,316.460438,24.729173,0.999561,0.991825,0.003674,0.271659,-0.000024,-0.000035,0.000001,-0.000024,-0.000035,6.313477,0.000059,
2055,3176,-4.65246522230467,11.3889003038593,0.0312868994769246,-0.000501,0.002446,-0.007436,-0.001304,0.104478,312.558201,24.444892,0.999636,0.994316,0.003102,0.264184,-0.000033,-0.000018,0.000020,-0.000004,-0.000047,55.241487,0.000057,
2490,2381,4.9501296356017,-5.89281566310185,-0.0148023595970699,-0.000304,0.002946,-0.009027,0.021815,0.111022,324.754998,23.372346,0.998808,0.982548,0.005234,0.220482,-0.000055,-0.000021,0.000022,-0.000011,-0.000065,63.618533,0.000082,
2460,2186,4.33520439663662,-10.1648466552384,-0.014277028212291,-0.000621,0.003340,-0.011653,0.016635,0.094248,327.906123,22.707152,0.999706,0.987692,0.004556,0.234450,-0.000034,0.000005,0.000010,0.000007,-0.000036,76.717728,0.000038,
2430,2096,3.70013932664384,-12.1416251590014,0.0181849848842148,-0.000317,0.002314,-0.003934,0.000898,0.092509,329.587784,22.667012,0.999524,0.982846,0.005378,0.111680,0.000017,-0.000012,0.000033,0.000039,-0.000034,33.181270,0.000042,
2100,3146,-3.67277182788703,10.7422327393269,0.0279470844271259,-0.000575,0.002487,-0.007160,-0.004678,0.102534,312.786451,24.620384,0.999886,0.997760,0.002244,0.293335,-0.000021,-0.000016,0.000011,-0.000007,-0.000030,50.806622,0.000040,
2040,3161,-4.97510488670379,11.0625724481704,0.0252068602167128,-0.000167,0.002070,-0.006278,0.010486,0.086393,312.858779,24.353820,0.999590,0.994736,0.003129,0.277743,-0.000038,-0.000022,0.000008,-0.000018,-0.000042,67.132664,0.000061,
2250,3206,-0.430178049302906,12.0557162682069,0.0308141850284755,-0.000422,0.002329,-0.008391,0.009035,0.103428,311.297233,25.404708,0.999786,0.996263,0.002813,0.240150,-0.000026,-0.000056,-0.000007,-0.000024,-0.000057,-12.687580,0.000084,
2205,3131,-1.39368971020074,10.4265656877521,0.0244260176435205,-0.000696,0.002768,-0.008138,-0.005236,0.114129,312.594937,25.135793,0.999675,0.994560,0.003156,0.224042,-0.000024,-0.000041,-0.000001,-0.000024,-0.000041,-3.970985,0.000066,
2085,3176,-4.00237976261963,11.3906183320939,0.0321297839212207,-0.000317,0.002261,-0.005417,0.001874,0.101881,312.403448,24.524482,0.999719,0.996152,0.002680,0.319405,-0.000027,-0.000024,0.000014,-0.000011,-0.000039,48.135365,0.000053,
2190,2006,-1.52442125082899,-14.1143712488498,0.0232570542935946,-0.000059,0.003205,-0.013062,0.039086,0.077349,331.298708,23.855133,0.999372,0.985484,0.004882,0.256958,-0.000051,0.000014,-0.000021,0.000020,-0.000058,-73.505011,0.000059,
2130,3206,-3.03240683135781,12.044601881186,0.0334179376005181,-0.000534,0.001988,-0.004512,-0.010355,0.094278,311.685044,24.773138,0.999626,0.995087,0.003004,0.277457,-0.000034,-0.000042,-0.000004,-0.000032,-0.000044,-22.782120,0.000077,
2295,2246,0.721522842101177,-8.85036554059869,5.32292895059072E-05,-0.000651,0.002672,-0.005193,-0.011377,0.106126,326.901365,23.697398,0.999329,0.985387,0.004725,0.242219,-0.000030,-0.000008,-0.000007,-0.000006,-0.000032,-74.244417,0.000040,
2085,2096,-3.83139533779928,-12.1317307484725,-0.00760062135464068,-0.000074,0.003354,-0.012512,0.033600,0.085198,329.973362,24.798567,0.999235,0.973725,0.006288,0.061332,-0.000033,-0.000030,0.000018,-0.000014,-0.000050,47.029595,0.000067,
2145,2126,-2.5276925159613,-11.4784066176869,0.0123270893006406,-0.000587,0.002834,-0.008659,0.000104,0.087193,329.350188,24.386267,0.999304,0.985907,0.004736,0.135763,-0.000045,-0.000028,0.000010,-0.000023,-0.000049,64.547236,0.000074,
2250,2111,-0.234539979166424,-11.8094620496586,0.0143662218154077,-0.000492,0.002800,-0.007479,0.002811,0.095238,329.320922,23.721838,0.999238,0.982665,0.005121,0.179215,-0.000040,-0.000012,0.000018,-0.000003,-0.000049,63.824649,0.000058,
2400,2006,3.06225297559137,-14.1167193083548,0.0118850023151822,-0.000514,0.003386,-0.013407,0.026117,0.092093,331.000667,22.560805,0.998860,0.973300,0.006188,0.107933,0.000035,-0.000032,0.000019,0.000040,-0.000036,14.655152,0.000044,
2505,2426,5.26870380534972,-4.90993443584677,-0.000648046409082781,-0.000898,0.002987,-0.008010,-0.008936,0.131172,324.140641,23.467127,0.999175,0.984742,0.004925,0.283955,-0.000011,-0.000079,0.000000,-0.000011,-0.000079,-0.314429,0.000098,
2055,3191,-4.65516636277651,11.7144684256361,0.0271384237057646,-0.000533,0.002357,-0.007545,-0.002543,0.091129,312.271670,24.481418,0.999508,0.994688,0.003065,0.207523,-0.000037,-0.000031,0.000015,-0.000019,-0.000050,50.465251,0.000071,
2115,3161,-3.35046770650414,11.0693922309292,0.0208000235301711,-0.000388,0.002343,-0.006595,0.002463,0.094429,312.411207,24.727963,0.999442,0.993367,0.003389,0.243759,-0.000029,-0.000030,0.000005,-0.000025,-0.000035,43.097108,0.000060,
2205,2291,-1.24863062426506,-7.86410460638764,-0.00195140744136779,-0.000501,0.002901,-0.006982,0.000082,0.107065,326.319319,24.251646,0.999340,0.986547,0.004573,0.157056,-0.000031,0.000015,-0.000006,0.000016,-0.000031,-82.953229,0.000031,
2235,2096,-0.559407589797427,-12.1379449277063,0.0123812227613485,-0.000506,0.002963,-0.007369,0.001633,0.101032,329.578961,23.778461,0.999325,0.983160,0.005089,0.192999,-0.000042,-0.000011,0.000022,0.000001,-0.000053,62.746760,0.000061,
2175,2216,-1.88938343077258,-9.5059385389215,-8.70754830089027E-05,-0.000467,0.002641,-0.008590,0.005948,0.084888,327.666203,24.296981,0.998885,0.982634,0.005138,0.140655,-0.000032,0.000000,0.000014,0.000005,-0.000037,69.475380,0.000040,
2280,2171,0.408524596491635,-10.4945188697003,0.00257197617474958,-0.000479,0.002807,-0.007552,0.004219,0.099954,328.191352,23.532629,0.999412,0.984066,0.004974,0.318703,-0.000028,0.000006,0.000012,0.000009,-0.000031,72.269617,0.000032,
2175,3266,-2.06911048610549,13.3504224750675,0.00848920840581968,-0.000620,0.002264,-0.005611,-0.010282,0.104289,310.294485,25.071021,0.999641,0.995237,0.002948,0.251612,-0.000029,-0.000059,-0.000007,-0.000027,-0.000060,-11.736167,0.000089,
2130,3221,-3.03485804460591,12.3697556183785,0.0323803088169257,-0.000472,0.002124,-0.006004,-0.002991,0.092835,311.432842,24.787910,0.999633,0.994981,0.002956,0.265404,-0.000036,-0.000057,-0.000006,-0.000035,-0.000058,-15.240191,0.000094,
2160,3176,-2.37747365204097,11.3976950072657,0.0282666879997464,-0.000766,0.002098,-0.005532,-0.017602,0.087477,312.013728,24.943805,0.999560,0.992724,0.003406,0.228956,-0.000026,-0.000038,0.000002,-0.000026,-0.000039,6.691464,0.000065,
2490,2396,4.94710373441294,-5.56505571851497,-0.00979331338231759,-0.000407,0.002724,-0.006551,0.007571,0.097365,324.534053,23.455531,0.999420,0.988052,0.004473,0.183991,-0.000045,-0.000034,0.000012,-0.000026,-0.000052,57.415762,0.000080,
2220,2081,-0.884502464029449,-12.465518697411,0.0042927806708235,-0.000336,0.002669,-0.007854,0.010563,0.091400,329.800261,23.870714,0.999190,0.983877,0.004975,0.160162,-0.000043,-0.000019,0.000016,-0.000011,-0.000051,63.801634,0.000066,
2265,2171,0.0815463362821909,-10.4939968490701,0.00503629200653677,-0.000325,0.002689,-0.007486,0.010719,0.085065,328.238889,23.686116,0.999539,0.985314,0.004847,0.230076,-0.000027,0.000007,0.000021,0.000017,-0.000037,64.233027,0.000037,
2220,3146,-1.0708350793803,10.7523379443965,0.0219211802970563,-0.000372,0.002095,-0.007494,0.007724,0.091120,312.295287,25.154299,0.999496,0.992739,0.003460,0.262260,-0.000021,-0.000044,-0.000001,-0.000020,-0.000044,-2.849959,0.000066,
2295,2186,0.733471735411566,-10.1657652360652,0.00986585859163824,-0.000456,0.002325,-0.004997,-0.003207,0.082148,327.980900,23.598730,0.999148,0.980833,0.005278,0.187250,-0.000030,0.000007,0.000002,0.000007,-0.000030,86.253440,0.000032,
2160,2171,-2.21056274435094,-10.4866856068384,-0.0290465282697028,0.000093,0.002514,-0.003393,0.015452,0.100558,328.224530,24.422171,0.999715,0.944984,0.008614,0.067380,-0.000039,-0.000004,0.000004,-0.000003,-0.000039,83.522099,0.000047,
2145,3221,-2.70972307047814,12.3709658250214,0.0356456801028457,-0.000595,0.002118,-0.005284,-0.010683,0.085211,311.389244,24.882166,0.999601,0.995007,0.002938,0.238653,-0.000034,-0.000055,-0.000009,-0.000031,-0.000058,-20.857048,0.000090,
2280,2231,0.397812461197493,-9.17891036363112,0.00483134656445827,-0.000520,0.002936,-0.008878,0.006808,0.094478,327.223334,23.785617,0.999241,0.982994,0.005008,0.180970,-0.000027,-0.000014,-0.000002,-0.000014,-0.000028,-80.946787,0.000042,
2460,2201,4.33214482199997,-9.83527810674834,-0.0147083959969905,-0.000413,0.003361,-0.009926,0.019674,0.113154,327.657273,22.801189,0.999347,0.982958,0.005068,0.216275,-0.000031,0.000011,0.000011,0.000014,-0.000033,76.322695,0.000033,
2310,3116,0.887402139050167,10.1101409632956,0.0129258094759166,-0.000207,0.002200,-0.005061,0.008639,0.094783,312.564831,25.541379,0.999359,0.993507,0.003453,0.202677,-0.000026,-0.000036,0.000003,-0.000025,-0.000036,13.522751,0.000062,
2475,2276,4.64479408668003,-8.19228401685168,-0.00174655578638294,-0.000737,0.002413,-0.005927,-0.010283,0.100505,326.531030,23.109465,0.999531,0.982868,0.004863,0.113055,-0.000025,-0.000004,0.000028,0.000015,-0.000044,55.459808,0.000045,
2160,2966,-2.34365882584604,6.84477621826683,-0.0101321015221174,-0.000402,0.002143,-0.004965,-0.002523,0.087119,315.210234,24.845371,0.999563,0.994207,0.003208,0.202881,-0.000022,-0.000030,0.000006,-0.000019,-0.000033,28.577046,0.000053,
2130,2126,-2.85517665516113,-11.4768879488951,-0.000148461483320261,-0.000307,0.003098,-0.009871,0.016330,0.098421,329.321895,24.441993,0.998897,0.983836,0.004979,0.177510,-0.000042,-0.000026,0.000010,-0.000021,-0.000047,63.920068,0.000070,
2175,3281,-2.07196454180376,13.6759900102943,-0.000771289479985171,-0.000359,0.002503,-0.007550,0.007845,0.109402,309.983462,25.089443,0.999769,0.996411,0.002597,0.248934,-0.000028,-0.000049,-0.000003,-0.000027,-0.000050,-7.922920,0.000078,
2250,3221,-0.432796565404683,12.3797386735255,0.0401364820639856,-0.000520,0.002017,-0.002014,-0.016595,0.086671,311.099227,25.394279,0.999722,0.995531,0.002945,0.255487,-0.000025,-0.000062,-0.000012,-0.000022,-0.000065,-16.172188,0.000091,
2160,3281,-2.39630043214816,13.6736256826156,0.0127339776860822,-0.000357,0.002341,-0.004706,-0.001092,0.111613,310.142941,24.989065,0.999760,0.996361,0.002607,0.267330,-0.000033,-0.000048,0.000001,-0.000033,-0.000049,5.138167,0.000082,
2070,3146,-4.32300330982138,10.7407669454796,0.025598857907994,-0.000375,0.002088,-0.004870,-0.002614,0.096594,312.925012,24.565158,0.999749,0.996941,0.002548,0.214073,-0.000037,-0.000012,0.000018,-0.000003,-0.000046,61.902916,0.000055,
2355,3176,1.85348722781761,11.4147343716977,0.0196618289860453,-0.000505,0.002099,-0.006691,0.001229,0.091479,311.590091,25.827530,0.999626,0.993749,0.003329,0.242719,-0.000033,-0.000041,-0.000003,-0.000032,-0.000042,-15.241139,0.000074,
2100,2111,-3.50594332175687,-11.8075207090767,0.0159630103593145,-0.000483,0.002873,-0.008626,0.003811,0.100723,329.822431,24.568117,0.999223,0.981606,0.005408,0.220311,-0.000042,-0.000031,0.000020,-0.000015,-0.000058,53.007333,0.000077,
2415,2051,3.38140052640204,-13.1299626312501,0.0196284009247734,-0.000761,0.002984,-0.009983,0.002739,0.075041,330.320410,22.586292,0.998940,0.973759,0.006112,0.113550,0.000031,-0.000027,0.000020,0.000038,-0.000033,17.130800,0.000041,
2190,2021,-1.5284615431256,-13.7833378067605,0.0147636578595325,-0.000577,0.002163,-0.007441,-0.002484,0.034112,330.940108,23.979613,0.998688,0.983685,0.005133,0.107807,-0.000053,-0.000003,-0.000009,-0.000001,-0.000055,-80.274802,0.000064,
2445,2156,4.01508937963635,-10.8249264149626,0.00924563212390694,-0.000592,0.002539,-0.006855,-0.000610,0.082884,328.549401,22.733397,0.999388,0.981708,0.005179,0.164425,-0.000021,-0.000006,0.000015,0.000003,-0.000030,58.888896,0.000033,
2340,3131,1.53561501875756,10.4378974294096,0.0133042822637321,-0.000715,0.002253,-0.005788,-0.011791,0.099835,312.279189,25.677304,0.999499,0.993607,0.003366,0.226521,-0.000033,-0.000036,0.000002,-0.000032,-0.000037,25.925660,0.000069,
2145,3176,-2.70228140855654,11.3961577020299,0.0306301421221633,-0.000655,0.002346,-0.007367,-0.007012,0.096826,312.103009,24.852793,0.999491,0.992833,0.003358,0.260665,-0.000029,-0.000037,0.000000,-0.000029,-0.000037,1.974236,0.000066,
2370,3251,2.16382234869717,13.0430515584459,0.00838008819982861,-0.000463,0.002210,-0.006860,0.004005,0.088847,310.242635,26.072404,0.999698,0.994168,0.003037,0.261358,-0.000019,-0.000039,0.000000,-0.000019,-0.000039,-0.438275,0.000059,
2220,2321,-0.927608365136745,-7.20743255528997,-0.0164806026442648,-0.000368,0.003031,-0.010529,0.017783,0.109464,325.682735,24.121324,0.999201,0.988147,0.004320,0.270124,-0.000025,0.000019,-0.000006,0.000020,-0.000026,-82.050971,0.000027,
2205,2051,-1.20591816467631,-13.123975369247,0.0106528510958697,-0.000283,0.003167,-0.011496,0.024377,0.066127,330.397654,23.963291,0.998907,0.981471,0.005165,0.094916,-0.000059,-0.000019,-0.000001,-0.000018,-0.000059,-88.460371,0.000081,
2100,3161,-3.67586722756132,11.0684855178893,0.0173847471258455,-0.000450,0.002383,-0.006266,-0.001610,0.095861,312.450290,24.666475,0.999739,0.995996,0.002709,0.240163,-0.000024,-0.000028,0.000009,-0.000017,-0.000035,38.487310,0.000053,
2085,3191,-4.00485480473304,11.7162665161931,0.0311047278642036,-0.000473,0.002484,-0.008832,0.004587,0.101904,312.146746,24.574584,0.999439,0.994870,0.002997,0.266813,-0.000029,-0.000035,0.000010,-0.000022,-0.000043,36.684694,0.000066,
2325,3176,1.20159238064946,11.4126308155464,0.0136895792156224,-0.000553,0.002470,-0.006899,-0.000639,0.104961,311.546911,25.685209,0.999748,0.995164,0.003036,0.261094,-0.000032,-0.000043,-0.000004,-0.000030,-0.000044,-19.415461,0.000075,
2490,2411,4.94333360128136,-5.23724856692266,-0.0150456859516908,-0.000693,0.003024,-0.007570,-0.001509,0.113015,324.232541,23.418713,0.999491,0.988269,0.004389,0.297107,-0.000034,-0.000057,0.000006,-0.000033,-0.000058,13.404689,0.000092,
2175,3026,-2.02750181785916,8.14661500941562,0.00786873465102644,-0.000379,0.001804,-0.001059,-0.013458,0.090331,314.296553,24.887604,0.999520,0.993347,0.003516,0.246721,-0.000027,-0.000014,0.000014,-0.000005,-0.000036,57.405930,0.000045,
2205,2306,-1.2516299411156,-7.53629048688176,-0.00467984314843761,-0.000682,0.002698,-0.006388,-0.010193,0.092119,326.039369,24.228970,0.999099,0.986342,0.004593,0.183411,-0.000029,0.000007,-0.000004,0.000008,-0.000029,-84.425274,0.000030,
2310,2261,1.04621805855644,-8.52200955131896,0.00194948351742141,-0.000644,0.002871,-0.006575,-0.006058,0.119203,326.662566,23.665991,0.999290,0.986039,0.004596,0.252330,-0.000028,0.000001,0.000004,0.000002,-0.000029,82.612459,0.000032,
2040,3176,-4.97765415921134,11.3875461791487,0.0262516411590923,-0.000328,0.002213,-0.005328,0.000462,0.094374,312.607168,24.342013,0.999690,0.995124,0.002990,0.288309,-0.000036,-0.000011,0.000015,-0.000004,-0.000043,65.099072,0.000052,
2400,2021,3.05947509968366,-13.7888217186868,0.0212071276588972,-0.000591,0.002531,-0.007361,0.000506,0.078128,330.806381,22.578539,0.998669,0.971739,0.006331,0.124891,0.000034,-0.000033,0.000013,0.000036,-0.000036,10.911933,0.000042,
2220,2096,-0.886473558297777,-12.1375123281447,0.0113435124710008,-0.000201,0.002793,-0.007869,0.016839,0.097270,329.618934,23.875791,0.999145,0.984296,0.004987,0.182472,-0.000043,-0.000014,0.000014,-0.000008,-0.000049,67.763421,0.000062,
2115,2111,-3.17987719778661,-11.8060585159926,0.00808896157997196,-0.000424,0.002426,-0.001559,-0.014051,0.119614,329.670269,24.529617,0.999205,0.986404,0.004723,0.190447,-0.000042,-0.000029,0.000011,-0.000023,-0.000048,61.296079,0.000072,
2310,2231,1.05175211113069,-9.17834989108403,-1.2945588139246E-05,-0.000632,0.002906,-0.007806,-0.001338,0.111604,327.145644,23.641784,0.999065,0.981624,0.005186,0.200220,-0.000026,-0.000010,-0.000005,-0.000008,-0.000027,-74.487857,0.000037,
2430,2111,3.69724582421871,-11.8129003106512,0.0207128733275681,-0.000462,0.002454,-0.004796,-0.002527,0.105145,329.358181,22.687624,0.999451,0.981075,0.005463,0.156513,0.000009,-0.000009,0.000030,0.000031,-0.000031,36.529712,0.000036,
2250,2126,-0.237404483181759,-11.4799477206057,0.00843887637034868,-0.000420,0.003171,-0.009641,0.013282,0.100443,329.035142,23.732202,0.998992,0.983024,0.005046,0.200764,-0.000037,-0.000010,0.000019,-0.000001,-0.000047,62.548776,0.000054,
2085,2111,-3.83378708696327,-11.8042081362641,-0.000250552608861199,-0.000365,0.002649,-0.008882,0.009604,0.097192,329.764876,24.760306,0.999071,0.983374,0.005060,0.113217,-0.000040,-0.000031,0.000019,-0.000016,-0.000055,51.883799,0.000075,
2145,3236,-2.71293091737759,12.6973135066971,0.0259198759451351,-0.000585,0.002317,-0.005188,-0.010388,0.098964,311.056536,24.945270,0.999653,0.994916,0.002905,0.195511,-0.000038,-0.000050,-0.000008,-0.000033,-0.000054,-26.797355,0.000088,
2145,2906,-2.65927431827428,5.54058305628325,-0.0118502982786026,-0.000530,0.002434,-0.004776,-0.009051,0.110317,316.246248,24.740283,0.999442,0.991433,0.003742,0.264809,-0.000021,-0.000042,0.000002,-0.000021,-0.000042,5.967298,0.000064,
2295,2201,0.730444039614348,-9.83514216649971,-0.000501242825635018,0.000010,0.002438,-0.005561,0.020098,0.101887,327.669772,23.678670,0.998885,0.976196,0.005758,0.160023,-0.000027,0.000014,0.000001,0.000014,-0.000028,87.976137,0.000028,
2280,2186,0.406153184871602,-10.1648417632155,0.00659847795350288,-0.000415,0.002701,-0.007713,0.007655,0.084977,327.980631,23.709332,0.999003,0.981065,0.005354,0.157180,-0.000028,0.000005,0.000011,0.000008,-0.000032,73.561996,0.000033,
2235,3146,-0.745750516759859,10.7538770467505,0.0158903389581724,-0.000360,0.002051,-0.008280,0.011069,0.080780,312.210973,25.220528,0.999279,0.992383,0.003640,0.249943,-0.000021,-0.000046,0.000000,-0.000021,-0.000046,-0.414586,0.000068,
2505,2441,5.26522988765837,-4.58099571058068,-0.00623206007713861,-0.000504,0.002817,-0.005330,-0.001270,0.124113,323.852440,23.563815,0.999117,0.985160,0.004785,0.242552,-0.000019,-0.000077,-0.000003,-0.000019,-0.000077,-2.937455,0.000102,
2220,3161,-1.07334520148991,11.0775726943039,0.0264306617237935,-0.000464,0.002095,-0.006739,0.001022,0.084835,312.075589,25.202403,0.999498,0.993721,0.003279,0.225279,-0.000023,-0.000049,-0.000002,-0.000023,-0.000049,-4.806666,0.000073,
2280,2246,0.394518493971699,-8.85033682059905,0.0037160505422662,-0.000791,0.002675,-0.006022,-0.015199,0.106288,326.944648,23.801425,0.999469,0.985450,0.004740,0.207143,-0.000026,-0.000011,0.000000,-0.000011,-0.000026,-89.691345,0.000038,
2355,3191,1.85028315378235,11.7405974988204,0.0168377630974987,-0.000636,0.002263,-0.007256,-0.002758,0.098702,311.310829,25.885432,0.999600,0.993532,0.003311,0.229248,-0.000033,-0.000049,0.000002,-0.000032,-0.000050,7.682379,0.000083,
2160,3191,-2.38020536398403,11.7229555250471,0.0244597309443861,-0.000599,0.002235,-0.004666,-0.012493,0.095646,311.736113,24.935188,0.999637,0.994815,0.003006,0.254540,-0.000028,-0.000046,-0.000001,-0.000028,-0.000046,-2.281117,0.000075,
2100,2126,-3.5087155733755,-11.4777578194887,0.0144313333915989,-0.000612,0.002767,-0.005963,-0.009874,0.127972,329.549291,24.624783,0.999184,0.986931,0.004792,0.195276,-0.000041,-0.000023,0.000018,-0.000012,-0.000053,57.881068,0.000069,
2460,2216,4.33006797869972,-9.50842488997169,0.00263854125046237,-0.000620,0.003114,-0.007221,-0.000015,0.105145,327.534978,22.867723,0.999537,0.986517,0.004781,0.197782,-0.000028,0.000025,0.000016,0.000029,-0.000032,73.903573,0.000036,
2175,2231,-1.89187011307698,-9.1773382004163,-0.00496637180702919,-0.000214,0.003043,-0.010266,0.022890,0.106366,327.395529,24.259172,0.999152,0.984609,0.004766,0.214653,-0.000031,-0.000016,0.000009,-0.000012,-0.000035,64.422336,0.000049,
2040,3191,-4.9792801250476,11.7126135898871,0.0331921146106424,0.000021,0.002263,-0.005356,0.016652,0.094307,312.430778,24.386167,0.999637,0.995038,0.002949,0.235081,-0.000042,-0.000024,0.000008,-0.000020,-0.000045,68.443838,0.000067,
2235,2111,-0.561873803842737,-11.8101423120967,0.0184795553232675,-0.000664,0.002755,-0.005847,-0.010619,0.102939,329.371266,23.763127,0.999408,0.983648,0.004969,0.234144,-0.000039,-0.000011,0.000021,0.000000,-0.000050,62.066387,0.000058,
2475,2291,4.64264468024207,-7.86591752696412,0.00798295612975153,-0.000489,0.002743,-0.004556,-0.003960,0.125818,326.371169,23.039646,0.999552,0.983254,0.004858,0.266564,-0.000029,0.000021,0.000030,0.000035,-0.000043,64.996949,0.000046,
2070,3161,-4.32536925456889,11.0659844735826,0.0249803853084245,-0.000442,0.002312,-0.007770,0.002604,0.098784,312.674600,24.568065,0.999737,0.996055,0.002712,0.208626,-0.000036,-0.000024,0.000015,-0.000014,-0.000047,55.489612,0.000063,
2130,3236,-3.03771454017487,12.6953809393636,0.0248908169836,-0.000372,0.002120,-0.007194,0.005104,0.074824,311.127194,24.829003,0.999654,0.994556,0.002903,0.210274,-0.000040,-0.000053,-0.000006,-0.000038,-0.000056,-21.543049,0.000094,
2160,2981,-2.34628560131685,7.17060574726116,-0.0118237166414588,-0.000369,0.002403,-0.005240,-0.000040,0.105011,314.948546,24.836248,0.999496,0.993778,0.003358,0.239046,-0.000021,-0.000028,0.000009,-0.000015,-0.000034,34.622920,0.000050,
2160,2201,-2.21411047488148,-9.83477567210689,0.00229053492722642,-0.000884,0.002753,-0.007850,-0.015688,0.088020,327.962691,24.332173,0.998894,0.978299,0.005487,0.168934,-0.000038,0.000008,0.000004,0.000008,-0.000038,85.427769,0.000040,
2325,3191,1.19979672387683,11.7363170420555,0.0271234451916484,-0.000529,0.002263,-0.007103,0.001040,0.082659,311.410834,25.670052,0.999779,0.995775,0.002832,0.286651,-0.000033,-0.000049,-0.000001,-0.000032,-0.000049,-3.170275,0.000083,
2295,2261,0.718293431936576,-8.51947127959021,-0.0117532399344782,-0.000163,0.002368,-0.004273,0.007813,0.095124,326.573750,23.842891,0.999577,0.989413,0.004267,0.118480,-0.000030,-0.000002,-0.000004,-0.000002,-0.000030,-82.218297,0.000036,
2310,2246,1.04911762450185,-8.85044181966762,0.00186346924664349,-0.000616,0.003064,-0.007734,-0.000787,0.116146,326.914630,23.635961,0.999128,0.983856,0.004875,0.244918,-0.000027,-0.000004,0.000000,-0.000004,-0.000027,-89.498118,0.000034,
2205,2066,-1.20833765319678,-12.7960093392219,0.0225009068173563,-0.000665,0.002815,-0.007371,-0.006277,0.099762,330.219335,23.980438,0.999177,0.984589,0.004859,0.130894,-0.000056,-0.000015,0.000005,-0.000014,-0.000056,83.570205,0.000075,
2190,2036,-1.53114571732941,-13.4522924918453,0.00447187291388218,-0.000306,0.002834,-0.011775,0.023653,0.058378,330.633711,24.023890,0.999144,0.986709,0.004667,0.106095,-0.000062,-0.000003,-0.000008,-0.000002,-0.000063,-82.151867,0.000073,
2415,2066,3.37812067814365,-12.8007662168033,0.0178421437228735,-0.000600,0.002455,-0.006217,-0.003822,0.083995,330.051931,22.588648,0.998912,0.977642,0.005970,0.171353,0.000027,-0.000012,0.000027,0.000041,-0.000026,26.939258,0.000041,
2145,2141,-2.53071888959036,-11.1480381556732,-0.00208352864899553,-0.000388,0.003283,-0.011545,0.018057,0.093826,329.001389,24.384714,0.999545,0.986784,0.004657,0.155158,-0.000043,-0.000024,0.000010,-0.000020,-0.000048,66.707550,0.000069,
2490,2426,4.94070482022563,-4.90891378086394,-0.0103288802930592,-0.000611,0.002997,-0.007976,0.003791,0.112636,324.028223,23.547873,0.999444,0.986386,0.004518,0.227539,-0.000028,-0.000067,0.000011,-0.000025,-0.000070,14.623532,0.000099,
2085,3206,-4.00689728153175,12.0407873639343,0.0352494606055416,-0.000359,0.002448,-0.009653,0.012185,0.089015,311.938650,24.568622,0.999530,0.994527,0.003114,0.257510,-0.000029,-0.000038,0.000006,-0.000026,-0.000041,26.494758,0.000068,
2145,2921,-2.66206375867775,5.8658324857679,-0.00991592346110792,-0.000894,0.001989,-0.004486,-0.026864,0.088862,315.995508,24.725823,0.999186,0.989728,0.004046,0.265092,-0.000023,-0.000034,0.000003,-0.000023,-0.000035,12.906706,0.000058,
2280,2441,0.35788828156323,-4.58449768978114,-0.0090404028157991,-0.000570,0.002115,-0.001393,-0.020704,0.092647,323.611922,24.163930,0.999656,0.991379,0.003847,0.214621,-0.000034,-0.000027,0.000009,-0.000021,-0.000039,55.536456,0.000061,
2265,2186,0.0788361636489121,-10.1652391575057,0.00774932335991707,-0.000467,0.002278,-0.006660,0.001375,0.063953,328.005084,23.770609,0.999262,0.984504,0.004939,0.152381,-0.000028,0.000005,0.000020,0.000015,-0.000037,64.779458,0.000037,
2115,2126,-3.18233086242074,-11.4773277433869,0.00831789227459012,-0.000665,0.002586,-0.004234,-0.017230,0.117454,329.422794,24.541685,0.998946,0.984407,0.005047,0.182434,-0.000043,-0.000022,0.000009,-0.000019,-0.000046,69.158496,0.000067,
2115,3176,-3.3525852826208,11.3935251157857,0.0292127198025014,-0.000457,0.002200,-0.005383,-0.004411,0.083330,312.224662,24.704804,0.999521,0.993550,0.003258,0.257761,-0.000026,-0.000031,0.000005,-0.000023,-0.000034,33.267191,0.000058,
2250,2141,-0.240438900652673,-11.1508969015429,0.00961106316839277,-0.000744,0.002657,-0.007961,-0.007225,0.094835,328.777499,23.795032,0.999055,0.983543,0.004989,0.158406,-0.000034,-0.000013,0.000021,0.000000,-0.000046,58.204115,0.000054,
2355,3206,1.84789510535504,12.0653891383535,0.0234120348940792,-0.000626,0.002198,-0.007181,-0.002559,0.098482,311.115003,25.912384,0.999586,0.994283,0.003135,0.239383,-0.000033,-0.000049,0.000002,-0.000033,-0.000049,6.859844,0.000082,
2340,3146,1.53333118485793,10.7631286867756,0.0204085340795928,-0.000760,0.002343,-0.007009,-0.009575,0.098500,312.089937,25.735323,0.999579,0.993508,0.003453,0.202427,-0.000035,-0.000036,0.000002,-0.000034,-0.000038,37.935347,0.000071,
2160,3206,-2.38240773532419,12.0472026383546,0.0332031233634211,-0.000739,0.001911,-0.003791,-0.021759,0.078994,311.549702,24.937377,0.999622,0.995139,0.002916,0.244043,-0.000028,-0.000043,-0.000006,-0.000027,-0.000045,-18.114087,0.000073,
2055,3206,-4.65721864445694,12.0384702694411,0.0335023302505988,-0.000489,0.002431,-0.006472,-0.003512,0.095267,312.073789,24.423573,0.999641,0.995050,0.002856,0.262463,-0.000039,-0.000040,0.000010,-0.000030,-0.000049,44.603354,0.000080,
2310,3131,0.884159483601092,10.4354564703828,0.0124009200399087,-0.000754,0.002423,-0.007278,-0.008905,0.092814,312.292060,25.555665,0.999511,0.994059,0.003278,0.217173,-0.000026,-0.000033,0.000001,-0.000026,-0.000034,9.348079,0.000060,
2475,2306,4.6390848312162,-7.53642268745428,0.00420651972007136,-0.000696,0.002837,-0.005502,-0.009830,0.114833,326.085096,23.158862,0.999233,0.979591,0.005520,0.195129,-0.000031,0.000006,0.000030,0.000023,-0.000048,60.616893,0.000048,
2220,2111,-0.889367211024375,-11.8078818956755,0.010182108512538,-0.000513,0.003224,-0.009428,0.007653,0.110262,329.353138,23.935594,0.999059,0.984526,0.004912,0.157849,-0.000040,-0.000013,0.000013,-0.000008,-0.000046,67.716128,0.000058,
2130,3251,-3.04072558298885,13.0207197360307,0.0192981491238129,-0.000417,0.002102,-0.006362,0.000573,0.083383,310.824713,24.833088,0.999702,0.995549,0.002722,0.218802,-0.000041,-0.000061,-0.000006,-0.000040,-0.000062,-15.430054,0.000103,
2175,3296,-2.07518300120147,14.0012768675627,-0.00855988836730148,-0.000385,0.002308,-0.006900,0.004533,0.100700,309.663514,25.109056,0.999829,0.997112,0.002344,0.230962,-0.000028,-0.000046,0.000000,-0.000028,-0.000046,-1.345658,0.000075,
2145,3251,-2.71599079926945,13.0218210182243,0.0161282272202925,-0.000432,0.001871,-0.005240,-0.003392,0.073060,310.730983,24.883079,0.999646,0.994826,0.002907,0.238279,-0.000039,-0.000056,-0.000007,-0.000036,-0.000059,-18.990977,0.000096,
2070,3176,-4.32779015835958,11.3905184746324,0.0275482947362207,-0.000443,0.002419,-0.005528,-0.003763,0.108812,312.439479,24.523773,0.999808,0.996878,0.002523,0.258421,-0.000032,-0.000021,0.000019,-0.000007,-0.000046,53.287546,0.000057,
2235,2126,-0.565123109839469,-11.4788348346621,0.00787555012203711,-0.000690,0.003109,-0.008347,-0.003599,0.102299,329.042385,23.890933,0.999066,0.983746,0.004949,0.130156,-0.000038,-0.000010,0.000020,0.000001,-0.000048,62.695465,0.000055,
2445,2171,4.01295063312442,-10.4954304965441,0.0157979504659238,-0.000423,0.003011,-0.009540,0.017267,0.093124,328.373785,22.892078,0.999655,0.986338,0.004480,0.070462,-0.000023,-0.000004,0.000007,-0.000001,-0.000026,72.583974,0.000030,
2190,2051,-1.53398033300995,-13.1233205930673,0.00355523364072496,-0.000363,0.002976,-0.009187,0.013011,0.085624,330.369262,23.989782,0.999238,0.985868,0.004684,0.185574,-0.000059,-0.000029,-0.000010,-0.000026,-0.000062,-72.512276,0.000090,
2265,2411,0.0372036149875932,-5.24004033571123,-0.0105093358419595,-0.000438,0.003135,-0.010095,0.014332,0.103440,324.152372,24.136815,0.999358,0.988053,0.004383,0.238667,-0.000029,-0.000016,0.000005,-0.000015,-0.000031,70.125876,0.000047,
2160,3296,-2.39921177276718,13.9988089679196,0.00838744175393913,-0.000418,0.002383,-0.005280,-0.002135,0.110780,309.854127,25.009123,0.999826,0.997037,0.002373,0.254568,-0.000034,-0.000048,0.000002,-0.000034,-0.000048,9.850420,0.000082,
2370,3266,2.159922825545,13.3692191171524,-0.000352699002291956,-0.000734,0.002280,-0.006538,-0.009528,0.102439,309.903601,26.139817,0.999728,0.994413,0.003058,0.246778,-0.000017,-0.000047,0.000002,-0.000017,-0.000047,3.215445,0.000066,
2205,2081,-1.21155142703268,-12.4657988039101,0.00874114864546982,-0.000482,0.002968,-0.009269,0.008151,0.100078,329.872736,23.952405,0.999214,0.985090,0.004788,0.179753,-0.000051,-0.000017,0.000006,-0.000016,-0.000053,79.840689,0.000072,
2235,2351,-0.605709222712594,-6.55184800032616,-0.00630898661893298,-0.000393,0.002519,-0.005402,0.000321,0.102341,325.220616,24.172743,0.999082,0.985204,0.004849,0.199563,-0.000033,0.000007,-0.000006,0.000008,-0.000034,-81.034746,0.000035,
2190,2261,-1.57077144227177,-8.52014735692293,-0.00914974933925805,-0.000352,0.002668,-0.006074,0.003715,0.117365,326.800202,24.227419,0.999026,0.983371,0.005071,0.220358,-0.000022,0.000003,0.000004,0.000004,-0.000022,80.684143,0.000024,
2175,3041,-2.02962473522973,8.47311350350067,0.00632776203548246,-0.000152,0.002038,-0.006295,0.013281,0.085746,314.059723,24.979641,0.999693,0.996006,0.002978,0.161443,-0.000029,-0.000017,0.000011,-0.000010,-0.000036,58.454991,0.000048,
2145,2156,-2.53295472602894,-10.8195809224229,0.00260380277052263,-0.000195,0.002730,-0.007386,0.014238,0.091546,328.790065,24.432448,0.999738,0.968998,0.006219,0.115443,-0.000042,-0.000010,0.000011,-0.000007,-0.000045,73.286191,0.000057,
2325,3206,1.19732562074545,12.0618851084065,0.0296753996540247,-0.000376,0.002194,-0.007587,0.009744,0.083208,311.189475,25.742605,0.999673,0.994661,0.002996,0.247772,-0.000034,-0.000048,-0.000002,-0.000034,-0.000049,-7.956927,0.000083,
2505,2456,5.26146029593012,-4.25228513935642,-0.0140818984741031,-0.000586,0.002584,-0.007049,0.001482,0.103571,323.540507,23.637458,0.999358,0.988726,0.004183,0.210723,-0.000025,-0.000082,-0.000011,-0.000023,-0.000084,-10.891307,0.000113,
2295,2471,0.678841981973637,-3.92646792170487,-0.0216126581222511,-0.000402,0.003394,-0.007495,0.008117,0.147417,323.020587,24.241639,0.998851,0.986121,0.004797,0.214448,-0.000036,-0.000017,0.000001,-0.000017,-0.000036,87.493298,0.000054,
2400,2036,3.05603187451525,-13.4585206881837,0.0155768298313319,-0.000624,0.002857,-0.007409,-0.000734,0.119065,330.510836,22.594064,0.999024,0.979877,0.005616,0.199424,0.000033,-0.000028,0.000016,0.000037,-0.000032,13.594167,0.000040,
2160,2216,-2.21599266390343,-9.50570203136921,-0.000520521415126041,-0.000277,0.002907,-0.010826,0.021274,0.086524,327.729115,24.376124,0.998849,0.982867,0.005063,0.135832,-0.000032,0.000001,0.000007,0.000002,-0.000033,78.149392,0.000037,
2100,2141,-3.51201138966789,-11.1483840864961,0.00449066382344654,-0.000792,0.002505,-0.004236,-0.023198,0.097818,329.207266,24.617122,0.998952,0.984156,0.005107,0.177334,-0.000042,-0.000017,0.000019,-0.000007,-0.000052,61.767032,0.000065,
2220,2336,-0.931371549362627,-6.87735944365711,-0.0305222043916729,-0.000186,0.002205,-0.005833,0.010858,0.085770,325.310734,24.212508,0.999673,0.991019,0.003928,0.176235,-0.000028,0.000006,-0.000007,0.000008,-0.000029,-78.753413,0.000030,
2430,2126,3.69353756155531,-11.4834983553914,0.017121816945405,-0.000773,0.002327,-0.003797,-0.020444,0.091292,329.062917,22.734408,0.999606,0.982677,0.005396,0.149040,-0.000001,-0.000016,0.000026,0.000019,-0.000036,36.636094,0.000036,
2070,3191,-4.3300939877664,11.715665364004,0.0277059713707786,-0.000444,0.002446,-0.007650,0.002321,0.115971,312.196243,24.527724,0.999578,0.995295,0.002902,0.256919,-0.000034,-0.000033,0.000015,-0.000019,-0.000048,46.672452,0.000069,
2310,2501,0.999792167929936,-3.27280284492338,-0.0169962846334215,-0.000821,0.002737,-0.005144,-0.019107,0.105136,322.522931,24.200078,0.999427,0.989420,0.004033,0.244471,-0.000030,-0.000023,0.000004,-0.000021,-0.000032,64.087703,0.000053,
2280,2456,0.355070819463617,-4.25553205170876,-0.0165819261332558,-0.000452,0.002734,-0.006325,0.001371,0.090075,323.322382,24.243300,0.999746,0.992912,0.003574,0.161964,-0.000034,-0.000022,0.000007,-0.000019,-0.000037,64.874255,0.000057,
2355,3221,1.84469190935474,12.3912240379718,0.0176631477967817,-0.000396,0.002208,-0.005989,0.003843,0.099534,310.821500,25.964486,0.999559,0.994041,0.003122,0.225725,-0.000030,-0.000047,-0.000003,-0.000030,-0.000048,-10.337669,0.000078,
2235,3161,-0.748244643974495,11.0795280748132,0.0159801142205538,-0.000134,0.002304,-0.007972,0.020616,0.099587,311.970115,25.255292,0.999340,0.992478,0.003576,0.253772,-0.000023,-0.000051,-0.000001,-0.000023,-0.000051,-1.405759,0.000076,
2250,2381,-0.284565151071138,-5.89566323782308,-0.0127836703572939,-0.000391,0.003053,-0.006860,0.005554,0.130355,324.646179,24.099219,0.999121,0.986343,0.004742,0.298058,-0.000031,-0.000001,0.000003,-0.000001,-0.000031,84.902602,0.000036,
2115,2141,-3.18507021491626,-11.1478889711307,0.00394037351804855,-0.000648,0.002533,-0.003142,-0.019637,0.107964,329.137500,24.580741,0.998499,0.980457,0.005693,0.140520,-0.000044,-0.000017,0.000010,-0.000014,-0.000047,71.821600,0.000063,
2145,3266,-2.71874461600561,13.3469944586637,0.0142771541567299,-0.000426,0.001801,-0.004243,-0.006118,0.077341,310.461570,24.902623,0.999658,0.995417,0.002852,0.228971,-0.000040,-0.000058,-0.000004,-0.000039,-0.000059,-11.759686,0.000099,
2175,2246,-1.89532103982387,-8.84941934673459,-0.00235138746808161,-0.000972,0.002707,-0.005186,-0.027664,0.104918,327.120111,24.266457,0.999028,0.983278,0.005006,0.220539,-0.000025,-0.000004,0.000012,0.000001,-0.000030,65.541255,0.000034,
2325,2066,1.41091146227994,-12.7985854650401,0.0106145889222375,-0.000569,0.002673,-0.007554,0.000888,0.088934,329.948285,23.094121,0.999510,0.983987,0.004874,0.245268,-0.000009,-0.000024,0.000014,0.000000,-0.000032,30.941389,0.000037,
2085,3221,-4.00978847111307,12.3655299194425,0.0380085148725584,-0.000597,0.001889,-0.004032,-0.015232,0.080568,311.683926,24.573862,0.999536,0.993880,0.003319,0.241116,-0.000028,-0.000055,0.000007,-0.000027,-0.000056,13.089361,0.000085,
2130,3266,-3.04349383438186,13.3459651200751,0.00821677857948089,-0.000083,0.002196,-0.008946,0.023759,0.079290,310.503934,24.814428,0.999716,0.995858,0.002707,0.237545,-0.000044,-0.000062,-0.000003,-0.000043,-0.000063,-10.410032,0.000107,
2490,2441,4.93788239313426,-4.58150145444499,-0.00220076490876409,-0.000716,0.002444,-0.004849,-0.013195,0.105080,323.830447,23.636735,0.999252,0.985275,0.004557,0.190992,-0.000033,-0.000068,0.000005,-0.000032,-0.000068,8.266574,0.000103,
2220,2126,-0.891927476783689,-11.4784206716545,0.00530102212860584,-0.000377,0.003609,-0.013051,0.025584,0.109917,329.083623,23.957951,0.998822,0.985095,0.004828,0.157019,-0.000038,-0.000010,0.000012,-0.000005,-0.000043,69.296363,0.000053,
2295,2216,0.727729421769759,-9.50722368409277,0.00173503901345384,-0.000338,0.002952,-0.008558,0.014410,0.100676,327.435751,23.672834,0.999097,0.980590,0.005280,0.196830,-0.000030,0.000008,-0.000005,0.000009,-0.000030,-83.105895,0.000031,
2310,3146,0.881704531006282,10.7609013142685,0.0142887994963417,-0.000556,0.002470,-0.007693,0.001693,0.104891,312.067375,25.586934,0.999599,0.993547,0.003410,0.228913,-0.000029,-0.000030,0.000000,-0.000028,-0.000030,-13.004954,0.000058,
2475,2321,4.63589096827704,-7.20811818529048,-0.00186688402766322,-0.000360,0.002571,-0.006515,0.009247,0.093096,325.805509,23.162369,0.999327,0.980500,0.005242,0.228477,-0.000037,-0.000018,0.000021,-0.000005,-0.000051,57.340805,0.000061,
2235,2141,-0.567072585747677,-11.1516339749798,0.0149834903422175,-0.000462,0.002888,-0.007644,0.004475,0.107324,328.863480,23.838934,0.999042,0.983218,0.004953,0.210753,-0.000034,-0.000012,0.000021,0.000000,-0.000047,58.984401,0.000054,
2205,2321,-1.25404604902329,-7.20894362290467,-0.00362305997418844,-0.000657,0.002714,-0.007440,-0.005721,0.106193,325.805572,24.178348,0.999167,0.987153,0.004335,0.266871,-0.000030,0.000019,-0.000004,0.000019,-0.000030,-84.869501,0.000031,
2370,3281,2.15639241552229,13.6945007039015,-0.00382688973530776,-0.000937,0.002180,-0.004826,-0.025055,0.096873,309.607129,26.179196,0.999641,0.994169,0.003185,0.240936,-0.000013,-0.000051,-0.000002,-0.000013,-0.000051,-3.575728,0.000068,
2055,3221,-4.65949988346885,12.3633158454051,0.0359344736528442,-0.000390,0.002263,-0.004764,-0.003755,0.098098,311.843304,24.424486,0.999560,0.994531,0.002982,0.257439,-0.000038,-0.000054,0.000011,-0.000032,-0.000060,26.890499,0.000094,
2505,2471,5.25832367697399,-3.9241948725201,-0.0143101192134054,-0.000553,0.002774,-0.007193,0.003609,0.108512,323.291607,23.706582,0.999414,0.987484,0.004277,0.208902,-0.000036,-0.000084,-0.000013,-0.000033,-0.000088,-14.745410,0.000124,
2265,2201,0.0756981939710712,-9.83557708192295,0.00225332504271591,-0.000301,0.002332,-0.003872,-0.000199,0.100801,327.710078,23.797414,0.998920,0.981767,0.005309,0.190662,-0.000028,0.000010,0.000018,0.000017,-0.000035,67.927136,0.000035,
2280,2261,0.390926659599028,-8.51851120564671,-0.0175230110662596,-0.000252,0.002712,-0.008374,0.017345,0.081027,326.551665,23.947893,0.999616,0.988590,0.004352,0.065861,-0.000023,-0.000006,0.000002,-0.000006,-0.000024,82.143353,0.000031,
2325,3221,1.1940235273671,12.3876981657257,0.0242911443148159,-0.000380,0.002355,-0.007052,0.007747,0.087735,310.890708,25.790497,0.999509,0.993832,0.003115,0.237090,-0.000033,-0.000049,-0.000008,-0.000030,-0.000052,-22.031019,0.000083,
2160,2231,-2.21820499714993,-9.1782436863528,0.00443703717945709,-0.000159,0.002899,-0.008274,0.018940,0.088286,327.521553,24.356880,0.998975,0.983037,0.004957,0.169221,-0.000032,-0.000015,0.000002,-0.000015,-0.000033,84.699623,0.000049,
2205,2096,-1.21371426946991,-12.1378962110141,0.0143507229124111,-0.000318,0.002557,-0.007204,0.009035,0.081727,329.674300,23.955614,0.999182,0.985494,0.004837,0.177604,-0.000051,-0.000011,0.000007,-0.000010,-0.000052,80.413013,0.000067,
2445,2186,4.00967783401321,-10.1674811151799,0.0152110016260281,-0.000507,0.002796,-0.008378,0.009043,0.089886,328.113500,22.851026,0.999693,0.987128,0.004477,0.163053,-0.000026,0.000004,0.000011,0.000007,-0.000029,72.434904,0.000031,
2325,2306,1.36448331653265,-7.53546427488554,-0.00577679621238758,-0.000373,0.002559,-0.003922,-0.002631,0.112451,325.849946,23.773886,0.999098,0.985128,0.004821,0.180736,-0.000030,-0.000001,0.000004,-0.000001,-0.000031,82.292821,0.000036,
2310,2276,1.04371830363904,-8.19328909766818,0.00022634296317392,-0.000444,0.002874,-0.009580,0.013295,0.093909,326.419966,23.737181,0.999278,0.986605,0.004465,0.190086,-0.000031,-0.000003,-0.000002,-0.000003,-0.000031,-86.391787,0.000038,
2490,2456,4.93364246644831,-4.25259277083445,-0.0171832788713004,-0.000637,0.002197,-0.005760,-0.006199,0.093261,323.463216,23.651783,0.999414,0.987076,0.004304,0.224520,-0.000038,-0.000074,-0.000004,-0.000037,-0.000074,-5.481484,0.000113,
2100,3176,-3.67827900399265,11.3923417397426,0.0185310738449971,-0.000507,0.002273,-0.007199,-0.001568,0.081691,312.210077,24.576356,0.999827,0.996453,0.002558,0.316307,-0.000021,-0.000027,0.000010,-0.000013,-0.000035,36.019856,0.000050,
2115,3191,-3.35485384642498,11.718410953454,0.0316187913169301,-0.000390,0.001989,-0.005778,-0.000210,0.077054,311.998462,24.712582,0.999533,0.993468,0.003453,0.245747,-0.000029,-0.000041,0.000002,-0.000029,-0.000041,9.231667,0.000070,
2085,3236,-4.01247010274455,12.6911608235625,0.0295923698596425,-0.000443,0.002334,-0.006700,-0.000266,0.091516,311.377313,24.579783,0.999647,0.995200,0.002914,0.243698,-0.000028,-0.000057,0.000004,-0.000028,-0.000057,8.430667,0.000087,
2175,3056,-2.03209480761782,8.7970566278591,0.0137596783654885,-0.000475,0.002281,-0.005459,-0.004111,0.098048,313.854974,24.884054,0.999696,0.995928,0.002979,0.280311,-0.000029,-0.000019,0.000011,-0.000012,-0.000036,56.339706,0.000050,
2130,3281,-3.04642381592562,13.6705067300448,0.0071937499282626,-0.000272,0.002014,-0.007043,0.009266,0.078291,310.230013,24.789820,0.999724,0.996169,0.002668,0.264916,-0.000044,-0.000061,-0.000001,-0.000044,-0.000061,-4.622709,0.000105,
2250,2396,-0.286996489660815,-5.5667989570636,-0.009562477553402,-0.000460,0.003044,-0.008238,0.006877,0.118618,324.425966,24.260846,0.999115,0.988752,0.004445,0.149367,-0.000036,-0.000004,0.000001,-0.000004,-0.000036,88.683633,0.000044,
2280,2471,0.352278481930487,-3.92829580440046,-0.0201712416029523,-0.000242,0.002520,-0.006323,0.010913,0.095443,323.053987,24.199660,0.999510,0.991093,0.003934,0.239677,-0.000031,-0.000022,0.000008,-0.000018,-0.000036,61.451403,0.000054,
2175,2006,-1.85247115927236,-14.1121658113728,0.0159814971134438,-0.000153,0.003503,-0.012269,0.031920,0.106060,331.276350,24.010912,0.999357,0.986842,0.004591,0.233981,-0.000035,0.000022,-0.000034,0.000037,-0.000050,-65.022815,0.000052,
2505,2486,5.25522716911807,-3.59693203278139,-0.011907747013538,-0.000667,0.002695,-0.006862,-0.002913,0.103328,323.056376,23.739588,0.999535,0.987731,0.004264,0.232989,-0.000042,-0.000080,-0.000009,-0.000040,-0.000082,-13.111231,0.000124,
2295,2276,0.716215207659001,-8.1931181396685,-0.00355892086435006,-0.000074,0.002141,-0.004003,0.010872,0.081147,326.398501,23.789451,0.999516,0.988111,0.004371,0.189424,-0.000034,-0.000005,-0.000011,-0.000002,-0.000038,-71.866274,0.000044,
2460,2231,4.32694017741989,-9.17956415311443,0.00110984832241456,-0.000577,0.002855,-0.007719,0.003719,0.078597,327.278138,22.940566,0.999280,0.983687,0.005012,0.155266,-0.000024,0.000003,0.000031,0.000024,-0.000045,56.653295,0.000045,
2130,2141,-2.85789621558289,-11.1470992782937,-0.00539346732779222,-0.000202,0.003048,-0.009167,0.019048,0.099082,329.034219,24.494226,0.999176,0.985925,0.004783,0.134776,-0.000042,-0.000021,0.000010,-0.000017,-0.000046,67.976461,0.000066,
2235,3176,-0.750717264141262,11.4038051513532,0.0255935848946933,-0.000299,0.001975,-0.003970,-0.000093,0.091254,311.779525,25.252769,0.999377,0.992639,0.003473,0.267559,-0.000022,-0.000055,-0.000005,-0.000021,-0.000056,-8.408006,0.000079,
2145,2936,-2.66379448907078,6.19293438064871,-0.011908941438378,-0.000263,0.002746,-0.009151,0.016572,0.103624,315.771775,24.820990,0.999427,0.991890,0.003683,0.191886,-0.000026,-0.000035,0.000005,-0.000023,-0.000037,24.034899,0.000061,
2160,3221,-2.38476578916774,12.3726224466329,0.0347041163033737,-0.000609,0.002145,-0.003836,-0.015470,0.105643,311.317297,24.964327,0.999670,0.995271,0.002899,0.252188,-0.000030,-0.000055,-0.000008,-0.000028,-0.000057,-15.890135,0.000087,
2145,3281,-2.72174218574751,13.672451146386,0.00766318930880061,-0.000332,0.001801,-0.003011,-0.005473,0.085221,310.155408,24.921953,0.999647,0.995733,0.002794,0.223761,-0.000040,-0.000053,-0.000001,-0.000039,-0.000053,-3.051584,0.000093,
2250,2156,-0.242486407345979,-10.8230076962765,0.0144585775573773,-0.000482,0.002849,-0.008039,0.005144,0.092519,328.583678,23.793626,0.998637,0.982169,0.005184,0.183308,-0.000033,0.000006,0.000025,0.000018,-0.000045,64.128022,0.000045,
2145,2171,-2.53459630026996,-10.4938791573296,0.0210646514304358,-0.000460,0.002577,-0.005162,-0.004669,0.102420,328.679171,24.369027,0.999821,0.949424,0.007898,0.199808,-0.000038,-0.000007,0.000006,-0.000005,-0.000039,78.812363,0.000049,
2295,2486,0.676266784010267,-3.60009467114716,-0.0193837008364994,-0.000383,0.003106,-0.007581,0.009155,0.133270,322.792541,24.198549,0.999394,0.990046,0.004080,0.274438,-0.000036,-0.000014,0.000001,-0.000014,-0.000036,88.432239,0.000052,
2475,2336,4.63284737971904,-6.87880625281125,-0.00267752599285132,-0.000187,0.002482,-0.006136,0.015720,0.080004,325.556419,23.308331,0.998969,0.982252,0.005322,0.127621,-0.000044,-0.000015,0.000020,-0.000005,-0.000054,62.975545,0.000065,
2070,3206,-4.33211328874199,12.0399272694967,0.0316713830086996,-0.000299,0.002373,-0.008214,0.010505,0.097526,311.987415,24.502267,0.999555,0.994744,0.003022,0.259190,-0.000035,-0.000037,0.000010,-0.000025,-0.000047,41.083947,0.000073,
2220,2351,-0.932931283726791,-6.55123524635819,-0.0205408307958805,-0.000028,0.002495,-0.008628,0.027146,0.082297,325.163352,24.168614,0.999500,0.989356,0.004181,0.236831,-0.000032,0.000006,-0.000005,0.000007,-0.000032,-82.756854,0.000034,
2190,2276,-1.57257245344082,-8.1923695275749,-0.00309424830646776,-0.000044,0.002826,-0.006572,0.019482,0.122365,326.619264,24.261273,0.999069,0.983059,0.005052,0.208057,-0.000020,0.000006,0.000000,0.000006,-0.000020,89.319211,0.000021,
2340,3161,1.53049784876055,11.0880952348319,0.0195325908362634,-0.000610,0.002109,-0.006425,-0.004810,0.087888,311.836512,25.731799,0.999666,0.994172,0.003298,0.230718,-0.000034,-0.000041,0.000001,-0.000034,-0.000041,6.747504,0.000075,
2175,2261,-1.89754886056354,-8.52042197166357,-0.00356393152276269,-0.000738,0.002975,-0.007454,-0.009843,0.116537,326.880364,24.324147,0.999097,0.982900,0.005171,0.188979,-0.000025,0.000007,0.000009,0.000009,-0.000027,75.474183,0.000027,
2325,2081,1.40774368405114,-12.4682131478582,0.0121926861237966,-0.000803,0.002369,-0.004590,-0.020123,0.091990,329.692850,23.252602,0.999569,0.984415,0.005058,0.127296,-0.000010,-0.000028,0.000016,-0.000001,-0.000037,30.315903,0.000043,
2115,3206,-3.35709361392334,12.0428682015508,0.0375727300648236,-0.000425,0.002053,-0.004658,-0.005020,0.098108,311.792911,24.678436,0.999599,0.994611,0.003139,0.303006,-0.000030,-0.000041,-0.000002,-0.000029,-0.000041,-10.223147,0.000071,
2220,2141,-0.894512564796841,-11.1501013897136,0.00328870340428011,0.000008,0.003092,-0.009864,0.032879,0.107366,328.827803,23.915881,0.999032,0.985231,0.004841,0.218209,-0.000033,-0.000011,0.000013,-0.000005,-0.000040,64.360278,0.000049,
2370,3296,2.15313005398561,14.0202794488531,-0.0169972356829931,-0.000599,0.002450,-0.009296,0.006490,0.093337,309.276060,26.212708,0.999596,0.994728,0.003134,0.243600,-0.000003,-0.000054,-0.000010,-0.000001,-0.000056,-11.030700,0.000065,
2175,2021,-1.85531226019564,-13.7836145374536,0.0198412674120618,-0.000624,0.002965,-0.010462,0.004657,0.069332,331.035629,24.044760,0.999098,0.987077,0.004588,0.179079,-0.000040,0.000004,-0.000015,0.000008,-0.000045,-73.155706,0.000048,
2310,2516,0.996584875410758,-2.94482002012764,-0.0200640761787554,-0.000864,0.002622,-0.003360,-0.027221,0.106277,322.240497,24.249983,0.999348,0.986946,0.004348,0.229063,-0.000033,-0.000036,0.000002,-0.000032,-0.000037,27.332493,0.000069,
2415,2081,3.3748857918241,-12.4703435210885,0.0150061957984917,-0.000630,0.002406,-0.006580,-0.003917,0.077570,329.780528,22.712249,0.998629,0.979812,0.005925,0.092165,0.000021,-0.000011,0.000029,0.000038,-0.000029,30.644833,0.000040,
2085,3251,-4.01451438517419,13.0154924383706,0.0377107262506797,-0.000453,0.002370,-0.005608,-0.003875,0.101002,311.190991,24.567807,0.999760,0.996011,0.002691,0.262480,-0.000025,-0.000065,0.000002,-0.000025,-0.000065,2.655445,0.000093,
2235,2366,-0.608775568137442,-6.22325237590335,-0.00694041081391106,-0.000733,0.002668,-0.005029,-0.016444,0.112995,324.950595,24.238965,0.999359,0.987878,0.004514,0.166826,-0.000035,-0.000002,-0.000003,-0.000002,-0.000035,-84.192521,0.000042,
2190,2066,-1.53663173598376,-12.7931546094591,-0.00395098601370591,-0.000025,0.003161,-0.010236,0.031802,0.113529,330.078842,23.995149,0.999571,0.988923,0.004417,0.225927,-0.000054,-0.000027,-0.000005,-0.000026,-0.000054,-80.500260,0.000082,
2265,2216,0.073209170773648,-9.50723580271196,0.0058188320086856,-0.000387,0.002351,-0.004439,-0.002271,0.103970,327.490544,23.839213,0.998995,0.981681,0.005241,0.179835,-0.000030,0.000005,0.000010,0.000007,-0.000032,74.304234,0.000034,
2115,2156,-3.1870830155126,-10.8189687557424,0.00100306788772286,-0.000273,0.002585,-0.006344,0.006966,0.099870,328.893188,24.592679,0.999081,0.985629,0.004875,0.126431,-0.000045,-0.000003,0.000010,-0.000001,-0.000047,77.303599,0.000055,
2490,2471,4.93124272283052,-3.92501751851341,-0.0105281742910392,-0.000679,0.002798,-0.008319,0.001897,0.107064,323.277962,23.729644,0.999546,0.988209,0.004117,0.220459,-0.000048,-0.000081,-0.000008,-0.000046,-0.000083,-12.811585,0.000130,
2265,2426,0.034313174429375,-4.91268861578001,-0.00578911328807408,-0.000674,0.002649,-0.006181,-0.009572,0.108146,323.919959,24.167917,0.999429,0.989231,0.004153,0.239035,-0.000029,-0.000030,0.000006,-0.000024,-0.000036,42.882836,0.000060,
2205,2336,-1.25693292204346,-6.87938871378365,-0.00634205656643871,-0.000662,0.002426,-0.006137,-0.010133,0.096275,325.530403,24.320680,0.999555,0.990114,0.004023,0.133094,-0.000033,0.000005,-0.000005,0.000006,-0.000034,-83.239637,0.000036,
2235,2156,-0.570445735887748,-10.8207258632588,0.00145054763851249,-0.000291,0.003008,-0.008531,0.015209,0.098413,328.514062,23.919462,0.998970,0.985016,0.004897,0.145611,-0.000033,0.000005,0.000024,0.000017,-0.000045,64.416778,0.000045,
2100,3191,-3.68007077308003,11.7177767217832,0.0273286413291203,-0.000422,0.002353,-0.008086,0.005005,0.092556,312.039305,24.656688,0.999597,0.994852,0.003032,0.246338,-0.000024,-0.000038,0.000007,-0.000021,-0.000041,22.005972,0.000063,
2295,2291,0.713761397239136,-7.86458825699601,-0.00244336915346821,-0.000116,0.002560,-0.007655,0.021383,0.084480,326.170564,23.849278,0.999539,0.987454,0.004387,0.164999,-0.000033,0.000007,-0.000010,0.000010,-0.000035,-76.347701,0.000037,
2430,2141,3.69058099826858,-11.153615137359,0.0128321415961068,-0.000425,0.002671,-0.004668,-0.001197,0.120232,328.798519,22.780541,0.999416,0.982452,0.005213,0.184720,-0.000011,-0.000018,0.000024,0.000010,-0.000039,40.794068,0.000041,
2505,2501,5.2517638969255,-3.26817875351077,-0.0182634344782855,-0.000371,0.002284,-0.006246,0.008107,0.086464,322.764871,23.844336,0.999308,0.987228,0.004679,0.173380,-0.000043,-0.000057,-0.000017,-0.000032,-0.000068,-34.291617,0.000102,
2400,2051,3.0532129822766,-13.1275662966311,0.0104226681187356,-0.000350,0.003238,-0.011102,0.025265,0.105604,330.246298,22.735212,0.999105,0.978577,0.005781,0.093680,0.000029,-0.000031,0.000013,0.000031,-0.000034,11.275019,0.000038,
2325,2321,1.36097997069735,-7.20731363245655,-0.00629142534705807,-0.000805,0.002375,-0.001110,-0.032143,0.123704,325.568359,23.785727,0.998975,0.985037,0.004944,0.216497,-0.000029,0.000014,0.000006,0.000015,-0.000030,82.546150,0.000030,
2355,3236,1.84156699644733,12.7164229135552,0.0157441997932892,-0.000443,0.002145,-0.005591,0.000239,0.099443,310.550323,25.986108,0.999609,0.993731,0.003120,0.241074,-0.000028,-0.000040,-0.000002,-0.000027,-0.000040,-9.886515,0.000068,
2385,2006,2.73463915685508,-14.1174559941157,0.0170230320641735,-0.000335,0.003033,-0.010676,0.023951,0.088479,331.026907,22.622697,0.998898,0.976461,0.005857,0.146795,0.000025,-0.000020,0.000029,0.000039,-0.000035,26.241835,0.000043,
2325,2546,1.3176240295313,-2.29015800055002,-0.0236625661665357,-0.000587,0.001936,-0.002576,-0.017315,0.091989,321.714492,24.226569,0.999276,0.986901,0.004404,0.279794,-0.000026,-0.000032,0.000001,-0.000026,-0.000032,9.112830,0.000058,
2295,2501,0.67251031558369,-3.27025203850013,-0.0318044095241703,-0.000442,0.003075,-0.007612,0.006551,0.137382,322.436879,24.324038,0.999716,0.993459,0.003476,0.184343,-0.000035,-0.000021,0.000003,-0.000021,-0.000035,79.937557,0.000056,
2130,3296,-3.04917548518581,13.9953546274936,0.0047776251606706,-0.000354,0.001960,-0.007644,0.007301,0.076835,309.956673,24.790031,0.999670,0.994045,0.003102,0.267216,-0.000047,-0.000062,0.000001,-0.000047,-0.000062,3.994707,0.000109,
2175,2036,-1.85824951612367,-13.4528658017688,0.0135350867027455,-0.000569,0.002828,-0.009812,0.005105,0.081755,330.736890,24.118759,0.999218,0.986531,0.004587,0.133653,-0.000053,0.000001,-0.000011,0.000003,-0.000055,-79.193125,0.000063,
2145,2201,-2.54104685187928,-9.83429557792476,-0.00253989432155777,-0.000695,0.002975,-0.009423,-0.002499,0.077104,327.991242,24.399542,0.998691,0.979674,0.005476,0.165667,-0.000038,0.000008,0.000005,0.000009,-0.000038,84.189014,0.000040,
2145,3296,-2.72414563049828,13.9972781354696,0.00343095056791753,-0.000117,0.002072,-0.006580,0.015354,0.089757,309.889505,24.904414,0.999674,0.995841,0.002677,0.251975,-0.000043,-0.000055,0.000000,-0.000043,-0.000055,-1.585917,0.000098,
2445,2201,4.00537344516256,-9.83769708580549,0.00230298877664836,-0.000469,0.002506,-0.005523,0.000089,0.090710,327.748972,22.847710,0.999697,0.986124,0.004604,0.222565,-0.000023,0.000011,0.000010,0.000014,-0.000026,74.282318,0.000026,
2340,2096,1.73289154071788,-12.1401310072395,0.0138917278119379,-0.000587,0.002182,-0.004445,-0.010625,0.080806,329.466990,23.157702,0.999576,0.985358,0.004692,0.157491,-0.000008,-0.000026,0.000016,0.000002,-0.000036,30.347865,0.000040,
2340,2336,1.68625142354893,-6.87930632334482,-0.00668725584705498,-0.000541,0.003053,-0.010551,0.012999,0.095042,325.358674,23.768329,0.999531,0.989557,0.004191,0.185449,-0.000032,0.000008,0.000001,0.000008,-0.000032,89.259147,0.000033,
2175,2276,-1.89940261283391,-8.19330358188011,0.000126755338328621,-0.000283,0.002718,-0.006972,0.009455,0.108421,326.683781,24.285843,0.998962,0.982988,0.005157,0.233373,-0.000023,0.000010,0.000004,0.000010,-0.000024,83.981548,0.000024,
2280,2486,0.349496098093631,-3.60141865504609,-0.0239143322548898,-0.000212,0.002671,-0.009028,0.021370,0.104955,322.785303,24.123019,0.999680,0.992347,0.003766,0.355071,-0.000031,-0.000018,0.000007,-0.000015,-0.000034,65.992041,0.000050,
2205,2111,-1.21715781519051,-11.8080582550166,0.00781081471529887,-0.000667,0.002647,-0.006310,-0.009770,0.090921,329.354308,23.978238,0.998859,0.985067,0.004863,0.184243,-0.000051,-0.000013,0.000005,-0.000013,-0.000052,82.414405,0.000068,
2310,3161,0.879182491451527,11.0856446236417,0.02168142838309,-0.000579,0.001990,-0.004665,-0.009874,0.090777,311.867059,25.617502,0.999686,0.994265,0.003204,0.214850,-0.000027,-0.000037,-0.000002,-0.000027,-0.000037,-10.261383,0.000064,
2280,2276,0.388675033632644,-8.19282306304835,-0.00957427751285422,-0.000160,0.002438,-0.005539,0.011998,0.086203,326.366275,23.812282,0.999669,0.988971,0.004366,0.236416,-0.000027,-0.000007,-0.000005,-0.000006,-0.000029,-76.785428,0.000037,
2070,3221,-4.33467769494867,12.3645159758919,0.035848927625068,-0.000414,0.002023,-0.004020,-0.006865,0.094621,311.754610,24.496069,0.999552,0.994505,0.003078,0.257619,-0.000033,-0.000053,0.000012,-0.000028,-0.000058,24.252529,0.000088,
2475,2351,4.62928364372774,-6.55068552371517,-0.00471761771399315,-0.000677,0.002651,-0.008569,0.002547,0.078918,325.277890,23.326397,0.999134,0.984147,0.005184,0.166890,-0.000044,-0.000009,0.000026,0.000005,-0.000058,61.525982,0.000064,
2325,3236,1.19014102097869,12.7137774447425,0.0154756785555605,-0.000611,0.002258,-0.005278,-0.008995,0.099479,310.548181,25.840413,0.999474,0.992900,0.003302,0.231508,-0.000031,-0.000038,-0.000006,-0.000028,-0.000042,-31.372667,0.000070,
2400,2066,3.05031064657986,-12.7983422952003,0.00111599315346211,-0.000035,0.003735,-0.017138,0.061615,0.087450,329.958519,22.682714,0.999311,0.981540,0.005665,0.176921,0.000023,-0.000018,0.000021,0.000032,-0.000027,22.511143,0.000034,
2115,2171,-3.1893087256971,-10.4916479646845,0.00905949573296994,-0.000557,0.002508,-0.005353,-0.008978,0.106100,328.698275,24.568955,0.999092,0.986163,0.004788,0.162216,-0.000039,-0.000004,0.000006,-0.000003,-0.000040,80.901178,0.000048,
2460,2246,4.32407423126441,-8.8514367092157,0.00541091700080187,-0.000548,0.002573,-0.005681,-0.002694,0.085819,327.059763,22.979099,0.999056,0.981450,0.005172,0.180181,-0.000022,0.000000,0.000035,0.000025,-0.000047,53.473888,0.000047,
2190,2081,-1.53913169460312,-12.4632329473906,-0.000909386185696803,-0.000173,0.003061,-0.010160,0.024775,0.102344,329.850234,24.142009,0.999477,0.986923,0.004677,0.085380,-0.000048,-0.000027,-0.000002,-0.000026,-0.000048,-84.305908,0.000076,
2145,2006,-2.50733451559355,-14.1128214212323,0.0273247494233715,-0.000510,0.002074,-0.003383,-0.012504,0.069834,331.432080,24.253779,0.999127,0.983413,0.005055,0.161776,-0.000047,-0.000015,0.000009,-0.000013,-0.000050,75.012878,0.000066,
2235,2381,-0.610732499495828,-5.89686388350129,-0.00313732968606928,-0.000404,0.002649,-0.006284,0.002707,0.106536,324.754434,24.168990,0.999299,0.987823,0.004574,0.252767,-0.000032,-0.000003,-0.000003,-0.000003,-0.000033,-84.513291,0.000040,
2340,3191,1.52483496300122,11.7390474687303,0.0216551783902901,-0.000655,0.002495,-0.006003,-0.008250,0.094566,311.348218,25.826564,0.999699,0.994818,0.003081,0.212845,-0.000036,-0.000051,0.000004,-0.000034,-0.000052,14.452268,0.000087,
2190,2291,-1.5747983127162,-7.86385850355381,-0.00558268085563896,0.000310,0.002927,-0.008807,0.042716,0.105436,326.374494,24.300961,0.999065,0.984646,0.004893,0.167847,-0.000019,0.000013,0.000000,0.000013,-0.000019,-89.800783,0.000020,
2220,2366,-0.935759372140762,-6.22286950364503,-0.0126778928988074,-0.000601,0.002788,-0.006070,-0.007187,0.106870,324.946468,24.284685,0.999534,0.989712,0.004144,0.165972,-0.000034,-0.000006,-0.000003,-0.000005,-0.000035,-83.103856,0.000044,
2085,3266,-4.01780085995249,13.3412471369505,0.0277501880085538,-0.000556,0.002346,-0.004372,-0.012154,0.111516,310.848094,24.585688,0.999740,0.996583,0.002585,0.252433,-0.000020,-0.000068,0.000005,-0.000019,-0.000069,6.396956,0.000092,
2235,3191,-0.753401557827981,11.72922736668,0.0253959333676335,-0.000412,0.002311,-0.006087,0.001632,0.095687,311.528495,25.286251,0.999348,0.992333,0.003532,0.258030,-0.000022,-0.000059,-0.000004,-0.000022,-0.000060,-5.664065,0.000084,
2115,3221,-3.36011259233073,12.3684813826949,0.0333167323034331,-0.000650,0.002160,-0.004659,-0.015366,0.098278,311.495976,24.714358,0.999650,0.995274,0.002978,0.269097,-0.000031,-0.000056,-0.000003,-0.000031,-0.000056,-6.677228,0.000089,
2160,2006,-2.18016252210586,-14.1116194408443,0.0181951679489885,-0.000252,0.002579,-0.006593,0.009395,0.079947,331.322690,24.179957,0.999175,0.985918,0.004758,0.142466,-0.000042,0.000009,-0.000016,0.000013,-0.000047,-74.365520,0.000048,
2205,2351,-1.25938122800818,-6.55307669964776,-0.00299527835187519,-0.000668,0.002460,-0.004817,-0.014582,0.090972,325.307192,24.227905,0.999712,0.991487,0.003803,0.238915,-0.000036,0.000004,-0.000001,0.000004,-0.000036,-88.002279,0.000039,
2265,2231,0.0696706292201377,-9.17800532265299,-0.00257959603487734,-0.000665,0.002572,-0.005112,-0.012709,0.108398,327.162783,23.840132,0.999154,0.981532,0.005107,0.211740,-0.000029,-0.000014,0.000003,-0.000013,-0.000029,79.136912,0.000044,
2310,2291,1.04133238870846,-7.86524660004445,0.000809354880971114,-0.000202,0.003150,-0.011145,0.029826,0.102190,326.193823,23.741996,0.999379,0.986835,0.004540,0.227706,-0.000030,0.000010,-0.000001,0.000010,-0.000030,-88.056642,0.000031,
2385,2021,2.73177984383025,-13.7872202533124,0.0115970823136422,-0.000056,0.003274,-0.013567,0.047127,0.065685,330.757963,22.692303,0.998799,0.975232,0.006096,0.101160,0.000025,-0.000024,0.000025,0.000035,-0.000034,22.527299,0.000040,
2355,3251,1.83872071426875,13.0412044074757,0.0158646946105137,-0.000535,0.002019,-0.007359,0.002140,0.084073,310.301958,26.000315,0.999689,0.993943,0.003040,0.248812,-0.000026,-0.000043,-0.000001,-0.000026,-0.000043,-2.255031,0.000070,
2310,2531,0.994208995015228,-2.61766298614581,-0.0179747933891008,-0.000752,0.002727,-0.005436,-0.014942,0.120329,322.021672,24.263635,0.999458,0.988826,0.004081,0.262466,-0.000029,-0.000029,0.000000,-0.000029,-0.000029,-8.094645,0.000058,
2130,2156,-2.85880656856839,-10.8214392747437,0.0207943063637686,0.000103,0.002215,-0.001500,0.009933,0.104590,328.997223,24.512284,0.999763,0.992624,0.003802,0.129275,-0.000043,-0.000007,0.000011,-0.000004,-0.000046,74.683531,0.000055,
2250,2411,-0.289925667541848,-5.24019879880859,-0.0101255662434596,-0.000614,0.002850,-0.007391,-0.003012,0.102340,324.164248,24.187941,0.999304,0.989116,0.004174,0.230674,-0.000038,-0.000012,0.000001,-0.000012,-0.000038,87.405458,0.000052,
2250,2171,-0.245427199678119,-10.4927725776522,0.00199150266035986,-0.000024,0.003286,-0.010361,0.033851,0.109781,328.261117,23.804711,0.999253,0.986527,0.004685,0.216035,-0.000036,0.000011,0.000019,0.000018,-0.000043,70.501231,0.000043,
2505,2516,5.24818993694019,-2.94084552989104,-0.0181795673133252,-0.000697,0.002231,-0.005088,-0.011312,0.092126,322.497103,23.861526,0.999467,0.989163,0.004270,0.224142,-0.000052,-0.000028,-0.000016,-0.000019,-0.000060,-63.135725,0.000083,
2490,2486,4.92817386619368,-3.59749408888515,-0.00971370610903932,-0.000502,0.002751,-0.006134,0.001631,0.105828,323.035649,23.767343,0.999582,0.988127,0.004093,0.241487,-0.000047,-0.000075,-0.000005,-0.000046,-0.000076,-9.636017,0.000124,
2415,2096,3.37186621793053,-12.1410371537342,0.0129196547336505,-0.000423,0.002630,-0.005744,0.002595,0.113349,329.522275,22.706100,0.999062,0.979550,0.005737,0.185245,0.000017,-0.000012,0.000030,0.000035,-0.000031,32.146181,0.000039,
2220,2156,-0.898193035935012,-10.8216703848945,-0.000468731945431955,-0.000389,0.002144,-0.003987,-0.004360,0.071326,328.513083,23.904363,0.998950,0.985919,0.004987,0.215610,-0.000029,0.000002,0.000017,0.000009,-0.000036,66.395488,0.000038,
2340,2576,1.63908961005884,-1.6343542247474,-0.0207713982682662,-0.000574,0.002578,-0.005406,-0.006524,0.112347,321.246515,24.352281,0.999164,0.987749,0.004226,0.224516,-0.000027,-0.000035,0.000003,-0.000026,-0.000036,19.470519,0.000062,
2355,2126,2.05469847792881,-11.481662090511,0.00649665591430448,-0.000664,0.003135,-0.011369,0.010616,0.077914,328.933690,23.121887,0.999410,0.984481,0.004871,0.182686,-0.000014,-0.000028,0.000017,-0.000003,-0.000039,34.209252,0.000047,
2100,3206,-3.68209506897361,12.0425730408791,0.0351456508258252,-0.000342,0.002180,-0.006393,0.003700,0.093099,311.852800,24.685300,0.999589,0.994616,0.003120,0.217991,-0.000025,-0.000040,0.000003,-0.000024,-0.000040,11.051768,0.000065,
2070,3236,-4.3372047136642,12.6898500744476,0.0364457223647605,-0.000627,0.002254,-0.005627,-0.012022,0.103107,311.503514,24.529533,0.999559,0.994863,0.002988,0.227946,-0.000032,-0.000056,0.000009,-0.000029,-0.000059,17.920122,0.000090,
2460,2261,4.32060179346371,-8.52272778845153,0.000487460167846621,-0.000749,0.002450,-0.008328,-0.002075,0.071369,326.771412,23.001397,0.999327,0.983065,0.004969,0.200245,-0.000028,-0.000010,0.000030,0.000011,-0.000050,53.426221,0.000053,
2325,3251,1.1864538729093,13.0395736893063,0.00430504842438495,-0.000661,0.002359,-0.006031,-0.008603,0.108307,310.203094,25.858590,0.999504,0.993695,0.003182,0.255178,-0.000031,-0.000040,-0.000003,-0.000030,-0.000041,-18.268311,0.000071,
2325,2336,1.35920902416409,-6.88081153784795,0.00259765807788881,-0.000781,0.002593,-0.005727,-0.015109,0.095167,325.412466,23.785860,0.999293,0.986561,0.004513,0.223474,-0.000030,0.000002,0.000000,0.000002,-0.000030,-89.636633,0.000034,
2175,2051,-1.86108637383302,-13.1233337252124,0.0125145313901385,-0.000579,0.002688,-0.006213,-0.006500,0.101786,330.470413,24.140799,0.999327,0.986367,0.004486,0.147451,-0.000053,-0.000026,-0.000012,-0.000021,-0.000057,-69.518860,0.000081,
2265,2441,0.0310773964793505,-4.5832569697064,-0.00851135504080958,-0.000678,0.002048,-0.001905,-0.024070,0.089646,323.633971,24.345914,0.999656,0.990750,0.003983,0.069675,-0.000030,-0.000031,0.000007,-0.000023,-0.000038,42.072352,0.000061,
2340,2111,1.73053624875672,-11.8119129737085,0.0194996560246068,-0.000565,0.002061,-0.004955,-0.007907,0.075380,329.269700,23.183457,0.999510,0.984408,0.004834,0.165397,-0.000009,-0.000027,0.000014,-0.000002,-0.000034,28.179369,0.000040,
2325,2561,1.31502476332241,-1.96269035786474,-0.022128490484647,-0.000558,0.002072,-0.003704,-0.012055,0.084058,321.483762,24.295604,0.999248,0.986638,0.004400,0.237774,-0.000022,-0.000041,-0.000001,-0.000022,-0.000041,-1.943416,0.000063,
2505,2531,5.24520422305328,-2.61338129197104,-0.0178543942168403,-0.000737,0.002346,-0.007279,-0.004680,0.084993,322.257388,23.910530,0.999600,0.989245,0.004179,0.229833,-0.000056,-0.000002,-0.000005,-0.000002,-0.000056,-84.838342,0.000066,
2340,2351,1.68292556614135,-6.55182102815544,-0.00384286260475619,-0.000855,0.002481,-0.005570,-0.018881,0.090886,325.102853,23.778830,0.999413,0.988041,0.004335,0.209349,-0.000033,0.000018,0.000004,0.000019,-0.000033,86.004201,0.000033,
2445,2216,4.00265447396243,-9.50924869062893,0.00255661253606831,-0.000340,0.002808,-0.007747,0.014347,0.086368,327.517747,22.873909,0.999475,0.985236,0.004801,0.246566,-0.000024,0.000023,0.000012,0.000026,-0.000027,75.879925,0.000030,
2325,2096,1.40504082623533,-12.1413228593127,0.0162184092005759,-0.000789,0.002049,-0.001646,-0.029692,0.096812,329.470954,23.124310,0.999490,0.983846,0.005011,0.297921,-0.000011,-0.000025,0.000014,-0.000002,-0.000034,31.752034,0.000040,
2490,2501,4.92440474997033,-3.26869156695052,-0.0160818411803803,-0.000601,0.002683,-0.006171,-0.002769,0.108496,322.728501,23.856730,0.999515,0.987727,0.004303,0.214867,-0.000048,-0.000054,-0.000013,-0.000038,-0.000064,-38.974717,0.000103,
2205,2366,-1.26235026245032,-6.22416333908345,-0.00495128141631085,-0.000733,0.002349,-0.002388,-0.025242,0.113739,325.032132,24.297230,0.999508,0.989790,0.004101,0.210754,-0.000036,-0.000006,0.000001,-0.000006,-0.000037,88.358034,0.000046,
2280,2501,0.346382939452166,-3.27180028422174,-0.0218464558487312,-0.000481,0.002599,-0.005769,-0.001828,0.112002,322.529831,24.359336,0.999723,0.992871,0.003645,0.154346,-0.000029,-0.000024,0.000009,-0.000017,-0.000036,53.187437,0.000054,
2235,2396,-0.614252846920344,-5.56718141643579,-0.0160940797119906,-0.000443,0.002470,-0.007673,0.005329,0.079452,324.400744,24.262201,0.999419,0.990457,0.004037,0.155375,-0.000038,-0.000004,-0.000004,-0.000004,-0.000038,-83.415149,0.000046,
2070,3251,-4.3396742515408,13.0148733849425,0.0299775734728769,-0.000328,0.002322,-0.007017,0.005708,0.094993,311.216289,24.513852,0.999716,0.996052,0.002720,0.230744,-0.000026,-0.000067,0.000005,-0.000026,-0.000068,6.976130,0.000097,
2430,2156,3.68782317471849,-10.8260408434664,0.0152288806677348,-0.000534,0.002602,-0.006799,0.001644,0.077319,328.574719,22.766419,0.999378,0.983000,0.005112,0.208281,-0.000019,-0.000001,0.000027,0.000019,-0.000038,54.341657,0.000038,
2145,2021,-2.51027663445327,-13.7819507406604,0.0195504381433693,-0.000613,0.002348,-0.005371,-0.011146,0.089270,331.122235,24.307921,0.999052,0.984372,0.004908,0.138777,-0.000047,-0.000018,0.000020,-0.000007,-0.000058,63.076784,0.000071,
2175,2291,-1.90160514886282,-7.86435116365826,-0.00176456736704722,0.000316,0.002593,-0.004938,0.030668,0.111363,326.441667,24.351642,0.999041,0.984253,0.004964,0.184802,-0.000021,0.000017,0.000003,0.000017,-0.000021,85.709866,0.000022,
2340,3176,1.52732795818816,11.4137569608815,0.0153250408689587,-0.000595,0.002266,-0.006542,-0.003675,0.090484,311.551037,25.762911,0.999746,0.995303,0.003148,0.237508,-0.000035,-0.000043,0.000000,-0.000035,-0.000043,-1.941808,0.000078,
2220,2171,-0.899901910654297,-10.4926543812946,0.00636396365825931,-0.000280,0.003115,-0.008497,0.015358,0.093810,328.342310,24.007677,0.999111,0.985531,0.004894,0.155921,-0.000031,0.000004,0.000012,0.000008,-0.000034,73.210909,0.000036,
2280,2291,0.386073371309877,-7.86409991939807,-0.00670379423087297,-0.000211,0.002519,-0.005224,0.008681,0.090987,326.139029,23.906535,0.999516,0.986851,0.004626,0.176426,-0.000026,0.000005,-0.000005,0.000006,-0.000027,-81.888726,0.000028,
2460,2276,4.31775708601294,-8.19424718844757,0.00643939853796383,-0.000861,0.002379,-0.006639,-0.013531,0.077172,326.561367,23.100701,0.999532,0.982113,0.005052,0.163162,-0.000031,-0.000009,0.000027,0.000010,-0.000049,55.895473,0.000052,
2325,3266,1.18319865868305,13.3655173911647,-0.00603867323815166,-0.000458,0.002476,-0.008358,0.008781,0.100211,309.881834,25.917322,0.999579,0.994090,0.003068,0.221058,-0.000030,-0.000045,-0.000003,-0.000030,-0.000045,-9.777532,0.000075,
2160,2021,-2.18307861913348,-13.7830504382948,0.0205555631308698,-0.000860,0.002537,-0.006733,-0.018041,0.071738,331.069314,24.169378,0.999058,0.984737,0.004849,0.158436,-0.000047,-0.000003,0.000000,-0.000003,-0.000047,89.890861,0.000056,
2310,2546,0.991134690954119,-2.29018897785307,-0.0234448298093639,-0.000516,0.002726,-0.004050,-0.008864,0.108216,321.733565,24.268646,0.999409,0.986643,0.004419,0.278502,-0.000029,-0.000030,0.000000,-0.000029,-0.000030,6.389038,0.000058,
2505,2546,5.2431844880983,-2.28612994801648,-0.00314168976592555,-0.000726,0.002416,-0.005909,-0.009392,0.098045,322.126278,24.055060,0.999838,0.991796,0.003653,0.159939,-0.000049,-0.000012,0.000011,-0.000009,-0.000052,74.776530,0.000066,
2475,2366,4.62653329200925,-6.22210271685485,-0.00827163447979729,-0.000255,0.003110,-0.011336,0.032567,0.104617,325.029585,23.350269,0.999663,0.988665,0.004527,0.227245,-0.000042,-0.000013,0.000023,0.000000,-0.000055,60.746155,0.000063,
2160,2246,-2.22220848112633,-8.84890580118498,-0.00732738245574183,-0.000763,0.002957,-0.006591,-0.013918,0.091606,327.143802,24.337941,0.998925,0.981940,0.004998,0.204130,-0.000029,-0.000005,0.000003,-0.000005,-0.000029,83.595585,0.000037,
2145,2216,-2.54273905836424,-9.50662717425425,0.00735251127377978,-0.000458,0.002747,-0.007669,0.003012,0.086382,327.832380,24.438983,0.998782,0.982067,0.005172,0.145213,-0.000031,0.000001,0.000009,0.000004,-0.000034,75.502797,0.000037,
2355,2606,1.96069064453699,-0.979830273307471,-0.0237695218833096,-0.000024,0.002866,-0.009576,0.033694,0.107543,320.763558,24.353153,0.999214,0.988658,0.004253,0.277596,-0.000029,-0.000026,0.000003,-0.000024,-0.000031,59.182253,0.000055,
2265,2246,0.0673286966211215,-8.84963931119457,0.000772983712806763,-0.000508,0.002357,-0.004618,-0.007219,0.080727,326.948986,23.923198,0.999253,0.984958,0.004798,0.128685,-0.000025,-0.000010,0.000005,-0.000008,-0.000027,73.198852,0.000037,
2250,2186,-0.249216316369473,-10.1635122613183,4.08193443490745E-07,-0.000613,0.002292,-0.005079,-0.010706,0.078406,327.952960,23.895065,0.999588,0.989868,0.004245,0.120251,-0.000038,0.000012,0.000019,0.000018,-0.000044,71.220698,0.000044,
2355,3266,1.834115157633,13.368129196427,-0.00540059186789676,-0.000631,0.002262,-0.007711,-0.000946,0.091051,309.868009,26.072070,0.999647,0.993998,0.003107,0.221271,-0.000024,-0.000048,-0.000001,-0.000024,-0.000048,-1.295656,0.000073,
2295,2516,0.66970480382458,-2.94423584825722,-0.0307361420356642,-0.000504,0.002720,-0.006814,0.000896,0.114936,322.192531,24.256140,0.999640,0.992018,0.003660,0.260559,-0.000038,-0.000037,-0.000001,-0.000036,-0.000039,-67.298042,0.000075,
2235,2171,-0.572341757812449,-10.492105432887,0.00628307852986154,-0.000064,0.003358,-0.011005,0.033740,0.105953,328.325770,23.980168,0.999251,0.988755,0.004463,0.116089,-0.000036,0.000009,0.000019,0.000016,-0.000043,70.122992,0.000044,
2295,2306,0.71051085826414,-7.53686862532799,-0.00588598413145291,-0.000436,0.002819,-0.008734,0.010443,0.110204,325.883568,23.771546,0.999388,0.986136,0.004718,0.300596,-0.000033,-0.000003,-0.000010,0.000000,-0.000036,-73.567226,0.000042,
2415,2111,3.36903432371913,-11.8130451219299,0.0196201261464353,-0.000776,0.002514,-0.005418,-0.014751,0.104192,329.313909,22.728077,0.999098,0.977832,0.005771,0.204520,0.000010,-0.000008,0.000028,0.000030,-0.000029,35.923404,0.000034,
2490,2516,4.92086413462745,-2.94082810257702,-0.0203285733187499,-0.000666,0.002751,-0.006325,-0.005152,0.119364,322.441434,23.877158,0.999558,0.988335,0.004090,0.265165,-0.000057,-0.000036,-0.000015,-0.000028,-0.000064,-62.793640,0.000095,
2115,3236,-3.36280325906305,12.6938951679351,0.0244643624691321,-0.000545,0.002406,-0.009264,0.003109,0.088393,311.189357,24.719482,0.999707,0.995709,0.002727,0.255925,-0.000035,-0.000055,-0.000004,-0.000034,-0.000055,-9.823279,0.000090,
2310,2306,1.03662091315497,-7.5346944526157,-0.0132453366384766,-0.000831,0.003012,-0.008064,-0.009545,0.109336,325.788740,23.833992,0.999464,0.988252,0.004537,0.177725,-0.000031,0.000000,-0.000001,0.000000,-0.000031,-88.149285,0.000036,
2325,2576,1.3120599350003,-1.63455457498175,-0.0213312686154836,-0.000861,0.002411,-0.005178,-0.020720,0.118868,321.232321,24.381366,0.999429,0.989938,0.003896,0.222032,-0.000024,-0.000036,-0.000004,-0.000022,-0.000037,-17.648069,0.000060,
2340,2126,1.72699982854055,-11.4811406731398,0.00970193037733225,-0.000747,0.002738,-0.008165,-0.004870,0.089810,328.943345,23.257745,0.999555,0.987555,0.004504,0.145522,-0.000012,-0.000029,0.000014,-0.000004,-0.000036,28.847388,0.000045,
2190,2306,-1.57832823150607,-7.53633503022245,-0.00536213738223523,-0.000515,0.002469,-0.006458,-0.002625,0.078748,326.084322,24.293534,0.998811,0.984724,0.004984,0.165047,-0.000016,0.000006,0.000003,0.000006,-0.000016,82.919680,0.000017,
2085,3281,-4.02014617089288,13.6660591766595,0.0239564447330167,-0.000399,0.002320,-0.007805,0.004994,0.096635,310.582568,24.581770,0.999609,0.996014,0.002729,0.238935,-0.000012,-0.000076,0.000008,-0.000011,-0.000077,6.622854,0.000096,
2250,2426,-0.292218407007176,-4.91299867526784,-0.00899278700882178,-0.000400,0.003303,-0.008647,0.011084,0.131746,323.939943,24.145657,0.999100,0.987267,0.004321,0.326909,-0.000039,-0.000028,0.000000,-0.000028,-0.000039,-88.827867,0.000068,
2385,2036,2.7279915562255,-13.4578496524113,0.0140908282497207,-0.000550,0.002733,-0.006523,-0.000811,0.100636,330.483638,22.722425,0.999044,0.979198,0.005705,0.153003,0.000026,-0.000017,0.000028,0.000040,-0.000030,26.087897,0.000041,
2265,2456,0.027578925350376,-4.25500798936931,-0.0211156559323058,-0.000735,0.002488,-0.004392,-0.018328,0.094360,323.286394,24.304293,0.999735,0.992366,0.003684,0.143052,-0.000031,-0.000026,0.000006,-0.000023,-0.000035,57.090707,0.000058,
2310,3176,0.876036320777374,11.4108627178345,0.0199984615491644,-0.000776,0.002066,-0.004684,-0.018928,0.084576,311.592900,25.631345,0.999722,0.994603,0.003125,0.225707,-0.000027,-0.000039,-0.000005,-0.000025,-0.000041,-20.217664,0.000067,
2190,2096,-1.54199952599799,-12.1365800226455,-0.00290305369463795,-0.000124,0.002731,-0.006433,0.015304,0.098486,329.579146,23.932799,0.999512,0.987523,0.004708,0.308425,-0.000047,-0.000019,0.000001,-0.000019,-0.000047,87.994920,0.000067,
2325,2111,1.40277904382359,-11.8117175496776,0.0179315095841162,-0.000480,0.002071,-0.003283,-0.009917,0.080447,329.257741,23.243991,0.999433,0.982100,0.005146,0.199065,-0.000010,-0.000025,0.000013,-0.000003,-0.000033,29.625704,0.000040,
2400,2081,3.04755984621322,-12.4697865911853,0.0097866026796396,0.000094,0.002667,-0.009601,0.039971,0.088304,329.762046,22.758789,0.999031,0.979598,0.005736,0.150132,0.000016,-0.000017,0.000024,0.000029,-0.000030,27.647347,0.000034,
2145,2036,-2.51331188721136,-13.4524139725742,0.0138863638521798,-0.000734,0.002276,-0.004013,-0.020808,0.088507,330.819576,24.291576,0.999224,0.984953,0.004831,0.165816,-0.000057,-0.000016,0.000015,-0.000010,-0.000062,71.471352,0.000078,
2340,2591,1.63630726330882,-1.30691597912598,-0.0245589198725042,-0.000519,0.002822,-0.009441,0.010085,0.093483,320.982643,24.391915,0.999353,0.989205,0.004086,0.203331,-0.000026,-0.000040,0.000005,-0.000025,-0.000042,16.150254,0.000067,
2370,2156,2.37671072871506,-10.8240082828441,0.0126113158802923,-0.000548,0.002631,-0.006041,-0.002680,0.093302,328.482142,23.164979,0.999502,0.983613,0.005040,0.155715,-0.000020,-0.000002,0.000027,0.000018,-0.000039,54.209249,0.000040,
2430,2171,3.68505490856672,-10.4965848353011,0.021190615107912,-0.000543,0.002499,-0.004230,-0.008254,0.090079,328.366418,22.912090,0.999473,0.985460,0.004676,0.127875,-0.000021,0.000000,0.000017,0.000010,-0.000031,60.789200,0.000032,
2220,2381,-0.938265402780637,-5.8956650807669,-0.0119691763018182,-0.000610,0.002668,-0.007144,-0.004247,0.105432,324.707992,24.254187,0.999444,0.989944,0.004104,0.215187,-0.000033,-0.000008,-0.000003,-0.000008,-0.000033,-82.653004,0.000043,
2355,2366,2.00718288502818,-6.2232852428997,-0.0103290116609855,-0.000479,0.002287,-0.006931,0.003250,0.078502,324.823208,23.744144,0.999321,0.986679,0.004526,0.218816,-0.000033,0.000013,0.000003,0.000013,-0.000034,86.586999,0.000034,
2205,2126,-1.21975693893655,-11.4792107295134,0.00590872297942724,-0.000705,0.002538,-0.008460,-0.004749,0.070581,329.097074,23.997274,0.998965,0.984937,0.004860,0.164524,-0.000050,-0.000010,0.000005,-0.000009,-0.000051,83.330001,0.000065,
2175,2066,-1.86332243466128,-12.7942443183196,0.0150526034806262,-0.000413,0.002774,-0.005319,-0.001589,0.116200,330.250029,24.173823,0.999514,0.987169,0.004559,0.143922,-0.000049,-0.000024,-0.000004,-0.000023,-0.000049,-80.860338,0.000074,
2355,2141,2.05148781848166,-11.1527320828812,0.00778055077370254,-0.000651,0.002388,-0.005618,-0.009188,0.085016,328.677326,23.163821,0.999249,0.985593,0.004826,0.189660,-0.000020,-0.000029,0.000018,-0.000006,-0.000044,38.440228,0.000054,
2415,2126,3.36436464876136,-11.480450789795,-0.00297784200375872,-0.000508,0.002291,-0.004017,-0.007684,0.102940,328.884096,22.844409,0.999375,0.981451,0.005282,0.138404,0.000001,-0.000015,0.000025,0.000019,-0.000034,36.668251,0.000034,
2460,2291,4.31482666096992,-7.86620163521329,0.0106002157871785,-0.000821,0.002405,-0.003785,-0.022372,0.111765,326.339063,23.117512,0.999453,0.982133,0.005041,0.237200,-0.000034,0.000015,0.000029,0.000028,-0.000047,65.248455,0.000047,
2490,2531,4.9179920861409,-2.61319402490239,-0.0154680129932672,-0.000688,0.002584,-0.004851,-0.011848,0.116210,322.226114,23.979244,0.999727,0.990208,0.003768,0.219702,-0.000061,-0.000014,-0.000008,-0.000013,-0.000062,-80.919583,0.000080,
2325,2351,1.35564823286441,-6.55220135197175,-0.00503870901087566,-0.000886,0.002394,-0.004993,-0.022556,0.087662,325.093394,23.797293,0.999338,0.985569,0.004436,0.241019,-0.000032,0.000010,0.000002,0.000010,-0.000032,87.826922,0.000033,
2370,2396,2.32850674823775,-5.56698385984401,-0.0125084770700141,-0.000605,0.002763,-0.010363,0.010031,0.084357,324.320009,23.759655,0.999658,0.991522,0.004009,0.243152,-0.000036,-0.000004,0.000001,-0.000004,-0.000036,88.123899,0.000044,
2340,3206,1.52224302445424,12.0633240279301,0.0245162163511168,-0.000747,0.002279,-0.008039,-0.005461,0.081846,311.124234,25.795723,0.999669,0.994663,0.003032,0.266412,-0.000037,-0.000051,0.000004,-0.000036,-0.000052,14.037787,0.000089,
2100,3221,-3.68527613461983,12.3668703241656,0.0389172763359511,-0.000885,0.001734,-0.000363,-0.039131,0.081930,311.591396,24.658605,0.999627,0.994954,0.003019,0.232883,-0.000026,-0.000056,0.000003,-0.000025,-0.000056,5.232457,0.000083,
2220,2186,-0.903374275970851,-10.1636214908508,0.00520684420541784,-0.000617,0.002300,-0.002250,-0.020285,0.120189,328.049946,24.027769,0.999039,0.982638,0.005152,0.183981,-0.000032,0.000005,0.000011,0.000008,-0.000035,74.942590,0.000037,
2115,3251,-3.3656436406123,13.0190746353628,0.024708693846037,-0.000720,0.002192,-0.006826,-0.012287,0.081085,310.925096,24.758055,0.999792,0.996957,0.002370,0.211672,-0.000035,-0.000062,-0.000004,-0.000035,-0.000063,-7.971545,0.000099,
2355,2621,1.95647416514038,-0.651804961372541,-0.0268551584545662,-0.000829,0.002653,-0.005878,-0.016341,0.113565,320.438226,24.438715,0.999086,0.989847,0.004117,0.237529,-0.000029,-0.000028,0.000002,-0.000027,-0.000031,52.713031,0.000058,
2475,2381,4.62239609322314,-5.89306789154502,-0.0194332387973759,-0.000429,0.003306,-0.012226,0.028030,0.103102,324.683063,23.373793,0.999673,0.987635,0.004557,0.260865,-0.000045,-0.000018,0.000019,-0.000008,-0.000055,63.083949,0.000069,
2190,2111,-1.54391834292026,-11.8079215244133,0.0128325248738292,-0.000612,0.002627,-0.007138,-0.004903,0.086803,329.443064,24.115924,0.999117,0.984676,0.004965,0.130450,-0.000047,-0.000023,-0.000001,-0.000023,-0.000047,-87.902571,0.000071,
2130,2171,-2.86240422772956,-10.4925766571758,0.00950470173643225,-0.000318,0.001929,-0.001384,-0.009831,0.104651,328.637419,24.425768,0.999466,0.977501,0.005396,0.224787,-0.000038,-0.000005,0.000007,-0.000004,-0.000039,78.969568,0.000047,
2295,2321,0.707732109520538,-7.20850359988192,-0.00342353495682346,-0.000388,0.002314,-0.005485,0.001550,0.094250,325.647439,23.859676,0.999147,0.983360,0.005067,0.228295,-0.000029,0.000011,-0.000006,0.000012,-0.000030,-81.052574,0.000030,
2250,2441,-0.295319401937444,-4.58328188973186,-0.0108881999202595,-0.000446,0.002644,-0.005598,-0.001211,0.115379,323.662907,24.355470,0.999533,0.990552,0.003977,0.125370,-0.000039,-0.000030,0.000002,-0.000030,-0.000040,76.770729,0.000070,
2160,2036,-2.18617463022276,-13.4515867992309,0.00622760274353595,-0.000546,0.002558,-0.007334,-0.001842,0.082766,330.719562,24.218062,0.999303,0.985972,0.004607,0.134944,-0.000058,-0.000004,0.000001,-0.000004,-0.000058,88.731065,0.000070,
2505,2561,5.24014748822071,-1.9600831799284,-0.00366686124760918,-0.000568,0.002258,-0.005878,-0.002313,0.111260,321.880422,23.954677,0.999839,0.991899,0.003656,0.335529,-0.000049,-0.000002,0.000009,0.000000,-0.000051,79.387180,0.000059,
2145,2231,-2.54526125580838,-9.17830596732729,0.00236588399798165,-0.000161,0.002576,-0.007327,0.015540,0.083261,327.556791,24.398046,0.998974,0.982733,0.005000,0.193436,-0.000033,-0.000015,0.000003,-0.000015,-0.000034,80.146012,0.000049,
2340,2366,1.67930683783036,-6.22270676543899,-0.0161379641551207,-0.000733,0.002283,-0.006257,-0.011020,0.079320,324.759925,23.800659,0.999272,0.987108,0.004447,0.214419,-0.000034,0.000018,0.000004,0.000018,-0.000034,86.090693,0.000034,
2325,2591,1.30907751667323,-1.30696974804411,-0.0296167580635256,-0.000741,0.003047,-0.009796,0.000870,0.104028,320.935881,24.390460,0.999670,0.992840,0.003459,0.233383,-0.000023,-0.000041,-0.000003,-0.000022,-0.000042,-9.021583,0.000065,
2235,2411,-0.618591292529445,-5.23674594147188,-0.0350923265102097,-0.000591,0.002030,-0.005149,-0.009790,0.071348,323.978512,24.353935,0.999642,0.992390,0.003548,0.078720,-0.000037,-0.000012,-0.000003,-0.000012,-0.000038,-82.778230,0.000052,
2445,2231,4.00009454263023,-9.18113146202995,0.0130672628743014,-0.000706,0.002691,-0.007793,-0.002275,0.088995,327.340923,22.976168,0.999098,0.981726,0.005212,0.201075,-0.000024,0.000001,0.000023,0.000015,-0.000038,59.303592,0.000038,
2205,2381,-1.26503978901156,-5.89585663743821,-0.0113652499878185,-0.000511,0.002491,-0.004242,-0.009152,0.106707,324.747086,24.302371,0.999323,0.989379,0.004117,0.217045,-0.000033,-0.000006,0.000002,-0.000005,-0.000034,85.326043,0.000042,
2160,2261,-2.22469842049919,-8.51868935148782,-0.0178044965500135,-0.000320,0.003327,-0.010728,0.019154,0.115120,326.841732,24.399087,0.998919,0.982388,0.005206,0.179288,-0.000030,0.000004,0.000000,0.000004,-0.000030,89.962197,0.000033,
2265,2471,0.0254930394878272,-3.92897412981209,-0.0177874573846566,-0.000484,0.002576,-0.006151,-0.000965,0.105835,323.084009,24.209539,0.999761,0.992991,0.003600,0.275769,-0.000030,-0.000025,0.000007,-0.000021,-0.000034,54.030177,0.000056,
2310,2561,0.989113244736512,-1.96333516456469,-0.0201749480278295,-0.000398,0.002801,-0.009639,0.015600,0.088022,321.536909,24.308935,0.999371,0.988456,0.004235,0.250734,-0.000024,-0.000040,-0.000001,-0.000024,-0.000040,-1.831152,0.000064,
2295,2531,0.666519944999635,-2.61699681899276,-0.0371871079164521,-0.000491,0.002858,-0.007440,0.003670,0.124318,321.893097,24.204642,0.999730,0.994559,0.003220,0.352549,-0.000037,-0.000032,-0.000004,-0.000030,-0.000039,-60.545603,0.000069,
2385,2051,2.72517375880414,-13.1297814863395,0.0259034778438831,-0.001013,0.002248,-0.002068,-0.038044,0.096221,330.298129,22.784023,0.999144,0.979132,0.005731,0.133254,0.000022,-0.000024,0.000022,0.000030,-0.000033,21.633715,0.000037,
2310,2321,1.03425392161429,-7.20746060099427,-0.00872006473440479,-0.000625,0.002541,-0.006441,-0.005764,0.097910,325.582960,23.835703,0.999228,0.985682,0.004757,0.198460,-0.000028,0.000014,0.000002,0.000014,-0.000028,87.507617,0.000028,
2145,2051,-2.5154443807214,-13.1235377905947,0.0165567864715399,-0.000607,0.002527,-0.004221,-0.014284,0.099792,330.602208,24.303766,0.999157,0.983950,0.004874,0.175974,-0.000052,-0.000038,0.000008,-0.000034,-0.000056,65.448690,0.000091,
2505,2576,5.23519359375772,-1.62941535780661,-0.0209031425895887,-0.000977,0.002547,-0.006931,-0.016939,0.095470,321.470896,24.163346,0.999349,0.985434,0.004781,0.173103,-0.000044,0.000017,0.000014,0.000020,-0.000047,77.970534,0.000047,
2160,2051,-2.18799768943213,-13.1235097378006,0.0140553528684109,-0.000388,0.002740,-0.006900,0.004169,0.094725,330.544749,24.216043,0.999334,0.985880,0.004626,0.161853,-0.000056,-0.000029,-0.000004,-0.000028,-0.000056,-82.842613,0.000086,
2175,2306,-1.90469457529163,-7.53661591491757,-0.00182920609876192,-0.000365,0.002704,-0.006809,0.005194,0.104502,326.168784,24.340278,0.998948,0.984806,0.004899,0.203361,-0.000017,0.000010,0.000004,0.000011,-0.000018,81.092428,0.000018,
2175,2081,-1.86670127708863,-12.4645106123867,0.0079581454754134,-0.000647,0.002277,-0.003175,-0.019096,0.094091,329.927265,24.199464,0.999609,0.986157,0.004795,0.112152,-0.000045,-0.000024,0.000000,-0.000024,-0.000045,89.766982,0.000070,
2250,2201,-0.250941464227882,-9.83645404385785,0.0038970132789018,-0.000016,0.002847,-0.005860,0.019394,0.104112,327.769002,23.795482,0.999197,0.985426,0.004814,0.271095,-0.000037,0.000017,0.000019,0.000023,-0.000044,72.297425,0.000044,
2115,3266,-3.36862323156549,13.3443067345521,0.0182963473257018,-0.000636,0.002161,-0.004875,-0.014162,0.085284,310.618431,24.755854,0.999769,0.996649,0.002527,0.219881,-0.000037,-0.000063,-0.000001,-0.000037,-0.000063,-1.166083,0.000101,
2355,3281,1.83016873452453,13.6937917812419,-0.0147220021619319,-0.000682,0.001931,-0.004103,-0.016115,0.086737,309.522699,26.112623,0.999624,0.993982,0.003167,0.213193,-0.000020,-0.000048,-0.000007,-0.000018,-0.000049,-13.275644,0.000070,
2280,2516,0.344176406293041,-2.94624396848445,-0.0159596822774688,-0.000420,0.002585,-0.006269,0.002600,0.108159,322.335869,24.274056,0.999765,0.993109,0.003598,0.264275,-0.000032,-0.000038,0.000005,-0.000029,-0.000041,28.553574,0.000070,
2310,3191,0.873701408684013,11.735701819094,0.0224807885398945,-0.000608,0.002047,-0.006528,-0.004912,0.077239,311.376784,25.640644,0.999735,0.994735,0.003016,0.239670,-0.000027,-0.000044,-0.000002,-0.000027,-0.000045,-7.514180,0.000072,
2490,2546,4.91462674243357,-2.28551796219944,-0.0181299304105096,-0.000683,0.002556,-0.004659,-0.012351,0.115147,321.954134,24.019146,0.999729,0.990218,0.003890,0.238253,-0.000055,-0.000020,0.000003,-0.000020,-0.000055,85.920648,0.000078,
2475,2396,4.61977880443566,-5.56584002088861,-0.00166110607415249,-0.000903,0.002625,-0.006100,-0.017131,0.105852,324.537687,23.516648,0.999604,0.988495,0.004434,0.178249,-0.000036,-0.000028,0.000012,-0.000019,-0.000045,55.043610,0.000066,
2325,2366,1.35251208610882,-6.22289831310425,-0.0151799325091702,-0.000643,0.002635,-0.007808,-0.001622,0.093039,324.781319,23.840595,0.999458,0.988240,0.004228,0.239449,-0.000034,0.000009,0.000001,0.000009,-0.000034,88.956851,0.000035,
2430,2186,3.68258724147487,-10.1675168484879,0.0243003490047045,-0.000504,0.002877,-0.007557,0.005918,0.092256,328.158714,23.006810,0.999716,0.988358,0.004269,0.087592,-0.000024,0.000006,0.000019,0.000015,-0.000033,64.252552,0.000033,
2100,3236,-3.68757286357058,12.6922042881192,0.0338853431334201,-0.000607,0.002082,-0.004194,-0.015008,0.088284,311.322324,24.661739,0.999733,0.996047,0.002657,0.236000,-0.000028,-0.000056,0.000001,-0.000028,-0.000056,2.188505,0.000086,
2265,2261,0.0651358608426733,-8.52213687861656,0.008254971586382,-0.000508,0.002451,-0.004145,-0.008751,0.096818,326.762639,23.931377,0.999748,0.990525,0.004037,0.163867,-0.000022,-0.000004,0.000008,-0.000001,-0.000025,69.658984,0.000029,
2370,2171,2.37352934381776,-10.4964588381748,0.00901721190143689,-0.000711,0.002683,-0.008027,-0.003129,0.092204,328.205206,23.046799,0.999372,0.984122,0.004978,0.316696,-0.000023,0.000003,0.000019,0.000013,-0.000034,62.170550,0.000034,
2325,3281,1.17944085052338,13.690939380849,-0.0153184460266402,-0.000451,0.002117,-0.005557,-0.000738,0.089591,309.542776,25.941759,0.999676,0.994518,0.002931,0.218635,-0.000027,-0.000036,-0.000009,-0.000022,-0.000042,-31.576711,0.000065,
2355,2156,2.04924937630499,-10.8234617693039,0.0131350341951588,-0.000529,0.002702,-0.007042,0.001477,0.088353,328.484976,23.289909,0.999377,0.985164,0.004863,0.108253,-0.000026,-0.000011,0.000019,0.000002,-0.000038,56.305445,0.000043,
2460,2306,4.31097346512984,-7.53569235603082,-0.00088951118203795,-0.000893,0.002753,-0.006911,-0.013812,0.108652,326.002732,23.242830,0.999246,0.979558,0.005336,0.165589,-0.000034,0.000003,0.000028,0.000018,-0.000049,61.442836,0.000050,
2340,3221,1.51897217834739,12.389472511122,0.0207632994032565,-0.000663,0.001937,-0.005536,-0.010439,0.077850,310.835989,25.893307,0.999555,0.993676,0.003164,0.199489,-0.000036,-0.000052,-0.000002,-0.000035,-0.000052,-5.775118,0.000088,
2220,2201,-0.905843656118225,-9.83521231076796,0.000412581788623356,-0.000422,0.002972,-0.006209,0.001483,0.119737,327.785055,23.984298,0.999198,0.984530,0.004903,0.248378,-0.000032,0.000014,0.000011,0.000016,-0.000034,76.628513,0.000034,
2505,2591,5.23150057068441,-1.29977659244386,-0.0303485159549837,-0.000692,0.002852,-0.006813,-0.004183,0.116851,321.154118,24.316565,0.999834,0.995567,0.003197,0.103484,-0.000042,0.000015,0.000019,0.000020,-0.000048,73.507646,0.000048,
2355,2381,2.00442761711222,-5.89371265647423,-0.0112949483827265,-0.000386,0.002707,-0.008435,0.012940,0.092263,324.575839,23.900499,0.999476,0.985156,0.004576,0.116796,-0.000038,0.000003,0.000001,0.000003,-0.000038,88.297104,0.000042,
2235,2186,-0.576290472535828,-10.1630201649478,0.00318743861697612,-0.000818,0.002422,-0.006385,-0.016079,0.090227,328.003290,24.026597,0.999363,0.987516,0.004546,0.077953,-0.000038,0.000010,0.000018,0.000016,-0.000044,71.296770,0.000045,
2280,2306,0.383424326330665,-7.53644090921731,-0.00408511793955313,-0.000571,0.002904,-0.008647,0.003689,0.105480,325.908460,23.896126,0.999401,0.985477,0.004882,0.230916,-0.000027,-0.000004,-0.000003,-0.000003,-0.000028,-81.754801,0.000034,
2295,2336,0.704408359929079,-6.8794637529562,-0.0119974822396784,-0.000491,0.002582,-0.007914,0.005083,0.086872,325.331511,23.895131,0.999353,0.986644,0.004492,0.217346,-0.000028,-0.000004,-0.000010,0.000000,-0.000032,-70.655660,0.000037,
2415,2141,3.36209453447356,-11.1529368743798,0.00420388490647383,-0.000485,0.002545,-0.005473,-0.001249,0.106026,328.703566,22.826797,0.999449,0.984246,0.004724,0.209343,-0.000010,-0.000017,0.000025,0.000012,-0.000038,40.913556,0.000039,
2340,2141,1.72320083718619,-11.1512398344978,-0.0016316819122153,-0.000735,0.002720,-0.006852,-0.008872,0.102053,328.597570,23.244820,0.999389,0.986463,0.004727,0.210665,-0.000016,-0.000030,0.000015,-0.000006,-0.000039,32.654643,0.000049,
2205,2141,-1.2220909619942,-11.1496925551077,0.00368422711630956,-0.000255,0.002698,-0.007773,0.013744,0.096616,328.849932,24.033355,0.999314,0.986692,0.004597,0.174104,-0.000046,-0.000011,0.000006,-0.000010,-0.000047,79.965221,0.000061,
2190,2321,-1.58074559429326,-7.20889704922639,-0.00303625368604798,-0.000568,0.002704,-0.006959,-0.003409,0.095910,325.855797,24.260775,0.999135,0.986898,0.004556,0.231357,-0.000020,0.000014,0.000001,0.000014,-0.000020,88.259553,0.000021,
2370,2411,2.32534143187842,-5.23862513087149,-0.0121433632911589,-0.000784,0.002754,-0.009034,-0.002845,0.100612,324.061557,23.826089,0.999658,0.990786,0.004029,0.235510,-0.000034,-0.000017,0.000001,-0.000017,-0.000034,86.016073,0.000052,
2220,2396,-0.94123625703623,-5.56686200195496,-0.0134021071343113,-0.000669,0.002541,-0.004568,-0.015220,0.105196,324.436897,24.352887,0.999618,0.992863,0.003583,0.136817,-0.000037,-0.000009,-0.000005,-0.000009,-0.000038,-80.014646,0.000049,
2160,2066,-2.18989391237374,-12.7951285886533,0.0213441205588083,-0.000265,0.002760,-0.006538,0.008668,0.108402,330.363715,24.238396,0.999550,0.987229,0.004538,0.166011,-0.000052,-0.000023,0.000002,-0.000023,-0.000052,85.285137,0.000077,
2325,2126,1.40043648941366,-11.4827730742383,0.0247650065244898,-0.000692,0.002403,-0.005575,-0.011631,0.087237,329.065697,23.341913,0.999401,0.985209,0.004857,0.144864,-0.000011,-0.000028,0.000014,-0.000003,-0.000036,29.952043,0.000043,
2340,2606,1.63251660392511,-0.978955723883935,-0.0371963263451676,-0.000403,0.002624,-0.008308,0.011436,0.094939,320.629259,24.386894,0.999381,0.989010,0.004172,0.247211,-0.000025,-0.000029,0.000006,-0.000021,-0.000033,36.733067,0.000055,
2145,2066,-2.517970593388,-12.7944499431544,0.0146564951126607,-0.000634,0.002184,-0.005475,-0.011885,0.080319,330.342834,24.319640,0.999008,0.983553,0.005020,0.151875,-0.000047,-0.000030,0.000012,-0.000024,-0.000053,62.983372,0.000079,
2160,2276,-2.22689265110548,-8.19137109620639,-0.0130827251439882,-0.000286,0.003135,-0.010036,0.018566,0.112949,326.633773,24.384544,0.998642,0.981742,0.005440,0.203544,-0.000028,0.000008,-0.000004,0.000009,-0.000029,-83.238256,0.000029,
2205,2396,-1.26753894306301,-5.56803349100574,-0.0099049581576196,-0.000443,0.002483,-0.003224,-0.009258,0.117841,324.511382,24.327942,0.999478,0.991549,0.003825,0.220641,-0.000033,-0.000010,0.000000,-0.000010,-0.000033,-89.920226,0.000045,
2400,2096,3.04390873575123,-12.140294029367,0.00859580988060316,-0.000159,0.002513,-0.005354,0.013038,0.091627,329.477835,22.812391,0.998996,0.977709,0.005873,0.148699,0.000012,-0.000017,0.000025,0.000026,-0.000032,29.985423,0.000034,
2130,2186,-2.86489482728904,-10.1627762370121,0.00492283900092616,-0.000352,0.002469,-0.005710,0.001691,0.095400,328.363759,24.512683,0.999188,0.981792,0.005097,0.136976,-0.000037,0.000002,0.000007,0.000004,-0.000038,80.385049,0.000042,
2385,2066,2.7223992681854,-12.7996918077036,0.0176204303577947,-0.000667,0.003183,-0.007958,-0.000835,0.111113,330.019154,22.787721,0.999290,0.980518,0.005456,0.191032,0.000017,-0.000013,0.000029,0.000035,-0.000031,31.648231,0.000038,
2355,2636,1.95454507159684,-0.325331481508393,-0.021993035558296,-0.000462,0.002735,-0.008635,0.010210,0.096738,320.256617,24.478239,0.999255,0.989813,0.004094,0.220297,-0.000029,-0.000025,0.000004,-0.000022,-0.000031,57.570547,0.000054,
2325,2606,1.30626382585488,-0.979959546021838,-0.0320759332052489,-0.000425,0.002614,-0.008278,0.010004,0.092991,320.675735,24.400190,0.999523,0.990624,0.003832,0.247632,-0.000023,-0.000029,-0.000002,-0.000022,-0.000030,-16.913427,0.000052,
2370,2636,2.28047899718231,-0.324393961207548,-0.0276158826568462,-0.000543,0.002578,-0.005975,-0.002717,0.099115,320.200271,24.454953,0.999198,0.990624,0.003947,0.234881,-0.000031,-0.000023,0.000001,-0.000023,-0.000031,83.567448,0.000054,
2115,3281,-3.37089355920256,13.6683124984359,0.0190625746974433,-0.000551,0.002123,-0.006759,-0.004668,0.085273,310.383654,24.689818,0.999773,0.996485,0.002617,0.287854,-0.000035,-0.000065,0.000002,-0.000035,-0.000065,2.975013,0.000102,
2265,2276,0.0617247246310093,-8.19292807062183,-0.00428560265766009,-0.000271,0.002287,-0.003650,0.000444,0.086345,326.419870,23.919924,0.999597,0.987525,0.004500,0.192921,-0.000024,-0.000001,0.000001,-0.000001,-0.000024,88.249919,0.000028,
2145,2246,-2.54835203968405,-8.84992683208381,0.00194102729324186,-0.000489,0.002127,-0.003337,-0.011658,0.076454,327.279336,24.419807,0.998994,0.982773,0.005065,0.174982,-0.000030,-0.000005,0.000004,-0.000004,-0.000031,81.026890,0.000038,
2280,2531,0.341548747650052,-2.61985534637281,-0.0131579402498687,-0.000631,0.002437,-0.007901,-0.001713,0.095778,322.107020,24.249498,0.999680,0.993447,0.003468,0.305094,-0.000032,-0.000033,0.000001,-0.000031,-0.000033,24.304411,0.000064,
2325,3296,1.17666198037611,14.0149977817709,-0.0131225224801028,-0.000477,0.001879,-0.004686,-0.005057,0.077665,309.305721,25.910425,0.999739,0.995311,0.002768,0.270485,-0.000022,-0.000040,-0.000021,-0.000008,-0.000054,-33.204539,0.000067,
2370,2186,2.37009666590987,-10.165449124078,0.00377325769130721,-0.000877,0.002970,-0.008827,-0.007768,0.110748,327.908305,23.213177,0.999088,0.984062,0.005016,0.212853,-0.000026,0.000008,0.000021,0.000018,-0.000036,64.184882,0.000036,
2430,2201,3.67888508725247,-9.83948841841755,0.016420755959075,-0.000350,0.002304,-0.005055,0.003507,0.086339,327.843584,22.902606,0.999597,0.986342,0.004610,0.238733,-0.000021,0.000013,0.000019,0.000021,-0.000030,66.065618,0.000031,
2475,2411,4.61667738606996,-5.2381241756808,-0.0058222812787676,-0.000854,0.003081,-0.009657,-0.001239,0.103871,324.270493,23.498858,0.999591,0.989146,0.004291,0.252355,-0.000027,-0.000045,0.000008,-0.000024,-0.000048,20.998683,0.000074,
2310,2336,1.03181402243108,-6.87949907545262,-0.0103076538722462,-0.000419,0.002972,-0.009959,0.015776,0.100352,325.343574,23.833299,0.999326,0.986082,0.004482,0.237135,-0.000030,0.000000,-0.000003,0.000000,-0.000030,-84.677145,0.000034,
2190,2126,-1.54699538098286,-11.4791373258727,0.00990208115052837,-0.000823,0.002426,-0.005398,-0.020062,0.085975,329.157191,24.097917,0.998863,0.982893,0.005149,0.165395,-0.000046,-0.000018,0.000000,-0.000018,-0.000046,-89.351072,0.000066,
2490,2561,4.91093860046822,-1.9566132105555,-0.0242214476790537,-0.000761,0.002573,-0.005145,-0.014077,0.120714,321.651529,24.139599,0.999505,0.989455,0.004238,0.183256,-0.000057,-0.000009,-0.000001,-0.000009,-0.000057,-89.323447,0.000071,
2415,2156,3.35917694507916,-10.8236248596884,0.00345155345905823,-0.000452,0.002594,-0.006826,0.005210,0.097640,328.456162,22.903073,0.999314,0.982850,0.004978,0.175138,-0.000019,0.000001,0.000028,0.000021,-0.000038,54.939013,0.000038,
2250,2216,-0.253679093286216,-9.50723776542392,0.00542312905162134,-0.000275,0.002520,-0.007171,0.011690,0.084917,327.526597,23.917573,0.998704,0.981265,0.005381,0.155374,-0.000038,0.000009,0.000013,0.000012,-0.000041,75.752849,0.000042,
2235,2201,-0.577836523784452,-9.83790492191218,0.0109824557148954,-0.000237,0.002647,-0.005477,0.007751,0.103837,327.846559,23.802825,0.999575,0.988804,0.004322,0.338494,-0.000038,0.000016,0.000018,0.000022,-0.000043,73.081794,0.000043,
2445,2246,3.996617047752,-8.85193595146647,0.0120545002526455,-0.000927,0.002526,-0.006376,-0.017700,0.100048,327.068788,23.052040,0.999212,0.982880,0.005073,0.190682,-0.000025,-0.000001,0.000026,0.000015,-0.000041,57.217492,0.000042,
2325,2381,1.34978427829642,-5.89386140615935,-0.0149492827054587,-0.000694,0.003033,-0.009602,0.002333,0.087269,324.538627,23.979135,0.999564,0.989420,0.004216,0.130980,-0.000035,0.000003,0.000000,0.000003,-0.000035,89.445991,0.000039,
2370,2426,2.32236980725039,-4.91123197399795,-0.0156303935429492,-0.000564,0.003046,-0.008785,0.006481,0.110763,323.793713,23.778118,0.999757,0.992975,0.003814,0.336024,-0.000028,-0.000033,0.000004,-0.000026,-0.000035,28.189041,0.000061,
2250,2456,-0.29819407277893,-4.25681269411893,-0.0117983573099423,-0.000706,0.002631,-0.007381,-0.007328,0.103112,323.401846,24.278545,0.999778,0.992811,0.003580,0.214745,-0.000041,-0.000023,0.000003,-0.000023,-0.000041,80.854667,0.000065,
2280,2321,0.380241723928229,-7.20796867152401,-0.00325782677310826,-0.000740,0.002376,-0.004069,-0.019467,0.113047,325.644378,23.953797,0.999159,0.984825,0.004945,0.210579,-0.000022,0.000010,0.000001,0.000010,-0.000022,89.061897,0.000022,
2460,2321,4.30821725224418,-7.20733294120409,-0.00450478275155319,-0.000499,0.003026,-0.009656,0.014594,0.095476,325.752922,23.267822,0.999293,0.980671,0.005181,0.183507,-0.000040,-0.000015,0.000020,-0.000004,-0.000051,61.387734,0.000062,
2340,3236,1.51545650018254,12.715012601286,0.0132825804663526,-0.000653,0.001749,-0.004485,-0.013680,0.080034,310.518419,25.911243,0.999483,0.992170,0.003385,0.218963,-0.000034,-0.000044,0.000000,-0.000034,-0.000044,-2.267402,0.000078,
2355,2396,2.00176593371121,-5.56686241777337,-0.0079336950239508,-0.000392,0.002661,-0.007901,0.010784,0.103775,324.354003,23.857438,0.999647,0.990106,0.004064,0.211535,-0.000038,0.000000,0.000000,0.000000,-0.000038,89.863709,0.000044,
2100,3251,-3.69018930860526,13.0174926402593,0.0312704176482157,-0.000576,0.002176,-0.004497,-0.012663,0.092956,311.051728,24.680880,0.999770,0.996578,0.002533,0.220904,-0.000028,-0.000064,0.000000,-0.000028,-0.000064,-0.456497,0.000094,
2235,2426,-0.619857709846379,-4.9119113141908,-0.0192706288280533,-0.000478,0.002539,-0.007118,0.001977,0.094375,323.875308,24.244192,0.999517,0.990832,0.003871,0.233628,-0.000039,-0.000027,-0.000003,-0.000027,-0.000040,-77.552994,0.000067,
2175,2096,-1.86933069556845,-12.1360736345252,-0.00115884216353379,-0.000355,0.002744,-0.006111,0.003519,0.097150,329.628224,24.065691,0.999488,0.985761,0.004854,0.264631,-0.000044,-0.000018,0.000005,-0.000017,-0.000045,79.598264,0.000064,
2325,2141,1.39730365654153,-11.1536380657241,0.0176814395049973,-0.000442,0.002451,-0.005116,-0.001757,0.092986,328.769588,23.310702,0.999380,0.985618,0.004940,0.219113,-0.000015,-0.000028,0.000016,-0.000004,-0.000039,34.340297,0.000047,
2220,2411,-0.943082676462165,-5.24107403106389,-0.00780773694850723,-0.000345,0.002530,-0.005319,0.002073,0.100119,324.253939,24.253751,0.999679,0.992768,0.003535,0.250924,-0.000037,-0.000017,-0.000005,-0.000016,-0.000038,-76.957998,0.000055,
2310,3206,0.871404445481854,12.0608984044995,0.0289310041003432,-0.000552,0.002017,-0.006450,-0.002586,0.082951,311.181886,25.697195,0.999734,0.994373,0.003008,0.219411,-0.000029,-0.000042,-0.000004,-0.000027,-0.000044,-16.422887,0.000072,
2205,2156,-1.2252854185381,-10.8214806244201,-0.00141865075482883,-0.000671,0.002940,-0.009891,0.001432,0.088978,328.548974,23.958555,0.999193,0.985695,0.004846,0.260858,-0.000041,0.000001,0.000010,0.000003,-0.000043,76.714586,0.000048,
2160,2081,-2.19313114372013,-12.4653204164951,0.0183471848894214,-0.000729,0.002408,-0.005321,-0.016395,0.091050,330.067355,24.311238,0.999448,0.985677,0.004800,0.089501,-0.000048,-0.000026,0.000004,-0.000025,-0.000049,79.509711,0.000075,
2355,3296,1.82711182224088,14.0193109518448,-0.0204767384330466,-0.000542,0.002014,-0.006026,-0.002902,0.083403,309.235647,26.163768,0.999684,0.993786,0.003283,0.195910,-0.000012,-0.000052,-0.000018,-0.000006,-0.000059,-20.728528,0.000072,
2340,2006,1.75079014613111,-14.1158788361098,0.0211647689190499,-0.000587,0.003061,-0.008027,0.002118,0.096462,331.020872,23.005174,0.998805,0.976960,0.006144,0.085895,0.000007,-0.000018,0.000027,0.000024,-0.000035,32.548162,0.000036,
2175,2321,-1.90790793485189,-7.20820262885918,-0.00777941493714707,-0.000495,0.002613,-0.004636,-0.007505,0.117103,325.859234,24.317243,0.998893,0.984921,0.004880,0.253641,-0.000022,0.000015,0.000001,0.000015,-0.000022,87.902896,0.000022,
2400,2111,3.04111125121883,-11.8120077803041,0.0154189729888117,-0.000544,0.002691,-0.005450,-0.004180,0.096540,329.270430,22.848661,0.999050,0.977341,0.005738,0.165490,0.000005,-0.000013,0.000025,0.000023,-0.000030,34.839488,0.000031,
2115,3296,-3.37398262587878,13.9935769989944,0.0117019649255781,-0.000550,0.002011,-0.005411,-0.008626,0.084812,310.066801,24.698819,0.999658,0.993789,0.003237,0.279872,-0.000036,-0.000069,0.000004,-0.000035,-0.000069,7.319366,0.000106,
2340,2381,1.67696703279606,-5.89350788122564,-0.0135281041073654,-0.000547,0.002898,-0.008009,0.003841,0.099154,324.547678,23.952048,0.999510,0.988424,0.004260,0.120997,-0.000038,0.000008,0.000003,0.000008,-0.000038,86.384450,0.000040,
2505,2606,5.22832596643359,-0.97448862857226,-0.0281434534704204,-0.000909,0.002569,-0.006804,-0.014277,0.105759,320.914064,24.211377,0.999865,0.995004,0.003252,0.259149,-0.000046,0.000005,0.000019,0.000011,-0.000052,71.929076,0.000055,
2265,2291,0.0592671883338838,-7.86502523678642,-0.00156579387510192,-0.000479,0.003086,-0.007145,0.002719,0.125177,326.197284,23.903080,0.999455,0.985503,0.004872,0.276296,-0.000023,0.000013,0.000001,0.000013,-0.000023,89.148920,0.000023,
2130,2201,-2.86740963587556,-9.83401247739191,-0.00225931471715057,-0.000203,0.002964,-0.009366,0.019554,0.086041,328.075323,24.483499,0.998697,0.981267,0.005284,0.165280,-0.000035,0.000010,0.000006,0.000011,-0.000036,82.207850,0.000037,
2370,2651,2.27667301329173,0.00326654933327575,-0.0355123311861689,-0.000633,0.002319,-0.003546,-0.015542,0.097742,319.872018,24.483501,0.999315,0.989436,0.004158,0.246537,-0.000030,-0.000013,0.000003,-0.000012,-0.000031,79.462317,0.000044,
2295,2351,0.702342870235981,-6.55233576720672,0.000557772615991325,-0.000674,0.002812,-0.007259,-0.005410,0.091782,325.178070,23.960228,0.999680,0.990443,0.003839,0.188439,-0.000032,0.000001,-0.000008,0.000003,-0.000034,-76.267023,0.000038,
2295,2546,0.664391404368775,-2.28948025258364,-0.027802987431869,-0.000417,0.002431,-0.005884,0.001607,0.099621,321.720634,24.361731,0.999449,0.989905,0.004067,0.201399,-0.000036,-0.000032,-0.000004,-0.000030,-0.000038,-59.368369,0.000068,
2310,2576,0.985043857494293,-1.63299265240676,-0.0352963384110012,-0.000594,0.003362,-0.010544,0.009960,0.132386,321.154685,24.445253,0.999636,0.992524,0.003498,0.192173,-0.000026,-0.000034,-0.000004,-0.000024,-0.000036,-22.831668,0.000060,
2190,2141,-1.54932335080904,-11.1499675647822,0.00917072644932659,-0.000514,0.002754,-0.004848,-0.007510,0.116820,328.916716,24.113226,0.999119,0.984414,0.004939,0.198225,-0.000041,-0.000017,0.000002,-0.000017,-0.000041,86.026411,0.000060,
2205,2411,-1.26824346964499,-5.2429147906169,0.0100339306629849,-0.000210,0.002607,-0.007139,0.013849,0.092887,324.453912,24.325623,0.999729,0.993531,0.003419,0.215324,-0.000030,-0.000017,-0.000001,-0.000016,-0.000031,-84.448421,0.000048,
2490,2576,4.90837649015498,-1.63073798686122,-0.0132980908871332,-0.000960,0.002537,-0.003262,-0.030430,0.108975,321.477862,24.156889,0.998922,0.984954,0.004852,0.213485,-0.000056,0.000010,0.000003,0.000011,-0.000056,87.132272,0.000059,
2340,3251,1.51211321648956,13.0406795566325,0.00382136797963994,-0.000507,0.002042,-0.005884,-0.001993,0.083581,310.198999,25.932962,0.999556,0.993365,0.003192,0.235951,-0.000033,-0.000048,0.000002,-0.000033,-0.000048,8.436080,0.000082,
2340,2021,1.74747300051834,-13.7883116305359,0.0236590393949996,-0.000950,0.002325,-0.003926,-0.028949,0.073814,330.764936,22.921792,0.998732,0.981060,0.005737,0.186671,0.000005,-0.000030,0.000021,0.000015,-0.000040,24.791554,0.000040,
2250,2471,-0.300678433929473,-3.93027741725842,-0.0101319714042347,-0.000545,0.002606,-0.006190,-0.003824,0.115269,323.171579,24.212563,0.999717,0.992328,0.003619,0.317505,-0.000040,-0.000022,0.000006,-0.000021,-0.000041,73.803491,0.000063,
2460,2336,4.30536347329663,-6.87861778029932,-0.00388665203081473,-0.000329,0.003054,-0.009770,0.022834,0.108754,325.517729,23.347178,0.999121,0.979519,0.005339,0.173878,-0.000044,-0.000013,0.000017,-0.000005,-0.000052,66.115480,0.000063,
2265,2486,0.0224864612982678,-3.6011360330013,-0.0267950642794403,-0.000367,0.002828,-0.009474,0.015474,0.109176,322.777054,24.177531,0.999721,0.992256,0.003686,0.338045,-0.000028,-0.000022,0.000006,-0.000019,-0.000032,58.980058,0.000051,
2160,2291,-2.22928598351197,-7.86341557772116,-0.010106946706685,-0.000116,0.002906,-0.006152,0.014460,0.122161,326.407345,24.403582,0.998851,0.984258,0.005009,0.205642,-0.000024,0.000014,-0.000002,0.000015,-0.000024,-86.579731,0.000024,
2100,3266,-3.69320026739048,13.3422444061394,0.0292386295243432,-0.000832,0.002044,-0.002541,-0.030192,0.097836,310.766396,24.657913,0.999795,0.997297,0.002416,0.248475,-0.000027,-0.000065,0.000004,-0.000027,-0.000066,6.144804,0.000095,
2130,2006,-2.83466824710225,-14.1107164945331,0.0217521846502677,-0.000355,0.002566,-0.005809,0.001854,0.090614,331.458365,24.428149,0.999379,0.985129,0.005003,0.111715,-0.000035,-0.000021,0.000004,-0.000020,-0.000036,76.070536,0.000057,
2355,2411,1.99829456908573,-5.23904360948907,-0.00551644652693994,-0.000798,0.002215,-0.003107,-0.024813,0.111030,324.090288,23.902882,0.999723,0.991733,0.003865,0.213519,-0.000035,-0.000013,0.000002,-0.000012,-0.000035,85.507021,0.000049,
2280,2336,0.376953346455789,-6.8793130410058,-0.00743646645656781,-0.000999,0.002564,-0.004246,-0.030699,0.115947,325.350442,23.987755,0.999258,0.986691,0.004579,0.209379,-0.000020,-0.000007,-0.000002,-0.000006,-0.000020,-80.898209,0.000028,
2280,2546,0.33761992430281,-2.28996144663586,-0.0253550139773893,-0.000902,0.002656,-0.007749,-0.014558,0.098377,321.742741,24.399989,0.999468,0.990396,0.004008,0.186187,-0.000034,-0.000033,-0.000001,-0.000033,-0.000035,-63.130844,0.000068,
2340,3266,1.50839859241747,13.3666420784452,-0.00581002903777517,-0.000496,0.002235,-0.004362,-0.006668,0.100831,309.861458,25.972530,0.999547,0.993654,0.003160,0.248383,-0.000032,-0.000052,0.000002,-0.000032,-0.000053,6.015212,0.000085,
2235,2441,-0.621881591676914,-4.58300738626041,-0.0124828810809845,-0.000357,0.002747,-0.007707,0.009498,0.105237,323.690592,24.435640,0.999600,0.991380,0.004026,0.075132,-0.000039,-0.000030,0.000000,-0.000030,-0.000039,87.133421,0.000069,
2205,2171,-1.22753876675277,-10.490985390386,-0.00727811844484449,-0.000097,0.003564,-0.012306,0.035597,0.095525,328.286684,24.075646,0.999206,0.984813,0.004972,0.169873,-0.000042,0.000003,0.000006,0.000004,-0.000043,81.937482,0.000047,
2355,2171,2.04549619597924,-10.4949953821091,0.00575702713439341,-0.000804,0.002861,-0.006475,-0.013022,0.102492,328.162050,23.199264,0.999385,0.984363,0.004948,0.254783,-0.000029,-0.000005,0.000012,0.000000,-0.000033,67.602545,0.000039,
2235,2216,-0.580957639920836,-9.50718968531129,0.0049103878028518,-0.000369,0.002371,-0.006903,0.006204,0.082553,327.546510,23.982706,0.999118,0.984701,0.004865,0.161015,-0.000037,0.000008,0.000013,0.000011,-0.000041,75.362724,0.000042,
2385,2081,2.71933693661657,-12.4702799913251,0.015865031294652,-0.000571,0.002544,-0.006964,-0.000279,0.097000,329.758049,22.838591,0.999190,0.979331,0.005482,0.172616,0.000010,-0.000013,0.000031,0.000032,-0.000035,34.907646,0.000038,
2250,2231,-0.257297576451766,-9.17801206631691,0.00180363666066796,-0.000899,0.002584,-0.006338,-0.019608,0.089998,327.217735,23.967493,0.998894,0.982427,0.005158,0.136613,-0.000037,-0.000010,0.000002,-0.000010,-0.000038,84.893497,0.000050,
2220,2216,-0.908677787582555,-9.50619598216667,-0.000645239933476205,-0.000618,0.002498,-0.007022,-0.005071,0.095395,327.522584,24.065706,0.999117,0.984148,0.004921,0.164058,-0.000029,0.000006,0.000008,0.000008,-0.000031,77.444828,0.000033,
2340,2036,1.74405569896917,-13.4566903413369,0.0174915674994054,-0.000881,0.002370,-0.001879,-0.032878,0.098842,330.461824,23.066554,0.999185,0.981984,0.005243,0.107329,0.000006,-0.000006,0.000026,0.000026,-0.000027,38.248629,0.000031,
2265,2306,0.056427711708217,-7.53577270447327,-0.00450557939819873,-0.000576,0.003415,-0.009652,0.006655,0.130671,325.928691,23.990187,0.999082,0.984163,0.005086,0.222042,-0.000023,0.000004,0.000002,0.000004,-0.000023,85.964567,0.000025,
2310,3221,0.868442254039859,12.3857270870623,0.0249753663085812,-0.000576,0.002163,-0.008895,0.004688,0.076245,310.904951,25.673719,0.999618,0.993982,0.003093,0.267152,-0.000028,-0.000045,-0.000010,-0.000023,-0.000050,-26.150707,0.000075,
2385,2666,2.6013642982597,0.330282502891961,-0.0296132356936027,-0.000404,0.002574,-0.007034,0.007710,0.099057,319.703470,24.514863,0.999389,0.989274,0.004138,0.250946,-0.000027,-0.000010,0.000007,-0.000007,-0.000030,70.183129,0.000039,
2340,2156,1.72046450295554,-10.8226023941798,-0.00543028102708831,-0.000516,0.003150,-0.009137,0.009238,0.105495,328.337059,23.214116,0.999372,0.987088,0.004639,0.284228,-0.000021,-0.000009,0.000015,0.000001,-0.000031,56.680755,0.000035,
2355,2651,1.95112736226716,0.00247785038502002,-0.0294685088764481,-0.000423,0.002743,-0.008708,0.012263,0.095256,319.946739,24.523509,0.999380,0.989381,0.004188,0.212942,-0.000027,-0.000013,0.000006,-0.000011,-0.000029,68.825168,0.000042,
2190,2336,-1.58242801790914,-6.88115909689684,0.00954226659598589,-0.000660,0.003039,-0.008642,-0.002271,0.108919,325.714085,24.367107,0.999668,0.990795,0.004027,0.153831,-0.000026,0.000002,0.000000,0.000002,-0.000026,89.071733,0.000029,
2370,2666,2.27369966724175,0.330402187506742,-0.0329086059253996,-0.000866,0.002145,-0.003182,-0.027548,0.107456,319.632314,24.547851,0.999345,0.989642,0.004247,0.233115,-0.000029,-0.000013,0.000003,-0.000012,-0.000029,79.142403,0.000043,
2295,2561,0.662299132946139,-1.96332218561722,-0.0190000739724496,-0.000477,0.002505,-0.007046,0.002801,0.082960,321.547198,24.384601,0.999190,0.988021,0.004622,0.192189,-0.000032,-0.000040,-0.000003,-0.000031,-0.000042,-19.457522,0.000072,
2370,2201,2.36760037947329,-9.83611734711333,0.000800963678386779,-0.000483,0.003502,-0.012022,0.021780,0.118987,327.665336,23.266824,0.999023,0.981864,0.005283,0.210871,-0.000023,0.000014,0.000020,0.000023,-0.000032,66.461029,0.000033,
2385,2186,2.69760124537671,-10.1657729762489,0.00991875023726152,-0.000894,0.002266,-0.002075,-0.032592,0.102456,327.944389,23.193829,0.999185,0.983334,0.005072,0.145938,-0.000023,0.000006,0.000023,0.000019,-0.000036,61.211417,0.000036,
2175,2111,-1.87121439693922,-11.807009298402,0.00567190162473707,-0.000340,0.003094,-0.008491,0.011621,0.114796,329.446288,24.157623,0.999235,0.983221,0.005140,0.205259,-0.000047,-0.000023,0.000003,-0.000022,-0.000047,81.942922,0.000071,
2310,2351,1.02908299155289,-6.55097996254846,-0.00793322189690571,-0.000363,0.002758,-0.007748,0.010741,0.101881,325.110186,23.927739,0.999500,0.988239,0.004143,0.178217,-0.000033,0.000005,-0.000001,0.000005,-0.000033,-88.630641,0.000035,
2340,2396,1.67476123570795,-5.56650806699918,-0.00775288105546679,-0.000242,0.002766,-0.006654,0.013096,0.114642,324.357274,23.942163,0.999731,0.992014,0.003804,0.184437,-0.000040,0.000003,0.000003,0.000003,-0.000040,86.432022,0.000044,
2250,2486,-0.3035589821671,-3.60217660516383,-0.0199803855738878,-0.000406,0.003048,-0.011372,0.019636,0.113910,322.864579,24.200648,0.999711,0.991115,0.003641,0.352530,-0.000039,-0.000021,0.000004,-0.000020,-0.000040,76.860428,0.000061,
2445,2261,3.99377062854394,-8.52268099131683,0.00867396387707231,-0.000712,0.002682,-0.009719,0.004582,0.085173,326.814742,23.139998,0.999402,0.984294,0.004942,0.142315,-0.000030,-0.000011,0.000023,0.000004,-0.000045,56.503232,0.000050,
2100,3281,-3.69589782229151,13.6675299449562,0.0173322352984542,-0.000535,0.002215,-0.006733,-0.004175,0.092243,310.441521,24.642984,0.999693,0.997156,0.002507,0.257236,-0.000023,-0.000070,0.000008,-0.000022,-0.000071,8.966295,0.000097,
2370,2441,2.31950692014264,-4.58233473827769,-0.0117125342131885,-0.000618,0.002827,-0.006298,-0.004899,0.099456,323.566004,23.965582,0.999305,0.989315,0.004311,0.179628,-0.000028,-0.000033,0.000002,-0.000027,-0.000033,16.854694,0.000061,
2220,2426,-0.945237919606349,-4.91581224703315,0.000997057657514233,-0.000537,0.002623,-0.005802,-0.005161,0.101385,324.073379,24.135302,0.999725,0.992290,0.003591,0.390632,-0.000039,-0.000030,-0.000004,-0.000029,-0.000040,-70.241651,0.000069,
2370,2006,2.40627033826741,-14.1156961509978,0.0121573483468751,-0.000394,0.003567,-0.010920,0.021952,0.114050,330.973250,22.767503,0.998874,0.973921,0.006205,0.132482,0.000024,-0.000018,0.000022,0.000034,-0.000028,23.208445,0.000036,
2400,2216,3.01975457285974,-9.50714523335655,0.000412855070862861,-0.000316,0.002950,-0.010249,0.023696,0.095265,327.439976,23.225446,0.999355,0.984068,0.005093,0.125023,-0.000026,0.000017,0.000017,0.000023,-0.000032,71.045670,0.000033,
2160,2096,-2.19598695494316,-12.1363136272552,0.0109601700524991,-0.000666,0.002491,-0.006183,-0.010879,0.090407,329.765375,24.251406,0.999594,0.986144,0.004772,0.162150,-0.000047,-0.000021,0.000008,-0.000019,-0.000049,73.924873,0.000070,
2325,2621,1.30413399720237,-0.654382748467775,-0.021802235253972,-0.000389,0.002274,-0.006751,0.006273,0.083081,320.509540,24.393302,0.999519,0.989695,0.003921,0.279252,-0.000022,-0.000035,-0.000002,-0.000022,-0.000035,-8.355958,0.000057,
2460,2351,4.30126002651147,-6.54945609351241,-0.0144792886821392,-0.000532,0.002951,-0.010443,0.016034,0.089673,325.173953,23.393242,0.999360,0.983935,0.005024,0.165024,-0.000042,-0.000003,0.000022,0.000007,-0.000052,65.582855,0.000057,
2415,2171,3.35590508568132,-10.4947308820532,0.00449536275351647,-0.000690,0.002469,-0.005307,-0.011236,0.082017,328.200912,22.973429,0.999145,0.984143,0.004843,0.139467,-0.000021,0.000002,0.000019,0.000013,-0.000032,60.489960,0.000032,
2340,3281,1.5048212408262,13.6925615367538,-0.0130572427180482,-0.000530,0.002232,-0.002876,-0.013457,0.098926,309.541823,26.045828,0.999621,0.994204,0.003064,0.208155,-0.000029,-0.000046,-0.000005,-0.000028,-0.000048,-15.012758,0.000076,
2340,2621,1.62998921254237,-0.652686153893491,-0.0270516280287438,-0.000657,0.002256,-0.005824,-0.008991,0.099997,320.444821,24.428135,0.999335,0.989488,0.004083,0.247919,-0.000026,-0.000032,0.000006,-0.000022,-0.000035,31.743932,0.000058,
2280,2561,0.33502247049606,-1.96382147587082,-0.0253211169428482,-0.000624,0.002407,-0.005850,-0.008220,0.086483,321.501427,24.337266,0.999355,0.989370,0.004223,0.265551,-0.000032,-0.000038,0.000001,-0.000032,-0.000038,5.392729,0.000070,
2175,2336,-1.91098023629197,-6.8792248644495,-0.0149064772360816,-0.000663,0.002934,-0.006349,-0.009839,0.118535,325.549890,24.351108,0.999140,0.987459,0.004520,0.235533,-0.000029,0.000003,0.000001,0.000003,-0.000029,88.668475,0.000032,
2130,2021,-2.83841849694741,-13.7791074212161,0.00412933312509267,-0.000651,0.002953,-0.007700,-0.006001,0.107122,331.057542,24.439707,0.999365,0.984399,0.005161,0.126867,-0.000040,-0.000015,0.000016,-0.000007,-0.000048,63.672082,0.000060,
2505,2621,5.22597308580463,-0.648981581011654,-0.0174024923925913,-0.000774,0.002391,-0.003837,-0.019570,0.114126,320.749818,24.185619,0.999885,0.995194,0.003100,0.354748,-0.000050,0.000014,0.000008,0.000015,-0.000051,83.098555,0.000053,
2385,2426,2.65039782498606,-4.91103005492274,-0.00527245018326994,-0.000430,0.002787,-0.008681,0.012462,0.105262,323.894803,23.840456,0.999549,0.989516,0.004189,0.225582,-0.000023,-0.000034,0.000004,-0.000022,-0.000035,17.634445,0.000058,
2280,2351,0.374769730219828,-6.55228902857835,-0.00464909019382276,-0.000764,0.002494,-0.005734,-0.014996,0.090925,325.142214,23.975349,0.999335,0.987333,0.004475,0.225967,-0.000024,-0.000003,-0.000001,-0.000002,-0.000024,-87.450775,0.000029,
2190,2156,-1.55111707927255,-10.8229144081392,0.0172713430465592,-0.000645,0.003014,-0.009592,0.001365,0.086739,328.747104,24.097619,0.999302,0.985355,0.004828,0.200294,-0.000036,-0.000003,0.000007,-0.000002,-0.000037,78.640859,0.000044,
2475,2426,4.61355478908535,-4.90953632012634,-0.0073585337561326,-0.000444,0.002917,-0.006129,0.004099,0.111959,324.013979,23.581818,0.999433,0.987121,0.004503,0.235447,-0.000020,-0.000055,0.000013,-0.000015,-0.000059,17.832224,0.000079,
2310,3236,0.864564951420302,12.712454128113,0.0120996058333844,-0.000531,0.002035,-0.007142,0.000770,0.084293,310.540964,25.763050,0.999401,0.991902,0.003524,0.216250,-0.000029,-0.000034,-0.000009,-0.000022,-0.000041,-37.112368,0.000063,
2235,2456,-0.624591198533128,-4.25725822876436,-0.0103828048137871,-0.000520,0.002578,-0.007005,-0.000287,0.102865,323.451279,24.311325,0.999530,0.991086,0.003956,0.219308,-0.000039,-0.000022,0.000002,-0.000022,-0.000039,83.657313,0.000062,
2220,2231,-0.911390457947604,-9.17808798879606,0.00336524283397921,-0.000822,0.002479,-0.004492,-0.022478,0.112732,327.291541,24.081390,0.999004,0.984846,0.004946,0.186948,-0.000030,-0.000010,-0.000001,-0.000010,-0.000030,-86.056345,0.000041,
2490,2591,4.90518256853882,-1.30250615457161,-0.0168214561811055,-0.000889,0.002382,-0.005261,-0.019616,0.094942,321.209550,24.268098,0.999830,0.995727,0.003154,0.147806,-0.000055,0.000005,0.000008,0.000006,-0.000056,82.144734,0.000061,
2250,2246,-0.26045749282153,-8.84957148836129,-0.00213764420294638,-0.000977,0.002118,-0.004596,-0.029068,0.083791,326.928376,23.959356,0.998641,0.982325,0.005309,0.164229,-0.000034,-0.000007,0.000003,-0.000006,-0.000034,83.953008,0.000044,
2325,2396,1.34775760899476,-5.56838442450137,-0.00443413508486401,-0.000352,0.002324,-0.004976,0.001873,0.090047,324.378851,23.888712,0.999555,0.990513,0.004081,0.259928,-0.000038,-0.000001,0.000001,-0.000001,-0.000038,88.253574,0.000045,
2295,2366,0.699692442553705,-6.22492094963029,-0.00115511059914297,-0.000599,0.002801,-0.009469,0.005435,0.093052,324.927126,23.917450,0.999352,0.987883,0.004357,0.264173,-0.000033,-0.000003,-0.000008,0.000000,-0.000035,-75.922150,0.000041,
2310,2591,0.982659196179295,-1.30824367265147,-0.0246119024897098,-0.000759,0.002998,-0.007518,-0.008080,0.125037,320.978217,24.355501,0.999616,0.992401,0.003525,0.306972,-0.000025,-0.000039,-0.000003,-0.000025,-0.000039,-13.111866,0.000065,
2400,2126,3.03819512188629,-11.481863905063,0.0161433386069234,-0.000742,0.003171,-0.007943,-0.004036,0.094263,329.028727,22.999029,0.999346,0.981049,0.005237,0.061338,-0.000003,-0.000018,0.000024,0.000015,-0.000035,36.038854,0.000036,
2325,2156,1.39418102138012,-10.8239080816657,0.00918224011650182,-0.000296,0.002662,-0.007663,0.013728,0.103380,328.466888,23.320188,0.999305,0.985071,0.004884,0.257468,-0.000022,-0.000005,0.000016,0.000005,-0.000032,59.101382,0.000035,
2505,2636,5.22262443688068,-0.320346689457701,-0.01786970838873,-0.000758,0.002338,-0.001953,-0.026118,0.124030,320.488962,24.351970,0.999785,0.992457,0.003609,0.259700,-0.000044,0.000019,0.000010,0.000020,-0.000046,81.631776,0.000046,
2430,2216,3.67601715763442,-9.51076174472634,0.0208654232043273,-0.000511,0.002173,-0.004586,-0.005654,0.088178,327.623613,22.991359,0.999567,0.986578,0.004609,0.204063,-0.000024,0.000022,0.000018,0.000028,-0.000030,70.818257,0.000034,
2370,2021,2.4036015014421,-13.7874078141223,0.0147127282617703,-0.000363,0.002887,-0.010970,0.023286,0.062825,330.749859,22.779930,0.998959,0.974717,0.006189,0.113084,0.000024,-0.000022,0.000020,0.000032,-0.000030,20.624360,0.000036,
2385,2096,2.71587932961186,-12.1398803807486,0.0093163635879705,-0.000408,0.002470,-0.004873,-0.000270,0.080879,329.455996,22.933991,0.999072,0.977957,0.005662,0.107759,0.000006,-0.000013,0.000029,0.000027,-0.000035,35.918253,0.000037,
2220,2441,-0.948095169619553,-4.58560401593087,-0.00639471585822093,-0.000340,0.002584,-0.007333,0.008751,0.096846,323.776576,24.324520,0.999314,0.989080,0.004305,0.217413,-0.000040,-0.000033,0.000000,-0.000033,-0.000040,89.587815,0.000073,
2355,2426,1.99508963282333,-4.91203705219544,-0.0113977937966752,-0.000666,0.002665,-0.002890,-0.019340,0.118954,323.798933,23.798098,0.999539,0.990946,0.004032,0.366699,-0.000029,-0.000028,0.000006,-0.000022,-0.000034,48.408205,0.000057,
2205,2426,-1.27184418373636,-4.91500425298335,-0.00035718517932537,-0.000467,0.002720,-0.006728,0.000767,0.112766,324.106534,24.245123,0.999308,0.989952,0.004117,0.334418,-0.000032,-0.000029,0.000001,-0.000029,-0.000032,74.108226,0.000061,
2100,3296,-3.69908304613504,13.9922509363892,0.00981645671618026,-0.000555,0.002005,-0.003892,-0.013477,0.093760,310.118344,24.598847,0.999564,0.995345,0.002945,0.302440,-0.000018,-0.000075,0.000012,-0.000015,-0.000078,11.447908,0.000100,
2385,2201,2.69429211572228,-9.83527797270067,-0.0030706218521459,-0.000729,0.003063,-0.008273,-0.002602,0.102699,327.618020,23.254770,0.998845,0.979865,0.005506,0.131232,-0.000019,0.000013,0.000022,0.000025,-0.000031,63.143770,0.000032,
2340,2171,1.71801426036032,-10.4930296347629,-0.00286956897531354,-0.000453,0.003474,-0.011047,0.018873,0.121382,328.120199,23.330948,0.999270,0.984766,0.004860,0.222526,-0.000024,-0.000006,0.000007,-0.000004,-0.000026,71.779922,0.000033,
2160,2111,-2.19824221104242,-11.8071886973216,0.00987078388794771,-0.000433,0.002717,-0.007259,0.003160,0.100759,329.523815,24.267456,0.999401,0.985593,0.004805,0.169346,-0.000049,-0.000026,0.000005,-0.000025,-0.000050,78.216377,0.000077,
2295,2576,0.658962350849482,-1.63471705376125,-0.0248060664105765,-0.000502,0.002557,-0.005659,-0.002983,0.115114,321.243481,24.456529,0.999412,0.990477,0.003973,0.183136,-0.000034,-0.000033,-0.000007,-0.000027,-0.000040,-46.986431,0.000067,
2340,2051,1.74236345821994,-13.1286239493999,0.0262745436335763,-0.000733,0.002750,-0.006194,-0.011027,0.101787,330.310377,23.085251,0.999327,0.982642,0.005018,0.130965,0.000001,-0.000025,0.000014,0.000007,-0.000031,23.642450,0.000032,
2340,2411,1.67185366230358,-5.2390551647748,0.000711842026760223,-0.000632,0.002124,-0.002628,-0.018999,0.109562,324.147689,24.024743,0.999678,0.992109,0.003829,0.134528,-0.000038,-0.000010,0.000004,-0.000009,-0.000038,81.336323,0.000051,
2265,2501,0.019636999695809,-3.27309676944598,-0.0179940208398079,-0.000617,0.002375,-0.002377,-0.019559,0.111661,322.566707,24.336107,0.999730,0.992570,0.003738,0.208286,-0.000026,-0.000028,0.000007,-0.000020,-0.000034,39.873132,0.000054,
2340,2636,1.62734183461857,-0.325830096644701,-0.0255652847295664,-0.000803,0.002582,-0.008994,-0.004603,0.090397,320.212691,24.466290,0.999356,0.989398,0.004123,0.237149,-0.000025,-0.000028,0.000008,-0.000019,-0.000034,38.974193,0.000054,
2490,2606,4.9027028153988,-0.977255943999666,-0.0120552714122368,-0.000986,0.002548,-0.009231,-0.008834,0.081926,321.011896,24.182678,0.999847,0.995411,0.003217,0.279491,-0.000053,-0.000010,0.000010,-0.000008,-0.000055,77.834530,0.000069,
2370,2681,2.27057403449671,0.657674385759265,-0.0396767007512722,-0.000700,0.002175,-0.005073,-0.013238,0.093146,319.340701,24.573992,0.999436,0.990401,0.003890,0.234328,-0.000029,-0.000014,0.000003,-0.000014,-0.000030,79.773337,0.000045,
2445,2276,3.99037044190702,-8.19406164369493,0.00535035563757447,-0.000675,0.002719,-0.008297,0.001050,0.092221,326.535446,23.154383,0.999446,0.982725,0.005055,0.189256,-0.000033,-0.000012,0.000019,-0.000001,-0.000044,60.002650,0.000052,
2400,2231,3.0171865892749,-9.17975928757412,0.00534607921076713,-0.000250,0.002785,-0.009410,0.023605,0.099150,327.233843,23.200606,0.999418,0.985180,0.004898,0.201364,-0.000028,-0.000002,0.000021,0.000010,-0.000039,61.099337,0.000041,
2355,2666,1.94844054197211,0.328950763636861,-0.0272052235275169,-0.000341,0.002879,-0.007917,0.013295,0.111162,319.717600,24.517272,0.999483,0.990759,0.003969,0.274404,-0.000025,-0.000012,0.000006,-0.000010,-0.000027,69.419374,0.000038,
2340,3296,1.50166490593712,14.0169879076889,-0.0173612620184826,-0.000525,0.001904,-0.003439,-0.011423,0.079144,309.256444,26.020253,0.999725,0.994212,0.003012,0.248695,-0.000023,-0.000050,-0.000017,-0.000015,-0.000058,-25.795717,0.000077,
2175,2351,-1.91344183350797,-6.55085368329119,-0.0178675067113545,-0.000444,0.003038,-0.007201,0.002888,0.121844,325.290357,24.375216,0.998680,0.983868,0.005118,0.228643,-0.000029,0.000002,0.000006,0.000003,-0.000030,79.853166,0.000033,
2280,2576,0.332977855655734,-1.63664595984799,-0.0174115673229949,-0.000527,0.002640,-0.006236,-0.002346,0.118539,321.324393,24.400622,0.999186,0.988074,0.004404,0.262379,-0.000035,-0.000030,-0.000003,-0.000029,-0.000037,-65.317863,0.000066,
2355,2186,2.04291400883541,-10.1653973736757,0.0105344461885579,-0.000819,0.002618,-0.005888,-0.015877,0.100147,327.951064,23.365063,0.999265,0.985005,0.004856,0.128000,-0.000029,0.000004,0.000013,0.000008,-0.000033,71.214686,0.000035,
2385,2681,2.59760243253825,0.658064993560764,-0.0358576765136718,-0.000729,0.002227,-0.007008,-0.007464,0.080897,319.386434,24.596190,0.999448,0.989415,0.003953,0.195146,-0.000029,-0.000011,0.000007,-0.000009,-0.000031,71.470391,0.000042,
2175,2126,-1.87436267612819,-11.4775610991801,0.0034936287331675,-0.000589,0.002660,-0.005127,-0.010326,0.117538,329.159550,24.205125,0.999107,0.983581,0.005061,0.176093,-0.000045,-0.000018,0.000004,-0.000018,-0.000046,81.210923,0.000066,
2310,2366,1.026187220646,-6.2234063518678,-0.011709178238732,-0.000257,0.002877,-0.008660,0.018764,0.100786,324.839141,23.882282,0.999657,0.990863,0.003815,0.256391,-0.000035,0.000004,-0.000001,0.000004,-0.000035,-88.184681,0.000039,
2370,2456,2.31613763944322,-4.25364781018307,-0.0177619160547806,-0.000504,0.003206,-0.004973,-0.004202,0.117578,323.267274,24.014445,0.999162,0.989798,0.004211,0.191447,-0.000028,-0.000027,-0.000002,-0.000026,-0.000030,-52.055120,0.000056,
2505,2651,5.21888102861176,0.00806705456935219,-0.0302261132039234,-0.000721,0.002611,-0.006984,-0.004944,0.109541,320.156766,24.425244,0.999594,0.988657,0.004292,0.233531,-0.000044,0.000015,0.000017,0.000019,-0.000048,74.797650,0.000049,
2310,3251,0.861321136237787,13.037846167486,0.0095800947693192,-0.000582,0.002015,-0.004775,-0.009717,0.076101,310.257847,25.810819,0.999537,0.993055,0.003278,0.190669,-0.000030,-0.000036,-0.000006,-0.000027,-0.000039,-31.272126,0.000067,
2475,2441,4.60969784195973,-4.58055427514669,-0.0126858723450027,-0.000701,0.002679,-0.005609,-0.009721,0.098822,323.706466,23.691295,0.999337,0.986820,0.004553,0.171084,-0.000023,-0.000056,0.000005,-0.000022,-0.000057,9.074639,0.000081,
2460,2366,4.29950364897369,-6.22277932323686,0.000509737228242102,-0.000337,0.002929,-0.009088,0.019856,0.100084,325.054924,23.442005,0.999701,0.988929,0.004501,0.182174,-0.000038,-0.000006,0.000020,0.000004,-0.000048,63.784658,0.000053,
2415,2186,3.3535761978413,-10.1665848781901,0.0140777495129214,-0.000893,0.002716,-0.006556,-0.015880,0.088569,328.028642,23.050069,0.999391,0.985442,0.004732,0.119218,-0.000023,0.000006,0.000021,0.000016,-0.000034,62.426469,0.000034,
2235,2231,-0.584111137099239,-9.17824428182742,0.000705479954888233,-0.000506,0.002588,-0.005839,-0.003457,0.092286,327.254569,23.995947,0.999076,0.984587,0.004835,0.181195,-0.000037,-0.000012,0.000000,-0.000012,-0.000037,89.177782,0.000051,
2370,2216,2.36457410114484,-9.50831213724018,0.00759727281899814,-0.000544,0.002677,-0.004462,-0.008054,0.108205,327.444926,23.309425,0.998916,0.979303,0.005713,0.201053,-0.000028,0.000013,0.000014,0.000017,-0.000033,72.797958,0.000033,
2250,2501,-0.306750512137736,-3.27329270579327,-0.0203009638541403,-0.000499,0.002639,-0.006102,-0.002027,0.102838,322.591341,24.364870,0.999616,0.991303,0.003792,0.201609,-0.000036,-0.000030,0.000006,-0.000026,-0.000039,57.968274,0.000066,
2205,2186,-1.23072230631769,-10.1635431412072,0.00509379250797792,-0.001018,0.002624,-0.004557,-0.031382,0.121852,328.076154,24.096408,0.999042,0.982393,0.005218,0.194545,-0.000045,0.000005,0.000006,0.000006,-0.000046,82.706342,0.000050,
2355,2681,1.94513686699119,0.656618864260913,-0.030651500219335,-0.000470,0.002643,-0.007666,0.006425,0.110218,319.432293,24.593882,0.999542,0.991262,0.003746,0.235896,-0.000026,-0.000013,0.000005,-0.000011,-0.000028,71.991541,0.000040,
2385,2441,2.64640167341943,-4.58190361132812,-0.014005620314947,-0.000518,0.002380,-0.005141,-0.004371,0.103325,323.556098,23.918338,0.999378,0.989462,0.004345,0.190518,-0.000023,-0.000034,0.000001,-0.000023,-0.000034,5.122689,0.000057,
2130,2036,-2.84048542984841,-13.4524313642336,0.0121800917396513,-0.000646,0.002515,-0.004760,-0.014645,0.097494,330.871004,24.328853,0.999384,0.985518,0.004936,0.236832,-0.000052,-0.000017,0.000010,-0.000014,-0.000054,74.540196,0.000072,
2340,2186,1.71466596101088,-10.1635045467092,-0.00499312278401476,-0.000483,0.002628,-0.007135,0.003611,0.105378,327.839644,23.430247,0.999347,0.987370,0.004564,0.146466,-0.000023,0.000001,0.000007,0.000003,-0.000025,74.263813,0.000028,
2265,2321,0.053948477445946,-7.20765916384858,-0.00108118145107028,-0.000450,0.002829,-0.007697,0.005781,0.112496,325.708799,24.066680,0.998831,0.983772,0.005252,0.154602,-0.000018,0.000017,0.000005,0.000018,-0.000018,81.916831,0.000021,
2115,2006,-3.16265766175382,-14.1089446272962,0.00692401712433366,-0.000320,0.003119,-0.008367,0.010908,0.106472,331.407366,24.470519,0.999753,0.992177,0.003979,0.189429,-0.000019,-0.000031,-0.000005,-0.000017,-0.000033,-21.280646,0.000051,
2325,2636,1.30093255389457,-0.325963306267006,-0.0273601134095429,-0.000465,0.002750,-0.008463,0.008849,0.107051,320.215913,24.479981,0.999424,0.989972,0.003936,0.251421,-0.000021,-0.000032,-0.000002,-0.000021,-0.000032,-10.223941,0.000054,
2295,2381,0.696787725606427,-5.89583264103092,-0.00428653490183706,-0.000425,0.002890,-0.008441,0.010034,0.099489,324.657135,24.014063,0.998916,0.984465,0.005011,0.205675,-0.000034,-0.000004,-0.000007,-0.000002,-0.000036,-77.213409,0.000043,
2355,2441,1.99235989138205,-4.58279219494793,-0.0120562741919343,-0.000584,0.002585,-0.004607,-0.009584,0.106548,323.554130,23.974241,0.998924,0.985024,0.004874,0.218388,-0.000030,-0.000029,0.000006,-0.000024,-0.000035,46.564168,0.000059,
2310,3266,0.858005934128531,13.3634523254571,-0.0010638978744737,-0.000547,0.002319,-0.008433,0.004556,0.088397,309.931060,25.815737,0.999589,0.994493,0.002997,0.228775,-0.000033,-0.000041,-0.000005,-0.000030,-0.000043,-25.106828,0.000074,
2325,2171,1.39076236302349,-10.4930448572686,0.0026486732435842,-0.000489,0.002940,-0.008954,0.009433,0.111488,328.160013,23.463314,0.998974,0.980243,0.005289,0.159941,-0.000026,-0.000006,0.000008,-0.000003,-0.000029,70.637948,0.000035,
2325,2411,1.34363349578014,-5.23897186128068,-0.0193901491481938,-0.000613,0.002411,-0.006223,-0.005816,0.080094,323.997823,23.928304,0.999506,0.990641,0.004069,0.246685,-0.000038,-0.000013,0.000003,-0.000013,-0.000038,82.740901,0.000053,
2190,2351,-1.58551323548083,-6.55344155837641,-0.00132798576430559,-0.000533,0.003016,-0.009962,0.007692,0.096936,325.386528,24.266592,0.999380,0.988683,0.004322,0.258984,-0.000027,0.000001,0.000005,0.000002,-0.000028,79.252487,0.000031,
2175,2141,-1.87652373016858,-11.1499088666716,0.0114010850329578,-0.000740,0.002826,-0.004652,-0.018638,0.128058,328.970810,24.196923,0.998995,0.982716,0.005179,0.209473,-0.000043,-0.000017,0.000006,-0.000016,-0.000044,77.015075,0.000062,
2340,2066,1.73948127855138,-12.7999190585556,0.0184700234627257,-0.000396,0.002874,-0.008961,0.014028,0.082695,330.024264,23.001537,0.999331,0.979777,0.005269,0.235534,-0.000002,-0.000015,0.000020,0.000013,-0.000030,36.289128,0.000030,
2385,2111,2.71253887416779,-11.8112154596399,0.0123740883320238,-0.000810,0.002102,-0.001770,-0.029891,0.099175,329.204702,22.949614,0.998762,0.972773,0.006072,0.156727,0.000002,-0.000011,0.000028,0.000024,-0.000033,38.933309,0.000035,
2430,2231,3.67177492081177,-9.17933189122158,0.00669292343695815,-0.000755,0.002520,-0.006885,-0.008190,0.107345,327.253892,23.118786,0.999361,0.984748,0.004850,0.148614,-0.000025,0.000001,0.000025,0.000017,-0.000040,58.716434,0.000040,
2280,2366,0.372873313960742,-6.22512414700982,-4.04006337930696E-05,-0.000503,0.002814,-0.008999,0.007937,0.090430,324.956070,23.974050,0.999156,0.985761,0.004763,0.255974,-0.000026,-0.000006,0.000001,-0.000006,-0.000026,88.471072,0.000034,
2310,2606,0.980176895923325,-0.981160530128442,-0.0238862727182436,-0.000451,0.002581,-0.006978,0.004073,0.098165,320.747718,24.415082,0.999521,0.990951,0.003776,0.253221,-0.000025,-0.000026,-0.000002,-0.000023,-0.000028,-38.806067,0.000052,
2295,2591,0.657200919197308,-1.30953598356936,-0.0107612981133229,-0.000584,0.002843,-0.006312,-0.004439,0.124042,321.111303,24.418848,0.999637,0.993288,0.003368,0.260157,-0.000034,-0.000037,-0.000006,-0.000029,-0.000041,-37.434887,0.000071,
2355,2006,2.07837351646762,-14.1154169644674,0.0132139037822867,-0.000608,0.003598,-0.012670,0.017886,0.112789,330.971923,22.872697,0.998907,0.976597,0.006089,0.130547,0.000014,-0.000017,0.000022,0.000025,-0.000028,27.323859,0.000031,
2415,2201,3.35021263149838,-9.83750505308904,0.00336543219407304,-0.000635,0.002989,-0.009392,0.006340,0.090625,327.714073,23.004239,0.999409,0.984306,0.004960,0.217574,-0.000019,0.000013,0.000021,0.000023,-0.000029,63.361055,0.000031,
2460,2381,4.29546300682388,-5.89407103057487,-0.00851874722030743,-0.000618,0.002933,-0.009863,0.009910,0.094666,324.721009,23.459750,0.999702,0.988608,0.004429,0.215447,-0.000041,-0.000014,0.000017,-0.000006,-0.000050,64.470707,0.000061,
2400,2141,3.03542056609733,-11.1543740216673,0.0140915060236466,-0.000530,0.003267,-0.009533,0.011437,0.092106,328.780660,22.882012,0.999336,0.981647,0.005106,0.224399,-0.000012,-0.000020,0.000025,0.000009,-0.000042,40.282632,0.000044,
2340,2651,1.62365920764829,0.00223927079159125,-0.0336072647268679,-0.000752,0.002268,-0.005597,-0.014166,0.091762,319.886366,24.527817,0.999465,0.990691,0.003948,0.214297,-0.000023,-0.000015,0.000010,-0.000008,-0.000030,55.771130,0.000040,
2280,2591,0.329930734539733,-1.30912892199506,-0.0224922034540782,-0.000607,0.002964,-0.008306,0.000952,0.116802,321.036493,24.417883,0.999243,0.989823,0.004115,0.272004,-0.000034,-0.000032,-0.000002,-0.000030,-0.000035,-58.378627,0.000066,
2370,2036,2.40014931168256,-13.4580213777526,0.0125388756954408,-0.000522,0.002886,-0.008101,0.005890,0.087680,330.467484,22.767796,0.999209,0.982553,0.005375,0.194957,0.000025,-0.000011,0.000025,0.000038,-0.000024,27.381926,0.000038,
2400,2246,3.01289014980068,-8.85050726615891,-0.00498545485095292,-0.000752,0.002878,-0.009270,0.000171,0.082301,326.876467,23.212304,0.999395,0.984858,0.004870,0.221149,-0.000030,0.000001,0.000024,0.000014,-0.000044,61.302921,0.000045,
2175,2366,-1.9160185373863,-6.22352810995878,-0.017532224086267,-0.000523,0.002759,-0.007429,-0.000128,0.096220,325.043108,24.370771,0.999078,0.988140,0.004467,0.221323,-0.000027,-0.000007,0.000008,-0.000004,-0.000030,70.144604,0.000037,
2475,2456,4.60647915268585,-4.25286572762253,-0.014417629360878,-0.000893,0.002660,-0.008289,-0.008388,0.105281,323.444613,23.702444,0.999371,0.987746,0.004401,0.224190,-0.000028,-0.000062,-0.000004,-0.000028,-0.000062,-6.021973,0.000092,
2400,2456,2.97058848105177,-4.25535406592925,-0.00718698446956978,-0.000931,0.002362,-0.003949,-0.027432,0.094864,323.355224,23.859382,0.999502,0.988242,0.004474,0.247430,-0.000022,-0.000032,-0.000002,-0.000021,-0.000032,-8.504860,0.000054,
2490,2621,4.89878397488314,-0.648780542885383,-0.023538069897711,-0.000633,0.002711,-0.007113,-0.000629,0.099530,320.674049,24.225324,0.999853,0.995067,0.003180,0.314198,-0.000053,0.000000,0.000005,0.000001,-0.000054,85.013249,0.000062,
2235,2471,-0.627726512094696,-3.93012109613788,-0.0150343254083509,-0.000548,0.002445,-0.005256,-0.007303,0.105685,323.157734,24.250094,0.999619,0.992394,0.003656,0.305924,-0.000038,-0.000021,0.000005,-0.000019,-0.000040,75.417238,0.000060,
2190,2186,-1.55747268840183,-10.1645665079274,0.00565699593272484,-0.000827,0.002136,-0.005686,-0.019460,0.067950,328.136118,24.127110,0.998865,0.979590,0.005534,0.187027,-0.000038,0.000001,0.000004,0.000001,-0.000039,83.671179,0.000044,
2385,2216,2.69174268347313,-9.50737870401034,0.00633111938986985,-0.000898,0.002821,-0.005938,-0.018764,0.108874,327.432763,23.316995,0.999137,0.982098,0.005332,0.120668,-0.000025,0.000015,0.000017,0.000021,-0.000031,70.037494,0.000032,
2220,2246,-0.915010348943213,-8.8489108046099,-0.0109649553241979,-0.000831,0.002499,-0.004580,-0.022613,0.116008,326.924945,24.022024,0.998716,0.984326,0.005098,0.271258,-0.000025,-0.000002,-0.000001,-0.000002,-0.000025,-86.822780,0.000030,
2220,2456,-0.9514095171339,-4.2575931630513,-0.0112704431462021,-0.000583,0.002518,-0.005906,-0.006994,0.106779,323.472108,24.328242,0.999125,0.987757,0.004562,0.243887,-0.000040,-0.000025,0.000000,-0.000025,-0.000040,89.249349,0.000066,
2205,2441,-1.27536387551129,-4.58409079731939,-0.0214910028921622,-0.000051,0.003035,-0.008736,0.026337,0.105811,323.706812,24.370066,0.998805,0.984894,0.005041,0.220902,-0.000032,-0.000033,0.000005,-0.000027,-0.000037,42.601748,0.000065,
2415,2246,3.3415061715065,-8.8516981241168,0.0102866786087361,-0.000735,0.002662,-0.007244,-0.006170,0.085682,327.015944,23.196290,0.999385,0.985178,0.004790,0.170755,-0.000025,0.000001,0.000027,0.000018,-0.000042,57.469859,0.000042,
2205,2201,-1.2328512551222,-9.83480120670441,0.00187004641668409,-0.000473,0.002734,-0.006467,-0.000328,0.112198,327.833457,24.108912,0.999059,0.982532,0.005215,0.191412,-0.000044,0.000015,0.000009,0.000016,-0.000045,81.856352,0.000046,
2370,2696,2.26821816899077,0.984151190303628,-0.0367100359856636,-0.000563,0.002458,-0.007471,0.001649,0.089730,319.131177,24.603200,0.999410,0.991285,0.003614,0.242847,-0.000029,-0.000019,0.000004,-0.000017,-0.000031,70.570286,0.000049,
2370,2471,2.31376744907717,-3.92762861801722,-0.0108249092053825,-0.000506,0.002587,-0.004944,-0.004648,0.111749,323.076996,23.970797,0.999390,0.989938,0.004112,0.271170,-0.000029,-0.000031,-0.000003,-0.000027,-0.000033,-36.570727,0.000060,
2385,2126,2.70870234248184,-11.480715780959,0.0018255335518802,-0.000937,0.002667,-0.002498,-0.032903,0.118246,328.866004,22.987217,0.999183,0.979316,0.005424,0.185011,-0.000004,-0.000016,0.000027,0.000018,-0.000038,38.811981,0.000038,
2385,2696,2.59555836792746,0.984368318023655,-0.030497437881138,-0.000491,0.002638,-0.009964,0.014270,0.098906,319.203694,24.607968,0.999485,0.991426,0.003650,0.244774,-0.000031,-0.000014,0.000007,-0.000011,-0.000033,70.101555,0.000047,
2385,2456,2.64365627949728,-4.25440374352419,-0.0103465018087263,-0.000411,0.002501,-0.002536,-0.008738,0.120523,323.333743,23.951708,0.999381,0.989546,0.004272,0.218806,-0.000023,-0.000031,-0.000003,-0.000022,-0.000032,-18.620034,0.000055,
2265,2516,0.017653908467409,-2.94710145142775,-0.00918399797700431,-0.000572,0.002351,-0.003004,-0.015429,0.113389,322.396555,24.311845,0.999689,0.993229,0.003555,0.260476,-0.000028,-0.000041,0.000002,-0.000028,-0.000041,8.410883,0.000069,
2250,2516,-0.309870041637645,-2.94519691509095,-0.0241175341550957,-0.000557,0.002488,-0.004742,-0.009106,0.127419,322.303721,24.394169,0.999504,0.991513,0.003839,0.221457,-0.000037,-0.000042,0.000001,-0.000037,-0.000043,10.853629,0.000079,
2310,2381,1.02376765492131,-5.89561220914695,-0.00768856642952187,-0.000322,0.003160,-0.010522,0.022224,0.082878,324.628242,23.955970,0.999390,0.988681,0.004319,0.198536,-0.000036,0.000000,-0.000001,0.000000,-0.000036,-88.043392,0.000042,
2325,2651,1.2968117398681,0.00269781516611545,-0.038600705405031,-0.000688,0.002495,-0.005644,-0.011175,0.104408,319.852216,24.572375,0.999458,0.991231,0.003785,0.191532,-0.000020,-0.000021,0.000000,-0.000020,-0.000021,11.571003,0.000041,
2400,2156,3.03217012092263,-10.8245914773686,0.0146180214856031,-0.000784,0.002843,-0.008767,-0.003121,0.089089,328.522614,23.008985,0.999286,0.980009,0.005233,0.142482,-0.000020,-0.000001,0.000028,0.000019,-0.000040,54.608313,0.000040,
2175,2201,-1.88711146621766,-9.83528977887202,0.00332602356951384,-0.000819,0.002498,-0.006541,-0.016521,0.088515,327.919396,24.231680,0.998501,0.978939,0.005667,0.195109,-0.000040,0.000009,0.000010,0.000011,-0.000042,78.408753,0.000043,
2355,2201,2.04028512795225,-9.83570211426124,0.00299692626231263,-0.000315,0.003295,-0.010110,0.022264,0.113450,327.678603,23.397542,0.999241,0.984225,0.004897,0.150421,-0.000025,0.000009,0.000013,0.000013,-0.000030,71.485388,0.000030,
2265,2336,0.0502419775684437,-6.87900070519927,-0.0121734358404524,-0.000561,0.002740,-0.006488,-0.003321,0.099009,325.359675,24.047580,0.999073,0.986091,0.004818,0.188040,-0.000016,-0.000001,0.000002,0.000000,-0.000016,82.675048,0.000019,
2340,2201,1.71249221967799,-9.83585204327119,-0.00300973505881075,-0.000139,0.003106,-0.009332,0.027199,0.105002,327.632886,23.392199,0.999220,0.983971,0.005032,0.223197,-0.000020,0.000005,0.000008,0.000008,-0.000022,73.836300,0.000022,
2340,2666,1.62129543406771,0.329271952103809,-0.0250278087762581,-0.000712,0.002340,-0.003015,-0.021285,0.107602,319.701500,24.626814,0.999667,0.992752,0.003696,0.167799,-0.000020,-0.000011,0.000011,-0.000004,-0.000028,56.042146,0.000035,
2325,2426,1.34106438983171,-4.91031741816556,-0.0193839810948475,-0.000345,0.002601,-0.006108,0.006189,0.099531,323.761124,24.020024,0.999554,0.991514,0.003933,0.209987,-0.000033,-0.000026,0.000006,-0.000023,-0.000036,61.097644,0.000060,
2310,2621,0.977734235464805,-0.654567846968718,-0.0190082333631381,-0.000384,0.002291,-0.006033,0.003830,0.098303,320.539482,24.443585,0.999455,0.990099,0.003863,0.257352,-0.000023,-0.000033,-0.000002,-0.000023,-0.000033,-8.662111,0.000056,
2370,2051,2.3972827531572,-13.1289945914566,0.0240793178454624,-0.000934,0.002278,-0.002452,-0.033150,0.091670,330.277392,22.905241,0.999247,0.981123,0.005333,0.105370,0.000019,-0.000023,0.000018,0.000026,-0.000030,20.353755,0.000032,
2415,2726,3.24199969135264,1.63959748507669,-0.0326035716236674,-0.000846,0.002583,-0.005440,-0.017870,0.110211,318.683345,24.688000,0.999632,0.992033,0.003627,0.266759,-0.000036,-0.000035,0.000003,-0.000033,-0.000039,51.124691,0.000072,
2415,2261,3.33869829498891,-8.52292296998724,0.0112408214845345,-0.000442,0.002603,-0.004997,-0.000989,0.105354,326.780989,23.250717,0.999367,0.985165,0.004714,0.185826,-0.000029,-0.000007,0.000026,0.000011,-0.000046,56.495010,0.000048,
2295,2396,0.693968143157349,-5.5679809378094,-0.00811259641932338,-0.000277,0.002895,-0.009537,0.020496,0.110251,324.387768,23.991986,0.999242,0.988267,0.004465,0.270181,-0.000040,-0.000006,-0.000008,-0.000004,-0.000042,-76.928770,0.000051,
2460,2396,4.29208923910421,-5.56580001270725,-0.00681500303278426,-0.000799,0.002815,-0.006800,-0.009893,0.105627,324.466656,23.532179,0.999631,0.988107,0.004495,0.209913,-0.000033,-0.000020,0.000013,-0.000012,-0.000041,58.542919,0.000056,
2250,2261,-0.263027295566342,-8.52096651701218,-0.00114965516456778,-0.000807,0.002219,-0.002700,-0.027395,0.106942,326.690726,23.993836,0.999297,0.985568,0.004762,0.178372,-0.000030,0.000000,0.000004,0.000000,-0.000031,81.635822,0.000036,
2205,2216,-1.2357195222866,-9.50648899703179,-0.00143097091302025,-0.000607,0.002405,-0.007609,-0.003022,0.083231,327.556685,24.106583,0.999080,0.984281,0.005030,0.183916,-0.000040,0.000008,0.000009,0.000009,-0.000041,79.728950,0.000044,
2385,2141,2.7059215339782,-11.1515447443659,-0.00043338213839661,-0.000839,0.002923,-0.005478,-0.017669,0.116496,328.615095,23.021829,0.999263,0.981286,0.005231,0.194593,-0.000012,-0.000019,0.000029,0.000014,-0.000044,41.548040,0.000045,
2310,3281,0.854703880490423,13.6880544474982,-0.00395611471537904,-0.000582,0.001845,-0.005460,-0.007401,0.074002,309.643593,25.803606,0.999639,0.994933,0.002803,0.256830,-0.000035,-0.000033,-0.000012,-0.000022,-0.000046,-47.510826,0.000069,
2415,2216,3.34736076980576,-9.50810868810708,0.000820888598809688,-0.000352,0.002904,-0.010267,0.022442,0.083977,327.461016,23.089359,0.999455,0.985397,0.004818,0.176056,-0.000022,0.000020,0.000019,0.000027,-0.000029,68.787500,0.000033,
2400,2471,2.96839721947879,-3.92699598827208,-0.0114115093774103,-0.000217,0.002711,-0.008974,0.023576,0.099189,323.122118,23.914317,0.999449,0.989590,0.004198,0.243545,-0.000025,-0.000038,-0.000004,-0.000024,-0.000039,-14.236878,0.000064,
2370,2231,2.36159692898786,-9.17942505304541,0.0049677371529242,-0.000595,0.002609,-0.006880,-0.001860,0.091014,327.181618,23.362411,0.999097,0.982080,0.005364,0.174076,-0.000027,-0.000005,0.000015,0.000002,-0.000035,63.583830,0.000039,
2340,2426,1.66926806009119,-4.91297400955796,0.00317516519049832,-0.000867,0.002938,-0.006539,-0.015927,0.107954,323.923966,23.924334,0.999752,0.994051,0.003576,0.271167,-0.000032,-0.000024,0.000008,-0.000019,-0.000037,57.618799,0.000057,
2445,2291,3.98707383463474,-7.86513699304567,0.00426477928141367,-0.000821,0.003163,-0.008184,-0.005898,0.126288,326.270960,23.198341,0.999481,0.983607,0.004916,0.233902,-0.000036,0.000009,0.000022,0.000018,-0.000045,67.945612,0.000045,
2355,2456,1.98968889622078,-4.25329629676728,-0.0188962476976258,-0.000169,0.003469,-0.008854,0.024700,0.119902,323.282050,24.094168,0.999260,0.988395,0.004346,0.151937,-0.000030,-0.000024,0.000002,-0.000023,-0.000031,74.029580,0.000054,
2415,2486,3.29145973929082,-3.59810740933441,-0.0156376059717331,-0.000783,0.002693,-0.007242,-0.008359,0.104860,322.823117,23.961777,0.999406,0.988764,0.004209,0.214709,-0.000029,-0.000039,-0.000003,-0.000028,-0.000040,-16.500020,0.000068,
2400,2261,3.00999856978764,-8.52044087437639,-0.00840781245676681,-0.000449,0.003067,-0.009942,0.016534,0.115803,326.615583,23.326409,0.999481,0.987562,0.004369,0.188445,-0.000034,-0.000002,0.000025,0.000011,-0.000047,61.237170,0.000050,
2355,2021,2.07514232354516,-13.7874265691205,0.0128910247887006,-0.000888,0.002618,-0.011930,0.002094,0.068255,330.707718,22.818073,0.998762,0.975554,0.006370,0.182882,0.000011,-0.000028,0.000016,0.000017,-0.000034,20.020914,0.000034,
2340,2081,1.73589839943713,-12.4690266605503,0.0148981512760997,-0.000687,0.002462,-0.006886,-0.006613,0.062870,329.726266,23.172248,0.999505,0.983547,0.004936,0.084885,-0.000006,-0.000022,0.000021,0.000008,-0.000036,34.080810,0.000038,
2280,2381,0.369862354207442,-5.89633641862086,-0.00240548158603815,-0.000347,0.002650,-0.005563,0.003596,0.103851,324.683696,24.043449,0.998957,0.984593,0.004946,0.229427,-0.000027,-0.000008,0.000003,-0.000008,-0.000028,82.071013,0.000037,
2310,2636,0.974565540323066,-0.327535396767239,-0.0182499405445355,-0.000751,0.002258,-0.005293,-0.015535,0.100695,320.277475,24.478757,0.999361,0.989561,0.003915,0.257220,-0.000022,-0.000030,-0.000002,-0.000021,-0.000031,-13.236412,0.000052,
2490,2636,4.8946974700182,-0.319111709032086,-0.0332428600898993,-0.000677,0.002866,-0.006079,-0.006502,0.127573,320.336128,24.388969,0.999631,0.990748,0.003769,0.238265,-0.000047,0.000009,0.000009,0.000011,-0.000048,81.371818,0.000050,
2430,2246,3.66804013703737,-8.85072287312525,0.00108259853942627,-0.001061,0.002393,-0.007471,-0.020125,0.082224,326.947553,23.129477,0.999292,0.984051,0.004966,0.165176,-0.000026,0.000000,0.000027,0.000017,-0.000043,57.826297,0.000044,
2235,2486,-0.630383396235381,-3.60082705204736,-0.0237677601426753,-0.000262,0.002967,-0.010064,0.021577,0.105335,322.864817,24.356913,0.999568,0.990747,0.003826,0.221111,-0.000039,-0.000020,0.000004,-0.000019,-0.000040,79.260691,0.000060,
2250,2531,-0.312877834572543,-2.61760010431134,-0.0298545161175525,-0.000421,0.002345,-0.004131,-0.004923,0.119462,322.011685,24.398114,0.999700,0.993722,0.003341,0.233613,-0.000040,-0.000039,-0.000006,-0.000033,-0.000046,-45.446679,0.000079,
2385,2231,2.69037463874916,-9.18073271396953,0.0206316894602878,-0.000150,0.002252,-0.002009,0.001207,0.112084,327.324993,23.323027,0.999433,0.985155,0.005017,0.162801,-0.000025,-0.000003,0.000018,0.000007,-0.000036,60.583101,0.000038,
2415,2276,3.3353889607382,-8.19406029475088,0.007068638872056,-0.000552,0.002522,-0.006645,-0.000060,0.096142,326.499150,23.294348,0.999428,0.985760,0.004600,0.182882,-0.000033,-0.000010,0.000018,0.000000,-0.000043,61.367760,0.000049,
2220,2261,-0.916392567752556,-8.52083968962284,-0.00758855053294383,-0.000194,0.002937,-0.009717,0.023153,0.091921,326.751690,24.079572,0.999016,0.984302,0.004973,0.210448,-0.000023,0.000004,-0.000002,0.000004,-0.000023,-86.203362,0.000025,
2190,2366,-1.58877220301157,-6.22469784742622,-0.00875370078773585,-0.000483,0.002555,-0.006613,-0.000650,0.098206,325.068598,24.287411,0.999461,0.988582,0.004339,0.255886,-0.000027,-0.000008,0.000008,-0.000005,-0.000030,70.766908,0.000038,
2385,2711,2.59247037153066,1.31101887369672,-0.0266611909918879,-0.000690,0.002493,-0.006773,-0.006392,0.098273,318.965645,24.661688,0.999637,0.993634,0.003226,0.233490,-0.000037,-0.000021,0.000007,-0.000018,-0.000039,70.060366,0.000059,
2445,2306,3.98376492800461,-7.53567754055521,0.00241789144052973,-0.000690,0.002756,-0.005409,-0.010365,0.120395,326.002437,23.328819,0.999416,0.983101,0.004876,0.151687,-0.000035,0.000000,0.000022,0.000010,-0.000046,64.425305,0.000048,
2325,2186,1.3880013057207,-10.165513358646,0.00674144376387176,-0.000493,0.002188,-0.005621,-0.002468,0.086273,327.935604,23.455818,0.999181,0.982741,0.005092,0.179141,-0.000026,0.000000,0.000010,0.000003,-0.000029,71.842532,0.000032,
2400,2696,2.92090951111867,0.986055342971447,-0.0392792092720811,-0.000859,0.002661,-0.007245,-0.012085,0.120962,319.115575,24.609497,0.999446,0.991371,0.003808,0.262902,-0.000029,-0.000014,0.000009,-0.000010,-0.000033,65.528986,0.000045,
2325,2441,1.33859808994464,-4.58320638399408,-0.014902714608013,-0.000497,0.002782,-0.008361,0.007010,0.106112,323.551290,24.031057,0.999350,0.989619,0.004270,0.241145,-0.000031,-0.000025,0.000008,-0.000019,-0.000037,56.089223,0.000057,
2250,2276,-0.264982305442341,-8.19344388380262,0.00207156830560962,-0.000428,0.002465,-0.004172,-0.005136,0.101118,326.492796,23.986395,0.999517,0.985103,0.004726,0.205118,-0.000032,0.000002,-0.000002,0.000003,-0.000032,-86.754257,0.000036,
2265,2531,0.0144016032072507,-2.6200819560594,-0.0171622749783182,-0.000653,0.002341,-0.004639,-0.013786,0.104240,322.083613,24.242821,0.999758,0.995723,0.003046,0.346966,-0.000030,-0.000035,-0.000005,-0.000027,-0.000038,-30.001579,0.000065,
2430,2276,3.66210958729429,-8.19379392214117,-0.00313713155924233,-0.000589,0.002564,-0.007232,0.000686,0.086968,326.437452,23.159662,0.999369,0.980887,0.005308,0.244112,-0.000036,-0.000012,0.000019,-0.000002,-0.000046,61.619051,0.000055,
2310,3296,0.851241596339431,14.0132423237007,-0.0101129353923284,-0.000618,0.001802,-0.003636,-0.015341,0.075364,309.332295,25.815842,0.999698,0.995605,0.002651,0.276419,-0.000038,-0.000035,-0.000024,-0.000012,-0.000060,-46.822545,0.000077,
2325,2666,1.29430033504927,0.329663599825992,-0.0366895156868736,-0.000559,0.002699,-0.006253,-0.003065,0.105281,319.627096,24.623613,0.999652,0.992658,0.003592,0.175869,-0.000017,-0.000019,0.000001,-0.000016,-0.000019,18.751759,0.000035,
2190,2201,-1.56030793248836,-9.83539848178147,0.000624951561007947,-0.000822,0.002240,-0.006553,-0.016474,0.082084,327.850145,24.135339,0.998866,0.981296,0.005368,0.209941,-0.000037,0.000009,0.000006,0.000009,-0.000038,82.773971,0.000040,
2385,2471,2.64067736252406,-3.9265861280057,-0.0158560064791118,-0.000211,0.002342,-0.004976,0.009115,0.112340,323.057131,23.957730,0.999482,0.990682,0.004059,0.249217,-0.000026,-0.000037,-0.000004,-0.000024,-0.000039,-18.673117,0.000063,
2355,2036,2.07231957923701,-13.4578994592196,0.0194576364100953,-0.000860,0.002867,-0.005662,-0.018416,0.115163,330.494576,22.896416,0.999070,0.980207,0.005567,0.193579,0.000010,-0.000011,0.000021,0.000023,-0.000024,31.706021,0.000027,
2430,2516,3.61277976986899,-2.94359569072188,-0.0115094125447399,-0.000849,0.002667,-0.006921,-0.012323,0.115126,322.378085,23.951779,0.999147,0.986884,0.004490,0.303276,-0.000034,-0.000037,-0.000007,-0.000029,-0.000042,-37.709407,0.000072,
2415,2741,3.23935002459348,1.96667870590136,-0.0313905514569228,-0.000732,0.002732,-0.007109,-0.006475,0.110162,318.455008,24.768445,0.999514,0.990686,0.003820,0.233980,-0.000038,-0.000035,0.000002,-0.000034,-0.000040,60.057193,0.000074,
2355,2216,2.0371826341631,-9.50840099406307,0.00958706006474586,-0.000477,0.002226,-0.002655,-0.011646,0.101063,327.452731,23.393205,0.998944,0.981157,0.005407,0.183436,-0.000032,0.000005,0.000007,0.000006,-0.000034,79.537463,0.000036,
2355,2471,1.98683142304381,-3.92730611173631,-0.0149676797800566,-0.000423,0.002732,-0.008471,0.011406,0.100051,323.053987,24.033535,0.999483,0.989891,0.004051,0.232498,-0.000030,-0.000025,0.000002,-0.000025,-0.000031,70.901362,0.000056,
2415,2501,3.28783175619146,-3.26967495569472,-0.0265319004637377,-0.000550,0.002617,-0.007325,0.002580,0.094607,322.494108,23.987800,0.999620,0.990968,0.003861,0.227739,-0.000031,-0.000032,-0.000006,-0.000025,-0.000037,-41.626928,0.000063,
2355,2696,1.94259212629383,0.981986040438798,-0.0241299540729756,-0.000389,0.002191,-0.004446,-0.001335,0.095959,319.230463,24.560985,0.999533,0.992357,0.003560,0.293431,-0.000025,-0.000017,0.000006,-0.000014,-0.000029,61.745313,0.000044,
2370,2486,2.31106301250934,-3.59962289652792,-0.0116922209111863,-0.000352,0.002825,-0.006488,0.007994,0.127770,322.833568,24.018433,0.999434,0.989382,0.004128,0.281734,-0.000033,-0.000028,-0.000002,-0.000028,-0.000033,-71.286656,0.000061,
2400,2486,2.96488032393307,-3.59769446818017,-0.0161790967143816,-0.000410,0.002911,-0.009333,0.016103,0.100640,322.825361,24.059345,0.999554,0.991353,0.003812,0.146596,-0.000029,-0.000035,-0.000002,-0.000028,-0.000036,-17.874349,0.000065,
2385,2156,2.70364080273828,-10.8220319525535,0.00486104924561914,-0.000703,0.002972,-0.006921,-0.006291,0.112183,328.422786,23.178007,0.999391,0.982340,0.005103,0.079814,-0.000018,0.000000,0.000031,0.000023,-0.000041,53.423831,0.000041,
2220,2471,-0.954700344954638,-3.9298390475426,-0.0168477022375555,-0.000793,0.002355,-0.005035,-0.019454,0.101310,323.165195,24.322896,0.999386,0.989463,0.004209,0.263993,-0.000040,-0.000022,0.000003,-0.000022,-0.000040,80.186259,0.000063,
2475,2471,4.60312555315923,-3.92429914847448,-0.0245460823660437,-0.000552,0.002920,-0.011344,0.018913,0.108016,323.138252,23.723955,0.999629,0.991134,0.003811,0.263514,-0.000038,-0.000069,-0.000006,-0.000037,-0.000070,-9.912879,0.000109,
2235,2246,-0.586767437652977,-8.85020021332349,0.00238770349938022,-0.000688,0.002673,-0.006528,-0.009547,0.107405,327.015410,23.988833,0.998928,0.983889,0.005055,0.226592,-0.000033,-0.000008,-0.000001,-0.000008,-0.000033,-88.798858,0.000043,
2340,2441,1.66593487801989,-4.58277330640211,-0.0105415005124314,-0.000502,0.003057,-0.009322,0.010553,0.118746,323.586638,24.038968,0.999374,0.989391,0.004242,0.205707,-0.000033,-0.000026,0.000010,-0.000019,-0.000040,54.196233,0.000061,
2370,2711,2.26505380709921,1.31152616418153,-0.0381740466418705,-0.000666,0.002387,-0.007068,-0.004588,0.077888,318.863027,24.690915,0.999543,0.992605,0.003419,0.184355,-0.000035,-0.000025,0.000004,-0.000023,-0.000036,70.029974,0.000060,
2370,2066,2.39431845638825,-12.7991761782019,0.018002931026615,-0.000763,0.002865,-0.005539,-0.014207,0.121082,329.998570,22.894618,0.999514,0.982069,0.004946,0.189962,0.000013,-0.000014,0.000026,0.000029,-0.000029,31.098950,0.000034,
2430,2261,3.66422896761111,-8.52071545190349,-0.00893624450503694,-0.000823,0.002040,-0.004920,-0.018757,0.089037,326.616870,23.196384,0.999358,0.983599,0.004983,0.157660,-0.000032,-0.000009,0.000025,0.000007,-0.000048,57.275545,0.000052,
2340,2216,1.70975149092591,-9.50867374964009,0.00824609850656088,-0.000602,0.002471,-0.005529,-0.007450,0.094186,327.445126,23.424662,0.999082,0.982621,0.005252,0.218631,-0.000026,0.000000,0.000002,0.000000,-0.000026,86.346455,0.000030,
2280,2396,0.367102490418169,-5.56740915338015,-0.00554899077411619,-0.000323,0.003001,-0.008150,0.013471,0.122858,324.418851,24.117852,0.999207,0.988122,0.004551,0.203424,-0.000034,-0.000010,0.000001,-0.000010,-0.000034,87.891171,0.000046,
2265,2351,0.0481746968526409,-6.55135442821982,-0.0112849330274685,-0.000122,0.002710,-0.008380,0.023012,0.098663,325.145859,24.048621,0.999246,0.986438,0.004720,0.213760,-0.000018,0.000004,0.000004,0.000004,-0.000019,80.236703,0.000020,
2370,2246,2.35775004666673,-8.84872078139512,-0.0117113557940343,-0.000292,0.002808,-0.007688,0.014918,0.082341,326.811028,23.431883,0.999504,0.985384,0.004961,0.140012,-0.000030,-0.000001,0.000018,0.000007,-0.000038,64.700392,0.000040,
2415,2231,3.34480911940627,-9.18042064853107,0.00748511713908329,-0.000283,0.002817,-0.008211,0.018083,0.100937,327.264737,23.097398,0.999487,0.986637,0.004611,0.234946,-0.000023,0.000000,0.000024,0.000016,-0.000038,57.942031,0.000038,
2340,2681,1.61825020306726,0.656219665128972,-0.031646947221418,-0.000519,0.002418,-0.004624,-0.006785,0.110195,319.411499,24.606591,0.999648,0.992687,0.003621,0.227774,-0.000022,-0.000011,0.000010,-0.000005,-0.000028,59.667963,0.000035,
2400,2276,3.00590859318257,-8.18870327854471,-0.023668299871872,-0.000323,0.002979,-0.009695,0.021377,0.108290,326.243929,23.518149,0.999813,0.994648,0.003200,0.037065,-0.000037,-0.000004,0.000017,0.000003,-0.000044,67.028554,0.000049,
2445,2546,3.93339546489376,-2.28607482986637,-0.0235055492001948,-0.000415,0.002697,-0.008905,0.015229,0.099129,321.832576,24.116869,0.999563,0.991387,0.003812,0.199234,-0.000025,-0.000022,0.000009,-0.000014,-0.000032,49.225838,0.000048,
2295,2411,0.690357420709706,-5.23862937482075,-0.0148853698963762,-0.000625,0.002869,-0.009713,0.005123,0.096990,324.067302,24.108351,0.999425,0.990505,0.004065,0.172268,-0.000042,-0.000017,-0.000006,-0.000015,-0.000043,-78.225705,0.000061,
2310,2396,1.02155208885942,-5.57001491924485,0.00694679410048593,-0.000531,0.002568,-0.006352,-0.001780,0.095799,324.479130,23.905963,0.999421,0.989977,0.004233,0.294691,-0.000039,-0.000004,-0.000002,-0.000004,-0.000039,-87.318996,0.000048,
2460,2411,4.28924935238223,-5.23845687757932,-0.00858690449507549,-0.000728,0.003164,-0.010525,0.007440,0.104507,324.221042,23.502744,0.999570,0.988184,0.004449,0.294141,-0.000027,-0.000035,0.000013,-0.000017,-0.000045,35.936577,0.000064,
2310,2651,0.971538285460994,-0.000432081478486168,-0.0201445441631449,-0.000867,0.002295,-0.005760,-0.019301,0.098701,320.008839,24.506663,0.999446,0.990611,0.003806,0.259881,-0.000021,-0.000018,0.000000,-0.000018,-0.000021,88.772596,0.000039,
2430,2291,3.65904174210519,-7.86437318942388,-0.00120515569625468,-0.000734,0.002757,-0.006640,-0.008037,0.116120,326.196081,23.285248,0.999369,0.983241,0.004961,0.199620,-0.000039,0.000008,0.000022,0.000017,-0.000048,68.455212,0.000049,
2295,2606,0.653832051683253,-0.981347054862766,-0.0225308922467207,-0.000404,0.002478,-0.007671,0.008279,0.096245,320.776723,24.469938,0.999399,0.990682,0.003843,0.212202,-0.000034,-0.000023,-0.000006,-0.000021,-0.000036,-66.624253,0.000057,
2325,2006,1.42318081235559,-14.1159057788134,0.0265810792781735,-0.001063,0.003305,-0.011667,-0.007447,0.114170,331.058979,23.114093,0.998485,0.977148,0.006145,0.098860,0.000001,-0.000027,0.000020,0.000012,-0.000038,27.564192,0.000039,
2400,2711,2.91754695534394,1.31232532159878,-0.0390241941486806,-0.000982,0.002309,-0.003507,-0.031439,0.106800,318.849156,24.612893,0.999588,0.992197,0.003611,0.291032,-0.000034,-0.000022,0.000008,-0.000018,-0.000038,62.591636,0.000057,
2265,2546,0.011590690001114,-2.2909022960097,-0.0183820005186703,-0.000841,0.002822,-0.007305,-0.013437,0.122906,321.824253,24.411160,0.999645,0.992878,0.003524,0.223745,-0.000033,-0.000036,-0.000006,-0.000028,-0.000041,-38.412856,0.000070,
2490,2651,4.8914244910924,0.00771622083487244,-0.0329991078915555,-0.000813,0.002422,-0.005734,-0.014270,0.099390,320.081084,24.439343,0.999515,0.988699,0.004178,0.218769,-0.000046,0.000013,0.000017,0.000018,-0.000051,75.017179,0.000052,
2385,2246,2.68533657322407,-8.8494734460347,-0.00572590871649936,-0.000486,0.002563,-0.005973,0.000124,0.092481,326.855807,23.352215,0.999420,0.985244,0.004885,0.160509,-0.000028,0.000001,0.000021,0.000012,-0.000039,62.109949,0.000040,
2235,2501,-0.633132057142287,-3.27352972865508,-0.026013288488798,-0.000133,0.002967,-0.009207,0.024715,0.104985,322.601147,24.347253,0.999518,0.990016,0.003947,0.252481,-0.000036,-0.000028,0.000006,-0.000025,-0.000039,61.978205,0.000065,
2445,2786,3.88330859996463,2.94873993524165,-0.0381290676369304,-0.000535,0.002957,-0.008629,0.008852,0.120098,317.710016,24.903818,0.999490,0.991053,0.003793,0.273430,-0.000031,-0.000057,-0.000003,-0.000031,-0.000057,-6.667513,0.000090,
2370,2081,2.39103198670206,-12.4697264968743,0.0164966740770183,-0.000998,0.002516,-0.005228,-0.026202,0.103187,329.727020,22.955368,0.999397,0.982014,0.005094,0.155696,0.000007,-0.000016,0.000028,0.000026,-0.000034,33.920208,0.000036,
2430,2306,3.65618526053285,-7.53615204351244,0.00116498738998416,-0.000739,0.002604,-0.006406,-0.009181,0.104795,325.966704,23.350981,0.999461,0.986131,0.004443,0.174302,-0.000039,-0.000001,0.000021,0.000008,-0.000048,66.463869,0.000052,
2430,2756,3.56323975960942,2.2938719614128,-0.0304760467332699,-0.000638,0.002687,-0.008354,0.002686,0.107820,318.242997,24.805670,0.999606,0.990479,0.003762,0.248718,-0.000037,-0.000051,0.000004,-0.000036,-0.000052,14.510037,0.000089,
2325,2681,1.29163407112363,0.656014540028139,-0.0371498287310601,-0.000448,0.002672,-0.007397,0.005989,0.112411,319.383344,24.596608,0.999711,0.993112,0.003531,0.244581,-0.000017,-0.000017,0.000000,-0.000017,-0.000017,-87.080207,0.000035,
2475,2606,4.57458796365093,-0.975324259676718,-0.0262437929446264,-0.000712,0.002527,-0.007798,-0.001970,0.115652,320.859997,24.261824,0.999099,0.988866,0.004072,0.250733,-0.000041,-0.000020,0.000011,-0.000015,-0.000046,66.547249,0.000063,
2475,2486,4.60034835340792,-3.5971065224223,-0.0167609336711507,-0.000660,0.002803,-0.008782,0.004226,0.105510,322.939810,23.798593,0.999560,0.989403,0.004002,0.243918,-0.000038,-0.000064,-0.000001,-0.000038,-0.000064,-2.264513,0.000103,
2460,2816,4.20415934132394,3.60206403649077,-0.0296718275612307,-0.000817,0.002449,-0.007830,-0.006995,0.101872,317.294508,25.036930,0.999370,0.989101,0.004131,0.240885,-0.000026,-0.000049,-0.000005,-0.000025,-0.000050,-11.868024,0.000076,
2445,2321,3.98083652615675,-7.20819412516499,-0.00162465845710358,-0.000574,0.003054,-0.009409,0.009944,0.099294,325.741511,23.276924,0.999477,0.983107,0.004808,0.236382,-0.000040,-0.000011,0.000014,-0.000006,-0.000045,67.569346,0.000056,
2385,2486,2.63814567765378,-3.59851840946528,-0.0163797630207796,-0.000082,0.003094,-0.009021,0.029763,0.117452,322.824552,24.025664,0.999511,0.990673,0.003956,0.230969,-0.000030,-0.000035,-0.000003,-0.000028,-0.000037,-25.544959,0.000065,
2235,2261,-0.589036913746998,-8.52163328765244,0.00112643445731919,-0.000309,0.002820,-0.007759,0.011844,0.106183,326.778950,24.020190,0.999280,0.984319,0.004977,0.217384,-0.000030,-0.000002,-0.000001,-0.000002,-0.000030,-88.297782,0.000036,
2400,2501,2.96131706867471,-3.27041305773681,-0.0197446484241937,-0.000563,0.002715,-0.007239,0.001458,0.097085,322.532443,24.041047,0.999580,0.991250,0.003844,0.208039,-0.000027,-0.000032,-0.000004,-0.000025,-0.000034,-30.450639,0.000060,
2340,2231,1.70612936896901,-9.17916677233039,0.00459480841908544,-0.000980,0.002398,-0.004067,-0.029877,0.107676,327.144326,23.492589,0.998882,0.980817,0.005420,0.203236,-0.000025,-0.000014,0.000000,-0.000014,-0.000025,87.673695,0.000040,
2430,2531,3.610096799526,-2.61508624737746,-0.0113074500767993,-0.000615,0.002751,-0.008090,0.002751,0.102488,322.145462,24.099763,0.999337,0.989294,0.004176,0.193501,-0.000032,-0.000023,-0.000001,-0.000023,-0.000032,-83.944622,0.000055,
2280,2411,0.364148497650575,-5.23951553506265,-0.00977125796515566,-0.000388,0.003057,-0.010314,0.017684,0.094030,324.140070,24.140535,0.999398,0.989383,0.004231,0.181115,-0.000036,-0.000017,0.000004,-0.000017,-0.000037,79.307186,0.000055,
2325,2456,1.33554767085205,-4.25415409253781,-0.0226570798002967,-0.000319,0.003301,-0.010811,0.023809,0.102489,323.254518,24.118503,0.999405,0.989253,0.004229,0.186062,-0.000031,-0.000017,0.000006,-0.000015,-0.000033,68.755919,0.000049,
2355,2051,2.0705432204444,-13.1304704375838,0.0321095457687761,-0.000737,0.002731,-0.005582,-0.013108,0.091299,330.359103,22.927770,0.999124,0.980738,0.005282,0.179689,0.000004,-0.000027,0.000013,0.000009,-0.000032,19.928210,0.000033,
2220,2276,-0.918595524543992,-8.19320895226816,-0.000541759399709463,-0.000151,0.002869,-0.007951,0.019479,0.095470,326.559605,24.112121,0.999072,0.984701,0.004842,0.202065,-0.000024,0.000004,-0.000008,0.000006,-0.000026,-75.809424,0.000027,
2400,2171,3.02897212040382,-10.4963347510251,0.0145491855442401,-0.000761,0.002363,-0.005581,-0.013772,0.078123,328.264307,23.003511,0.999309,0.983391,0.004960,0.185285,-0.000023,0.000001,0.000019,0.000011,-0.000033,61.603952,0.000034,
2190,2216,-1.56269125796839,-9.50628471138065,0.000785610675279713,-0.000753,0.002447,-0.007956,-0.008871,0.075734,327.611861,24.219978,0.999040,0.984122,0.005055,0.135801,-0.000031,0.000000,0.000008,0.000002,-0.000033,75.615904,0.000037,
2250,2291,-0.268174025909968,-7.8647875414056,-0.00205554765818761,-0.000616,0.002649,-0.003709,-0.015186,0.125350,326.200762,23.982309,0.999246,0.984736,0.004854,0.259115,-0.000032,0.000013,-0.000003,0.000013,-0.000032,-85.898020,0.000032,
2400,2291,3.003542567961,-7.86291991704095,-0.0126279194360563,-0.000666,0.003324,-0.010294,0.007973,0.128404,326.075687,23.414564,0.999653,0.991502,0.003738,0.208195,-0.000037,0.000013,0.000019,0.000019,-0.000043,71.717288,0.000043,
2190,2381,-1.59151849084163,-5.89678258350611,-0.00811623161342823,-0.000572,0.002226,-0.004690,-0.010836,0.085682,324.816208,24.331511,0.999287,0.989637,0.004221,0.215259,-0.000025,-0.000006,0.000010,-0.000002,-0.000029,66.829642,0.000035,
2490,2666,4.8886885925993,0.334339144768499,-0.0309927051256409,-0.000557,0.002394,-0.005317,-0.004168,0.097335,319.858577,24.464361,0.999510,0.989325,0.004039,0.250916,-0.000044,0.000010,0.000018,0.000015,-0.000049,73.351607,0.000050,
2415,2516,3.28520370611828,-2.94257260302547,-0.0218256132264969,-0.000538,0.002826,-0.006984,0.002016,0.119496,322.284047,24.006745,0.999411,0.989524,0.004151,0.282179,-0.000036,-0.000038,-0.000005,-0.000032,-0.000042,-37.901088,0.000074,
2340,2696,1.61594327001027,0.981941881084836,-0.0240247951013544,-0.000654,0.002701,-0.005939,-0.008288,0.117399,319.224843,24.593912,0.999674,0.993621,0.003510,0.284373,-0.000021,-0.000015,0.000011,-0.000007,-0.000029,53.266455,0.000038,
2415,2291,3.3315306490597,-7.86562207967522,0.00470596415749469,-0.001028,0.002149,-0.004171,-0.031016,0.100572,326.200500,23.310037,0.999162,0.982341,0.005176,0.221607,-0.000035,0.000009,0.000021,0.000017,-0.000043,67.977387,0.000044,
2325,2021,1.41897295940111,-13.7859034899751,0.0141228662199637,-0.001021,0.002738,-0.005049,-0.028386,0.105901,330.687915,23.066023,0.998920,0.985177,0.005284,0.177259,-0.000002,-0.000036,0.000015,0.000004,-0.000042,21.027117,0.000047,
2370,2501,2.30834340581881,-3.27144209091072,-0.0139577764724663,-0.000276,0.003071,-0.010260,0.024952,0.118411,322.582752,24.099583,0.999453,0.989339,0.004179,0.233328,-0.000031,-0.000029,-0.000004,-0.000026,-0.000034,-54.493176,0.000060,
2385,2726,2.58977668465444,1.63753776479192,-0.0274196343816584,-0.000297,0.002232,-0.005639,0.007534,0.096952,318.723842,24.670201,0.999639,0.992755,0.003452,0.267226,-0.000035,-0.000028,0.000006,-0.000025,-0.000038,61.076865,0.000064,
2475,2621,4.57142758427875,-0.647048426619214,-0.029197773530484,-0.000629,0.002891,-0.009095,0.006880,0.111118,320.594245,24.383448,0.999613,0.992692,0.003441,0.181509,-0.000040,-0.000010,0.000009,-0.000008,-0.000042,75.123203,0.000054,
2430,2321,3.65338265701429,-7.20816393333879,-0.00271397707206233,-0.000499,0.002926,-0.009980,0.015048,0.097138,325.710769,23.333394,0.999335,0.984537,0.004634,0.235994,-0.000043,-0.000007,0.000011,-0.000004,-0.000046,74.450235,0.000056,
2340,2456,1.66290439827554,-4.25397858463121,-0.017765392368517,-0.000250,0.003477,-0.010945,0.027907,0.127395,323.294874,24.095502,0.999472,0.988869,0.004250,0.195935,-0.000032,-0.000020,0.000007,-0.000017,-0.000036,65.277865,0.000054,
2415,2756,3.23665403413997,2.29270415046398,-0.0278954330146917,-0.000629,0.002400,-0.006010,-0.005889,0.098504,318.235448,24.786363,0.999486,0.990170,0.003926,0.251923,-0.000038,-0.000044,0.000002,-0.000037,-0.000045,16.399062,0.000082,
2430,2771,3.55960124960637,2.62123781480275,-0.032205844409475,-0.000814,0.002467,-0.004640,-0.019117,0.129726,317.956359,24.875940,0.999527,0.990811,0.003850,0.250002,-0.000032,-0.000052,0.000001,-0.000032,-0.000052,2.226893,0.000085,
2385,2171,2.70072016172986,-10.4955521697848,0.00565906267502214,-0.000544,0.002358,-0.004062,-0.009445,0.098198,328.180194,23.023162,0.999513,0.984452,0.004909,0.266288,-0.000021,0.000004,0.000022,0.000016,-0.000034,59.791053,0.000034,
2325,2201,1.38524753623106,-9.8362698869168,0.00331874711002911,-0.000267,0.002460,-0.006919,0.012450,0.101900,327.674409,23.488508,0.999210,0.981669,0.005417,0.198982,-0.000022,0.000006,0.000010,0.000009,-0.000025,72.667398,0.000025,
2400,2516,2.95811492594545,-2.94384790404256,-0.0215919343626751,-0.000569,0.002807,-0.006055,-0.003026,0.119782,322.264182,23.952043,0.999572,0.991402,0.003879,0.366288,-0.000030,-0.000041,-0.000003,-0.000029,-0.000041,-12.772484,0.000071,
2460,2831,4.20077837083062,3.93061709565158,-0.0383892762521327,-0.000264,0.002402,-0.006176,0.012209,0.112945,316.989525,25.191961,0.999549,0.992095,0.003563,0.151087,-0.000029,-0.000041,-0.000006,-0.000027,-0.000043,-22.879287,0.000071,
2445,2561,3.93034493275366,-1.95903178169081,-0.0193690274454639,-0.000556,0.002643,-0.006443,-0.000407,0.109230,321.602457,24.153900,0.999629,0.990608,0.004032,0.225290,-0.000024,-0.000023,0.000001,-0.000022,-0.000025,55.833525,0.000046,
2400,2726,2.91556456005937,1.63917247352157,-0.0346741194511537,-0.000424,0.002352,-0.004545,-0.002037,0.102838,318.665294,24.697188,0.999640,0.991831,0.003733,0.248231,-0.000032,-0.000031,0.000007,-0.000025,-0.000038,46.511687,0.000063,
2490,2876,4.8455022439502,4.90863981762284,-0.0247686534260652,-0.000634,0.002352,-0.006627,-0.002675,0.091017,316.410859,25.228020,0.999371,0.991996,0.003675,0.303291,-0.000054,-0.000057,-0.000017,-0.000039,-0.000073,-42.318187,0.000113,
2355,2231,2.03417847844827,-9.17977362309072,0.00547339336930008,-0.000388,0.002248,-0.003959,-0.003031,0.096018,327.179647,23.394397,0.998534,0.978478,0.005764,0.218483,-0.000031,-0.000011,0.000006,-0.000010,-0.000033,73.937395,0.000045,
2205,2231,-1.23758516552455,-9.17874116975635,0.00201086520473837,-0.000179,0.002750,-0.008286,0.018896,0.073398,327.360510,24.110145,0.999105,0.986321,0.004929,0.189406,-0.000040,-0.000009,0.000001,-0.000009,-0.000040,88.760139,0.000052,
2385,2261,2.6818927587446,-8.51969660881512,-0.0187437848046557,-0.000280,0.003067,-0.009926,0.023877,0.111770,326.522815,23.354364,0.999350,0.985577,0.004694,0.223430,-0.000031,0.000000,0.000021,0.000011,-0.000042,62.996523,0.000044,
2355,2711,1.9393873177984,1.31044630661455,-0.0272276852154505,-0.000443,0.002156,-0.004224,-0.004636,0.087420,318.951085,24.730419,0.999506,0.993259,0.003368,0.154494,-0.000031,-0.000021,0.000006,-0.000018,-0.000034,63.791194,0.000052,
2340,2246,1.70397519976089,-8.84959394133421,-0.00167512187266539,-0.000179,0.003074,-0.008967,0.024094,0.108210,326.898092,23.557660,0.999081,0.983531,0.004990,0.177650,-0.000027,-0.000008,0.000004,-0.000007,-0.000028,77.331835,0.000037,
2310,2411,1.01732616328806,-5.23986861620502,-0.00788458364257849,-0.000757,0.002418,-0.005196,-0.016131,0.090920,324.092147,24.007855,0.999490,0.990717,0.004046,0.221991,-0.000040,-0.000016,0.000000,-0.000016,-0.000040,89.164116,0.000057,
2445,2801,3.88005399178297,3.27554372640947,-0.0390509363746787,-0.000529,0.002772,-0.006923,0.002657,0.100114,317.446053,24.980617,0.999567,0.991932,0.003578,0.228343,-0.000030,-0.000054,-0.000010,-0.000027,-0.000057,-19.718037,0.000086,
2190,2231,-1.56413787981647,-9.17714798815287,-0.00108731451609856,0.000161,0.003381,-0.012678,0.048118,0.097388,327.405714,24.262550,0.999059,0.984680,0.004960,0.131643,-0.000030,-0.000016,0.000003,-0.000016,-0.000031,79.003790,0.000047,
2430,2546,3.60726061689855,-2.28791180803052,-0.00585576707953805,-0.000683,0.002476,-0.005770,-0.008986,0.109994,321.930290,24.157727,0.999621,0.991665,0.003709,0.193742,-0.000026,-0.000024,0.000003,-0.000022,-0.000029,51.979150,0.000051,
2460,2576,4.25303618135437,-1.63015048718992,-0.0364086840970117,-0.000547,0.002384,-0.007679,0.004819,0.104370,321.246019,24.129790,0.999595,0.993311,0.003734,0.277479,-0.000038,-0.000007,0.000001,-0.000007,-0.000039,89.076159,0.000049,
2355,2486,1.98415806354692,-3.60005597424698,-0.012002495822685,-0.000457,0.002733,-0.008641,0.010433,0.099542,322.829377,24.064373,0.999454,0.989385,0.004112,0.240995,-0.000034,-0.000024,0.000003,-0.000023,-0.000035,73.074042,0.000059,
2370,2726,2.26229399689603,1.638230788146,-0.0358213756085775,-0.000701,0.002420,-0.007128,-0.005882,0.102062,318.631763,24.717284,0.999620,0.992243,0.003466,0.223390,-0.000033,-0.000032,0.000004,-0.000029,-0.000037,50.801119,0.000066,
2265,2561,0.00886449924182031,-1.96484599761489,-0.0216843529690891,-0.000595,0.002761,-0.006971,-0.003264,0.109835,321.559086,24.311246,0.999576,0.990989,0.003859,0.336849,-0.000031,-0.000039,-0.000004,-0.000030,-0.000041,-20.606849,0.000071,
2190,2396,-1.59396571381989,-5.56963801971315,-0.00223483760885301,-0.000828,0.002499,-0.004269,-0.023809,0.114547,324.604726,24.319966,0.999240,0.990424,0.004182,0.271442,-0.000022,-0.000013,0.000007,-0.000010,-0.000026,61.303222,0.000037,
2475,2846,4.52430058062292,4.25655576838292,-0.0356095219096915,-0.000780,0.002599,-0.009617,0.001815,0.094817,316.786583,25.171880,0.999262,0.990323,0.003861,0.226790,-0.000041,-0.000055,-0.000008,-0.000037,-0.000059,-25.503110,0.000097,
2400,2306,2.99997176461092,-7.53525996807697,-0.012534515249456,-0.000967,0.002730,-0.006320,-0.020375,0.115195,325.800520,23.408300,0.999790,0.994221,0.003391,0.248554,-0.000037,0.000001,0.000016,0.000007,-0.000043,69.505925,0.000047,
2325,2471,1.33323832520042,-3.9288302855797,-0.00871213339377164,-0.000546,0.002440,-0.006635,-0.001280,0.086989,323.098460,24.086560,0.999301,0.988533,0.004268,0.237708,-0.000029,-0.000016,0.000005,-0.000014,-0.000030,70.530031,0.000046,
2220,2291,-0.921568481598097,-7.86504775271879,0.000612116615286595,-0.000537,0.002999,-0.007232,-0.000480,0.123377,326.301879,24.112890,0.999215,0.986157,0.004594,0.250213,-0.000024,0.000012,-0.000009,0.000013,-0.000026,-77.288206,0.000026,
2490,2681,4.88520982960617,0.662766528072616,-0.0390874346937267,-0.000324,0.002331,-0.006528,0.011160,0.094367,319.555890,24.575315,0.999733,0.992136,0.003526,0.196230,-0.000042,-0.000002,0.000021,0.000007,-0.000051,66.997341,0.000055,
2265,2366,0.0447288083696442,-6.22289513635704,-0.0151628301221081,-0.000349,0.002539,-0.005213,0.002139,0.099679,324.844765,24.080755,0.999118,0.985249,0.004858,0.210038,-0.000021,-0.000001,0.000006,0.000001,-0.000023,73.896914,0.000026,
2400,2186,3.02575375929283,-10.1669291169702,0.0147162818123547,-0.000878,0.002522,-0.003740,-0.025701,0.102130,328.005810,23.075954,0.999293,0.984959,0.004856,0.185094,-0.000025,0.000004,0.000020,0.000014,-0.000035,63.434853,0.000035,
2385,2501,2.63518896887712,-3.27152758175972,-0.0101137384114622,-0.000581,0.003180,-0.008831,0.006239,0.116591,322.604856,24.068987,0.999573,0.991276,0.003825,0.230707,-0.000028,-0.000034,-0.000005,-0.000025,-0.000037,-27.887317,0.000062,
2475,2501,4.5973024527131,-3.26928519300035,-0.0125152044184915,-0.000891,0.002746,-0.008059,-0.009125,0.106300,322.712771,23.898644,0.999547,0.989456,0.004063,0.202066,-0.000039,-0.000045,-0.000007,-0.000034,-0.000050,-32.931003,0.000084,
2235,2276,-0.592033848491564,-8.19279803404483,-0.00442094984032337,-0.000209,0.002673,-0.006969,0.013833,0.084918,326.487404,24.057450,0.999310,0.985140,0.004756,0.182169,-0.000032,0.000000,-0.000007,0.000001,-0.000034,-77.760455,0.000038,
2295,2621,0.650958668578017,-0.654170249481268,-0.0271446553263672,-0.000288,0.002823,-0.009365,0.019393,0.091762,320.500477,24.473662,0.999419,0.990190,0.003840,0.234329,-0.000032,-0.000030,-0.000005,-0.000026,-0.000036,-51.041565,0.000062,
2430,2786,3.55722629249194,2.94780582698024,-0.0282334911761382,-0.000613,0.002502,-0.006161,-0.004322,0.108230,317.754588,24.966166,0.999532,0.992297,0.003631,0.188164,-0.000029,-0.000051,-0.000002,-0.000028,-0.000051,-4.990221,0.000080,
2370,2261,2.35513780254592,-8.52137669318779,-0.00573983159165437,-0.000443,0.002580,-0.007382,0.006864,0.091545,326.605455,23.419124,0.999518,0.987832,0.004460,0.204851,-0.000033,-0.000001,0.000018,0.000007,-0.000041,65.632679,0.000044,
2415,2306,3.32833746399539,-7.53714224453037,0.00345412234150899,-0.001098,0.002079,-0.003824,-0.035524,0.084783,325.937554,23.366487,0.999428,0.987170,0.004372,0.198970,-0.000036,-0.000002,0.000019,0.000007,-0.000044,66.023053,0.000047,
2430,2336,3.65031659157424,-6.87896998622955,-0.00572652490239989,-0.000247,0.002704,-0.009433,0.024529,0.101247,325.446471,23.428866,0.999102,0.982921,0.004806,0.196613,-0.000043,-0.000010,0.000006,-0.000009,-0.000045,79.722817,0.000057,
2460,2846,4.19734061949466,4.25617498497063,-0.0402570961693982,-0.000463,0.002385,-0.005928,0.002069,0.098100,316.714031,25.155619,0.999709,0.994486,0.003090,0.226937,-0.000032,-0.000046,-0.000004,-0.000030,-0.000047,-15.698613,0.000078,
2250,2306,-0.270467362487384,-7.53620373111202,-0.0026360751318748,-0.000492,0.002963,-0.007957,0.004444,0.114799,325.967912,24.048012,0.998642,0.981900,0.005340,0.208087,-0.000033,0.000006,-0.000003,0.000006,-0.000033,-85.910712,0.000035,
2280,2426,0.361240610811748,-4.91264790084273,-0.0054111060163109,-0.000588,0.002415,-0.006368,-0.004873,0.088248,323.906273,24.134517,0.999603,0.990852,0.003925,0.210341,-0.000036,-0.000027,0.000006,-0.000024,-0.000039,62.794202,0.000063,
2340,2711,1.61241385089261,1.31017524974554,-0.0341279894790887,-0.000701,0.002612,-0.007949,-0.003481,0.111344,318.895261,24.681730,0.999422,0.991344,0.003787,0.227317,-0.000027,-0.000016,0.000011,-0.000009,-0.000034,57.510781,0.000045,
2295,2426,0.687841070119298,-4.91173495647136,-0.00771794552503025,-0.000730,0.002791,-0.007320,-0.007764,0.109691,323.866365,24.113855,0.999564,0.991026,0.003929,0.210427,-0.000040,-0.000027,-0.000003,-0.000026,-0.000041,-77.558007,0.000068,
2400,2741,2.91242953787171,1.96591298580162,-0.0352466024663158,-0.000540,0.002418,-0.004431,-0.007756,0.093369,318.405175,24.741215,0.999534,0.991357,0.003764,0.240389,-0.000033,-0.000029,0.000006,-0.000025,-0.000037,52.845547,0.000062,
2205,2246,-1.24181270245258,-8.84933139787487,-0.00659823785548497,-0.000829,0.002077,-0.002658,-0.028896,0.093530,326.993711,24.114935,0.998940,0.984543,0.005022,0.224355,-0.000034,0.000000,0.000002,0.000000,-0.000034,87.271774,0.000040,
2355,2246,2.03257160768617,-8.85027746361713,0.00266705385581645,0.000758,0.003135,-0.008402,0.065417,0.105265,326.976635,23.479988,0.999126,0.983407,0.005115,0.182967,-0.000032,-0.000005,0.000010,-0.000002,-0.000035,72.211440,0.000042,
2445,2336,3.97814200014952,-6.88015931921078,0.00512061418197618,-0.000596,0.002721,-0.007358,0.001160,0.102399,325.540714,23.365357,0.999296,0.982173,0.005006,0.205066,-0.000040,-0.000011,0.000012,-0.000007,-0.000044,70.269052,0.000056,
2415,2771,3.23332232084062,2.61980440020378,-0.0300842844443423,-0.000666,0.002420,-0.004448,-0.013305,0.107307,317.959636,24.841213,0.999505,0.989918,0.004002,0.253622,-0.000033,-0.000046,0.000000,-0.000033,-0.000046,0.091603,0.000079,
2370,2516,2.30504297328272,-2.94483856277304,-0.0149571261207484,-0.000409,0.002432,-0.007903,0.010220,0.082469,322.311663,24.079748,0.999385,0.987919,0.004476,0.259297,-0.000036,-0.000039,-0.000004,-0.000033,-0.000042,-32.454631,0.000075,
2490,2891,4.84144330516312,5.23650662293005,-0.0290792833596356,-0.000769,0.001608,-0.001502,-0.028834,0.076282,316.097316,25.398937,0.998799,0.988408,0.004291,0.175712,-0.000053,-0.000057,-0.000022,-0.000033,-0.000077,-42.524885,0.000113,
2475,2636,4.56840634468512,-0.320333394869721,-0.0293805046553075,-0.000508,0.003021,-0.008727,0.011114,0.127750,320.347637,24.369761,0.999662,0.991990,0.003518,0.268941,-0.000036,0.000000,0.000011,0.000003,-0.000039,73.827322,0.000043,
2340,2261,1.70098719645069,-8.52233556968935,0.00499009730151556,-0.000420,0.002359,-0.003603,-0.005844,0.104000,326.676598,23.556674,0.999190,0.984595,0.004866,0.213193,-0.000030,-0.000004,0.000007,-0.000002,-0.000032,75.321110,0.000038,
2505,2906,5.16577869733316,5.56399750037352,-0.0275667876716739,-0.000602,0.002411,-0.008414,0.006014,0.104110,315.936338,25.482774,0.999559,0.990484,0.003805,0.206843,-0.000045,-0.000055,-0.000023,-0.000027,-0.000073,-38.220311,0.000103,
2490,2696,4.88178201794859,0.990064787244421,-0.0399441721688163,-0.000508,0.002514,-0.005995,0.000767,0.115636,319.288261,24.624756,0.999691,0.991350,0.003716,0.227112,-0.000041,-0.000014,0.000025,0.000000,-0.000056,59.201858,0.000064,
2325,2036,1.41679383953318,-13.4557684203493,0.0126427268298812,-0.000530,0.003023,-0.008524,0.006124,0.075986,330.463185,23.184001,0.999341,0.985810,0.004789,0.066844,-0.000002,-0.000013,0.000021,0.000014,-0.000029,37.388628,0.000029,
2430,2561,3.60370394882884,-1.96066224074636,-0.00984426292990292,-0.000927,0.002586,-0.006100,-0.018923,0.112171,321.638106,24.147171,0.999542,0.990943,0.003869,0.257200,-0.000025,-0.000027,-0.000003,-0.000023,-0.000029,-37.354240,0.000052,
2445,2816,3.87728609058729,3.6011153759946,-0.0319816108828377,-0.000877,0.002931,-0.007458,-0.011266,0.110404,317.241570,24.980840,0.999523,0.991463,0.003747,0.290284,-0.000030,-0.000041,-0.000013,-0.000022,-0.000050,-33.414054,0.000073,
2460,2426,4.28575153376609,-4.90954802876808,-0.0159087073060391,-0.000536,0.003097,-0.010483,0.016064,0.100440,323.919541,23.571667,0.999400,0.987266,0.004489,0.277239,-0.000018,-0.000047,0.000018,-0.000009,-0.000056,26.135568,0.000070,
2505,2666,5.21594942209417,0.334943229024304,-0.028145222972114,-0.000780,0.003044,-0.008185,-0.002826,0.123564,319.926627,24.458054,0.999489,0.988634,0.004298,0.276387,-0.000041,0.000006,0.000017,0.000012,-0.000046,71.832191,0.000048,
2430,2801,3.55466105016329,3.27440336870701,-0.026206472772742,-0.000528,0.002720,-0.008695,0.008979,0.098450,317.534910,25.036069,0.999462,0.991347,0.003842,0.158085,-0.000028,-0.000048,-0.000009,-0.000025,-0.000052,-21.368209,0.000078,
2460,2861,4.19403415450288,4.58194219060185,-0.0331970310579663,-0.000900,0.001861,-0.001299,-0.035609,0.090884,316.485387,25.203477,0.999526,0.992762,0.003392,0.225518,-0.000029,-0.000047,-0.000004,-0.000028,-0.000048,-13.031510,0.000077,
2355,2066,2.06741093333732,-12.7999359898331,0.02409453132924,-0.000640,0.003026,-0.009080,0.003673,0.094469,330.061831,22.986047,0.999378,0.981806,0.005056,0.167178,0.000000,-0.000016,0.000021,0.000015,-0.000031,35.024894,0.000031,
2310,2426,1.01452916906633,-4.91168446260585,-0.00982542710340795,-0.000575,0.002253,-0.004724,-0.009423,0.096554,323.834326,24.050592,0.999608,0.991745,0.003817,0.218548,-0.000036,-0.000028,0.000002,-0.000028,-0.000037,75.819270,0.000065,
2460,2591,4.25028148238117,-1.30329052017173,-0.0273992848368039,-0.000907,0.002739,-0.006898,-0.014526,0.106406,321.052771,24.211385,0.999318,0.990818,0.003939,0.252849,-0.000039,-0.000016,0.000005,-0.000015,-0.000040,78.503700,0.000057,
2385,2741,2.58718453405405,1.96378640649904,-0.0212244408680817,-0.000223,0.002084,-0.002920,0.001106,0.097041,318.519783,24.713931,0.999660,0.993312,0.003384,0.266774,-0.000036,-0.000026,0.000005,-0.000024,-0.000038,69.013434,0.000063,
2505,2921,5.16186583029547,5.89078118226367,-0.0324804732150028,-0.000610,0.002424,-0.004373,-0.009993,0.114033,315.628142,25.534587,0.999398,0.988896,0.003967,0.225359,-0.000043,-0.000045,-0.000020,-0.000024,-0.000064,-43.640935,0.000091,
2205,2261,-1.24378737647804,-8.52177781016381,-0.000798260721296629,-0.000723,0.002262,-0.004125,-0.019339,0.092095,326.804662,24.127339,0.998997,0.983860,0.004973,0.228888,-0.000032,0.000006,0.000000,0.000006,-0.000032,89.426755,0.000034,
2370,2096,2.38819757198319,-12.139800133375,0.0131703839963393,-0.000733,0.002888,-0.006092,-0.010865,0.103597,329.467279,23.026679,0.999341,0.982017,0.005221,0.128899,0.000003,-0.000016,0.000026,0.000021,-0.000034,34.842493,0.000034,
2475,2516,4.59407372276281,-2.94114998322679,-0.0163310933840535,-0.000706,0.002838,-0.008169,-0.000180,0.107305,322.440606,23.957385,0.999484,0.986695,0.004273,0.202209,-0.000047,-0.000034,-0.000008,-0.000030,-0.000051,-64.121184,0.000081,
2475,2861,4.52149768010576,4.58256343351814,-0.025963552192934,-0.001007,0.002384,-0.006232,-0.021525,0.100637,316.593715,25.248238,0.999156,0.988995,0.004047,0.212289,-0.000040,-0.000055,-0.000009,-0.000036,-0.000059,-25.244495,0.000096,
2400,2531,2.95534946436868,-2.61527198850894,-0.018676277999532,-0.000742,0.002589,-0.007995,-0.004059,0.097897,322.038125,24.140540,0.999446,0.990092,0.004207,0.202200,-0.000026,-0.000029,0.000001,-0.000025,-0.000030,20.433165,0.000055,
2325,2216,1.3828547164014,-9.50848833228235,0.00893702892909687,-0.000252,0.002709,-0.006668,0.012370,0.106836,327.474039,23.499911,0.999071,0.981025,0.005380,0.228987,-0.000026,0.000002,0.000004,0.000003,-0.000027,82.552125,0.000030,
2190,2411,-1.59679709021156,-5.24055692689542,-0.0114812842641641,-0.000458,0.002403,-0.004374,-0.006526,0.102081,324.296807,24.384563,0.999275,0.990670,0.004032,0.210582,-0.000021,-0.000018,0.000004,-0.000015,-0.000023,55.521238,0.000039,
2340,2471,1.65989632314949,-3.92783564982544,-0.0114556779140571,-0.000577,0.002460,-0.006862,-0.001662,0.100738,323.070357,24.077831,0.999434,0.989195,0.004138,0.224564,-0.000031,-0.000021,0.000007,-0.000018,-0.000035,62.952353,0.000053,
2490,2906,4.83863673850782,5.56312090530715,-0.0234959439022759,-0.001143,0.001792,-0.004156,-0.035733,0.087571,315.886334,25.506484,0.999246,0.988588,0.004121,0.137646,-0.000046,-0.000059,-0.000022,-0.000029,-0.000075,-36.882532,0.000108,
2250,2321,-0.273325845183965,-7.20772496885487,-0.00853372708422739,-0.000220,0.002639,-0.007547,0.015491,0.093516,325.682345,24.066506,0.998829,0.985152,0.004962,0.193765,-0.000029,0.000021,0.000000,0.000021,-0.000029,-89.848731,0.000030,
2295,2441,0.684167779898097,-4.58367468241997,-0.0178197372241584,-0.000595,0.002569,-0.003319,-0.015125,0.119172,323.526593,24.068592,0.999621,0.991001,0.003908,0.296952,-0.000038,-0.000025,0.000001,-0.000025,-0.000038,85.564705,0.000063,
2445,2351,3.97470910947633,-6.55164477900543,0.000387331227614141,-0.000763,0.003010,-0.009441,0.001383,0.102922,325.253075,23.390134,0.999484,0.983144,0.005073,0.234888,-0.000038,-0.000001,0.000015,0.000005,-0.000043,70.462046,0.000047,
2400,2756,2.91016972383379,2.29204840446803,-0.0317546650384202,-0.000461,0.002563,-0.008832,0.011821,0.079909,318.204579,24.771032,0.999321,0.989597,0.004120,0.242373,-0.000033,-0.000036,0.000006,-0.000028,-0.000041,37.139127,0.000069,
2415,2786,3.23033069737899,2.94752181412049,-0.0349446991151012,-0.000614,0.002722,-0.008729,0.004830,0.103457,317.686738,24.949007,0.999460,0.990415,0.003981,0.189721,-0.000030,-0.000045,-0.000003,-0.000030,-0.000046,-10.960866,0.000076,
2400,2201,3.02318438355239,-9.83787924065494,0.0076075984277395,-0.000415,0.003199,-0.009955,0.018173,0.093704,327.742978,23.075949,0.999226,0.983300,0.005104,0.224800,-0.000021,0.000012,0.000020,0.000021,-0.000030,64.514036,0.000031,
2355,2261,2.02908798300177,-8.52252485572672,0.00438957867208956,0.000149,0.002659,-0.006702,0.031361,0.088469,326.709701,23.485369,0.999384,0.986234,0.004745,0.201678,-0.000035,-0.000001,0.000012,0.000002,-0.000039,72.062330,0.000043,
2445,2576,3.92642798304535,-1.63035080120016,-0.0309119456730969,-0.000454,0.002441,-0.006164,0.003155,0.107370,321.259878,24.217541,0.999688,0.992951,0.003654,0.212985,-0.000025,-0.000012,-0.000001,-0.000012,-0.000025,-85.941458,0.000038,
2265,2381,0.0419305179144942,-5.89462018631588,-0.0162840442828838,-0.000208,0.002874,-0.003146,0.001900,0.125153,324.587073,24.104266,0.998549,0.980024,0.005459,0.239162,-0.000021,-0.000005,0.000007,-0.000002,-0.000024,69.360403,0.000029,
2490,2711,4.87887334290287,1.31610110004617,-0.039637134356667,-0.000636,0.002796,-0.009714,0.009288,0.122202,319.049986,24.587282,0.999611,0.990361,0.004129,0.330261,-0.000047,-0.000026,0.000021,-0.000014,-0.000060,58.446931,0.000078,
2370,2741,2.25975275575432,1.96424623594674,-0.0334914726773263,-0.000512,0.002456,-0.007108,0.002718,0.103753,318.410606,24.706848,0.999525,0.991888,0.003518,0.276649,-0.000033,-0.000028,0.000003,-0.000026,-0.000035,64.442464,0.000061,
2460,2876,4.19070450728475,4.90920143821523,-0.0373718539667038,-0.000607,0.002010,0.001207,-0.031512,0.106742,316.203640,25.284364,0.999471,0.992730,0.003482,0.214532,-0.000032,-0.000045,-0.000006,-0.000030,-0.000047,-20.335916,0.000078,
2190,2246,-1.56793906323534,-8.8492345442015,-0.00296740524026973,-0.000475,0.002731,-0.005642,-0.003259,0.121140,327.092017,24.197324,0.998940,0.983666,0.005089,0.237589,-0.000024,-0.000007,0.000005,-0.000005,-0.000026,74.164385,0.000033,
2355,2726,1.93668610403468,1.63675150437184,-0.0257837534479677,-0.000612,0.002534,-0.007331,-0.001286,0.110352,318.717143,24.712888,0.999539,0.992304,0.003493,0.233784,-0.000029,-0.000029,0.000007,-0.000022,-0.000036,45.763689,0.000059,
2235,2291,-0.59552014501207,-7.86384950582733,-0.010862235673585,-0.000521,0.002744,-0.005967,-0.003635,0.112393,326.168625,24.053410,0.999370,0.986438,0.004480,0.237352,-0.000033,0.000008,-0.000009,0.000010,-0.000035,-77.745663,0.000036,
2475,2651,4.56497927908599,0.00635542681691703,-0.0301224085345098,-0.000886,0.002776,-0.010069,-0.001270,0.090936,320.079898,24.407133,0.999584,0.990811,0.003767,0.251643,-0.000037,0.000008,0.000020,0.000015,-0.000045,69.560755,0.000045,
2415,2531,3.28236540210662,-2.61425296917954,-0.0185579324498235,-0.000390,0.002625,-0.003898,-0.002537,0.120197,322.057391,24.152618,0.999306,0.988841,0.004375,0.185647,-0.000033,-0.000025,0.000000,-0.000025,-0.000033,-88.159810,0.000058,
2505,2681,5.21204000431801,0.663215910374127,-0.0358967867811657,-0.000531,0.002558,-0.004160,-0.007137,0.110467,319.607201,24.567838,0.999651,0.992077,0.003572,0.214943,-0.000038,-0.000007,0.000020,0.000002,-0.000048,63.796561,0.000054,
2325,2051,1.41426809721739,-13.1275292525554,0.0128226557284279,-0.000322,0.002874,-0.009309,0.018259,0.083715,330.230613,23.116324,0.999670,0.988069,0.004279,0.179950,-0.000007,-0.000033,0.000008,-0.000004,-0.000035,15.463086,0.000043,
2460,2441,4.28265922717318,-4.5820879109373,-0.00926433743836697,-0.000782,0.002559,-0.006676,-0.009702,0.088390,323.700666,23.655376,0.999223,0.987004,0.004546,0.236898,-0.000016,-0.000049,0.000012,-0.000012,-0.000053,18.328823,0.000069,
2385,2516,2.63148827076602,-2.94460330546467,-0.0135320253746158,-0.000801,0.002418,-0.005311,-0.016759,0.096507,322.305048,24.040418,0.999510,0.990159,0.004092,0.283677,-0.000032,-0.000044,-0.000004,-0.000031,-0.000045,-14.830314,0.000076,
2460,2606,4.24794931941996,-0.976423542425572,-0.0204953947865647,-0.000806,0.002983,-0.007763,-0.006543,0.120934,320.869204,24.266088,0.999177,0.988503,0.004189,0.267352,-0.000035,-0.000025,0.000009,-0.000020,-0.000041,60.019798,0.000062,
2430,2816,3.55123839651232,3.60031155263223,-0.0276323110520593,-0.000617,0.002466,-0.006185,-0.004475,0.100977,317.259787,25.007669,0.999496,0.991307,0.003900,0.238695,-0.000031,-0.000036,-0.000013,-0.000020,-0.000047,-39.381730,0.000068,
2325,2486,1.32976460847496,-3.6003787966975,-0.0125559626308132,-0.000743,0.002507,-0.004544,-0.017463,0.105986,322.801305,24.143655,0.999357,0.988823,0.004139,0.235044,-0.000030,-0.000015,0.000004,-0.000014,-0.000031,77.404724,0.000046,
2385,2276,2.67949973898259,-8.19218172114704,-0.00493715002056661,-0.000694,0.002862,-0.008320,-0.000908,0.093557,326.365551,23.470939,0.999711,0.992288,0.003630,0.133506,-0.000033,0.000000,0.000014,0.000005,-0.000038,69.634888,0.000041,
2505,2936,5.1601197018299,6.21608285363013,-0.0197468546467121,-0.000426,0.002389,-0.005979,0.004609,0.099710,315.499232,25.606839,0.999597,0.992329,0.003491,0.198958,-0.000042,-0.000029,-0.000021,-0.000013,-0.000057,-53.530556,0.000075,
2400,2546,2.95251278030944,-2.28899652575759,-0.0189607293988274,-0.000391,0.002331,-0.005379,0.002477,0.093206,321.794034,24.076412,0.999396,0.990089,0.004385,0.308040,-0.000021,-0.000031,0.000007,-0.000017,-0.000035,28.999650,0.000053,
2445,2366,3.97146718997086,-6.22224856376079,-0.00189657684217082,-0.000555,0.002980,-0.006947,0.001618,0.108277,324.985246,23.520843,0.999561,0.986330,0.004659,0.163269,-0.000032,-0.000003,0.000014,0.000003,-0.000037,67.769616,0.000042,
2355,2501,1.98081905504105,-3.2716874980021,-0.0146443453453458,-0.000617,0.002678,-0.007477,-0.000989,0.097382,322.546947,24.151984,0.999419,0.988781,0.004287,0.191200,-0.000031,-0.000028,0.000004,-0.000025,-0.000034,55.867505,0.000059,
2340,2276,1.69781970392365,-8.19346443376904,-0.00270703673220396,-0.000277,0.002409,-0.005247,0.006440,0.089850,326.377075,23.569188,0.999116,0.984329,0.004955,0.225387,-0.000033,-0.000002,0.000003,-0.000002,-0.000033,85.353749,0.000040,
2205,2276,-1.24584056164637,-8.19401756997293,0.006550662993277,-0.000769,0.002640,-0.005147,-0.018121,0.106538,326.619887,24.163204,0.999119,0.984542,0.004860,0.226038,-0.000031,0.000007,-0.000004,0.000008,-0.000031,-83.678232,0.000033,
2460,2891,4.1882429991051,5.23570911413624,-0.0334353231914406,-0.001012,0.002314,-0.007197,-0.018461,0.082970,315.999249,25.401083,0.999127,0.990950,0.003937,0.127787,-0.000031,-0.000045,-0.000011,-0.000025,-0.000051,-28.399289,0.000078,
2430,2351,3.64661872465469,-6.55108199680291,-0.00165204708031297,-0.000948,0.002376,-0.005689,-0.021518,0.099651,325.186178,23.486959,0.999108,0.983504,0.004917,0.188674,-0.000041,0.000000,0.000008,0.000002,-0.000042,79.218674,0.000048,
2400,2321,2.99785533725738,-7.20775954895279,-0.00396389389686647,-0.000697,0.002836,-0.005001,-0.012705,0.116573,325.631858,23.463504,0.999419,0.989811,0.004044,0.241651,-0.000039,0.000002,0.000010,0.000004,-0.000041,76.257434,0.000045,
2475,2876,4.51825725105813,4.90927308423989,-0.030915659605796,-0.000685,0.002241,-0.005588,-0.009278,0.091348,316.314023,25.297442,0.998816,0.988419,0.004368,0.209881,-0.000044,-0.000051,-0.000011,-0.000036,-0.000059,-36.097197,0.000096,
2370,2276,2.35296606004777,-8.19337039472221,0.00792172546442771,-0.000715,0.002636,-0.006733,-0.007907,0.095911,326.456676,23.555417,0.999833,0.994131,0.003440,0.115835,-0.000035,-0.000001,0.000012,0.000002,-0.000039,72.200880,0.000043,
2220,2306,-0.924883096888149,-7.53590470451819,-0.00802027853262643,-0.000675,0.002890,-0.007973,-0.004518,0.102937,325.978395,24.157184,0.999077,0.986942,0.004483,0.206733,-0.000025,0.000004,-0.000007,0.000005,-0.000027,-76.837270,0.000029,
2370,2111,2.38505330891362,-11.8106865418017,0.012457345673397,-0.000827,0.002785,-0.004951,-0.019258,0.113557,329.205780,23.049311,0.999235,0.979892,0.005361,0.160302,-0.000001,-0.000013,0.000024,0.000018,-0.000032,37.834292,0.000032,
2490,2726,4.87588286911731,1.64403835425279,-0.0410666143088747,-0.000374,0.002879,-0.009702,0.021260,0.106494,318.799672,24.737104,0.999596,0.992390,0.003523,0.223665,-0.000044,-0.000041,0.000016,-0.000026,-0.000059,47.515634,0.000087,
2430,2576,3.60096648520193,-1.63227241836663,-0.00967168052153511,-0.000870,0.002858,-0.008815,-0.006235,0.112727,321.402597,24.285271,0.999772,0.994191,0.003356,0.170412,-0.000029,-0.000018,-0.000005,-0.000016,-0.000031,-68.552739,0.000048,
2370,2756,2.25671760078255,2.29224140158075,-0.0398499287532559,-0.000317,0.002724,-0.009443,0.020067,0.093452,318.124591,24.824332,0.999157,0.988739,0.003972,0.189900,-0.000033,-0.000030,0.000005,-0.000026,-0.000037,51.810522,0.000063,
2445,2831,3.8746400002285,3.92882917880722,-0.0278908103887829,-0.000748,0.002435,-0.006802,-0.007883,0.116511,317.028341,25.162690,0.999658,0.993513,0.003378,0.166426,-0.000034,-0.000035,-0.000014,-0.000020,-0.000048,-44.174194,0.000070,
2340,2486,1.65646930372348,-3.60068694444445,-0.0124788715435784,-0.000802,0.002188,-0.003274,-0.024558,0.101139,322.790709,24.060893,0.999480,0.989486,0.003981,0.279735,-0.000033,-0.000022,0.000007,-0.000018,-0.000037,65.178412,0.000056,
2490,2921,4.83493179875783,5.88996938250512,-0.0341478082497702,-0.000898,0.002188,-0.004895,-0.021477,0.098367,315.560457,25.520894,0.999455,0.989303,0.003902,0.192641,-0.000047,-0.000047,-0.000021,-0.000026,-0.000068,-44.799434,0.000097,
2415,2321,3.32559488645855,-7.2076860994125,-0.00296499056577204,-0.000640,0.002880,-0.007688,-0.000140,0.110698,325.670749,23.423625,0.999299,0.985987,0.004479,0.217707,-0.000039,-0.000003,0.000011,0.000000,-0.000042,73.813554,0.000049,
2385,2756,2.58370915323716,2.29147476265811,-0.029784147308078,-0.000476,0.002724,-0.007892,0.007507,0.092659,318.204532,24.778894,0.999343,0.990328,0.003888,0.240695,-0.000037,-0.000031,0.000005,-0.000028,-0.000040,59.113811,0.000068,
2295,2456,0.681566849243207,-4.25404959271372,-0.0259571209256251,-0.000336,0.003744,-0.010299,0.020696,0.136181,323.245318,24.183955,0.999429,0.990006,0.004102,0.229887,-0.000038,-0.000018,0.000001,-0.000018,-0.000038,88.017798,0.000057,
2475,2666,4.56151256148793,0.333374562845648,-0.0335707724957501,-0.000668,0.002537,-0.006484,-0.004989,0.096977,319.797766,24.413786,0.999521,0.989636,0.003927,0.308220,-0.000034,0.000004,0.000021,0.000013,-0.000043,66.244587,0.000044,
2400,2771,2.90711461811554,2.61926854416609,-0.0304299709192151,-0.000518,0.002694,-0.007142,0.003164,0.104958,317.956769,24.848910,0.999403,0.989692,0.004058,0.235053,-0.000030,-0.000038,0.000004,-0.000029,-0.000040,20.956333,0.000069,
2265,2396,0.0394264961683284,-5.56641770185973,-0.0169682859471436,-0.000335,0.003098,-0.008478,0.013725,0.113111,324.345187,24.168055,0.999057,0.986238,0.004710,0.190328,-0.000028,-0.000008,0.000004,-0.000007,-0.000028,77.868165,0.000037,
2310,2441,1.01217482162789,-4.58489016332018,-0.00452313146064398,-0.000621,0.002418,-0.005894,-0.007485,0.108493,323.632629,24.034215,0.999519,0.990588,0.004031,0.280035,-0.000034,-0.000026,0.000006,-0.000023,-0.000036,62.101949,0.000060,
2355,2276,2.02465654729147,-8.19212997253975,-0.0110920394215555,-0.000248,0.002798,-0.007263,0.015183,0.093980,326.316044,23.537673,0.999508,0.989436,0.004241,0.196776,-0.000036,0.000001,0.000007,0.000002,-0.000037,79.255562,0.000042,
2370,2531,2.30186986911133,-2.61600980322945,-0.0230131675610892,-0.000332,0.003056,-0.011629,0.027224,0.100593,322.011978,24.150431,0.999317,0.988724,0.004400,0.248958,-0.000032,-0.000030,-0.000002,-0.000029,-0.000033,-60.423335,0.000062,
2430,2366,3.64369671309751,-6.22327130189151,0.00171534856082189,-0.000763,0.002126,-0.001258,-0.029436,0.100453,324.958142,23.533007,0.999259,0.983484,0.004899,0.194721,-0.000036,-0.000001,0.000007,0.000000,-0.000037,78.981044,0.000043,
2430,2831,3.54854007936182,3.92742860736539,-0.0254755833037166,-0.000383,0.001992,-0.005178,0.002427,0.100680,317.034298,25.125578,0.999384,0.990689,0.003836,0.170116,-0.000035,-0.000031,-0.000015,-0.000018,-0.000048,-48.895526,0.000069,
2325,2231,1.37911877291021,-9.17884731906948,8.84975821691114E-05,-0.000691,0.002965,-0.009222,0.001137,0.106500,327.141314,23.538973,0.998830,0.978640,0.005675,0.226770,-0.000026,-0.000011,0.000001,-0.000010,-0.000026,85.495567,0.000037,
2460,2456,4.27944120487817,-4.25363314928747,-0.0112017608637416,-0.000927,0.002624,-0.008730,-0.008614,0.098561,323.436472,23.730686,0.999418,0.987560,0.004453,0.227473,-0.000018,-0.000054,0.000002,-0.000018,-0.000055,3.826645,0.000075,
2505,2696,5.20913304252302,0.989740607834428,-0.0298060857987821,-0.000592,0.002359,-0.001688,-0.019547,0.116662,319.396053,24.619273,0.999645,0.992425,0.003509,0.230693,-0.000038,-0.000022,0.000023,-0.000005,-0.000055,54.695552,0.000066,
2505,2951,5.15760835013389,6.54136764638773,-0.0116748412413017,-0.000577,0.002382,-0.007138,0.002115,0.083274,315.314096,25.648789,0.999663,0.992724,0.003427,0.200706,-0.000045,-0.000027,-0.000018,-0.000016,-0.000056,-58.546316,0.000076,
2355,2516,1.97793239373453,-2.94485348313516,-0.0126659821549424,-0.000611,0.002310,-0.005341,-0.008388,0.082048,322.307820,24.159897,0.999216,0.987710,0.004448,0.207495,-0.000035,-0.000040,0.000004,-0.000033,-0.000042,28.315488,0.000075,
2475,2891,4.51497094672693,5.23600830212963,-0.0313636058060069,-0.000833,0.002122,-0.005551,-0.016286,0.079027,316.052629,25.390768,0.998850,0.989511,0.004190,0.160283,-0.000043,-0.000052,-0.000017,-0.000031,-0.000065,-37.666403,0.000098,
2355,2081,2.0633986888647,-12.4683295733775,0.00707831273075499,-0.000607,0.003020,-0.011068,0.012144,0.065624,329.681033,23.079967,0.999545,0.984638,0.004727,0.086971,-0.000005,-0.000022,0.000023,0.000011,-0.000039,34.915983,0.000040,
2445,2381,3.96816664401245,-5.89360712258923,-0.00787297623469385,-0.000713,0.003322,-0.011811,0.012594,0.108632,324.697769,23.556620,0.999801,0.989762,0.004163,0.181911,-0.000034,-0.000011,0.000012,-0.000006,-0.000039,67.410808,0.000049,
2415,2801,3.22772874038237,3.27346788881027,-0.0334232779364925,-0.000451,0.002956,-0.009987,0.017028,0.104558,317.462038,24.944460,0.999255,0.989853,0.004260,0.242860,-0.000028,-0.000044,-0.000009,-0.000024,-0.000048,-25.188795,0.000073,
2445,2591,3.92373556507409,-1.30343427898344,-0.0322317413816222,-0.000117,0.002958,-0.007624,0.024265,0.128324,321.020894,24.193323,0.999754,0.993693,0.003494,0.311030,-0.000027,-0.000021,0.000002,-0.000020,-0.000027,74.591445,0.000048,
2370,2771,2.25404197903263,2.61735339200807,-0.0301535777400659,-0.000637,0.002086,-0.006892,-0.003947,0.080382,317.932710,24.813833,0.999438,0.991374,0.003674,0.227886,-0.000031,-0.000032,0.000003,-0.000028,-0.000034,38.049074,0.000063,
2445,2846,3.87209746967124,4.25298078525996,-0.0201225685698887,-0.000881,0.002522,-0.006677,-0.014539,0.095739,316.837745,25.075787,0.999647,0.993195,0.003302,0.284055,-0.000036,-0.000039,-0.000013,-0.000025,-0.000050,-40.960286,0.000076,
2370,2126,2.3819270577501,-11.4819107078448,0.00749474188688737,-0.000889,0.002979,-0.007808,-0.011925,0.091599,328.924982,23.031797,0.999360,0.982158,0.005157,0.199948,-0.000006,-0.000018,0.000024,0.000013,-0.000037,38.222109,0.000038,
2430,2591,3.59766923522408,-1.30599931546404,-0.0131843966946121,-0.000897,0.003045,-0.009101,-0.006311,0.122921,321.124555,24.191793,0.999634,0.992347,0.003653,0.324940,-0.000032,-0.000026,-0.000003,-0.000024,-0.000033,-66.332133,0.000058,
2355,2741,1.93378474883837,1.96344607423724,-0.0247839912739209,-0.000668,0.002827,-0.006847,-0.005437,0.129251,318.471725,24.735964,0.999662,0.993260,0.003251,0.268516,-0.000028,-0.000026,0.000007,-0.000020,-0.000033,49.625437,0.000054,
2460,2906,4.18656808373411,5.56127816188602,-0.0249127340729274,-0.000429,0.002686,-0.008481,0.013380,0.109876,315.852210,25.418345,0.998861,0.989357,0.004326,0.190961,-0.000029,-0.000049,-0.000014,-0.000022,-0.000056,-27.201878,0.000080,
2235,2306,-0.598163420026548,-7.5346650817759,-0.0169795685208669,-0.000316,0.002855,-0.009343,0.016665,0.100607,325.890177,24.119363,0.998994,0.985689,0.004710,0.182701,-0.000035,0.000001,-0.000009,0.000003,-0.000037,-76.803051,0.000041,
2340,2501,1.65327765426589,-3.27171716481801,-0.0207525978958643,-0.000843,0.002621,-0.007729,-0.010798,0.104167,322.486255,24.145984,0.999272,0.988133,0.004237,0.235472,-0.000030,-0.000028,0.000008,-0.000021,-0.000037,48.947236,0.000059,
2475,2531,4.59045747943061,-2.61345652913609,-0.0215998847643846,-0.000670,0.002734,-0.006828,-0.003650,0.107144,322.144025,23.969027,0.999666,0.989327,0.003886,0.248055,-0.000049,-0.000014,-0.000001,-0.000014,-0.000049,-88.667204,0.000066,
2385,2771,2.58086330328608,2.61806959403643,-0.0301414321897937,-0.000482,0.002605,-0.009531,0.013091,0.090969,317.957433,24.812153,0.999235,0.989664,0.004078,0.248953,-0.000034,-0.000033,0.000003,-0.000031,-0.000037,48.044435,0.000068,
2385,2291,2.67682609365408,-7.86429893698137,-0.00418931573273085,-0.000701,0.003207,-0.010941,0.008266,0.099947,326.133310,23.466081,0.999847,0.994797,0.003185,0.190149,-0.000034,0.000017,0.000014,0.000020,-0.000038,75.669225,0.000038,
2250,2336,-0.276282811549333,-6.87897355774329,-0.00758269075498674,-0.000562,0.002912,-0.007531,-0.000145,0.094882,325.426687,24.162080,0.998958,0.987463,0.004721,0.124452,-0.000027,0.000005,-0.000003,0.000005,-0.000028,-83.916808,0.000030,
2415,2546,3.27904395498154,-2.28717088493661,-0.023353927338519,-0.000419,0.002395,-0.004919,-0.000237,0.104079,321.771029,24.133210,0.999367,0.989475,0.004212,0.237592,-0.000029,-0.000027,0.000005,-0.000023,-0.000033,49.304765,0.000056,
2505,2966,5.15427260408277,6.86778637694081,-0.0120606899961899,-0.000886,0.002359,-0.008942,-0.005091,0.085879,315.052634,25.719274,0.999519,0.991141,0.003887,0.193153,-0.000047,-0.000015,-0.000017,-0.000007,-0.000055,-66.596173,0.000068,
2460,2621,4.2438767605817,-0.647563614815397,-0.0329861902854418,-0.000791,0.002705,-0.008060,-0.004881,0.090096,320.516512,24.384030,0.999477,0.990906,0.003764,0.173806,-0.000035,-0.000017,0.000007,-0.000014,-0.000038,70.684050,0.000054,
2400,2786,2.90392952058616,2.94714723726156,-0.0372473782874749,-0.000470,0.003131,-0.010645,0.018207,0.110218,317.664330,24.946744,0.999549,0.989590,0.004031,0.187884,-0.000028,-0.000040,-0.000001,-0.000028,-0.000040,-4.134690,0.000068,
2475,2681,4.55840592730658,0.661984229774667,-0.0376856830612837,-0.000578,0.002851,-0.009531,0.010888,0.113074,319.528718,24.556005,0.999662,0.991419,0.003720,0.239118,-0.000031,-0.000005,0.000023,0.000008,-0.000045,59.594029,0.000048,
2415,2336,3.32252576060133,-6.87844073364953,-0.00724942795881134,-0.000396,0.002839,-0.008063,0.012430,0.107334,325.399013,23.518363,0.998980,0.984843,0.004689,0.169158,-0.000039,-0.000007,0.000008,-0.000006,-0.000041,76.934517,0.000051,
2505,2711,5.20623306612594,1.31713801184306,-0.0273433218915216,-0.000777,0.002415,-0.004451,-0.017311,0.128253,319.168713,24.719188,0.999642,0.991629,0.003645,0.203619,-0.000044,-0.000036,0.000021,-0.000019,-0.000061,50.280885,0.000084,
2475,2906,4.51225261731479,5.56266060481995,-0.0285108304412347,-0.000615,0.002438,-0.004613,-0.009618,0.113709,315.832280,25.458241,0.998901,0.986724,0.004532,0.183724,-0.000040,-0.000055,-0.000019,-0.000027,-0.000068,-34.652220,0.000098,
2400,2561,2.94912683770772,-1.96004779176651,-0.0267432790744806,-0.000284,0.002500,-0.006611,0.011894,0.103518,321.488722,24.179979,0.999337,0.989368,0.004215,0.261346,-0.000020,-0.000032,0.000005,-0.000018,-0.000034,18.456234,0.000053,
2460,2471,4.27638245664078,-3.92558263155563,-0.0126341087675428,-0.000724,0.002790,-0.007917,-0.002262,0.112835,323.181870,23.774869,0.999526,0.989129,0.004177,0.253260,-0.000027,-0.000061,0.000000,-0.000027,-0.000061,0.225363,0.000090,
2355,2291,2.02209872261644,-7.86282845356095,-0.00784728458887685,-0.000289,0.002643,-0.008870,0.018888,0.094423,326.098434,23.694109,0.999700,0.993050,0.003823,0.081272,-0.000034,0.000016,0.000008,0.000017,-0.000036,81.068618,0.000036,
2430,2846,3.54501464018168,4.25368571477006,-0.0309833133506459,-0.000505,0.002166,-0.005874,-0.000580,0.089300,316.735227,25.120950,0.999454,0.989945,0.003790,0.212863,-0.000036,-0.000036,-0.000014,-0.000022,-0.000050,-45.760510,0.000074,
2385,2531,2.62801844765471,-2.61555956439835,-0.0249970917299152,-0.000618,0.002767,-0.007730,0.000448,0.102964,321.977053,24.111444,0.999509,0.990037,0.004187,0.263466,-0.000027,-0.000034,0.000000,-0.000027,-0.000034,-2.652069,0.000061,
2370,2291,2.35065376079706,-7.86592743506326,0.0151775406489492,-0.000756,0.002888,-0.007584,-0.006657,0.110969,326.270860,23.567244,0.999805,0.994399,0.003382,0.161611,-0.000036,0.000014,0.000011,0.000016,-0.000038,77.645287,0.000039,
2490,2741,4.87213057239584,1.97101255494537,-0.0424670446392952,-0.000644,0.002573,-0.006865,-0.002101,0.110053,318.514501,24.784349,0.999691,0.992973,0.003407,0.238734,-0.000044,-0.000055,0.000010,-0.000038,-0.000061,31.521563,0.000100,
2310,2456,1.00857014117513,-4.25564371677236,-0.0156263953761027,-0.000709,0.002875,-0.007407,-0.006209,0.107954,323.292417,24.103753,0.999498,0.989988,0.004129,0.243762,-0.000033,-0.000019,0.000005,-0.000017,-0.000035,71.371611,0.000053,
2445,2861,3.86939516760164,4.57967249214634,-0.0177852278509931,-0.000627,0.002299,-0.005454,-0.007524,0.083346,316.613975,25.176270,0.999768,0.994837,0.002949,0.222898,-0.000033,-0.000041,-0.000013,-0.000023,-0.000050,-36.254581,0.000075,
2490,2936,4.83293286187008,6.21587677693626,-0.0252698127781059,-0.000626,0.002425,-0.006135,-0.004148,0.104880,315.401590,25.600155,0.999561,0.991186,0.003538,0.177861,-0.000047,-0.000029,-0.000023,-0.000013,-0.000063,-55.917693,0.000081,
2445,2606,3.92102824082578,-0.976620720714592,-0.0212689377796096,-0.000392,0.002322,-0.004247,-0.001189,0.097983,320.837974,24.323918,0.999471,0.990639,0.003881,0.202413,-0.000024,-0.000026,0.000005,-0.000020,-0.000029,40.267628,0.000050,
2430,2381,3.640345124206,-5.89389612918843,-0.00880393028648996,-0.000587,0.002673,-0.005570,-0.005302,0.107603,324.645645,23.584076,0.999620,0.988039,0.004361,0.202801,-0.000039,-0.000009,0.000005,-0.000008,-0.000040,81.668683,0.000052,
2325,2501,1.32608755126742,-3.27135476814874,-0.0230824962782776,-0.000885,0.002600,-0.005766,-0.019785,0.105353,322.462054,24.216376,0.999317,0.989019,0.004028,0.197339,-0.000028,-0.000021,0.000004,-0.000019,-0.000030,64.294742,0.000049,
2505,2726,5.20299848861425,1.64333778621246,-0.0291594604444754,-0.000752,0.002458,-0.004933,-0.014335,0.111946,318.907051,24.706033,0.999524,0.990392,0.003847,0.261651,-0.000038,-0.000046,0.000018,-0.000023,-0.000061,39.251263,0.000087,
2370,2141,2.37915534648236,-11.1523278500036,0.00884552524968285,-0.000776,0.002771,-0.006838,-0.010276,0.100414,328.690225,23.132355,0.999344,0.983162,0.005064,0.152160,-0.000014,-0.000020,0.000026,0.000009,-0.000043,41.250206,0.000045,
2340,2291,1.69492202497198,-7.86476188921461,-0.0023720171229229,-0.000466,0.002547,-0.006793,0.003219,0.089087,326.128727,23.641519,0.999192,0.986150,0.004645,0.190799,-0.000031,0.000012,0.000005,0.000013,-0.000032,84.036278,0.000032,
2475,2921,4.50917146768856,5.88892458491181,-0.028763910481473,-0.000665,0.002388,-0.005640,-0.008022,0.115144,315.581151,25.504465,0.999264,0.988770,0.004150,0.194959,-0.000042,-0.000045,-0.000019,-0.000025,-0.000063,-42.685937,0.000090,
2475,2696,4.55560609015041,0.988698464862516,-0.033845194151354,-0.000540,0.002890,-0.008825,0.009983,0.117997,319.310280,24.607115,0.999648,0.990381,0.003968,0.249791,-0.000031,-0.000015,0.000026,0.000004,-0.000050,53.806366,0.000056,
2475,2546,4.58721646131466,-2.28642499336856,-0.0235501099365365,-0.000614,0.002608,-0.006409,-0.002742,0.102966,321.879794,23.959644,0.999602,0.989223,0.004035,0.310723,-0.000043,-0.000018,0.000006,-0.000016,-0.000045,76.299954,0.000063,
2505,2981,5.15030517056838,7.19398684187802,-0.0151739612178403,-0.001063,0.002033,-0.004418,-0.030813,0.087217,314.749792,25.756135,0.999385,0.989947,0.003970,0.217982,-0.000047,-0.000010,-0.000015,-0.000005,-0.000052,-70.823442,0.000063,
2445,2396,3.96480308866127,-5.56567312360254,-0.0114825153225979,-0.000548,0.002972,-0.009548,0.011631,0.113356,324.418298,23.552337,0.999708,0.988917,0.004355,0.244785,-0.000027,-0.000014,0.000010,-0.000008,-0.000033,61.557790,0.000044,
2235,2321,-0.600431123911914,-7.20693990957544,-0.0182736657176861,-0.000062,0.003201,-0.012374,0.038202,0.101705,325.653641,24.093835,0.998886,0.987475,0.004536,0.232317,-0.000031,0.000018,-0.000007,0.000019,-0.000032,-82.191223,0.000032,
2400,2336,2.99510872635324,-6.87949472602934,-0.00332873537894329,-0.000669,0.002928,-0.006786,-0.004955,0.116833,325.396779,23.514162,0.998930,0.985997,0.004578,0.238677,-0.000039,-0.000004,0.000007,-0.000003,-0.000040,78.930695,0.000048,
2385,2786,2.57752546180287,2.94603654530285,-0.0359315783618968,-0.000382,0.002816,-0.009050,0.016057,0.113528,317.661396,24.908806,0.999618,0.992539,0.003600,0.218353,-0.000033,-0.000036,-0.000002,-0.000032,-0.000037,-25.900066,0.000069,
2460,2921,4.18277035774107,5.88788767540811,-0.0284307040242879,-0.000615,0.002259,-0.005439,-0.006728,0.110216,315.551871,25.473279,0.999277,0.991096,0.003936,0.190279,-0.000029,-0.000043,-0.000014,-0.000020,-0.000052,-32.002942,0.000075,
2460,2636,4.2412957910553,-0.320836569777804,-0.0296678738584433,-0.000541,0.002572,-0.007680,0.005145,0.107930,320.304958,24.400591,0.999579,0.991428,0.003695,0.229836,-0.000033,-0.000009,0.000009,-0.000006,-0.000036,71.521073,0.000046,
2415,2816,3.22465913570838,3.59950495991334,-0.0272562783477497,-0.000721,0.002452,-0.006247,-0.009232,0.107094,317.237525,24.987510,0.999269,0.989633,0.004186,0.249708,-0.000031,-0.000033,-0.000013,-0.000019,-0.000045,-43.310053,0.000066,
2325,2246,1.37653657361158,-8.84991416809385,0.000199793760089051,-0.000369,0.002870,-0.008044,0.011804,0.091733,326.905246,23.627799,0.999054,0.982578,0.005079,0.159960,-0.000027,-0.000006,0.000006,-0.000005,-0.000028,75.495609,0.000036,
2370,2546,2.2988243363163,-2.28840821180822,-0.0187206337172938,-0.000545,0.002812,-0.008386,0.005866,0.108365,321.777431,24.236952,0.999188,0.988049,0.004558,0.211867,-0.000030,-0.000032,0.000003,-0.000028,-0.000034,35.487969,0.000061,
2490,2951,4.83016659419382,6.54155707363793,-0.0201777500670914,-0.000663,0.002549,-0.005670,-0.007556,0.118739,315.190240,25.627142,0.999521,0.990752,0.003683,0.222959,-0.000050,-0.000024,-0.000022,-0.000011,-0.000063,-59.995897,0.000080,
2415,2561,3.27604270163828,-1.95970375416597,-0.0265820415312987,-0.000419,0.002627,-0.008034,0.011193,0.098907,321.506527,24.157771,0.999144,0.987307,0.004379,0.256348,-0.000027,-0.000030,0.000001,-0.000027,-0.000030,16.827986,0.000057,
2400,2801,2.90118446316607,3.27220867816041,-0.0328072094059735,-0.000513,0.002871,-0.009448,0.011800,0.092856,317.445988,24.902329,0.999513,0.991116,0.003944,0.260130,-0.000028,-0.000039,-0.000008,-0.000024,-0.000043,-27.910992,0.000068,
2490,2756,4.86972121910975,2.29589077546119,-0.0317905364807984,-0.000718,0.002601,-0.005479,-0.010873,0.089244,318.346068,24.765578,0.999517,0.989917,0.003906,0.295568,-0.000039,-0.000075,0.000000,-0.000039,-0.000075,0.435435,0.000116,
2385,2306,2.67278014785473,-7.53605528900629,-0.0131154640051818,-0.000822,0.002587,-0.007244,-0.010712,0.095780,325.792216,23.411654,0.999783,0.994419,0.003345,0.285944,-0.000034,0.000005,0.000012,0.000008,-0.000038,74.119811,0.000040,
2430,2861,3.54255507446048,4.58016937366919,-0.0244181199526565,-0.000568,0.002628,-0.007010,0.000881,0.104690,316.541237,25.207249,0.999583,0.992071,0.003444,0.191400,-0.000032,-0.000037,-0.000013,-0.000021,-0.000048,-40.191818,0.000071,
2355,2531,1.97505575030759,-2.61712855892493,-0.0169905526219623,-0.000510,0.003004,-0.008379,0.007196,0.101309,322.038436,24.161957,0.999186,0.988893,0.004379,0.264760,-0.000031,-0.000032,0.000004,-0.000028,-0.000036,42.109803,0.000064,
2340,2516,1.65072092378467,-2.94335348350734,-0.0227483364610066,-0.000448,0.002764,-0.008504,0.010097,0.102907,322.241465,24.243620,0.998872,0.985249,0.004651,0.174108,-0.000033,-0.000042,0.000007,-0.000029,-0.000046,28.686567,0.000076,
2370,2306,2.34653581249184,-7.53679055488082,0.00171420636553421,-0.000675,0.002430,-0.004465,-0.014171,0.107971,325.903110,23.545624,0.999840,0.995619,0.003078,0.223930,-0.000036,0.000003,0.000010,0.000005,-0.000038,76.376354,0.000041,
2355,2096,2.06050188052889,-12.1389270306504,0.00812746866068892,-0.000510,0.002967,-0.008508,0.007613,0.088899,329.437934,23.129947,0.999484,0.983658,0.004909,0.102155,-0.000008,-0.000027,0.000020,0.000005,-0.000039,31.939936,0.000043,
2460,2486,4.27352683028589,-3.59813858157397,-0.00936449744824586,-0.000745,0.002977,-0.007562,-0.004473,0.125963,322.958125,23.813727,0.999555,0.988310,0.004279,0.283048,-0.000030,-0.000055,0.000004,-0.000030,-0.000055,9.384604,0.000086,
2475,2936,4.50668897622363,6.21433701302605,-0.0229334158835854,-0.000665,0.002368,-0.007145,-0.002350,0.104012,315.385465,25.533227,0.999485,0.990624,0.003743,0.210950,-0.000042,-0.000026,-0.000021,-0.000012,-0.000057,-55.268154,0.000074,
2250,2351,-0.278426329015122,-6.55217902946526,-0.00108874791328617,-0.000452,0.002779,-0.006921,0.002856,0.114131,325.236559,24.121022,0.999202,0.986969,0.004695,0.209723,-0.000029,0.000008,-0.000001,0.000008,-0.000029,-88.388898,0.000030,
2415,2351,3.31968714099684,-6.55112731920536,-0.00249974550740717,-0.000473,0.002449,-0.006183,0.001892,0.091018,325.180324,23.545114,0.998588,0.984467,0.004892,0.175393,-0.000039,0.000001,0.000009,0.000003,-0.000041,77.832435,0.000046,
2430,2396,3.63714381349884,-5.56616184776396,-0.0103747919634429,-0.000755,0.002711,-0.006965,-0.007844,0.104116,324.381763,23.589511,0.999742,0.989582,0.004238,0.245549,-0.000035,-0.000010,0.000003,-0.000009,-0.000035,82.294111,0.000047,
2355,2306,2.01926931073048,-7.53695553758264,-0.00485923165103941,-0.000470,0.002777,-0.008617,0.009748,0.086617,325.867638,23.547528,0.999499,0.991344,0.003860,0.260959,-0.000035,0.000004,0.000006,0.000005,-0.000035,81.689078,0.000038,
2385,2546,2.62555619148051,-2.28816525754114,-0.0178684755829863,-0.000702,0.003024,-0.007741,-0.003255,0.118438,321.783842,24.197205,0.999391,0.989774,0.004260,0.237013,-0.000024,-0.000034,0.000006,-0.000022,-0.000037,24.255275,0.000059,
2430,2606,3.59338812588955,-0.976870577249322,-0.0278928161419003,-0.000629,0.002273,-0.005042,-0.009318,0.097210,320.748730,24.303282,0.999414,0.989361,0.004112,0.238395,-0.000029,-0.000026,0.000001,-0.000026,-0.000030,79.044804,0.000055,
2475,2711,4.55257951248985,1.31476441735673,-0.0312263236435228,-0.000737,0.002890,-0.009402,0.003068,0.106136,319.075963,24.609441,0.999603,0.990408,0.004086,0.292330,-0.000039,-0.000025,0.000021,-0.000010,-0.000054,54.036385,0.000069,
2445,2621,3.91803746204952,-0.649820351234773,-0.0184811866978976,-0.000668,0.002507,-0.005499,-0.009133,0.096382,320.604173,24.356564,0.999541,0.991002,0.003729,0.220782,-0.000027,-0.000020,0.000002,-0.000019,-0.000027,72.916854,0.000047,
2505,2741,5.19870355139047,1.97258043566517,-0.0408419747191715,-0.000913,0.002513,-0.005161,-0.020818,0.116113,318.551613,24.876639,0.999682,0.991352,0.003695,0.156586,-0.000040,-0.000064,0.000013,-0.000035,-0.000069,23.929981,0.000106,
2400,2576,2.94581905432883,-1.63210488801788,-0.0293346079344019,-0.000423,0.002409,-0.006687,0.005760,0.098097,321.211645,24.259326,0.999339,0.989156,0.004185,0.222700,-0.000022,-0.000026,0.000002,-0.000021,-0.000027,21.976528,0.000048,
2445,2411,3.96209463990013,-5.23809772698048,-0.00554705795894961,-0.000592,0.002839,-0.008342,0.005093,0.126261,324.212803,23.605075,0.999659,0.988219,0.004522,0.258261,-0.000023,-0.000029,0.000011,-0.000015,-0.000037,37.311685,0.000053,
2385,2801,2.57366864790552,3.27231089110485,-0.0370140909672045,-0.000751,0.002518,-0.003120,-0.022224,0.121237,317.364284,24.907248,0.999849,0.995640,0.003178,0.270604,-0.000031,-0.000037,-0.000009,-0.000025,-0.000043,-36.057428,0.000069,
2415,2576,3.27272166184848,-1.63132727377878,-0.027152730120406,-0.000552,0.002447,-0.006261,-0.001436,0.097125,321.239507,24.291472,0.999463,0.990700,0.003893,0.169245,-0.000030,-0.000023,-0.000002,-0.000022,-0.000031,-77.592719,0.000053,
2460,2936,4.18021327133733,6.21372614505762,-0.0235799883377581,-0.000674,0.002411,-0.007518,-0.001600,0.108088,315.347195,25.525006,0.999384,0.991884,0.003877,0.190129,-0.000028,-0.000026,-0.000017,-0.000011,-0.000044,-46.453822,0.000058,
2325,2261,1.37353434259488,-8.521955406719,0.00346657795552119,-0.000679,0.002695,-0.006450,-0.007944,0.110580,326.665266,23.632174,0.999178,0.984284,0.004776,0.210809,-0.000028,-0.000003,0.000009,0.000000,-0.000031,72.659396,0.000036,
2490,2771,4.86675588385561,2.62362870365617,-0.0322936201567359,-0.000600,0.002647,-0.006551,-0.001308,0.101108,318.100806,24.890520,0.999203,0.989448,0.004003,0.241135,-0.000040,-0.000082,-0.000002,-0.000040,-0.000082,-3.383771,0.000124,
2460,2651,4.23855507019876,0.00617325508422795,-0.0283843290350774,-0.000525,0.002741,-0.010235,0.015517,0.090327,320.076712,24.465379,0.999578,0.990908,0.003773,0.202009,-0.000036,0.000000,0.000016,0.000006,-0.000042,69.390650,0.000046,
2475,2951,4.50402670595964,6.53985804022383,-0.0172674132627435,-0.000598,0.002487,-0.005829,-0.004207,0.112011,315.180623,25.555193,0.999436,0.990950,0.003760,0.252808,-0.000046,-0.000021,-0.000021,-0.000009,-0.000058,-60.320643,0.000073,
2415,2831,3.22205665198386,3.92663654014167,-0.0289415611731556,-0.000339,0.002455,-0.008084,0.015060,0.113029,316.997323,25.070556,0.998927,0.987992,0.004274,0.220182,-0.000034,-0.000031,-0.000015,-0.000018,-0.000048,-48.003051,0.000067,
2475,2561,4.58463003860106,-1.95722424452526,-0.0282372063544472,0.000051,0.003071,-0.009419,0.039359,0.111104,321.632709,24.117358,0.998336,0.982417,0.005238,0.218512,-0.000043,-0.000012,0.000000,-0.000012,-0.000043,89.271429,0.000057,
2490,2966,4.82734041144154,6.86687821149341,-0.0123235593179061,-0.000910,0.002159,-0.004240,-0.024551,0.101019,314.988679,25.675836,0.999346,0.990100,0.003936,0.214276,-0.000051,-0.000016,-0.000022,-0.000005,-0.000062,-64.310976,0.000074,
2370,2561,2.29600792258011,-1.96162645204043,-0.016032175798216,-0.000530,0.002176,-0.006729,0.000412,0.084207,321.545944,24.269984,0.999362,0.989503,0.004226,0.196336,-0.000029,-0.000035,0.000000,-0.000029,-0.000035,0.172697,0.000064,
2325,2516,1.32345218246064,-2.94376241711163,-0.0241247117011767,-0.000645,0.002944,-0.006137,-0.007345,0.122346,322.217109,24.233865,0.999221,0.987092,0.004340,0.232491,-0.000029,-0.000035,0.000003,-0.000028,-0.000037,21.543764,0.000065,
2505,2756,5.19577380140015,2.29765068114888,-0.0368934624286226,-0.000988,0.002338,-0.004593,-0.026501,0.110950,318.329819,24.805521,0.999729,0.992242,0.003486,0.283677,-0.000037,-0.000083,-0.000001,-0.000037,-0.000083,-0.912053,0.000123,
2340,2306,1.69197005899967,-7.53658483527678,0.00345443281122471,-0.000900,0.002565,-0.005350,-0.021698,0.101253,325.904467,23.713996,0.998714,0.982194,0.005032,0.168884,-0.000033,0.000002,0.000004,0.000003,-0.000033,83.901452,0.000037,
2400,2351,2.99221676209732,-6.55146660951759,-0.00313740274663132,-0.000607,0.002762,-0.006739,-0.002342,0.101449,325.152981,23.559477,0.998802,0.985448,0.004734,0.225082,-0.000039,0.000003,0.000008,0.000004,-0.000040,79.467948,0.000044,
2400,2816,2.89787641702036,3.59917236832341,-0.0298201639983517,-0.000909,0.002480,-0.007217,-0.014614,0.092895,317.194311,25.008052,0.999398,0.989380,0.004308,0.199489,-0.000033,-0.000031,-0.000012,-0.000019,-0.000044,-47.285494,0.000065,
2310,2471,1.00607982928632,-3.92893508155107,-0.00725268686761638,-0.000822,0.002170,-0.004676,-0.020961,0.081370,323.099672,24.156584,0.999244,0.988224,0.004369,0.197491,-0.000031,-0.000018,0.000004,-0.000017,-0.000033,73.047293,0.000050,
2445,2876,3.86542861249218,4.90686099017221,-0.0257909806476846,-0.000567,0.002130,-0.001447,-0.019699,0.106743,316.283939,25.213098,0.999532,0.992969,0.003405,0.261534,-0.000035,-0.000040,-0.000013,-0.000024,-0.000051,-39.740257,0.000076,
2355,2111,2.05765066239646,-11.809877618683,0.00636783737468249,-0.000387,0.002848,-0.009000,0.014885,0.083466,329.183568,23.150630,0.999476,0.982619,0.004996,0.117732,-0.000010,-0.000025,0.000017,0.000001,-0.000036,32.651333,0.000041,
2430,2876,3.5395888214142,4.90634801641648,-0.0241747183899292,-0.000463,0.002478,-0.006098,0.002365,0.114678,316.294514,25.226840,0.999565,0.992105,0.003436,0.231538,-0.000034,-0.000036,-0.000013,-0.000021,-0.000048,-42.943376,0.000071,
2250,2366,-0.282367774195031,-6.22243322988037,-0.0129557536874927,-0.000762,0.002825,-0.005590,-0.015703,0.122373,324.870729,24.183686,0.999521,0.988773,0.004491,0.180724,-0.000031,0.000002,0.000002,0.000002,-0.000031,86.560416,0.000035,
2505,2996,5.14787341245447,7.52002201932599,-0.0090523332149246,-0.000846,0.002012,-0.004169,-0.021856,0.086962,314.559101,25.848190,0.999547,0.991324,0.003668,0.185729,-0.000044,-0.000014,-0.000011,-0.000010,-0.000048,-71.600214,0.000062,
2430,2411,3.6340951704781,-5.2387082471046,-0.0100713809975446,-0.000756,0.002467,-0.006307,-0.010375,0.105780,324.133536,23.587540,0.999628,0.988684,0.004346,0.300287,-0.000030,-0.000024,0.000004,-0.000022,-0.000032,62.830295,0.000054,
2235,2336,-0.602792554844488,-6.87984167668419,-0.00478357112757521,-0.000366,0.002839,-0.007244,0.007603,0.101030,325.488143,24.166470,0.999149,0.987790,0.004508,0.181493,-0.000030,0.000005,-0.000009,0.000007,-0.000032,-77.149041,0.000034,
2445,2636,3.91459109220722,-0.321309589097766,-0.0243766771031346,-0.000569,0.002862,-0.005341,-0.005002,0.119359,320.308880,24.450992,0.999571,0.991386,0.003748,0.202207,-0.000025,-0.000015,0.000003,-0.000014,-0.000026,76.019151,0.000041,
2415,2366,3.31672842662302,-6.22360096390732,0.00396003898805475,-0.000652,0.002174,-0.002393,-0.020266,0.100719,324.963917,23.586786,0.999103,0.985856,0.004626,0.192589,-0.000036,0.000001,0.000008,0.000002,-0.000038,78.227118,0.000042,
2355,2546,1.97192931200035,-2.28946385305115,-0.0178257344990129,-0.000582,0.002708,-0.007032,-0.000967,0.098581,321.774423,24.217644,0.999211,0.988535,0.004388,0.246040,-0.000029,-0.000032,0.000006,-0.000024,-0.000037,39.198364,0.000061,
2460,2501,4.27031816240395,-3.27018448896602,-0.0109182755765573,-0.000636,0.002722,-0.006232,-0.004600,0.110477,322.696041,23.887749,0.999478,0.988718,0.004142,0.248842,-0.000033,-0.000039,-0.000002,-0.000032,-0.000040,-15.691388,0.000072,
2430,2621,3.59061985758121,-0.64934366609485,-0.0290579856324484,-0.000560,0.002524,-0.008481,0.006652,0.104050,320.505497,24.359970,0.999469,0.990488,0.003908,0.239042,-0.000031,-0.000022,0.000001,-0.000022,-0.000031,85.672186,0.000053,
2385,2321,2.66928847296652,-7.2064135682655,-0.021069208043798,-0.000744,0.002381,-0.007260,-0.007192,0.085387,325.480888,23.507503,0.999655,0.993039,0.003725,0.225069,-0.000034,0.000008,0.000008,0.000010,-0.000035,79.233422,0.000036,
2475,2726,4.54963051980348,1.6427308018782,-0.0320007601370662,-0.000524,0.002855,-0.009501,0.013241,0.108904,318.829259,24.748111,0.999600,0.992303,0.003509,0.212928,-0.000037,-0.000041,0.000016,-0.000023,-0.000056,41.542205,0.000080,
2460,2951,4.17704276780843,6.53952980288678,-0.0216884627025138,-0.000822,0.002374,-0.006168,-0.013484,0.111018,315.100618,25.550940,0.999473,0.992354,0.003691,0.220780,-0.000031,-0.000022,-0.000017,-0.000008,-0.000044,-52.395016,0.000056,
2445,2426,3.95859278174481,-4.90904725560773,-0.0180531886204562,-0.000330,0.002932,-0.012154,0.031285,0.099889,323.885799,23.658998,0.999311,0.987507,0.004537,0.231763,-0.000016,-0.000041,0.000016,-0.000009,-0.000049,25.377490,0.000062,
2460,2666,4.23509994160699,0.333587032361372,-0.0314843723704143,-0.000526,0.002796,-0.008717,0.009849,0.120359,319.795249,24.487006,0.999522,0.989657,0.003922,0.265389,-0.000034,-0.000003,0.000018,0.000005,-0.000042,65.194643,0.000046,
2355,2321,2.01619984988884,-7.207130860197,-0.00971549394097337,-0.000253,0.002748,-0.008327,0.018647,0.091348,325.587393,23.675292,0.999743,0.994513,0.003505,0.178633,-0.000033,0.000015,0.000004,0.000015,-0.000034,84.726013,0.000034,
2490,2786,4.86323930132877,2.95144368096257,-0.0368265944630934,-0.000636,0.002630,-0.006902,-0.001597,0.103960,317.811888,25.004248,0.999309,0.989389,0.004053,0.188969,-0.000036,-0.000083,0.000001,-0.000036,-0.000083,1.796202,0.000122,
2475,2966,4.50094669022065,6.86685553382886,-0.0142916563455628,-0.000834,0.002674,-0.005919,-0.014682,0.111332,314.943817,25.706259,0.999502,0.992831,0.003503,0.156633,-0.000048,-0.000016,-0.000022,-0.000005,-0.000059,-63.447009,0.000071,
2340,2531,1.6482453456555,-2.61685573899283,-0.0217902710959947,-0.000406,0.002954,-0.011902,0.023857,0.094707,322.015084,24.209344,0.999126,0.987117,0.004456,0.237647,-0.000029,-0.000035,0.000006,-0.000025,-0.000039,32.058981,0.000065,
2370,2321,2.34382210068124,-7.20855808300772,0.00296383620536744,-0.000575,0.002499,-0.004422,-0.009706,0.102375,325.670074,23.599482,0.999627,0.992192,0.003762,0.207228,-0.000034,0.000010,0.000008,0.000011,-0.000036,79.698672,0.000037,
2475,2576,4.58094494752179,-1.63022234994185,-0.0203977926325933,-0.000667,0.002345,-0.003249,-0.017238,0.109745,321.392343,24.200462,0.998601,0.986997,0.004700,0.191432,-0.000044,0.000003,0.000003,0.000003,-0.000044,86.037383,0.000049,
2325,2531,1.32093212530361,-2.61706488211388,-0.0216451010375636,-0.000576,0.002685,-0.006784,-0.002025,0.114464,321.994893,24.231390,0.999345,0.987156,0.004336,0.262039,-0.000025,-0.000031,0.000001,-0.000025,-0.000031,11.180976,0.000056,
2415,2846,3.21877290990755,4.25262721329871,-0.0253495213145243,-0.000660,0.002383,-0.004829,-0.011625,0.105802,316.750781,25.107131,0.999373,0.990151,0.003846,0.223470,-0.000036,-0.000036,-0.000015,-0.000021,-0.000051,-45.213754,0.000073,
2430,2891,3.53651509165207,5.23253788811113,-0.0245948920601222,-0.000488,0.002505,-0.006131,0.001325,0.109546,316.039703,25.261996,0.999501,0.992174,0.003559,0.240400,-0.000032,-0.000034,-0.000016,-0.000017,-0.000049,-43.827523,0.000069,
2385,2561,2.62241765164417,-1.96090472701966,-0.017305029693091,-0.000758,0.002343,-0.005377,-0.014552,0.096692,321.528487,24.252794,0.999469,0.990923,0.003909,0.203779,-0.000023,-0.000036,0.000004,-0.000022,-0.000037,15.806164,0.000060,
2505,3011,5.14479114140794,7.84587401212926,-0.00779503664966796,-0.001014,0.002171,-0.005596,-0.023937,0.095631,314.316563,25.884324,0.999553,0.991336,0.003606,0.218345,-0.000042,0.000000,-0.000008,0.000001,-0.000044,-79.375270,0.000050,
2490,2981,4.82424132389906,7.19337376596863,-0.0165250415079186,-0.000755,0.002077,-0.006861,-0.007460,0.084953,314.719636,25.749349,0.999344,0.990000,0.003836,0.182844,-0.000050,-0.000014,-0.000018,-0.000007,-0.000057,-67.973978,0.000070,
2325,2276,1.3703914094787,-8.192174811229,-0.0102783363487902,-0.000128,0.002769,-0.008669,0.024974,0.092735,326.335692,23.669019,0.999202,0.985062,0.004741,0.192954,-0.000031,-0.000005,0.000004,-0.000005,-0.000032,82.347878,0.000040,
2460,2516,4.26710173545625,-2.94264745307034,-0.0113021887067362,-0.000733,0.002588,-0.006094,-0.009620,0.098556,322.438926,23.935910,0.999321,0.986994,0.004242,0.244125,-0.000040,-0.000035,-0.000003,-0.000034,-0.000041,-64.339794,0.000075,
2415,2591,3.26886640132851,-1.30360636243017,-0.0333784859251978,-0.000847,0.002695,-0.005379,-0.018069,0.119518,320.921444,24.295792,0.999598,0.992146,0.003651,0.236085,-0.000032,-0.000030,0.000000,-0.000030,-0.000032,-71.638740,0.000062,
2400,2831,2.89511805526523,3.92570169484588,-0.0337751553688577,-0.000493,0.002483,-0.008539,0.009358,0.104477,316.935135,25.012525,0.999364,0.989653,0.004057,0.251991,-0.000035,-0.000031,-0.000015,-0.000018,-0.000048,-48.355697,0.000068,
2340,2321,1.68871938714719,-7.20713078249859,-0.00683950190614269,-0.000702,0.003028,-0.007818,-0.003880,0.109122,325.588176,23.749035,0.999241,0.987825,0.004418,0.180674,-0.000031,0.000018,0.000005,0.000019,-0.000032,84.320366,0.000032,
2355,2561,1.9689358019818,-1.96178431460639,-0.019075261712203,-0.000523,0.002234,-0.006135,-0.001575,0.077457,321.514511,24.294305,0.999366,0.990029,0.004156,0.187842,-0.000027,-0.000035,0.000003,-0.000026,-0.000036,20.196885,0.000062,
2400,2366,2.98929326426149,-6.2238610641139,-0.00345696567308096,-0.000495,0.002283,-0.006170,0.000522,0.075896,324.905372,23.576344,0.998889,0.986144,0.004570,0.229905,-0.000036,0.000001,0.000007,0.000003,-0.000037,79.771895,0.000041,
2475,2741,4.54622064744143,1.96962825423267,-0.0384451380564883,-0.000514,0.003021,-0.012064,0.023472,0.110169,318.535716,24.748559,0.999693,0.993521,0.003350,0.270575,-0.000038,-0.000051,0.000012,-0.000030,-0.000059,30.139301,0.000091,
2490,2801,4.86040092070049,3.27715800656888,-0.0325104246819592,-0.000574,0.002230,-0.005218,-0.005412,0.084257,317.594573,25.022158,0.999357,0.989445,0.004118,0.209816,-0.000032,-0.000079,-0.000003,-0.000032,-0.000079,-3.538866,0.000114,
2430,2636,3.5873548048446,-0.321854705734935,-0.0297070833379962,-0.000599,0.002619,-0.006588,-0.002066,0.117569,320.241743,24.415999,0.999538,0.991381,0.003860,0.246808,-0.000030,-0.000019,0.000003,-0.000019,-0.000030,77.034427,0.000049,
2310,2486,1.00363411616017,-3.60177855852783,-0.00634855835119197,-0.000529,0.002527,-0.004498,-0.007987,0.091368,322.871964,24.147911,0.999329,0.988255,0.004280,0.249340,-0.000033,-0.000017,0.000003,-0.000017,-0.000033,79.378128,0.000051,
2385,2336,2.66739334585943,-6.87852859108877,-0.00743975408050801,-0.000743,0.002936,-0.006881,-0.008282,0.110386,325.345169,23.630074,0.999163,0.987454,0.004484,0.172175,-0.000034,0.000001,0.000005,0.000001,-0.000034,82.187188,0.000039,
2475,2981,4.49772797130889,7.19278783705062,-0.0200563973660906,-0.000530,0.002195,-0.006524,0.001412,0.092801,314.661025,25.719350,0.999475,0.992036,0.003603,0.180842,-0.000048,-0.000014,-0.000018,-0.000007,-0.000056,-66.773321,0.000069,
2475,2591,4.57749863393728,-1.30299317255925,-0.024200655951347,-0.000902,0.002311,-0.005727,-0.018624,0.113534,321.109943,24.199764,0.998746,0.987766,0.004340,0.253193,-0.000044,-0.000006,0.000008,-0.000005,-0.000046,78.410986,0.000056,
2415,2381,3.31394988009281,-5.89472898930608,0.00224868526731825,-0.000599,0.002698,-0.006163,-0.003851,0.104898,324.717349,23.680970,0.999677,0.989328,0.004142,0.151769,-0.000040,-0.000007,0.000006,-0.000006,-0.000041,80.141092,0.000050,
2445,2651,3.91131660907535,0.00596567066428833,-0.0283402241029762,-0.000747,0.002912,-0.008704,-0.000677,0.098800,320.030687,24.497641,0.999628,0.991734,0.003708,0.187789,-0.000029,-0.000005,0.000008,-0.000003,-0.000031,72.394694,0.000038,
2445,2441,3.95590730295126,-4.58267576248404,-0.00650182018466694,-0.000478,0.002473,-0.006814,0.004467,0.096249,323.707337,23.681404,0.998737,0.986371,0.004689,0.258975,-0.000013,-0.000044,0.000009,-0.000010,-0.000046,15.212015,0.000060,
2340,2546,1.6449951772903,-2.29005348766277,-0.0182632810852397,-0.000652,0.002338,-0.006410,-0.006748,0.081346,321.765529,24.236303,0.999102,0.987169,0.004461,0.234828,-0.000028,-0.000035,0.000008,-0.000023,-0.000040,32.195110,0.000064,
2460,2681,4.23149592798145,0.661604862065559,-0.0370846484076992,-0.000744,0.002903,-0.010579,0.006872,0.115766,319.495364,24.582795,0.999526,0.990057,0.003952,0.219760,-0.000034,-0.000009,0.000020,0.000002,-0.000045,61.058911,0.000051,
2400,2591,2.94300449770794,-1.30537311796085,-0.0245605515058287,-0.000617,0.002504,-0.006226,-0.004755,0.107143,320.992092,24.283490,0.999421,0.990322,0.004008,0.253774,-0.000023,-0.000034,0.000002,-0.000023,-0.000034,11.948540,0.000057,
2505,2771,5.19284955188128,2.62486214794108,-0.0382138794585103,-0.000775,0.002319,-0.006113,-0.010891,0.099731,318.084141,24.899069,0.999677,0.991943,0.003562,0.239769,-0.000036,-0.000092,-0.000004,-0.000035,-0.000093,-4.095456,0.000132,
2415,2861,3.2162163720804,4.57872075612293,-0.0202105929420782,-0.000616,0.002478,-0.004578,-0.010450,0.119896,316.544825,25.147435,0.999545,0.991398,0.003600,0.244598,-0.000034,-0.000036,-0.000015,-0.000020,-0.000050,-42.760784,0.000073,
2445,2891,3.86214512327079,5.23432745654323,-0.036699822733226,-0.000319,0.002452,-0.006417,0.010340,0.103720,315.971794,25.285665,0.999324,0.992204,0.003751,0.237710,-0.000034,-0.000039,-0.000017,-0.000019,-0.000054,-40.719548,0.000076,
2370,2576,2.29257947782891,-1.63460181705396,-0.0175896715102226,-0.000762,0.002188,-0.004568,-0.017903,0.089248,321.265837,24.262791,0.999423,0.989012,0.004280,0.250637,-0.000031,-0.000029,-0.000002,-0.000027,-0.000032,-54.970692,0.000059,
2430,2426,3.63133609643766,-4.908455990538,-0.0171301846753522,-0.000332,0.002992,-0.011544,0.028540,0.099657,323.863950,23.783773,0.999449,0.988174,0.004447,0.149503,-0.000023,-0.000037,0.000008,-0.000019,-0.000041,23.221486,0.000062,
2355,2336,2.01331941189916,-6.87873686504675,-0.0125527626705662,-0.000058,0.002696,-0.008617,0.028620,0.091091,325.325707,23.703325,0.999513,0.989899,0.004175,0.191035,-0.000033,0.000004,0.000000,0.000004,-0.000033,89.677101,0.000036,
2490,2996,4.82222345968538,7.51869266979362,-0.00861256880273231,-0.000465,0.002323,-0.008572,0.012494,0.077575,314.555411,25.794894,0.999551,0.991398,0.003600,0.187735,-0.000046,-0.000015,-0.000014,-0.000010,-0.000051,-68.581231,0.000066,
2370,2336,2.34058699604419,-6.87944216467186,-0.00190111312531371,-0.000706,0.002756,-0.006820,-0.007127,0.108184,325.383681,23.666479,0.999268,0.985597,0.004738,0.189145,-0.000035,0.000001,0.000005,0.000001,-0.000035,82.739667,0.000040,
2415,2606,3.26628400218902,-0.976503061315483,-0.0319986847161431,-0.000362,0.002282,-0.003090,-0.004364,0.100965,320.697646,24.356673,0.999449,0.990541,0.003912,0.204553,-0.000030,-0.000026,0.000003,-0.000025,-0.000031,60.737671,0.000056,
2505,3026,5.14205478931693,8.17156618084362,-0.00561724334710334,-0.000995,0.002329,-0.007987,-0.013748,0.101850,314.094059,25.918426,0.999687,0.993974,0.003236,0.250660,-0.000045,0.000000,-0.000008,0.000002,-0.000046,-80.701128,0.000052,
2460,2531,4.26395508243002,-2.61426577839912,-0.0127860176217496,-0.000647,0.002598,-0.005747,-0.006981,0.100980,322.179707,24.042104,0.999498,0.989899,0.003909,0.195688,-0.000043,-0.000018,0.000004,-0.000018,-0.000043,81.727274,0.000063,
2475,2756,4.54358002016096,2.29452949899107,-0.027699079382046,-0.000818,0.003008,-0.010357,0.003044,0.103745,318.356127,24.717705,0.999466,0.991053,0.003858,0.351453,-0.000034,-0.000070,0.000005,-0.000034,-0.000070,7.736983,0.000106,
2490,2816,4.85702947079072,3.60399791203107,-0.035197800826495,-0.000597,0.002170,-0.005235,-0.006426,0.085901,317.320709,25.071516,0.999342,0.990018,0.004124,0.220775,-0.000033,-0.000068,-0.000007,-0.000032,-0.000069,-10.384214,0.000104,
2355,2576,1.96624197246515,-1.63443554345326,-0.0178966793383779,-0.000448,0.002615,-0.006423,0.003048,0.102695,321.279923,24.320996,0.999288,0.988503,0.004288,0.225962,-0.000029,-0.000029,0.000001,-0.000028,-0.000030,51.219800,0.000058,
2325,2291,1.36811324104192,-7.86483172002654,-0.0061460795233188,0.000064,0.002938,-0.009099,0.035293,0.105824,326.133140,23.642395,0.999237,0.985029,0.004770,0.268950,-0.000029,0.000008,0.000004,0.000009,-0.000029,83.320515,0.000030,
2400,2381,2.98581994860178,-5.89396128560643,-0.0128415200833842,-0.000431,0.002722,-0.008446,0.011843,0.092338,324.589256,23.677369,0.999305,0.986711,0.004532,0.192630,-0.000039,-0.000006,0.000005,-0.000005,-0.000040,82.063060,0.000050,
2460,2696,4.22928908981665,0.987223306584646,-0.0245246681770368,-0.000696,0.002736,-0.007893,-0.001094,0.111338,319.343344,24.615308,0.999619,0.990030,0.004109,0.237287,-0.000034,-0.000016,0.000020,-0.000003,-0.000047,57.136235,0.000056,
2385,2576,2.61949842258476,-1.63376703382852,-0.0148969377723347,-0.000781,0.002266,-0.003495,-0.022353,0.109792,321.291816,24.283513,0.999394,0.989657,0.004155,0.230147,-0.000025,-0.000029,0.000002,-0.000024,-0.000030,25.304668,0.000054,
2430,2651,3.58455717725917,0.00428191858416938,-0.0249767369717233,-0.001038,0.002783,-0.009976,-0.009661,0.111079,320.024750,24.418787,0.999529,0.990737,0.003974,0.288082,-0.000032,-0.000009,0.000007,-0.000007,-0.000034,73.757664,0.000044,
2505,2786,5.18996065570288,2.95232491067971,-0.0410594865714415,-0.000517,0.002542,-0.009041,0.012288,0.080352,317.833124,25.016504,0.999538,0.991687,0.003760,0.163728,-0.000033,-0.000096,-0.000001,-0.000033,-0.000096,-0.790106,0.000134,
2445,2666,3.90858856342011,0.332756103487029,-0.0284164050841582,-0.000397,0.002917,-0.008363,0.014157,0.107707,319.795493,24.508598,0.999480,0.990161,0.003972,0.238043,-0.000028,-0.000007,0.000010,-0.000003,-0.000032,68.732390,0.000039,
2445,2456,3.95246851569386,-4.2541067730291,-0.00924314883428679,-0.000673,0.002642,-0.007226,-0.002882,0.107325,323.427972,23.758345,0.999263,0.987797,0.004456,0.246766,-0.000014,-0.000048,0.000001,-0.000014,-0.000048,0.946998,0.000066,
2400,2606,2.94049224377233,-0.978591606377385,-0.02052421006033,-0.000336,0.002170,-0.004368,0.001262,0.091786,320.782954,24.334185,0.999402,0.990449,0.003951,0.233391,-0.000023,-0.000027,0.000005,-0.000019,-0.000030,33.411176,0.000050,
2445,2906,3.85979806100616,5.56005909394708,-0.0296289258014895,-0.000384,0.002598,-0.008664,0.015824,0.110201,315.786243,25.327758,0.999361,0.992092,0.003723,0.253536,-0.000031,-0.000043,-0.000020,-0.000016,-0.000058,-36.381869,0.000078,
2415,2396,3.31006866936363,-5.56651443501762,-0.0069359749647333,-0.000882,0.002814,-0.007765,-0.010963,0.098185,324.385315,23.658438,0.999645,0.988814,0.004228,0.217341,-0.000036,-0.000006,0.000005,-0.000005,-0.000037,80.286040,0.000046,
2385,2351,2.66516363802285,-6.55174515337117,-0.00351215814936268,-0.000434,0.002871,-0.007911,0.009556,0.103656,325.148358,23.590125,0.998800,0.985184,0.004896,0.250260,-0.000033,0.000008,0.000007,0.000009,-0.000034,80.962922,0.000035,
2370,2591,2.28949924672271,-1.30609018172003,-0.0245303932555316,-0.000646,0.002739,-0.007879,-0.000609,0.100493,320.975561,24.343093,0.999290,0.988581,0.004312,0.223272,-0.000031,-0.000035,-0.000002,-0.000030,-0.000036,-25.245362,0.000066,
2340,2561,1.64208906184609,-1.96233633666652,-0.018096924783265,-0.000614,0.002121,-0.005124,-0.009515,0.085290,321.515152,24.303934,0.999220,0.987896,0.004311,0.208541,-0.000025,-0.000040,0.000006,-0.000022,-0.000043,19.594128,0.000066,
2460,2546,4.25996580253519,-2.28523897092905,-0.0227628428768298,-0.000717,0.002729,-0.005561,-0.010807,0.120127,321.842651,24.118992,0.999727,0.993488,0.003378,0.193627,-0.000037,-0.000021,0.000008,-0.000018,-0.000040,68.864444,0.000060,
2490,3011,4.81835749991842,7.84544344519032,-0.013665180323585,-0.000733,0.002433,-0.007933,-0.002182,0.097164,314.246890,25.859346,0.999680,0.992952,0.003369,0.200866,-0.000042,-0.000007,-0.000012,-0.000003,-0.000046,-72.621602,0.000055,
2415,2621,3.26362934527663,-0.649813548502316,-0.0298962856109029,-0.000430,0.002527,-0.006023,0.003317,0.106443,320.473860,24.366475,0.999382,0.990208,0.003933,0.248679,-0.000031,-0.000024,0.000002,-0.000023,-0.000031,76.146486,0.000054,
2505,3041,5.13946433739819,8.49834100141206,-0.00514812246240126,-0.000511,0.002489,-0.008358,0.009982,0.098281,313.870224,26.054413,0.999754,0.993795,0.003444,0.171115,-0.000041,-0.000005,-0.000009,-0.000003,-0.000043,-77.244886,0.000051,
2355,2351,2.01008176138296,-6.55311366210881,-0.00635159395079654,-0.000568,0.002276,-0.004180,-0.010466,0.100672,325.091485,23.563812,0.999511,0.989929,0.004267,0.380772,-0.000033,0.000014,0.000003,0.000015,-0.000033,86.966633,0.000033,
2355,2591,1.96317372244652,-1.30666373657096,-0.023522201675064,-0.000393,0.002699,-0.008962,0.014473,0.080816,320.995346,24.377998,0.999198,0.987222,0.004488,0.186695,-0.000029,-0.000035,0.000002,-0.000029,-0.000036,15.452627,0.000065,
2475,2771,4.54024396086312,2.62325066720975,-0.032336145701322,-0.000491,0.002734,-0.008357,0.010328,0.098455,318.073626,24.916651,0.999071,0.989067,0.004102,0.203680,-0.000036,-0.000073,0.000000,-0.000036,-0.000073,0.479665,0.000112,
2430,2441,3.62799394416902,-4.58173452641675,-0.0146175133340876,-0.000331,0.002362,-0.004985,0.004172,0.099291,323.612476,23.748488,0.999278,0.987693,0.004489,0.235671,-0.000019,-0.000039,0.000002,-0.000019,-0.000039,5.974599,0.000059,
2460,2711,4.22549926575757,1.31426126318563,-0.0284269920775841,-0.000707,0.002167,-0.003247,-0.019322,0.097293,319.042757,24.654307,0.999658,0.991717,0.003743,0.238696,-0.000041,-0.000024,0.000017,-0.000013,-0.000051,58.223135,0.000068,
2490,2831,4.85405084970332,3.93086215199657,-0.0351083608031786,-0.000553,0.002462,-0.006338,-0.000016,0.100979,317.077345,25.135996,0.999365,0.991070,0.003864,0.230052,-0.000044,-0.000058,-0.000009,-0.000040,-0.000063,-26.499708,0.000103,
2370,2351,2.33786241837209,-6.55232918878913,0.00156834716335652,-0.000763,0.002540,-0.006374,-0.011380,0.110195,325.160777,23.642908,0.999152,0.986309,0.004679,0.257416,-0.000034,0.000008,0.000007,0.000009,-0.000035,81.057148,0.000037,
2430,2666,3.58064408574339,0.333989833184155,-0.0393650096710871,-0.000743,0.002650,-0.009835,0.003253,0.090504,319.666794,24.605093,0.999471,0.990132,0.004202,0.131603,-0.000031,-0.000010,0.000008,-0.000007,-0.000034,70.789689,0.000043,
2505,2801,5.186913505473,3.27836377388273,-0.0342717877755945,-0.000657,0.002347,-0.005095,-0.009405,0.104368,317.618115,25.040518,0.999197,0.989176,0.004386,0.224692,-0.000029,-0.000090,-0.000005,-0.000028,-0.000090,-4.546581,0.000124,
2445,2471,3.94967602745425,-3.9268401775416,-0.00056181890715834,-0.000958,0.002570,-0.005176,-0.023577,0.109442,323.231079,23.837773,0.999503,0.989512,0.004167,0.222480,-0.000023,-0.000054,-0.000001,-0.000023,-0.000054,-2.397043,0.000079,
2400,2396,2.98289381677373,-5.56607714966618,-0.00882328147491762,-0.000588,0.002731,-0.006900,-0.000901,0.106113,324.361609,23.733777,0.999499,0.987584,0.004354,0.196941,-0.000036,-0.000006,0.000004,-0.000005,-0.000037,82.424431,0.000045,
2445,2681,3.90453878774786,0.660669735196734,-0.0350488078277067,-0.000749,0.002553,-0.007091,-0.006919,0.093428,319.469011,24.595486,0.999300,0.989123,0.004057,0.189392,-0.000031,-0.000010,0.000011,-0.000006,-0.000035,66.706015,0.000044,
2385,2591,2.61685340664091,-1.30695445932293,-0.014107127340651,-0.000752,0.002619,-0.006017,-0.011872,0.110558,321.060101,24.286829,0.999345,0.989539,0.004246,0.271480,-0.000026,-0.000035,0.000002,-0.000026,-0.000036,13.365479,0.000062,
2460,2561,4.25669149618953,-1.95795228236338,-0.0314794918356256,-0.000327,0.002502,-0.007097,0.012734,0.093835,321.544578,24.099176,0.999322,0.989956,0.004096,0.242403,-0.000037,-0.000019,0.000000,-0.000019,-0.000037,89.025926,0.000057,
2445,2921,3.85704842517379,5.88608446992912,-0.022290057684927,-0.000328,0.001858,-0.004299,0.001751,0.080406,315.583309,25.438529,0.999600,0.994375,0.003390,0.164252,-0.000031,-0.000041,-0.000020,-0.000015,-0.000057,-38.650949,0.000076,
2415,2411,3.30687601999332,-5.2379028941904,-0.0047108343965192,-0.001058,0.002308,-0.005375,-0.027963,0.089226,324.138080,23.791387,0.999662,0.988760,0.004177,0.124443,-0.000030,-0.000019,0.000006,-0.000017,-0.000033,65.347192,0.000051,
2415,2636,3.26072482848688,-0.321929472262134,-0.0277370590752639,-0.000543,0.002813,-0.006421,-0.000274,0.114446,320.238536,24.488414,0.999429,0.989874,0.004012,0.182823,-0.000030,-0.000022,0.000003,-0.000021,-0.000031,70.499729,0.000052,
2400,2621,2.9375314764842,-0.650726807256973,-0.0239326047894224,-0.000299,0.002739,-0.007375,0.014089,0.110253,320.517704,24.389878,0.999344,0.989707,0.004002,0.242335,-0.000023,-0.000024,0.000004,-0.000019,-0.000028,41.563469,0.000048,
2385,2366,2.66181984947894,-6.22260278558838,-0.00919941016678649,-0.000304,0.002595,-0.006859,0.011637,0.103343,324.854396,23.669193,0.998968,0.984910,0.004836,0.216058,-0.000030,0.000006,0.000006,0.000007,-0.000031,80.859594,0.000033,
2370,2606,2.28653216058892,-0.97859277658398,-0.026572993647676,-0.000484,0.002513,-0.007148,0.004175,0.103544,320.714094,24.387370,0.999193,0.988553,0.004233,0.223851,-0.000032,-0.000025,-0.000001,-0.000025,-0.000032,-82.811533,0.000057,
2475,2786,4.53677961544829,2.95051561512719,-0.0349865490460388,-0.000596,0.002831,-0.007886,0.003756,0.103723,317.794471,24.992208,0.999255,0.988034,0.004182,0.189893,-0.000033,-0.000075,0.000002,-0.000033,-0.000075,2.601100,0.000111,
2460,2726,4.22240653546823,1.64173870861312,-0.0242853723495955,-0.000766,0.002160,0.000380,-0.035627,0.111488,318.810832,24.776781,0.999686,0.993501,0.003278,0.184858,-0.000040,-0.000039,0.000013,-0.000027,-0.000053,46.406712,0.000081,
2490,2846,4.85104811916127,4.25753923864809,-0.0289391515813691,-0.000770,0.002276,-0.004225,-0.018169,0.099471,316.860318,25.250976,0.999547,0.993024,0.003494,0.171960,-0.000050,-0.000063,-0.000011,-0.000044,-0.000069,-29.514986,0.000114,
2505,2816,5.18411553341073,3.60508869121847,-0.0311894613931258,-0.000700,0.002438,-0.006690,-0.005183,0.105830,317.397786,25.124742,0.999317,0.990420,0.004005,0.202732,-0.000031,-0.000077,-0.000010,-0.000029,-0.000079,-11.600046,0.000112,
2430,2456,3.62446948444974,-4.25396310216226,-0.0142753583052126,-0.000777,0.002216,-0.003939,-0.020144,0.108543,323.342280,23.783878,0.999393,0.987742,0.004516,0.260732,-0.000020,-0.000041,-0.000006,-0.000018,-0.000043,-13.696784,0.000063,
2430,2681,3.57809697164545,0.660159865070071,-0.0383360615197716,-0.000373,0.002909,-0.009983,0.020929,0.111317,319.443877,24.561811,0.999481,0.990201,0.004020,0.245840,-0.000033,-0.000011,0.000009,-0.000008,-0.000037,69.682360,0.000048,
2370,2366,2.33435168934099,-6.22392138151555,-0.00659671924620397,-0.000706,0.001940,-0.006096,-0.009980,0.088052,324.846074,23.651517,0.999027,0.984525,0.004816,0.269529,-0.000033,0.000006,0.000006,0.000007,-0.000034,81.459037,0.000036,
2445,2486,3.94678376509497,-3.59919884187403,-0.00158823842809852,-0.001037,0.002915,-0.009068,-0.012593,0.107878,322.984763,23.868236,0.999434,0.988147,0.004288,0.243759,-0.000026,-0.000049,0.000003,-0.000025,-0.000049,7.546078,0.000076,
2445,2696,3.90148045296049,0.987799097643197,-0.0414369336199343,-0.000183,0.002366,-0.006390,0.016378,0.086943,319.189301,24.610036,0.999601,0.991230,0.003790,0.220900,-0.000031,-0.000017,0.000011,-0.000011,-0.000037,61.681160,0.000050,
2400,2411,2.9796579010465,-5.23899692282076,-0.00727699048678687,-0.000892,0.002232,-0.005743,-0.019225,0.089170,324.108296,23.727877,0.999556,0.987993,0.004282,0.232689,-0.000030,-0.000019,0.000004,-0.000017,-0.000032,72.272079,0.000050,
2385,2606,2.61375458468276,-0.979176988643225,-0.0182635345237259,-0.000603,0.002548,-0.006277,-0.004151,0.111067,320.783778,24.340225,0.999304,0.989626,0.004106,0.262505,-0.000028,-0.000026,0.000004,-0.000022,-0.000031,51.426120,0.000054,
2415,2426,3.30381890998297,-4.90870094841851,-0.0168105235281928,-0.000475,0.003051,-0.009399,0.013769,0.111505,323.829803,23.814041,0.999553,0.988533,0.004275,0.173738,-0.000023,-0.000034,0.000010,-0.000017,-0.000040,30.308365,0.000058,
2415,2651,3.25805314644095,0.00426947999307714,-0.0258333752056501,-0.000474,0.002598,-0.007622,0.007205,0.108496,320.013046,24.471809,0.999480,0.989700,0.004126,0.241416,-0.000031,-0.000011,0.000006,-0.000009,-0.000033,74.330101,0.000044,
2475,2801,4.53389810856696,3.27685311954039,-0.0322706561809127,-0.000536,0.002701,-0.007038,0.003267,0.110271,317.566680,25.028314,0.999379,0.987497,0.004276,0.216851,-0.000030,-0.000071,-0.000003,-0.000030,-0.000071,-4.455227,0.000104,
2505,2831,5.1809843216487,3.93136943508958,-0.027997673423954,-0.000855,0.002414,-0.005520,-0.016801,0.113768,317.162609,25.166589,0.999576,0.992129,0.003624,0.229731,-0.000048,-0.000064,-0.000014,-0.000040,-0.000073,-29.920677,0.000114,
2490,2861,4.84851662374983,4.58306939706251,-0.0281636433359722,-0.000401,0.002592,-0.006001,0.005758,0.115274,316.640800,25.205560,0.999556,0.992979,0.003471,0.291720,-0.000049,-0.000063,-0.000013,-0.000041,-0.000070,-30.945749,0.000113,
2460,2741,4.21886690145439,1.96870101963855,-0.0352569699971923,-0.000713,0.002276,-0.004250,-0.015749,0.106237,318.489178,24.752073,0.999643,0.992468,0.003503,0.259009,-0.000041,-0.000046,0.000012,-0.000032,-0.000056,38.197157,0.000088,
2385,2381,2.65895416732406,-5.89395156410992,-0.0098534576557654,-0.000504,0.003300,-0.010973,0.017478,0.109870,324.606215,23.751835,0.999155,0.983787,0.005063,0.184679,-0.000034,-0.000002,0.000003,-0.000002,-0.000035,84.298941,0.000041,
2400,2636,2.93417637056863,-0.322902153585147,-0.0267048270742407,-0.000569,0.003071,-0.008663,0.006497,0.119810,320.237297,24.461626,0.999315,0.988206,0.004130,0.226383,-0.000023,-0.000023,0.000006,-0.000017,-0.000029,45.915155,0.000046,
2370,2621,2.2825764948192,-0.651065634831156,-0.0326809383025193,-0.000893,0.002575,-0.005075,-0.021939,0.114280,320.387663,24.396511,0.999188,0.989747,0.004072,0.267319,-0.000032,-0.000026,-0.000001,-0.000026,-0.000032,-77.192296,0.000058,
2430,2471,3.62212490289235,-3.92657862221954,-0.00890446405321654,-0.000777,0.002724,-0.006914,-0.009030,0.114260,323.149615,23.839445,0.999336,0.987497,0.004462,0.261774,-0.000026,-0.000048,-0.000007,-0.000024,-0.000050,-16.755094,0.000076,
2430,2696,3.57519215076801,0.987251238490366,-0.0297030405349119,-0.000697,0.002275,-0.006857,-0.005675,0.105664,319.239679,24.697872,0.999759,0.992839,0.003494,0.154169,-0.000033,-0.000017,0.000009,-0.000012,-0.000037,65.512257,0.000051,
2445,2501,3.94328668808615,-3.26981434895474,-0.00991190572585765,-0.000644,0.002923,-0.007198,-0.001525,0.120634,322.676611,23.981689,0.999489,0.990112,0.003986,0.196392,-0.000025,-0.000036,-0.000001,-0.000025,-0.000036,-6.890339,0.000062,
2445,2711,3.89814942696544,1.31495429975352,-0.0455376072629861,-0.000289,0.002564,-0.008290,0.018671,0.090263,318.907491,24.641767,0.999725,0.992930,0.003501,0.245051,-0.000035,-0.000025,0.000009,-0.000020,-0.000041,59.562678,0.000062,
2400,2426,2.97696500556757,-4.91043076579006,-0.011881293745887,-0.000453,0.002798,-0.008249,0.010171,0.105403,323.850498,23.770434,0.999568,0.988713,0.004170,0.253538,-0.000023,-0.000034,0.000007,-0.000020,-0.000037,25.819422,0.000058,
2505,2846,5.17755862834293,4.25847326922114,-0.0274210214699337,-0.001023,0.002216,-0.003697,-0.031605,0.114056,316.901884,25.275828,0.999680,0.993247,0.003363,0.181183,-0.000056,-0.000070,-0.000013,-0.000048,-0.000078,-30.733257,0.000127,
2385,2621,2.61026083636026,-0.650980077798877,-0.0283809176036129,-0.000483,0.002793,-0.007810,0.006982,0.115417,320.460810,24.381747,0.999276,0.989964,0.003993,0.269386,-0.000029,-0.000023,0.000003,-0.000022,-0.000030,63.938711,0.000052,
2415,2666,3.25498859119475,0.332158686409734,-0.0286245514669758,-0.000260,0.002651,-0.006892,0.014381,0.107826,319.747062,24.569680,0.999442,0.989621,0.004189,0.190966,-0.000029,-0.000011,0.000007,-0.000008,-0.000031,71.859112,0.000042,
2415,2441,3.30082830121124,-4.58205282538501,-0.0122978488681156,-0.000466,0.002347,-0.004761,-0.003010,0.104236,323.602706,23.797810,0.999534,0.988485,0.004304,0.231449,-0.000019,-0.000035,0.000005,-0.000017,-0.000037,15.912993,0.000055,
2370,2381,2.33159295174321,-5.8949425340894,-0.00973963669940758,-0.000637,0.002700,-0.010305,0.008369,0.085147,324.589611,23.748691,0.999329,0.986247,0.004616,0.212142,-0.000037,-0.000002,0.000003,-0.000002,-0.000037,85.114566,0.000044,
2475,2816,4.53096918117062,3.60259438174178,-0.0274218853748494,-0.000816,0.002502,-0.007540,-0.007743,0.097501,317.346514,25.049683,0.999392,0.989457,0.004115,0.238983,-0.000030,-0.000059,-0.000007,-0.000029,-0.000061,-12.636998,0.000092,
2460,2756,4.21573611120545,2.29616467748399,-0.0356861426506043,-0.000884,0.002704,-0.006069,-0.016553,0.133626,318.234361,24.832244,0.999553,0.990758,0.003824,0.260706,-0.000038,-0.000062,0.000007,-0.000036,-0.000064,16.020905,0.000101,
2400,2651,2.93089764347236,0.00367436339755756,-0.0263328400560567,-0.000728,0.002544,-0.006343,-0.009402,0.107607,319.975492,24.472649,0.999389,0.988986,0.004152,0.249031,-0.000025,-0.000011,0.000008,-0.000007,-0.000029,65.391675,0.000038,
2385,2396,2.65669760908225,-5.56676046582775,-0.00409154140385226,-0.000418,0.003419,-0.012735,0.027764,0.101813,324.416650,23.783131,0.999451,0.987452,0.004464,0.190011,-0.000033,-0.000004,0.000002,-0.000004,-0.000033,86.207805,0.000041,
2430,2711,3.57290588024771,1.3121754624231,-0.0222180904750644,-0.000522,0.002448,-0.006138,-0.000294,0.098925,319.059008,24.629723,0.999715,0.992846,0.003487,0.265406,-0.000037,-0.000025,0.000008,-0.000021,-0.000041,62.035830,0.000063,
2445,2516,3.93937504024906,-2.94249196017631,-0.0160954683037176,-0.000893,0.002440,-0.005835,-0.018208,0.102626,322.359645,23.962749,0.999308,0.988444,0.004212,0.250802,-0.000029,-0.000036,-0.000001,-0.000029,-0.000036,-7.340847,0.000065,
2430,2486,3.61897418068606,-3.59803464805097,-0.012841862096991,-0.000678,0.002883,-0.008069,-0.000147,0.114957,322.876470,23.923650,0.999189,0.984652,0.004719,0.229397,-0.000030,-0.000043,-0.000004,-0.000028,-0.000045,-16.423681,0.000074,
2505,2861,5.17423979741836,4.585005707066,-0.0350063662635307,-0.000738,0.002443,-0.005873,-0.010066,0.110806,316.609546,25.278283,0.999716,0.993883,0.003243,0.236422,-0.000057,-0.000070,-0.000014,-0.000049,-0.000079,-32.161715,0.000129,
2445,2726,3.89506230019483,1.64111816269459,-0.0375074905769566,-0.000721,0.002320,-0.005034,-0.013368,0.099344,318.693033,24.681712,0.999700,0.993047,0.003405,0.266176,-0.000035,-0.000039,0.000007,-0.000030,-0.000044,36.708594,0.000075,
2415,2681,3.25175331753504,0.658623262160376,-0.0257817556902751,-0.000577,0.002516,-0.004953,-0.007310,0.110744,319.499851,24.585842,0.999393,0.988712,0.004328,0.225875,-0.000032,-0.000011,0.000007,-0.000009,-0.000034,73.023891,0.000045,
2400,2441,2.97434141176292,-4.58305058467762,-0.00567595553059164,-0.000414,0.002542,-0.005870,0.003260,0.106787,323.646987,23.828196,0.999495,0.988726,0.004323,0.243737,-0.000021,-0.000034,0.000003,-0.000020,-0.000035,14.373127,0.000056,
2475,2831,4.52817731613035,3.92930481481764,-0.0267607027036547,-0.000774,0.002740,-0.010052,0.003827,0.109583,317.113245,25.106707,0.999460,0.991282,0.003655,0.250396,-0.000037,-0.000050,-0.000009,-0.000032,-0.000054,-26.355071,0.000088,
2385,2636,2.60778101778367,-0.324332094221035,-0.022894347874626,-0.000526,0.002793,-0.008705,0.008194,0.102769,320.258887,24.439098,0.999281,0.989223,0.004080,0.243019,-0.000028,-0.000020,0.000005,-0.000018,-0.000030,63.924209,0.000049,
2415,2456,3.29703289909488,-4.25360049238171,-0.0149568011673864,-0.000915,0.002474,-0.003038,-0.029816,0.119364,323.304675,23.860969,0.999422,0.988138,0.004435,0.232523,-0.000019,-0.000035,-0.000002,-0.000019,-0.000036,-7.422002,0.000055,
2400,2666,2.92751265368926,0.331876221428928,-0.0335208879778861,-0.000682,0.002838,-0.007708,-0.002212,0.119995,319.672632,24.548671,0.999426,0.989939,0.004101,0.231365,-0.000024,-0.000011,0.000009,-0.000006,-0.000028,63.525046,0.000036,
2460,2771,4.21265557858857,2.6228682903964,-0.0405038944226703,-0.000530,0.002476,-0.006470,0.001090,0.103403,317.961961,24.869537,0.999372,0.989951,0.003972,0.247604,-0.000036,-0.000063,0.000003,-0.000035,-0.000063,6.939780,0.000100,
2385,2411,2.65315396157591,-5.23961522629976,-0.00427086640513608,-0.000695,0.002628,-0.008691,0.000302,0.093254,324.139803,23.757633,0.999494,0.986915,0.004428,0.251578,-0.000030,-0.000018,0.000001,-0.000018,-0.000030,83.721741,0.000048,
2430,2726,3.56937282132681,1.63953664438348,-0.02712075201174,-0.000520,0.002336,-0.004684,-0.005633,0.092613,318.762775,24.686841,0.999747,0.993666,0.003278,0.252291,-0.000036,-0.000038,0.000006,-0.000031,-0.000043,41.883024,0.000075,
2505,2876,5.17237506690919,4.90990904129291,-0.0172152491207953,-0.000908,0.002227,-0.005193,-0.020562,0.104518,316.498234,25.330290,0.999671,0.993418,0.003364,0.238537,-0.000060,-0.000059,-0.000016,-0.000044,-0.000076,-46.493036,0.000121,
2430,2501,3.61600109138613,-3.27114463697617,-0.0122323691795714,-0.000433,0.002490,-0.004978,-0.000488,0.094825,322.632878,23.924746,0.999361,0.988154,0.004264,0.259123,-0.000030,-0.000034,-0.000008,-0.000024,-0.000040,-38.373791,0.000065,
2445,2531,3.93702783049823,-2.61424660876541,-0.0166262972195454,-0.000248,0.002588,-0.007110,0.016140,0.082450,322.140362,24.087781,0.999276,0.989786,0.004128,0.158344,-0.000030,-0.000020,0.000005,-0.000018,-0.000032,65.892201,0.000051,
2445,2741,3.89302716303307,1.96734011245887,-0.0276497220068563,-0.000590,0.002398,-0.005941,-0.003937,0.096432,318.535353,24.757195,0.999640,0.992093,0.003562,0.239646,-0.000038,-0.000044,0.000006,-0.000034,-0.000048,30.937465,0.000082,
2415,2696,3.24811628835317,0.986080897944888,-0.032210515079953,-0.000833,0.002674,-0.006539,-0.013196,0.117542,319.190431,24.616058,0.999557,0.991218,0.003827,0.250431,-0.000032,-0.000015,0.000006,-0.000013,-0.000034,71.454601,0.000049,
2505,2891,5.16940539193983,5.23688984931005,-0.0174028013503289,-0.000805,0.002546,-0.006282,-0.011496,0.114552,316.254831,25.425080,0.999583,0.991153,0.003844,0.214287,-0.000058,-0.000052,-0.000023,-0.000032,-0.000078,-48.397637,0.000113,
2385,2651,2.60435946444404,0.00268476157148712,-0.0242892383472508,-0.000713,0.002303,-0.006354,-0.009020,0.085775,319.980863,24.479735,0.999335,0.988099,0.004252,0.228932,-0.000029,-0.000009,0.000007,-0.000007,-0.000031,72.256780,0.000041,
2415,2471,3.29550985454417,-3.92738922998267,-0.00703506263869258,-0.000497,0.002871,-0.008146,0.008142,0.119116,323.160830,23.838758,0.999260,0.988082,0.004445,0.303163,-0.000024,-0.000042,-0.000005,-0.000023,-0.000043,-13.214181,0.000067,
2460,2786,4.2103317629646,2.94909738911095,-0.0300771980705576,-0.000625,0.002539,-0.006277,-0.004001,0.102039,317.794226,24.960724,0.999398,0.989432,0.003955,0.209095,-0.000031,-0.000064,0.000003,-0.000031,-0.000064,6.014058,0.000097,
2430,2741,3.56604613253378,1.96715697057333,-0.0304954099044608,-0.000788,0.002658,-0.007604,-0.007025,0.098168,318.482965,24.773676,0.999627,0.991731,0.003605,0.220784,-0.000039,-0.000040,0.000006,-0.000034,-0.000045,40.399624,0.000079,
2400,2681,2.92428286498728,0.658439026856819,-0.0313516148586359,-0.001017,0.002622,-0.006423,-0.022325,0.117103,319.421395,24.574146,0.999428,0.989859,0.004048,0.248662,-0.000027,-0.000011,0.000008,-0.000007,-0.000030,66.689815,0.000040,
2445,2756,3.88924885247225,2.29483124471879,-0.0391975105777647,-0.000553,0.002521,-0.008069,0.005712,0.094334,318.198284,24.778770,0.999566,0.990970,0.003789,0.268588,-0.000036,-0.000057,0.000003,-0.000035,-0.000058,8.985388,0.000094,
2415,2711,3.24545608626704,1.31198350907228,-0.0233560070332715,-0.000864,0.002246,-0.002203,-0.030621,0.121658,318.997816,24.638395,0.999628,0.991950,0.003677,0.279876,-0.000037,-0.000024,0.000005,-0.000022,-0.000039,69.845487,0.000062,
2460,2801,4.20697383801093,3.2763128989555,-0.0365674710332655,-0.000344,0.002395,-0.005902,0.007403,0.086679,317.501074,25.026468,0.999428,0.989490,0.003985,0.182067,-0.000028,-0.000060,-0.000002,-0.000028,-0.000060,-3.440146,0.000090,
2445,2771,3.88601035519828,2.62170840569683,-0.0378350182116378,-0.000610,0.002385,-0.005050,-0.008131,0.116742,317.945664,24.829130,0.999465,0.990549,0.004008,0.292779,-0.000033,-0.000058,-0.000001,-0.000033,-0.000058,-2.107498,0.000092,
